
     Program PWSCF v.7.2 starts on 24Sep2025 at 23:46:42 

     This program is part of the open-source Quantum ESPRESSO suite
     for quantum simulation of materials; please cite
         "P. Giannozzi et al., J. Phys.:Condens. Matter 21 395502 (2009);
         "P. Giannozzi et al., J. Phys.:Condens. Matter 29 465901 (2017);
         "P. Giannozzi et al., J. Chem. Phys. 152 154105 (2020);
          URL http://www.quantum-espresso.org", 
     in publications or presentations arising from this work. More details at
     http://www.quantum-espresso.org/quote

     Parallel version (MPI), running on    16 processors

     MPI processes distributed on     1 nodes
     111591 MiB available memory on the printing compute node when the environment starts

     Reading input from /home/jvc/QEspresso7.2/ZnO_database/scripts/random_1x1x2.in/ZnO-3.60-1.74-112-0.04-1.in
Warning: card &CELL ignored
Warning: card / ignored
Warning: card &FCP ignored
Warning: card / ignored
Warning: card &RISM ignored
Warning: card / ignored

     Current dimensions of program PWSCF are:
     Max number of different atomic species (ntypx) = 10
     Max number of k-points (npk) =  40000
     Max angular momentum in pseudopotentials (lmaxx) =  4
     file Zn.upf: wavefunction(s)  3D renormalized

     K-points division:     npool     =       4
     R & G space division:  proc/nbgrp/npool/nimage =       4
     Subspace diagonalization in iterative solution of the eigenvalue problem:
     a serial algorithm will be used


     Parallelization info
     --------------------
     sticks:   dense  smooth     PW     G-vecs:    dense   smooth      PW
     Min         318     161     47                32062    11352    1842
     Max         326     163     56                32064    11357    1845
     Sum        1285     649    199               128251    45419    7373

     Using Slab Decomposition



     bravais-lattice index     =            0
     lattice parameter (alat)  =       6.7967  a.u.
     unit-cell volume          =     948.1699 (a.u.)^3
     number of atoms/cell      =            8
     number of atomic types    =            2
     number of electrons       =        72.00
     number of Kohn-Sham states=           36
     kinetic-energy cutoff     =      50.0000  Ry
     charge density cutoff     =     400.0000  Ry
     scf convergence threshold =      1.0E-08
     mixing beta               =       0.3000
     number of iterations used =            8  plain     mixing
     Exchange-correlation= PBE
                           (   1   4   3   4   0   0   0)

     celldm(1)=   6.796739  celldm(2)=   0.000000  celldm(3)=   0.000000
     celldm(4)=   0.000000  celldm(5)=   0.000000  celldm(6)=   0.000000

     crystal axes: (cart. coord. in units of alat)
               a(1) = (   1.000000   0.000000   0.000000 )  
               a(2) = (  -0.500000   0.866025   0.000000 )  
               a(3) = (   0.000000   0.000000   3.487014 )  

     reciprocal axes: (cart. coord. in units 2 pi/alat)
               b(1) = (  1.000000  0.577350 -0.000000 )  
               b(2) = (  0.000000  1.154701  0.000000 )  
               b(3) = (  0.000000 -0.000000  0.286778 )  


     PseudoPot. # 1 for Zn read from file:
     /home/jvc/QEspresso7.2/ZnO_database/pseudos/Zn.upf
     MD5 check sum: 7f56cabf9682ed8c977c2f7d0c5985c5
     Pseudo is Ultrasoft + core correction, Zval = 12.0
     Generated using &quot;atomic&quot; code by A. Dal Corso  v.6.2.2
     Using radial grid of 1201 points,  6 beta functions with: 
                l(1) =   0
                l(2) =   0
                l(3) =   1
                l(4) =   1
                l(5) =   2
                l(6) =   2
     Q(r) pseudized with 0 coefficients 


     PseudoPot. # 2 for O  read from file:
     /home/jvc/QEspresso7.2/ZnO_database/pseudos/O.upf
     MD5 check sum: 91400c9766925bcf19f520983a725ff0
     Pseudo is Ultrasoft + core correction, Zval =  6.0
     Generated using &quot;atomic&quot; code by A. Dal Corso  v.6.3MaX
     Using radial grid of 1095 points,  4 beta functions with: 
                l(1) =   0
                l(2) =   0
                l(3) =   1
                l(4) =   1
     Q(r) pseudized with 0 coefficients 


     atomic species   valence    mass     pseudopotential
        Zn            12.00    65.38000     Zn( 1.00)
        O              6.00    15.99900     O ( 1.00)

     No symmetry found


                                    s                        frac. trans.

      isym =  1     identity                                     

 cryst.   s( 1) = (     1          0          0      )
                  (     0          1          0      )
                  (     0          0          1      )

 cart.    s( 1) = (  1.0000000  0.0000000  0.0000000 )
                  (  0.0000000  1.0000000  0.0000000 )
                  (  0.0000000  0.0000000  1.0000000 )


   Cartesian axes

     site n.     atom                  positions (alat units)
         1           Zn  tau(   1) = (   0.5317666   0.2698521   0.8699155  )
         2           Zn  tau(   2) = (  -0.0101257   0.5841981   0.0017016  )
         3           O   tau(   3) = (   0.5000047   0.3047723   1.5302715  )
         4           O   tau(   4) = (  -0.0062385   0.5813232   0.6717822  )
         5           Zn  tau(   5) = (   0.5019995   0.2870016   2.6047856  )
         6           Zn  tau(   6) = (   0.0075559   0.5629571   1.7568439  )
         7           O   tau(   7) = (   0.5048215   0.2743716   3.2633933  )
         8           O   tau(   8) = (  -0.0128213   0.5685232   2.4041946  )

   Crystallographic axes

     site n.     atom                  positions (cryst. coord.)
         1           Zn  tau(   1) = (  0.6875657  0.3115983  0.2494729  )
         2           Zn  tau(   2) = (  0.3271613  0.6745739  0.0004880  )
         3           O   tau(   3) = (  0.6759650  0.3519207  0.4388487  )
         4           O   tau(   4) = (  0.3293886  0.6712543  0.1926526  )
         5           Zn  tau(   5) = (  0.6677000  0.3314009  0.7469960  )
         6           Zn  tau(   6) = (  0.3325793  0.6500468  0.5038247  )
         7           O   tau(   7) = (  0.6632300  0.3168171  0.9358704  )
         8           O   tau(   8) = (  0.3154158  0.6564741  0.6894709  )

     number of k points=   112
                       cart. coord. in units 2pi/alat
        k(    1) = (   0.0000000   0.0000000   0.0000000), wk =   0.0092593
        k(    2) = (   0.0000000   0.0000000   0.0477964), wk =   0.0185185
        k(    3) = (   0.0000000   0.0000000   0.0955928), wk =   0.0185185
        k(    4) = (   0.0000000   0.0000000  -0.1433892), wk =   0.0092593
        k(    5) = (   0.0000000   0.1924501   0.0000000), wk =   0.0185185
        k(    6) = (   0.0000000   0.1924501   0.0477964), wk =   0.0185185
        k(    7) = (   0.0000000   0.1924501   0.0955928), wk =   0.0185185
        k(    8) = (   0.0000000   0.1924501  -0.1433892), wk =   0.0185185
        k(    9) = (   0.0000000   0.3849002   0.0000000), wk =   0.0185185
        k(   10) = (   0.0000000   0.3849002   0.0477964), wk =   0.0185185
        k(   11) = (   0.0000000   0.3849002   0.0955928), wk =   0.0185185
        k(   12) = (   0.0000000   0.3849002  -0.1433892), wk =   0.0185185
        k(   13) = (   0.0000000  -0.5773503   0.0000000), wk =   0.0092593
        k(   14) = (   0.0000000  -0.5773503   0.0477964), wk =   0.0185185
        k(   15) = (   0.0000000  -0.5773503   0.0955928), wk =   0.0185185
        k(   16) = (   0.0000000  -0.5773503  -0.1433892), wk =   0.0092593
        k(   17) = (   0.1666667   0.2886751   0.0000000), wk =   0.0185185
        k(   18) = (   0.1666667   0.2886751   0.0477964), wk =   0.0185185
        k(   19) = (   0.1666667   0.2886751   0.0955928), wk =   0.0185185
        k(   20) = (   0.1666667   0.2886751  -0.1433892), wk =   0.0185185
        k(   21) = (   0.1666667   0.4811252   0.0000000), wk =   0.0185185
        k(   22) = (   0.1666667   0.4811252   0.0477964), wk =   0.0185185
        k(   23) = (   0.1666667   0.4811252   0.0955928), wk =   0.0185185
        k(   24) = (   0.1666667   0.4811252  -0.1433892), wk =   0.0185185
        k(   25) = (   0.3333333   0.5773503   0.0000000), wk =   0.0185185
        k(   26) = (   0.3333333   0.5773503   0.0477964), wk =   0.0185185
        k(   27) = (   0.3333333   0.5773503   0.0955928), wk =   0.0185185
        k(   28) = (   0.3333333   0.5773503  -0.1433892), wk =   0.0185185
        k(   29) = (  -0.1666667   0.0962250   0.0000000), wk =   0.0185185
        k(   30) = (   0.1666667   0.0962250   0.0000000), wk =   0.0185185
        k(   31) = (   0.0000000  -0.1924501   0.0477964), wk =   0.0185185
        k(   32) = (  -0.1666667   0.0962250   0.0477964), wk =   0.0185185
        k(   33) = (   0.1666667   0.0962250   0.0477964), wk =   0.0185185
        k(   34) = (  -0.1666667  -0.0962250   0.0477964), wk =   0.0185185
        k(   35) = (   0.1666667  -0.0962250   0.0477964), wk =   0.0185185
        k(   36) = (   0.0000000  -0.1924501   0.0955928), wk =   0.0185185
        k(   37) = (  -0.1666667   0.0962250   0.0955928), wk =   0.0185185
        k(   38) = (   0.1666667   0.0962250   0.0955928), wk =   0.0185185
        k(   39) = (  -0.1666667  -0.0962250   0.0955928), wk =   0.0185185
        k(   40) = (   0.1666667  -0.0962250   0.0955928), wk =   0.0185185
        k(   41) = (  -0.1666667   0.0962250  -0.1433892), wk =   0.0185185
        k(   42) = (   0.1666667   0.0962250  -0.1433892), wk =   0.0185185
        k(   43) = (  -0.3333333   0.1924501   0.0000000), wk =   0.0185185
        k(   44) = (   0.3333333   0.1924501   0.0000000), wk =   0.0185185
        k(   45) = (   0.0000000  -0.3849002   0.0477964), wk =   0.0185185
        k(   46) = (  -0.3333333   0.1924501   0.0477964), wk =   0.0185185
        k(   47) = (   0.3333333   0.1924501   0.0477964), wk =   0.0185185
        k(   48) = (  -0.3333333  -0.1924501   0.0477964), wk =   0.0185185
        k(   49) = (   0.3333333  -0.1924501   0.0477964), wk =   0.0185185
        k(   50) = (   0.0000000  -0.3849002   0.0955928), wk =   0.0185185
        k(   51) = (  -0.3333333   0.1924501   0.0955928), wk =   0.0185185
        k(   52) = (   0.3333333   0.1924501   0.0955928), wk =   0.0185185
        k(   53) = (  -0.3333333  -0.1924501   0.0955928), wk =   0.0185185
        k(   54) = (   0.3333333  -0.1924501   0.0955928), wk =   0.0185185
        k(   55) = (  -0.3333333   0.1924501  -0.1433892), wk =   0.0185185
        k(   56) = (   0.3333333   0.1924501  -0.1433892), wk =   0.0185185
        k(   57) = (   0.5000000  -0.2886751   0.0000000), wk =   0.0092593
        k(   58) = (  -0.5000000  -0.2886751   0.0000000), wk =   0.0092593
        k(   59) = (   0.5000000  -0.2886751   0.0477964), wk =   0.0185185
        k(   60) = (  -0.5000000  -0.2886751   0.0477964), wk =   0.0185185
        k(   61) = (   0.5000000  -0.2886751   0.0955928), wk =   0.0185185
        k(   62) = (  -0.5000000  -0.2886751   0.0955928), wk =   0.0185185
        k(   63) = (   0.5000000  -0.2886751  -0.1433892), wk =   0.0092593
        k(   64) = (  -0.5000000  -0.2886751  -0.1433892), wk =   0.0092593
        k(   65) = (  -0.1666667   0.2886751   0.0000000), wk =   0.0185185
        k(   66) = (   0.3333333   0.0000000   0.0000000), wk =   0.0185185
        k(   67) = (  -0.1666667  -0.2886751   0.0477964), wk =   0.0185185
        k(   68) = (  -0.1666667   0.2886751  -0.0477964), wk =   0.0185185
        k(   69) = (   0.1666667  -0.2886751  -0.0477964), wk =   0.0185185
        k(   70) = (   0.3333333   0.0000000   0.0477964), wk =   0.0185185
        k(   71) = (  -0.3333333  -0.0000000   0.0477964), wk =   0.0185185
        k(   72) = (  -0.1666667  -0.2886751   0.0955928), wk =   0.0185185
        k(   73) = (  -0.1666667   0.2886751  -0.0955928), wk =   0.0185185
        k(   74) = (   0.1666667  -0.2886751  -0.0955928), wk =   0.0185185
        k(   75) = (   0.3333333   0.0000000   0.0955928), wk =   0.0185185
        k(   76) = (  -0.3333333  -0.0000000   0.0955928), wk =   0.0185185
        k(   77) = (  -0.1666667   0.2886751   0.1433892), wk =   0.0185185
        k(   78) = (   0.3333333   0.0000000  -0.1433892), wk =   0.0185185
        k(   79) = (  -0.1666667   0.4811252   0.0000000), wk =   0.0185185
        k(   80) = (  -0.3333333   0.3849002   0.0000000), wk =   0.0185185
        k(   81) = (   0.5000000   0.0962250   0.0000000), wk =   0.0185185
        k(   82) = (  -0.3333333  -0.3849002   0.0000000), wk =   0.0185185
        k(   83) = (   0.5000000  -0.0962250   0.0000000), wk =   0.0185185
        k(   84) = (  -0.1666667  -0.4811252   0.0477964), wk =   0.0185185
        k(   85) = (  -0.1666667   0.4811252  -0.0477964), wk =   0.0185185
        k(   86) = (   0.1666667  -0.4811252  -0.0477964), wk =   0.0185185
        k(   87) = (  -0.3333333   0.3849002   0.0477964), wk =   0.0185185
        k(   88) = (   0.5000000   0.0962250   0.0477964), wk =   0.0185185
        k(   89) = (  -0.5000000  -0.0962250   0.0477964), wk =   0.0185185
        k(   90) = (   0.3333333  -0.3849002   0.0477964), wk =   0.0185185
        k(   91) = (  -0.3333333  -0.3849002  -0.0477964), wk =   0.0185185
        k(   92) = (   0.5000000  -0.0962250  -0.0477964), wk =   0.0185185
        k(   93) = (  -0.5000000   0.0962250  -0.0477964), wk =   0.0185185
        k(   94) = (   0.3333333   0.3849002  -0.0477964), wk =   0.0185185
        k(   95) = (  -0.1666667  -0.4811252   0.0955928), wk =   0.0185185
        k(   96) = (  -0.1666667   0.4811252  -0.0955928), wk =   0.0185185
        k(   97) = (   0.1666667  -0.4811252  -0.0955928), wk =   0.0185185
        k(   98) = (  -0.3333333   0.3849002   0.0955928), wk =   0.0185185
        k(   99) = (   0.5000000   0.0962250   0.0955928), wk =   0.0185185
        k(  100) = (  -0.5000000  -0.0962250   0.0955928), wk =   0.0185185
        k(  101) = (   0.3333333  -0.3849002   0.0955928), wk =   0.0185185
        k(  102) = (  -0.3333333  -0.3849002  -0.0955928), wk =   0.0185185
        k(  103) = (   0.5000000  -0.0962250  -0.0955928), wk =   0.0185185
        k(  104) = (  -0.5000000   0.0962250  -0.0955928), wk =   0.0185185
        k(  105) = (   0.3333333   0.3849002  -0.0955928), wk =   0.0185185
        k(  106) = (  -0.1666667   0.4811252   0.1433892), wk =   0.0185185
        k(  107) = (  -0.3333333   0.3849002  -0.1433892), wk =   0.0185185
        k(  108) = (   0.5000000   0.0962250  -0.1433892), wk =   0.0185185
        k(  109) = (  -0.3333333  -0.3849002   0.1433892), wk =   0.0185185
        k(  110) = (   0.5000000  -0.0962250   0.1433892), wk =   0.0185185
        k(  111) = (  -0.3333333  -0.5773503   0.0477964), wk =   0.0185185
        k(  112) = (  -0.3333333  -0.5773503   0.0955928), wk =   0.0185185

                       cryst. coord.
        k(    1) = (   0.0000000   0.0000000   0.0000000), wk =   0.0092593
        k(    2) = (   0.0000000   0.0000000   0.1666667), wk =   0.0185185
        k(    3) = (   0.0000000   0.0000000   0.3333333), wk =   0.0185185
        k(    4) = (   0.0000000   0.0000000  -0.5000000), wk =   0.0092593
        k(    5) = (   0.0000000   0.1666667   0.0000000), wk =   0.0185185
        k(    6) = (   0.0000000   0.1666667   0.1666667), wk =   0.0185185
        k(    7) = (   0.0000000   0.1666667   0.3333333), wk =   0.0185185
        k(    8) = (   0.0000000   0.1666667  -0.5000000), wk =   0.0185185
        k(    9) = (   0.0000000   0.3333333   0.0000000), wk =   0.0185185
        k(   10) = (   0.0000000   0.3333333   0.1666667), wk =   0.0185185
        k(   11) = (   0.0000000   0.3333333   0.3333333), wk =   0.0185185
        k(   12) = (   0.0000000   0.3333333  -0.5000000), wk =   0.0185185
        k(   13) = (   0.0000000  -0.5000000   0.0000000), wk =   0.0092593
        k(   14) = (   0.0000000  -0.5000000   0.1666667), wk =   0.0185185
        k(   15) = (   0.0000000  -0.5000000   0.3333333), wk =   0.0185185
        k(   16) = (   0.0000000  -0.5000000  -0.5000000), wk =   0.0092593
        k(   17) = (   0.1666667   0.1666667   0.0000000), wk =   0.0185185
        k(   18) = (   0.1666667   0.1666667   0.1666667), wk =   0.0185185
        k(   19) = (   0.1666667   0.1666667   0.3333333), wk =   0.0185185
        k(   20) = (   0.1666667   0.1666667  -0.5000000), wk =   0.0185185
        k(   21) = (   0.1666667   0.3333333   0.0000000), wk =   0.0185185
        k(   22) = (   0.1666667   0.3333333   0.1666667), wk =   0.0185185
        k(   23) = (   0.1666667   0.3333333   0.3333333), wk =   0.0185185
        k(   24) = (   0.1666667   0.3333333  -0.5000000), wk =   0.0185185
        k(   25) = (   0.3333333   0.3333333   0.0000000), wk =   0.0185185
        k(   26) = (   0.3333333   0.3333333   0.1666667), wk =   0.0185185
        k(   27) = (   0.3333333   0.3333333   0.3333333), wk =   0.0185185
        k(   28) = (   0.3333333   0.3333333  -0.5000000), wk =   0.0185185
        k(   29) = (  -0.1666667   0.1666667   0.0000000), wk =   0.0185185
        k(   30) = (   0.1666667   0.0000000   0.0000000), wk =   0.0185185
        k(   31) = (   0.0000000  -0.1666667   0.1666667), wk =   0.0185185
        k(   32) = (  -0.1666667   0.1666667   0.1666667), wk =   0.0185185
        k(   33) = (   0.1666667   0.0000000   0.1666667), wk =   0.0185185
        k(   34) = (  -0.1666667   0.0000000   0.1666667), wk =   0.0185185
        k(   35) = (   0.1666667  -0.1666667   0.1666667), wk =   0.0185185
        k(   36) = (   0.0000000  -0.1666667   0.3333333), wk =   0.0185185
        k(   37) = (  -0.1666667   0.1666667   0.3333333), wk =   0.0185185
        k(   38) = (   0.1666667   0.0000000   0.3333333), wk =   0.0185185
        k(   39) = (  -0.1666667   0.0000000   0.3333333), wk =   0.0185185
        k(   40) = (   0.1666667  -0.1666667   0.3333333), wk =   0.0185185
        k(   41) = (  -0.1666667   0.1666667  -0.5000000), wk =   0.0185185
        k(   42) = (   0.1666667   0.0000000  -0.5000000), wk =   0.0185185
        k(   43) = (  -0.3333333   0.3333333   0.0000000), wk =   0.0185185
        k(   44) = (   0.3333333   0.0000000   0.0000000), wk =   0.0185185
        k(   45) = (   0.0000000  -0.3333333   0.1666667), wk =   0.0185185
        k(   46) = (  -0.3333333   0.3333333   0.1666667), wk =   0.0185185
        k(   47) = (   0.3333333   0.0000000   0.1666667), wk =   0.0185185
        k(   48) = (  -0.3333333   0.0000000   0.1666667), wk =   0.0185185
        k(   49) = (   0.3333333  -0.3333333   0.1666667), wk =   0.0185185
        k(   50) = (   0.0000000  -0.3333333   0.3333333), wk =   0.0185185
        k(   51) = (  -0.3333333   0.3333333   0.3333333), wk =   0.0185185
        k(   52) = (   0.3333333   0.0000000   0.3333333), wk =   0.0185185
        k(   53) = (  -0.3333333   0.0000000   0.3333333), wk =   0.0185185
        k(   54) = (   0.3333333  -0.3333333   0.3333333), wk =   0.0185185
        k(   55) = (  -0.3333333   0.3333333  -0.5000000), wk =   0.0185185
        k(   56) = (   0.3333333   0.0000000  -0.5000000), wk =   0.0185185
        k(   57) = (   0.5000000  -0.5000000   0.0000000), wk =   0.0092593
        k(   58) = (  -0.5000000   0.0000000   0.0000000), wk =   0.0092593
        k(   59) = (   0.5000000  -0.5000000   0.1666667), wk =   0.0185185
        k(   60) = (  -0.5000000   0.0000000   0.1666667), wk =   0.0185185
        k(   61) = (   0.5000000  -0.5000000   0.3333333), wk =   0.0185185
        k(   62) = (  -0.5000000   0.0000000   0.3333333), wk =   0.0185185
        k(   63) = (   0.5000000  -0.5000000  -0.5000000), wk =   0.0092593
        k(   64) = (  -0.5000000   0.0000000  -0.5000000), wk =   0.0092593
        k(   65) = (  -0.1666667   0.3333333   0.0000000), wk =   0.0185185
        k(   66) = (   0.3333333  -0.1666667   0.0000000), wk =   0.0185185
        k(   67) = (  -0.1666667  -0.1666667   0.1666667), wk =   0.0185185
        k(   68) = (  -0.1666667   0.3333333  -0.1666667), wk =   0.0185185
        k(   69) = (   0.1666667  -0.3333333  -0.1666667), wk =   0.0185185
        k(   70) = (   0.3333333  -0.1666667   0.1666667), wk =   0.0185185
        k(   71) = (  -0.3333333   0.1666667   0.1666667), wk =   0.0185185
        k(   72) = (  -0.1666667  -0.1666667   0.3333333), wk =   0.0185185
        k(   73) = (  -0.1666667   0.3333333  -0.3333333), wk =   0.0185185
        k(   74) = (   0.1666667  -0.3333333  -0.3333333), wk =   0.0185185
        k(   75) = (   0.3333333  -0.1666667   0.3333333), wk =   0.0185185
        k(   76) = (  -0.3333333   0.1666667   0.3333333), wk =   0.0185185
        k(   77) = (  -0.1666667   0.3333333   0.5000000), wk =   0.0185185
        k(   78) = (   0.3333333  -0.1666667  -0.5000000), wk =   0.0185185
        k(   79) = (  -0.1666667   0.5000000   0.0000000), wk =   0.0185185
        k(   80) = (  -0.3333333   0.5000000   0.0000000), wk =   0.0185185
        k(   81) = (   0.5000000  -0.1666667   0.0000000), wk =   0.0185185
        k(   82) = (  -0.3333333  -0.1666667   0.0000000), wk =   0.0185185
        k(   83) = (   0.5000000  -0.3333333   0.0000000), wk =   0.0185185
        k(   84) = (  -0.1666667  -0.3333333   0.1666667), wk =   0.0185185
        k(   85) = (  -0.1666667   0.5000000  -0.1666667), wk =   0.0185185
        k(   86) = (   0.1666667  -0.5000000  -0.1666667), wk =   0.0185185
        k(   87) = (  -0.3333333   0.5000000   0.1666667), wk =   0.0185185
        k(   88) = (   0.5000000  -0.1666667   0.1666667), wk =   0.0185185
        k(   89) = (  -0.5000000   0.1666667   0.1666667), wk =   0.0185185
        k(   90) = (   0.3333333  -0.5000000   0.1666667), wk =   0.0185185
        k(   91) = (  -0.3333333  -0.1666667  -0.1666667), wk =   0.0185185
        k(   92) = (   0.5000000  -0.3333333  -0.1666667), wk =   0.0185185
        k(   93) = (  -0.5000000   0.3333333  -0.1666667), wk =   0.0185185
        k(   94) = (   0.3333333   0.1666667  -0.1666667), wk =   0.0185185
        k(   95) = (  -0.1666667  -0.3333333   0.3333333), wk =   0.0185185
        k(   96) = (  -0.1666667   0.5000000  -0.3333333), wk =   0.0185185
        k(   97) = (   0.1666667  -0.5000000  -0.3333333), wk =   0.0185185
        k(   98) = (  -0.3333333   0.5000000   0.3333333), wk =   0.0185185
        k(   99) = (   0.5000000  -0.1666667   0.3333333), wk =   0.0185185
        k(  100) = (  -0.5000000   0.1666667   0.3333333), wk =   0.0185185
        k(  101) = (   0.3333333  -0.5000000   0.3333333), wk =   0.0185185
        k(  102) = (  -0.3333333  -0.1666667  -0.3333333), wk =   0.0185185
        k(  103) = (   0.5000000  -0.3333333  -0.3333333), wk =   0.0185185
        k(  104) = (  -0.5000000   0.3333333  -0.3333333), wk =   0.0185185
        k(  105) = (   0.3333333   0.1666667  -0.3333333), wk =   0.0185185
        k(  106) = (  -0.1666667   0.5000000   0.5000000), wk =   0.0185185
        k(  107) = (  -0.3333333   0.5000000  -0.5000000), wk =   0.0185185
        k(  108) = (   0.5000000  -0.1666667  -0.5000000), wk =   0.0185185
        k(  109) = (  -0.3333333  -0.1666667   0.5000000), wk =   0.0185185
        k(  110) = (   0.5000000  -0.3333333   0.5000000), wk =   0.0185185
        k(  111) = (  -0.3333333  -0.3333333   0.1666667), wk =   0.0185185
        k(  112) = (  -0.3333333  -0.3333333   0.3333333), wk =   0.0185185

     Dense  grid:   128251 G-vectors     FFT dimensions: (  45,  45, 160)

     Smooth grid:    45419 G-vectors     FFT dimensions: (  32,  32, 108)

     Dynamical RAM for                 wfc:       0.78 MB

     Dynamical RAM for     wfc (w. buffer):      22.54 MB

     Dynamical RAM for           str. fact:       0.98 MB

     Dynamical RAM for           local pot:       0.00 MB

     Dynamical RAM for          nlocal pot:       2.25 MB

     Dynamical RAM for                qrad:       3.21 MB

     Dynamical RAM for          rho,v,vnew:       3.32 MB

     Dynamical RAM for               rhoin:       1.11 MB

     Dynamical RAM for            rho*nmix:       7.83 MB

     Dynamical RAM for           G-vectors:       1.92 MB

     Dynamical RAM for          h,s,v(r/c):       0.24 MB

     Dynamical RAM for          <psi|beta>:       0.06 MB

     Dynamical RAM for                 psi:       1.55 MB

     Dynamical RAM for                hpsi:       1.55 MB

     Dynamical RAM for                spsi:       1.55 MB

     Dynamical RAM for      wfcinit/wfcrot:       2.31 MB

     Dynamical RAM for           addusdens:      23.61 MB

     Dynamical RAM for          addusforce:      24.23 MB

     Estimated static dynamical RAM per process >      39.88 MB

     Estimated max dynamical RAM per process >      71.95 MB

     Estimated total dynamical RAM >       1.03 GB

     Check: negative core charge=   -0.000003

     Initial potential from superposition of free atoms

     starting charge      71.9851, renormalised to      72.0000
     Starting wfcs are   52 randomized atomic wfcs

     total cpu time spent up to now is        5.3 secs

     Self-consistent Calculation

     iteration #  1     ecut=    50.00 Ry     beta= 0.30
     Davidson diagonalization with overlap

---- Real-time Memory Report at c_bands before calling an iterative solver
            74 MiB given to the printing process from OS
             0 MiB allocation reported by mallinfo(arena+hblkhd)
        110716 MiB available memory on the node where the printing process lives
------------------
     ethr =  1.00E-02,  avg # of iterations =  1.0

     total cpu time spent up to now is       11.0 secs

     total energy              =    -722.53110244 Ry
     estimated scf accuracy    <       1.86357882 Ry

     iteration #  2     ecut=    50.00 Ry     beta= 0.30
     Davidson diagonalization with overlap

---- Real-time Memory Report at c_bands before calling an iterative solver
            98 MiB given to the printing process from OS
             0 MiB allocation reported by mallinfo(arena+hblkhd)
        110337 MiB available memory on the node where the printing process lives
------------------
     ethr =  2.59E-03,  avg # of iterations =  2.0

     total cpu time spent up to now is       18.0 secs

     total energy              =    -722.79144462 Ry
     estimated scf accuracy    <       0.21844328 Ry

     iteration #  3     ecut=    50.00 Ry     beta= 0.30
     Davidson diagonalization with overlap

---- Real-time Memory Report at c_bands before calling an iterative solver
            99 MiB given to the printing process from OS
             0 MiB allocation reported by mallinfo(arena+hblkhd)
        110334 MiB available memory on the node where the printing process lives
------------------
     ethr =  3.03E-04,  avg # of iterations =  6.4

     total cpu time spent up to now is       29.3 secs

     total energy              =    -722.79499613 Ry
     estimated scf accuracy    <       0.54639741 Ry

     iteration #  4     ecut=    50.00 Ry     beta= 0.30
     Davidson diagonalization with overlap

---- Real-time Memory Report at c_bands before calling an iterative solver
            99 MiB given to the printing process from OS
             0 MiB allocation reported by mallinfo(arena+hblkhd)
        110359 MiB available memory on the node where the printing process lives
------------------
     ethr =  3.03E-04,  avg # of iterations =  6.1

     total cpu time spent up to now is       41.5 secs

     total energy              =    -723.11256166 Ry
     estimated scf accuracy    <       0.25607618 Ry

     iteration #  5     ecut=    50.00 Ry     beta= 0.30
     Davidson diagonalization with overlap

---- Real-time Memory Report at c_bands before calling an iterative solver
            99 MiB given to the printing process from OS
             0 MiB allocation reported by mallinfo(arena+hblkhd)
        110378 MiB available memory on the node where the printing process lives
------------------
     ethr =  3.03E-04,  avg # of iterations =  2.3

     total cpu time spent up to now is       48.2 secs

     total energy              =    -722.96476276 Ry
     estimated scf accuracy    <       0.44411453 Ry

     iteration #  6     ecut=    50.00 Ry     beta= 0.30
     Davidson diagonalization with overlap

---- Real-time Memory Report at c_bands before calling an iterative solver
           100 MiB given to the printing process from OS
             0 MiB allocation reported by mallinfo(arena+hblkhd)
        110387 MiB available memory on the node where the printing process lives
------------------
     ethr =  3.03E-04,  avg # of iterations =  2.1

     total cpu time spent up to now is       54.9 secs

     total energy              =    -722.90838586 Ry
     estimated scf accuracy    <       0.17315539 Ry

     iteration #  7     ecut=    50.00 Ry     beta= 0.30
     Davidson diagonalization with overlap

---- Real-time Memory Report at c_bands before calling an iterative solver
           100 MiB given to the printing process from OS
             0 MiB allocation reported by mallinfo(arena+hblkhd)
        110387 MiB available memory on the node where the printing process lives
------------------
     ethr =  2.40E-04,  avg # of iterations =  5.9

     total cpu time spent up to now is       64.9 secs

     total energy              =    -722.99184044 Ry
     estimated scf accuracy    <       0.04818770 Ry

     iteration #  8     ecut=    50.00 Ry     beta= 0.30
     Davidson diagonalization with overlap

---- Real-time Memory Report at c_bands before calling an iterative solver
           100 MiB given to the printing process from OS
             0 MiB allocation reported by mallinfo(arena+hblkhd)
        110389 MiB available memory on the node where the printing process lives
------------------
     ethr =  6.69E-05,  avg # of iterations =  1.8

     total cpu time spent up to now is       71.1 secs

     total energy              =    -722.99740817 Ry
     estimated scf accuracy    <       0.02628609 Ry

     iteration #  9     ecut=    50.00 Ry     beta= 0.30
     Davidson diagonalization with overlap

---- Real-time Memory Report at c_bands before calling an iterative solver
           101 MiB given to the printing process from OS
             0 MiB allocation reported by mallinfo(arena+hblkhd)
        110387 MiB available memory on the node where the printing process lives
------------------
     ethr =  3.65E-05,  avg # of iterations =  1.3

     total cpu time spent up to now is       77.2 secs

     total energy              =    -722.98970435 Ry
     estimated scf accuracy    <       0.03374647 Ry

     iteration # 10     ecut=    50.00 Ry     beta= 0.30
     Davidson diagonalization with overlap

---- Real-time Memory Report at c_bands before calling an iterative solver
           101 MiB given to the printing process from OS
             0 MiB allocation reported by mallinfo(arena+hblkhd)
        110388 MiB available memory on the node where the printing process lives
------------------
     ethr =  3.65E-05,  avg # of iterations =  1.2

     total cpu time spent up to now is       83.2 secs

     total energy              =    -722.98963661 Ry
     estimated scf accuracy    <       0.01794440 Ry

     iteration # 11     ecut=    50.00 Ry     beta= 0.30
     Davidson diagonalization with overlap

---- Real-time Memory Report at c_bands before calling an iterative solver
           101 MiB given to the printing process from OS
             0 MiB allocation reported by mallinfo(arena+hblkhd)
        111520 MiB available memory on the node where the printing process lives
------------------
     ethr =  2.49E-05,  avg # of iterations =  2.2

     total cpu time spent up to now is       89.9 secs

     total energy              =    -722.98970255 Ry
     estimated scf accuracy    <       0.01047696 Ry

     iteration # 12     ecut=    50.00 Ry     beta= 0.30
     Davidson diagonalization with overlap

---- Real-time Memory Report at c_bands before calling an iterative solver
           101 MiB given to the printing process from OS
             0 MiB allocation reported by mallinfo(arena+hblkhd)
        110640 MiB available memory on the node where the printing process lives
------------------
     ethr =  1.46E-05,  avg # of iterations =  3.7

     total cpu time spent up to now is       97.4 secs

     total energy              =    -722.99046883 Ry
     estimated scf accuracy    <       0.00497206 Ry

     iteration # 13     ecut=    50.00 Ry     beta= 0.30
     Davidson diagonalization with overlap

---- Real-time Memory Report at c_bands before calling an iterative solver
           101 MiB given to the printing process from OS
             0 MiB allocation reported by mallinfo(arena+hblkhd)
        110343 MiB available memory on the node where the printing process lives
------------------
     c_bands:  2 eigenvalues not converged
     ethr =  6.91E-06,  avg # of iterations =  6.0

     total cpu time spent up to now is      106.7 secs

     total energy              =    -722.99217773 Ry
     estimated scf accuracy    <       0.00117108 Ry

     iteration # 14     ecut=    50.00 Ry     beta= 0.30
     Davidson diagonalization with overlap

---- Real-time Memory Report at c_bands before calling an iterative solver
           101 MiB given to the printing process from OS
             0 MiB allocation reported by mallinfo(arena+hblkhd)
        110374 MiB available memory on the node where the printing process lives
------------------
     c_bands:  1 eigenvalues not converged
     ethr =  1.63E-06,  avg # of iterations =  4.4

     total cpu time spent up to now is      115.1 secs

     total energy              =    -722.99210348 Ry
     estimated scf accuracy    <       0.00116186 Ry

     iteration # 15     ecut=    50.00 Ry     beta= 0.30
     Davidson diagonalization with overlap

---- Real-time Memory Report at c_bands before calling an iterative solver
           101 MiB given to the printing process from OS
             0 MiB allocation reported by mallinfo(arena+hblkhd)
        110378 MiB available memory on the node where the printing process lives
------------------
     ethr =  1.61E-06,  avg # of iterations =  4.0

     total cpu time spent up to now is      122.7 secs

     total energy              =    -722.99427702 Ry
     estimated scf accuracy    <       0.00064838 Ry

     iteration # 16     ecut=    50.00 Ry     beta= 0.30
     Davidson diagonalization with overlap

---- Real-time Memory Report at c_bands before calling an iterative solver
           101 MiB given to the printing process from OS
             0 MiB allocation reported by mallinfo(arena+hblkhd)
        110389 MiB available memory on the node where the printing process lives
------------------
     c_bands:  5 eigenvalues not converged
     c_bands:  2 eigenvalues not converged
     c_bands:  2 eigenvalues not converged
     c_bands:  1 eigenvalues not converged
     c_bands:  1 eigenvalues not converged
     ethr =  9.01E-07,  avg # of iterations = 15.3

     total cpu time spent up to now is      149.0 secs

     total energy              =    -722.98776385 Ry
     estimated scf accuracy    <       0.06584289 Ry

     iteration # 17     ecut=    50.00 Ry     beta= 0.30
     Davidson diagonalization with overlap

---- Real-time Memory Report at c_bands before calling an iterative solver
           101 MiB given to the printing process from OS
             0 MiB allocation reported by mallinfo(arena+hblkhd)
        110389 MiB available memory on the node where the printing process lives
------------------
     c_bands:  4 eigenvalues not converged
     c_bands:  1 eigenvalues not converged
     ethr =  9.01E-07,  avg # of iterations = 13.9

     total cpu time spent up to now is      170.7 secs

     total energy              =    -722.99314460 Ry
     estimated scf accuracy    <       0.00582408 Ry

     iteration # 18     ecut=    50.00 Ry     beta= 0.30
     Davidson diagonalization with overlap

---- Real-time Memory Report at c_bands before calling an iterative solver
           101 MiB given to the printing process from OS
             0 MiB allocation reported by mallinfo(arena+hblkhd)
        110387 MiB available memory on the node where the printing process lives
------------------
     ethr =  9.01E-07,  avg # of iterations =  1.6

     total cpu time spent up to now is      176.9 secs

     total energy              =    -722.99353646 Ry
     estimated scf accuracy    <       0.00537254 Ry

     iteration # 19     ecut=    50.00 Ry     beta= 0.30
     Davidson diagonalization with overlap

---- Real-time Memory Report at c_bands before calling an iterative solver
           101 MiB given to the printing process from OS
             0 MiB allocation reported by mallinfo(arena+hblkhd)
        110392 MiB available memory on the node where the printing process lives
------------------
     ethr =  9.01E-07,  avg # of iterations =  1.0

     total cpu time spent up to now is      182.7 secs

     total energy              =    -722.99241951 Ry
     estimated scf accuracy    <       0.00603368 Ry

     iteration # 20     ecut=    50.00 Ry     beta= 0.30
     Davidson diagonalization with overlap

---- Real-time Memory Report at c_bands before calling an iterative solver
           101 MiB given to the printing process from OS
             0 MiB allocation reported by mallinfo(arena+hblkhd)
        110392 MiB available memory on the node where the printing process lives
------------------
     ethr =  9.01E-07,  avg # of iterations =  6.3

     total cpu time spent up to now is      192.2 secs

     total energy              =    -722.99325212 Ry
     estimated scf accuracy    <       0.00232996 Ry

     iteration # 21     ecut=    50.00 Ry     beta= 0.30
     Davidson diagonalization with overlap

---- Real-time Memory Report at c_bands before calling an iterative solver
           101 MiB given to the printing process from OS
             0 MiB allocation reported by mallinfo(arena+hblkhd)
        110394 MiB available memory on the node where the printing process lives
------------------
     ethr =  9.01E-07,  avg # of iterations =  4.8

     total cpu time spent up to now is      200.3 secs

     total energy              =    -722.99334801 Ry
     estimated scf accuracy    <       0.00422926 Ry

     iteration # 22     ecut=    50.00 Ry     beta= 0.30
     Davidson diagonalization with overlap

---- Real-time Memory Report at c_bands before calling an iterative solver
           101 MiB given to the printing process from OS
             0 MiB allocation reported by mallinfo(arena+hblkhd)
        110394 MiB available memory on the node where the printing process lives
------------------
     ethr =  9.01E-07,  avg # of iterations =  4.6

     total cpu time spent up to now is      208.0 secs

     total energy              =    -722.98972004 Ry
     estimated scf accuracy    <       0.00501315 Ry

     iteration # 23     ecut=    50.00 Ry     beta= 0.30
     Davidson diagonalization with overlap

---- Real-time Memory Report at c_bands before calling an iterative solver
           101 MiB given to the printing process from OS
             0 MiB allocation reported by mallinfo(arena+hblkhd)
        110395 MiB available memory on the node where the printing process lives
------------------
     c_bands:  4 eigenvalues not converged
     c_bands:  4 eigenvalues not converged
     c_bands:  1 eigenvalues not converged
     c_bands:  1 eigenvalues not converged
     ethr =  9.01E-07,  avg # of iterations = 14.5

     total cpu time spent up to now is      231.5 secs

     total energy              =    -722.99443513 Ry
     estimated scf accuracy    <       0.02187681 Ry

     iteration # 24     ecut=    50.00 Ry     beta= 0.30
     Davidson diagonalization with overlap

---- Real-time Memory Report at c_bands before calling an iterative solver
           101 MiB given to the printing process from OS
             0 MiB allocation reported by mallinfo(arena+hblkhd)
        110395 MiB available memory on the node where the printing process lives
------------------
     c_bands:  1 eigenvalues not converged
     ethr =  9.01E-07,  avg # of iterations =  5.8

     total cpu time spent up to now is      241.0 secs

     total energy              =    -722.99332007 Ry
     estimated scf accuracy    <       0.01377827 Ry

     iteration # 25     ecut=    50.00 Ry     beta= 0.30
     Davidson diagonalization with overlap

---- Real-time Memory Report at c_bands before calling an iterative solver
           101 MiB given to the printing process from OS
             0 MiB allocation reported by mallinfo(arena+hblkhd)
        110397 MiB available memory on the node where the printing process lives
------------------
     ethr =  9.01E-07,  avg # of iterations =  6.2

     total cpu time spent up to now is      249.9 secs

     total energy              =    -722.99021368 Ry
     estimated scf accuracy    <       0.00885992 Ry

     iteration # 26     ecut=    50.00 Ry     beta= 0.30
     Davidson diagonalization with overlap

---- Real-time Memory Report at c_bands before calling an iterative solver
           101 MiB given to the printing process from OS
             0 MiB allocation reported by mallinfo(arena+hblkhd)
        110397 MiB available memory on the node where the printing process lives
------------------
     c_bands:  3 eigenvalues not converged
     c_bands:  2 eigenvalues not converged
     ethr =  9.01E-07,  avg # of iterations =  9.6

     total cpu time spent up to now is      266.4 secs

     total energy              =    -722.99221611 Ry
     estimated scf accuracy    <       0.00019389 Ry

     iteration # 27     ecut=    50.00 Ry     beta= 0.30
     Davidson diagonalization with overlap

---- Real-time Memory Report at c_bands before calling an iterative solver
           101 MiB given to the printing process from OS
             0 MiB allocation reported by mallinfo(arena+hblkhd)
        110397 MiB available memory on the node where the printing process lives
------------------
     c_bands:  1 eigenvalues not converged
     ethr =  2.69E-07,  avg # of iterations =  2.3

     total cpu time spent up to now is      273.3 secs

     total energy              =    -722.99227289 Ry
     estimated scf accuracy    <       0.00023106 Ry

     iteration # 28     ecut=    50.00 Ry     beta= 0.30
     Davidson diagonalization with overlap

---- Real-time Memory Report at c_bands before calling an iterative solver
           101 MiB given to the printing process from OS
             0 MiB allocation reported by mallinfo(arena+hblkhd)
        110398 MiB available memory on the node where the printing process lives
------------------
     ethr =  2.69E-07,  avg # of iterations =  1.0

     total cpu time spent up to now is      279.0 secs

     total energy              =    -722.99230191 Ry
     estimated scf accuracy    <       0.00023484 Ry

     iteration # 29     ecut=    50.00 Ry     beta= 0.30
     Davidson diagonalization with overlap

---- Real-time Memory Report at c_bands before calling an iterative solver
           101 MiB given to the printing process from OS
             0 MiB allocation reported by mallinfo(arena+hblkhd)
        110398 MiB available memory on the node where the printing process lives
------------------
     ethr =  2.69E-07,  avg # of iterations =  1.3

     total cpu time spent up to now is      285.1 secs

     total energy              =    -722.99233272 Ry
     estimated scf accuracy    <       0.00029383 Ry

     iteration # 30     ecut=    50.00 Ry     beta= 0.30
     Davidson diagonalization with overlap

---- Real-time Memory Report at c_bands before calling an iterative solver
           101 MiB given to the printing process from OS
             0 MiB allocation reported by mallinfo(arena+hblkhd)
        110398 MiB available memory on the node where the printing process lives
------------------
     ethr =  2.69E-07,  avg # of iterations =  1.8

     total cpu time spent up to now is      291.6 secs

     total energy              =    -722.99237668 Ry
     estimated scf accuracy    <       0.00039657 Ry

     iteration # 31     ecut=    50.00 Ry     beta= 0.30
     Davidson diagonalization with overlap

---- Real-time Memory Report at c_bands before calling an iterative solver
           101 MiB given to the printing process from OS
             0 MiB allocation reported by mallinfo(arena+hblkhd)
        110398 MiB available memory on the node where the printing process lives
------------------
     ethr =  2.69E-07,  avg # of iterations =  5.7

     total cpu time spent up to now is      300.8 secs

     total energy              =    -722.99213345 Ry
     estimated scf accuracy    <       0.00089550 Ry

     iteration # 32     ecut=    50.00 Ry     beta= 0.30
     Davidson diagonalization with overlap

---- Real-time Memory Report at c_bands before calling an iterative solver
           101 MiB given to the printing process from OS
             0 MiB allocation reported by mallinfo(arena+hblkhd)
        110398 MiB available memory on the node where the printing process lives
------------------
     c_bands:  1 eigenvalues not converged
     ethr =  2.69E-07,  avg # of iterations =  5.9

     total cpu time spent up to now is      310.5 secs

     total energy              =    -722.99223338 Ry
     estimated scf accuracy    <       0.00004168 Ry

     iteration # 33     ecut=    50.00 Ry     beta= 0.30
     Davidson diagonalization with overlap

---- Real-time Memory Report at c_bands before calling an iterative solver
           101 MiB given to the printing process from OS
             0 MiB allocation reported by mallinfo(arena+hblkhd)
        110400 MiB available memory on the node where the printing process lives
------------------
     ethr =  5.79E-08,  avg # of iterations =  7.0

     total cpu time spent up to now is      320.0 secs

     total energy              =    -722.99224417 Ry
     estimated scf accuracy    <       0.00004739 Ry

     iteration # 34     ecut=    50.00 Ry     beta= 0.30
     Davidson diagonalization with overlap

---- Real-time Memory Report at c_bands before calling an iterative solver
           101 MiB given to the printing process from OS
             0 MiB allocation reported by mallinfo(arena+hblkhd)
        110400 MiB available memory on the node where the printing process lives
------------------
     ethr =  5.79E-08,  avg # of iterations =  1.0

     total cpu time spent up to now is      325.7 secs

     total energy              =    -722.99222568 Ry
     estimated scf accuracy    <       0.00004513 Ry

     iteration # 35     ecut=    50.00 Ry     beta= 0.30
     Davidson diagonalization with overlap

---- Real-time Memory Report at c_bands before calling an iterative solver
           101 MiB given to the printing process from OS
             0 MiB allocation reported by mallinfo(arena+hblkhd)
        110400 MiB available memory on the node where the printing process lives
------------------
     ethr =  5.79E-08,  avg # of iterations =  6.0

     total cpu time spent up to now is      335.1 secs

     total energy              =    -722.99223523 Ry
     estimated scf accuracy    <       0.00000502 Ry

     iteration # 36     ecut=    50.00 Ry     beta= 0.30
     Davidson diagonalization with overlap

---- Real-time Memory Report at c_bands before calling an iterative solver
           101 MiB given to the printing process from OS
             0 MiB allocation reported by mallinfo(arena+hblkhd)
        110401 MiB available memory on the node where the printing process lives
------------------
     ethr =  6.98E-09,  avg # of iterations =  5.9

     total cpu time spent up to now is      344.6 secs

     total energy              =    -722.99223609 Ry
     estimated scf accuracy    <       0.00000449 Ry

     iteration # 37     ecut=    50.00 Ry     beta= 0.30
     Davidson diagonalization with overlap

---- Real-time Memory Report at c_bands before calling an iterative solver
           101 MiB given to the printing process from OS
             0 MiB allocation reported by mallinfo(arena+hblkhd)
        110401 MiB available memory on the node where the printing process lives
------------------
     ethr =  6.23E-09,  avg # of iterations =  1.5

     total cpu time spent up to now is      350.8 secs

     total energy              =    -722.99223449 Ry
     estimated scf accuracy    <       0.00000282 Ry

     iteration # 38     ecut=    50.00 Ry     beta= 0.30
     Davidson diagonalization with overlap

---- Real-time Memory Report at c_bands before calling an iterative solver
           101 MiB given to the printing process from OS
             0 MiB allocation reported by mallinfo(arena+hblkhd)
        110401 MiB available memory on the node where the printing process lives
------------------
     c_bands:  3 eigenvalues not converged
     ethr =  3.92E-09,  avg # of iterations =  7.6

     total cpu time spent up to now is      362.5 secs

     total energy              =    -722.99223673 Ry
     estimated scf accuracy    <       0.00000561 Ry

     iteration # 39     ecut=    50.00 Ry     beta= 0.30
     Davidson diagonalization with overlap

---- Real-time Memory Report at c_bands before calling an iterative solver
           101 MiB given to the printing process from OS
             0 MiB allocation reported by mallinfo(arena+hblkhd)
        110401 MiB available memory on the node where the printing process lives
------------------
     ethr =  3.92E-09,  avg # of iterations =  1.1

     total cpu time spent up to now is      368.3 secs

     total energy              =    -722.99223575 Ry
     estimated scf accuracy    <       0.00000416 Ry

     iteration # 40     ecut=    50.00 Ry     beta= 0.30
     Davidson diagonalization with overlap

---- Real-time Memory Report at c_bands before calling an iterative solver
           101 MiB given to the printing process from OS
             0 MiB allocation reported by mallinfo(arena+hblkhd)
        110401 MiB available memory on the node where the printing process lives
------------------
     ethr =  3.92E-09,  avg # of iterations =  2.4

     total cpu time spent up to now is      375.4 secs

     total energy              =    -722.99223568 Ry
     estimated scf accuracy    <       0.00000151 Ry

     iteration # 41     ecut=    50.00 Ry     beta= 0.30
     Davidson diagonalization with overlap

---- Real-time Memory Report at c_bands before calling an iterative solver
           101 MiB given to the printing process from OS
             0 MiB allocation reported by mallinfo(arena+hblkhd)
        110401 MiB available memory on the node where the printing process lives
------------------
     ethr =  2.10E-09,  avg # of iterations =  5.8

     total cpu time spent up to now is      384.7 secs

     total energy              =    -722.99223617 Ry
     estimated scf accuracy    <       0.00000004 Ry

     iteration # 42     ecut=    50.00 Ry     beta= 0.30
     Davidson diagonalization with overlap

---- Real-time Memory Report at c_bands before calling an iterative solver
           101 MiB given to the printing process from OS
             0 MiB allocation reported by mallinfo(arena+hblkhd)
        110401 MiB available memory on the node where the printing process lives
------------------
     c_bands:  1 eigenvalues not converged
     ethr =  5.34E-11,  avg # of iterations = 11.2

     total cpu time spent up to now is      402.1 secs

     total energy              =    -722.99223607 Ry
     estimated scf accuracy    <       0.00000060 Ry

     iteration # 43     ecut=    50.00 Ry     beta= 0.30
     Davidson diagonalization with overlap

---- Real-time Memory Report at c_bands before calling an iterative solver
           101 MiB given to the printing process from OS
             0 MiB allocation reported by mallinfo(arena+hblkhd)
        110369 MiB available memory on the node where the printing process lives
------------------
     c_bands:  2 eigenvalues not converged
     c_bands:  3 eigenvalues not converged
     ethr =  5.34E-11,  avg # of iterations = 10.6

     total cpu time spent up to now is      418.9 secs

     total energy              =    -722.99223619 Ry
     estimated scf accuracy    <       0.00000001 Ry

     iteration # 44     ecut=    50.00 Ry     beta= 0.30
     Davidson diagonalization with overlap

---- Real-time Memory Report at c_bands before calling an iterative solver
           101 MiB given to the printing process from OS
             0 MiB allocation reported by mallinfo(arena+hblkhd)
        110409 MiB available memory on the node where the printing process lives
------------------
     c_bands:  1 eigenvalues not converged
     ethr =  1.53E-11,  avg # of iterations =  6.5

     total cpu time spent up to now is      429.9 secs

     total energy              =    -722.99223619 Ry
     estimated scf accuracy    <       0.00000002 Ry

     iteration # 45     ecut=    50.00 Ry     beta= 0.30
     Davidson diagonalization with overlap

---- Real-time Memory Report at c_bands before calling an iterative solver
           101 MiB given to the printing process from OS
             0 MiB allocation reported by mallinfo(arena+hblkhd)
        110413 MiB available memory on the node where the printing process lives
------------------
     c_bands:  1 eigenvalues not converged
     ethr =  1.53E-11,  avg # of iterations =  5.9

     total cpu time spent up to now is      439.5 secs

     End of self-consistent calculation

          k = 0.0000 0.0000 0.0000 (  5711 PWs)   bands (ev):

   -13.3237 -13.2024 -13.0583 -12.8868  -2.2823  -2.2438  -2.2328  -2.2108
    -2.1915  -2.1717  -2.1242  -2.0864  -2.0723  -2.0475  -1.9944  -1.8552
    -1.8541  -1.8271  -1.8221  -1.7714  -1.7283  -1.7228  -1.6834  -1.6765
    -0.5360   0.5678   0.6698   2.2241   2.3047   2.3582   2.4374   2.4961
     2.5464   2.5822   2.6913   2.7839

     occupation numbers 
     1.0000   1.0000   1.0000   1.0000   1.0000   1.0000   1.0000   1.0000
     1.0000   1.0000   1.0000   1.0000   1.0000   1.0000   1.0000   1.0000
     1.0000   1.0000   1.0000   1.0000   1.0000   1.0000   1.0000   1.0000
     1.0000   1.0000   1.0000   1.0000   1.0000   1.0000   1.0000   1.0000
     1.0000   1.0000   1.0000   1.0000

          k = 0.0000 0.0000 0.0478 (  5699 PWs)   bands (ev):

   -13.3230 -13.2043 -13.0565 -12.8873  -2.2822  -2.2439  -2.2329  -2.2116
    -2.1916  -2.1719  -2.1268  -2.0901  -2.0684  -2.0348  -1.9915  -1.8550
    -1.8540  -1.8272  -1.8222  -1.7906  -1.7283  -1.7227  -1.6832  -1.6764
    -0.4903   0.3305   0.9241   2.2204   2.2312   2.3027   2.3570   2.4963
     2.5359   2.5967   2.6883   2.7848

     occupation numbers 
     1.0000   1.0000   1.0000   1.0000   1.0000   1.0000   1.0000   1.0000
     1.0000   1.0000   1.0000   1.0000   1.0000   1.0000   1.0000   1.0000
     1.0000   1.0000   1.0000   1.0000   1.0000   1.0000   1.0000   1.0000
     1.0000   1.0000   1.0000   1.0000   1.0000   1.0000   1.0000   1.0000
     1.0000   1.0000   1.0000   1.0000

          k = 0.0000 0.0000 0.0956 (  5706 PWs)   bands (ev):

   -13.3215 -13.2081 -13.0532 -12.8884  -2.2822  -2.2442  -2.2330  -2.2134
    -2.1917  -2.1722  -2.1307  -2.0925  -2.0668  -2.0144  -1.9725  -1.8556
    -1.8544  -1.8362  -1.8274  -1.8227  -1.7284  -1.7224  -1.6831  -1.6764
    -0.3649   0.0731   1.2356   1.8970   2.2385   2.2908   2.3537   2.4968
     2.5264   2.6213   2.6777   2.7836

     occupation numbers 
     1.0000   1.0000   1.0000   1.0000   1.0000   1.0000   1.0000   1.0000
     1.0000   1.0000   1.0000   1.0000   1.0000   1.0000   1.0000   1.0000
     1.0000   1.0000   1.0000   1.0000   1.0000   1.0000   1.0000   1.0000
     1.0000   1.0000   1.0000   1.0000   1.0000   1.0000   1.0000   1.0000
     1.0000   1.0000   1.0000   1.0000

          k = 0.0000 0.0000-0.1434 (  5670 PWs)   bands (ev):

   -13.3207 -13.2100 -13.0515 -12.8889  -2.2822  -2.2443  -2.2330  -2.2139
    -2.1917  -2.1723  -2.1319  -2.0930  -2.0665  -2.0095  -1.9447  -1.8768
    -1.8541  -1.8506  -1.8276  -1.8228  -1.7283  -1.7222  -1.6830  -1.6762
    -0.2245  -0.1096   1.5260   1.5988   2.2461   2.2822   2.3530   2.4946
     2.5257   2.6355   2.6687   2.7829

     occupation numbers 
     1.0000   1.0000   1.0000   1.0000   1.0000   1.0000   1.0000   1.0000
     1.0000   1.0000   1.0000   1.0000   1.0000   1.0000   1.0000   1.0000
     1.0000   1.0000   1.0000   1.0000   1.0000   1.0000   1.0000   1.0000
     1.0000   1.0000   1.0000   1.0000   1.0000   1.0000   1.0000   1.0000
     1.0000   1.0000   1.0000   1.0000

          k = 0.0000 0.1925 0.0000 (  5669 PWs)   bands (ev):

   -13.2654 -13.1447 -13.0107 -12.8421  -2.2630  -2.2285  -2.2072  -2.1842
    -2.1580  -2.1198  -2.0838  -2.0512  -2.0463  -2.0147  -1.9628  -1.8657
    -1.8537  -1.8423  -1.8242  -1.7710  -1.7269  -1.7180  -1.6756  -1.6543
    -0.3457   0.5377   0.6107   1.3598   1.7053   1.9223   2.0952   2.1416
     2.3416   2.4179   2.4781   2.5750

     occupation numbers 
     1.0000   1.0000   1.0000   1.0000   1.0000   1.0000   1.0000   1.0000
     1.0000   1.0000   1.0000   1.0000   1.0000   1.0000   1.0000   1.0000
     1.0000   1.0000   1.0000   1.0000   1.0000   1.0000   1.0000   1.0000
     1.0000   1.0000   1.0000   1.0000   1.0000   1.0000   1.0000   1.0000
     1.0000   1.0000   1.0000   1.0000

          k = 0.0000 0.1925 0.0478 (  5668 PWs)   bands (ev):

   -13.2650 -13.1460 -13.0095 -12.8425  -2.2631  -2.2297  -2.2073  -2.1831
    -2.1590  -2.1198  -2.0855  -2.0499  -2.0430  -2.0129  -1.9551  -1.8633
    -1.8544  -1.8483  -1.8244  -1.7797  -1.7266  -1.7163  -1.6756  -1.6601
    -0.3047   0.3507   0.7955   1.3286   1.7046   1.8991   2.0974   2.1770
     2.3285   2.4342   2.4537   2.5715

     occupation numbers 
     1.0000   1.0000   1.0000   1.0000   1.0000   1.0000   1.0000   1.0000
     1.0000   1.0000   1.0000   1.0000   1.0000   1.0000   1.0000   1.0000
     1.0000   1.0000   1.0000   1.0000   1.0000   1.0000   1.0000   1.0000
     1.0000   1.0000   1.0000   1.0000   1.0000   1.0000   1.0000   1.0000
     1.0000   1.0000   1.0000   1.0000

          k = 0.0000 0.1925 0.0956 (  5675 PWs)   bands (ev):

   -13.2640 -13.1486 -13.0073 -12.8431  -2.2636  -2.2305  -2.2075  -2.1835
    -2.1589  -2.1198  -2.0910  -2.0476  -2.0344  -2.0070  -1.9391  -1.8694
    -1.8583  -1.8512  -1.8250  -1.7942  -1.7267  -1.7154  -1.6762  -1.6685
    -0.1987   0.1505   0.9868   1.2524   1.6977   1.8627   2.1025   2.2371
     2.3098   2.4021   2.4683   2.5585

     occupation numbers 
     1.0000   1.0000   1.0000   1.0000   1.0000   1.0000   1.0000   1.0000
     1.0000   1.0000   1.0000   1.0000   1.0000   1.0000   1.0000   1.0000
     1.0000   1.0000   1.0000   1.0000   1.0000   1.0000   1.0000   1.0000
     1.0000   1.0000   1.0000   1.0000   1.0000   1.0000   1.0000   1.0000
     1.0000   1.0000   1.0000   1.0000

          k = 0.0000 0.1925-0.1434 (  5684 PWs)   bands (ev):

   -13.2635 -13.1498 -13.0062 -12.8435  -2.2639  -2.2301  -2.2078  -2.1848
    -2.1579  -2.1200  -2.0943  -2.0467  -2.0306  -2.0012  -1.9294  -1.8846
    -1.8553  -1.8496  -1.8253  -1.8006  -1.7270  -1.7161  -1.6770  -1.6710
    -0.0930   0.0165   1.1135   1.1675   1.6912   1.8467   2.1059   2.2590
     2.3135   2.3709   2.4888   2.5462

     occupation numbers 
     1.0000   1.0000   1.0000   1.0000   1.0000   1.0000   1.0000   1.0000
     1.0000   1.0000   1.0000   1.0000   1.0000   1.0000   1.0000   1.0000
     1.0000   1.0000   1.0000   1.0000   1.0000   1.0000   1.0000   1.0000
     1.0000   1.0000   1.0000   1.0000   1.0000   1.0000   1.0000   1.0000
     1.0000   1.0000   1.0000   1.0000

          k = 0.0000 0.3849 0.0000 (  5655 PWs)   bands (ev):

   -13.1470 -13.0239 -12.9165 -12.7510  -2.2245  -2.1765  -2.1401  -2.1221
    -2.0541  -2.0416  -2.0049  -1.9876  -1.9583  -1.9182  -1.9040  -1.8497
    -1.8232  -1.8089  -1.8039  -1.7357  -1.7134  -1.7039  -1.6576  -1.6103
    -0.0544   0.0353   0.1418   0.3873   0.9767   1.6759   1.7228   1.7677
     1.9944   2.1233   2.2074   2.3445

     occupation numbers 
     1.0000   1.0000   1.0000   1.0000   1.0000   1.0000   1.0000   1.0000
     1.0000   1.0000   1.0000   1.0000   1.0000   1.0000   1.0000   1.0000
     1.0000   1.0000   1.0000   1.0000   1.0000   1.0000   1.0000   1.0000
     1.0000   1.0000   1.0000   1.0000   1.0000   1.0000   1.0000   1.0000
     1.0000   1.0000   1.0000   1.0000

          k = 0.0000 0.3849 0.0478 (  5655 PWs)   bands (ev):

   -13.1469 -13.0242 -12.9163 -12.7511  -2.2250  -2.1775  -2.1387  -2.1199
    -2.0528  -2.0473  -2.0031  -1.9846  -1.9581  -1.9174  -1.9050  -1.8531
    -1.8237  -1.8074  -1.7964  -1.7498  -1.7070  -1.7007  -1.6576  -1.6149
    -0.0497   0.0023   0.1798   0.3853   1.0021   1.5211   1.7357   1.8923
     1.9761   2.1389   2.2025   2.3403

     occupation numbers 
     1.0000   1.0000   1.0000   1.0000   1.0000   1.0000   1.0000   1.0000
     1.0000   1.0000   1.0000   1.0000   1.0000   1.0000   1.0000   1.0000
     1.0000   1.0000   1.0000   1.0000   1.0000   1.0000   1.0000   1.0000
     1.0000   1.0000   1.0000   1.0000   1.0000   1.0000   1.0000   1.0000
     1.0000   1.0000   1.0000   1.0000

          k = 0.0000 0.3849 0.0956 (  5655 PWs)   bands (ev):

   -13.1467 -13.0249 -12.9157 -12.7512  -2.2258  -2.1767  -2.1365  -2.1211
    -2.0566  -2.0461  -2.0020  -1.9776  -1.9569  -1.9182  -1.9072  -1.8535
    -1.8240  -1.8075  -1.7941  -1.7613  -1.7055  -1.6894  -1.6576  -1.6247
    -0.0458  -0.0317   0.2142   0.3991   1.0716   1.3421   1.7481   1.9270
     2.0207   2.1625   2.2004   2.3258

     occupation numbers 
     1.0000   1.0000   1.0000   1.0000   1.0000   1.0000   1.0000   1.0000
     1.0000   1.0000   1.0000   1.0000   1.0000   1.0000   1.0000   1.0000
     1.0000   1.0000   1.0000   1.0000   1.0000   1.0000   1.0000   1.0000
     1.0000   1.0000   1.0000   1.0000   1.0000   1.0000   1.0000   1.0000
     1.0000   1.0000   1.0000   1.0000

          k = 0.0000 0.3849-0.1434 (  5658 PWs)   bands (ev):

   -13.1466 -13.0252 -12.9155 -12.7512  -2.2261  -2.1751  -2.1350  -2.1250
    -2.0595  -2.0418  -2.0024  -1.9730  -1.9557  -1.9214  -1.9075  -1.8501
    -1.8246  -1.8086  -1.8026  -1.7586  -1.7053  -1.6827  -1.6578  -1.6306
    -0.0561  -0.0319   0.2191   0.4151   1.1584   1.2150   1.7572   1.9060
     2.0646   2.1642   2.2130   2.3127

     occupation numbers 
     1.0000   1.0000   1.0000   1.0000   1.0000   1.0000   1.0000   1.0000
     1.0000   1.0000   1.0000   1.0000   1.0000   1.0000   1.0000   1.0000
     1.0000   1.0000   1.0000   1.0000   1.0000   1.0000   1.0000   1.0000
     1.0000   1.0000   1.0000   1.0000   1.0000   1.0000   1.0000   1.0000
     1.0000   1.0000   1.0000   1.0000

          k = 0.0000-0.5774 0.0000 (  5678 PWs)   bands (ev):

   -13.0868 -12.9597 -12.8709 -12.7045  -2.2109  -2.1540  -2.1104  -2.0861
    -2.0178  -1.9832  -1.9679  -1.9455  -1.8898  -1.8630  -1.8354  -1.7935
    -1.7894  -1.7855  -1.7510  -1.6748  -1.6740  -1.6380  -1.6356  -1.6213
    -0.4289  -0.4030  -0.2374   0.2155   0.9887   1.5449   1.6751   1.7614
     1.8472   1.9599   1.9895   2.2237

     occupation numbers 
     1.0000   1.0000   1.0000   1.0000   1.0000   1.0000   1.0000   1.0000
     1.0000   1.0000   1.0000   1.0000   1.0000   1.0000   1.0000   1.0000
     1.0000   1.0000   1.0000   1.0000   1.0000   1.0000   1.0000   1.0000
     1.0000   1.0000   1.0000   1.0000   1.0000   1.0000   1.0000   1.0000
     1.0000   1.0000   1.0000   1.0000

          k = 0.0000-0.5774 0.0478 (  5664 PWs)   bands (ev):

   -13.0868 -12.9597 -12.8709 -12.7045  -2.2115  -2.1522  -2.1094  -2.0833
    -2.0214  -1.9919  -1.9642  -1.9422  -1.8913  -1.8633  -1.8336  -1.7928
    -1.7863  -1.7853  -1.7520  -1.6768  -1.6735  -1.6381  -1.6357  -1.6212
    -0.4366  -0.4040  -0.2260   0.2059   1.0231   1.5468   1.5971   1.7600
     1.8683   1.9670   2.0177   2.2181

     occupation numbers 
     1.0000   1.0000   1.0000   1.0000   1.0000   1.0000   1.0000   1.0000
     1.0000   1.0000   1.0000   1.0000   1.0000   1.0000   1.0000   1.0000
     1.0000   1.0000   1.0000   1.0000   1.0000   1.0000   1.0000   1.0000
     1.0000   1.0000   1.0000   1.0000   1.0000   1.0000   1.0000   1.0000
     1.0000   1.0000   1.0000   1.0000

          k = 0.0000-0.5774 0.0956 (  5654 PWs)   bands (ev):

   -13.0868 -12.9598 -12.8708 -12.7045  -2.2128  -2.1490  -2.1072  -2.0756
    -2.0274  -2.0087  -1.9592  -1.9358  -1.8949  -1.8650  -1.8291  -1.7923
    -1.7860  -1.7782  -1.7545  -1.6804  -1.6734  -1.6384  -1.6361  -1.6210
    -0.4486  -0.4084  -0.2028   0.1857   1.1162   1.4417   1.5721   1.7317
     1.8964   1.9937   2.0563   2.2053

     occupation numbers 
     1.0000   1.0000   1.0000   1.0000   1.0000   1.0000   1.0000   1.0000
     1.0000   1.0000   1.0000   1.0000   1.0000   1.0000   1.0000   1.0000
     1.0000   1.0000   1.0000   1.0000   1.0000   1.0000   1.0000   1.0000
     1.0000   1.0000   1.0000   1.0000   1.0000   1.0000   1.0000   1.0000
     1.0000   1.0000   1.0000   1.0000

          k = 0.0000-0.5774-0.1434 (  5668 PWs)   bands (ev):

   -13.0868 -12.9598 -12.8708 -12.7045  -2.2135  -2.1477  -2.1060  -2.0700
    -2.0298  -2.0188  -1.9574  -1.9323  -1.8972  -1.8663  -1.8266  -1.7921
    -1.7862  -1.7742  -1.7562  -1.6825  -1.6733  -1.6386  -1.6362  -1.6210
    -0.4536  -0.4111  -0.1910   0.1749   1.2079   1.3322   1.5809   1.7147
     1.9076   2.0077   2.0724   2.1976

     occupation numbers 
     1.0000   1.0000   1.0000   1.0000   1.0000   1.0000   1.0000   1.0000
     1.0000   1.0000   1.0000   1.0000   1.0000   1.0000   1.0000   1.0000
     1.0000   1.0000   1.0000   1.0000   1.0000   1.0000   1.0000   1.0000
     1.0000   1.0000   1.0000   1.0000   1.0000   1.0000   1.0000   1.0000
     1.0000   1.0000   1.0000   1.0000

          k = 0.1667 0.2887 0.0000 (  5671 PWs)   bands (ev):

   -13.1749 -13.0532 -12.9399 -12.7729  -2.1966  -2.1762  -2.1535  -2.1257
    -2.0858  -2.0579  -2.0353  -2.0143  -1.9775  -1.9498  -1.9134  -1.8628
    -1.8373  -1.8325  -1.8134  -1.7644  -1.7142  -1.7060  -1.6714  -1.6124
    -0.0755   0.2155   0.3311   0.6120   1.0782   1.6780   1.7243   1.8566
     1.9965   2.0859   2.2717   2.3242

     occupation numbers 
     1.0000   1.0000   1.0000   1.0000   1.0000   1.0000   1.0000   1.0000
     1.0000   1.0000   1.0000   1.0000   1.0000   1.0000   1.0000   1.0000
     1.0000   1.0000   1.0000   1.0000   1.0000   1.0000   1.0000   1.0000
     1.0000   1.0000   1.0000   1.0000   1.0000   1.0000   1.0000   1.0000
     1.0000   1.0000   1.0000   1.0000

          k = 0.1667 0.2887 0.0478 (  5673 PWs)   bands (ev):

   -13.1747 -13.0537 -12.9394 -12.7730  -2.1965  -2.1757  -2.1558  -2.1250
    -2.0882  -2.0559  -2.0359  -2.0066  -1.9807  -1.9474  -1.9131  -1.8615
    -1.8417  -1.8305  -1.8138  -1.7708  -1.7131  -1.7017  -1.6719  -1.6170
    -0.0645   0.1802   0.3682   0.6070   1.0960   1.5763   1.7344   1.9064
     2.0072   2.1111   2.2624   2.3174

     occupation numbers 
     1.0000   1.0000   1.0000   1.0000   1.0000   1.0000   1.0000   1.0000
     1.0000   1.0000   1.0000   1.0000   1.0000   1.0000   1.0000   1.0000
     1.0000   1.0000   1.0000   1.0000   1.0000   1.0000   1.0000   1.0000
     1.0000   1.0000   1.0000   1.0000   1.0000   1.0000   1.0000   1.0000
     1.0000   1.0000   1.0000   1.0000

          k = 0.1667 0.2887 0.0956 (  5667 PWs)   bands (ev):

   -13.1744 -13.0547 -12.9386 -12.7732  -2.1967  -2.1759  -2.1575  -2.1247
    -2.0904  -2.0542  -2.0370  -1.9922  -1.9812  -1.9447  -1.9145  -1.8620
    -1.8470  -1.8291  -1.8141  -1.7807  -1.7132  -1.6930  -1.6707  -1.6275
    -0.0294   0.1162   0.4276   0.5895   1.1539   1.4336   1.7255   1.9189
     2.0847   2.1541   2.2369   2.2983

     occupation numbers 
     1.0000   1.0000   1.0000   1.0000   1.0000   1.0000   1.0000   1.0000
     1.0000   1.0000   1.0000   1.0000   1.0000   1.0000   1.0000   1.0000
     1.0000   1.0000   1.0000   1.0000   1.0000   1.0000   1.0000   1.0000
     1.0000   1.0000   1.0000   1.0000   1.0000   1.0000   1.0000   1.0000
     1.0000   1.0000   1.0000   1.0000

          k = 0.1667 0.2887-0.1434 (  5664 PWs)   bands (ev):

   -13.1742 -13.0552 -12.9381 -12.7733  -2.1970  -2.1767  -2.1572  -2.1250
    -2.0907  -2.0538  -2.0378  -1.9902  -1.9728  -1.9437  -1.9188  -1.8634
    -1.8485  -1.8289  -1.8142  -1.7845  -1.7136  -1.6899  -1.6675  -1.6344
     0.0098   0.0664   0.4588   0.5739   1.2170   1.3407   1.7187   1.9178
     2.1309   2.1939   2.2024   2.2834

     occupation numbers 
     1.0000   1.0000   1.0000   1.0000   1.0000   1.0000   1.0000   1.0000
     1.0000   1.0000   1.0000   1.0000   1.0000   1.0000   1.0000   1.0000
     1.0000   1.0000   1.0000   1.0000   1.0000   1.0000   1.0000   1.0000
     1.0000   1.0000   1.0000   1.0000   1.0000   1.0000   1.0000   1.0000
     1.0000   1.0000   1.0000   1.0000

          k = 0.1667 0.4811 0.0000 (  5650 PWs)   bands (ev):

   -13.0861 -12.9608 -12.8716 -12.7032  -2.1816  -2.1207  -2.0924  -2.0561
    -2.0146  -1.9747  -1.9484  -1.9272  -1.9115  -1.8878  -1.8617  -1.8227
    -1.8054  -1.7846  -1.7486  -1.7144  -1.6973  -1.6517  -1.6299  -1.5756
    -0.2823  -0.2110  -0.1079   0.2822   0.9940   1.2367   1.4350   1.5816
     1.8275   1.8629   1.9192   2.0419

     occupation numbers 
     1.0000   1.0000   1.0000   1.0000   1.0000   1.0000   1.0000   1.0000
     1.0000   1.0000   1.0000   1.0000   1.0000   1.0000   1.0000   1.0000
     1.0000   1.0000   1.0000   1.0000   1.0000   1.0000   1.0000   1.0000
     1.0000   1.0000   1.0000   1.0000   1.0000   1.0000   1.0000   1.0000
     1.0000   1.0000   1.0000   1.0000

          k = 0.1667 0.4811 0.0478 (  5655 PWs)   bands (ev):

   -13.0861 -12.9609 -12.8716 -12.7032  -2.1810  -2.1232  -2.0889  -2.0575
    -2.0102  -1.9727  -1.9583  -1.9251  -1.9134  -1.8826  -1.8640  -1.8226
    -1.8023  -1.7858  -1.7500  -1.7182  -1.6945  -1.6499  -1.6310  -1.5758
    -0.2830  -0.2164  -0.1017   0.2760   1.0094   1.2579   1.4249   1.5655
     1.7859   1.8720   1.9278   2.0616

     occupation numbers 
     1.0000   1.0000   1.0000   1.0000   1.0000   1.0000   1.0000   1.0000
     1.0000   1.0000   1.0000   1.0000   1.0000   1.0000   1.0000   1.0000
     1.0000   1.0000   1.0000   1.0000   1.0000   1.0000   1.0000   1.0000
     1.0000   1.0000   1.0000   1.0000   1.0000   1.0000   1.0000   1.0000
     1.0000   1.0000   1.0000   1.0000

          k = 0.1667 0.4811 0.0956 (  5655 PWs)   bands (ev):

   -13.0861 -12.9609 -12.8716 -12.7032  -2.1805  -2.1224  -2.0902  -2.0545
    -2.0093  -1.9743  -1.9616  -1.9245  -1.9131  -1.8807  -1.8671  -1.8194
    -1.8004  -1.7869  -1.7512  -1.7231  -1.6922  -1.6473  -1.6316  -1.5768
    -0.2845  -0.2282  -0.0880   0.2638   1.0624   1.2809   1.3872   1.5268
     1.7686   1.8628   1.9445   2.0838

     occupation numbers 
     1.0000   1.0000   1.0000   1.0000   1.0000   1.0000   1.0000   1.0000
     1.0000   1.0000   1.0000   1.0000   1.0000   1.0000   1.0000   1.0000
     1.0000   1.0000   1.0000   1.0000   1.0000   1.0000   1.0000   1.0000
     1.0000   1.0000   1.0000   1.0000   1.0000   1.0000   1.0000   1.0000
     1.0000   1.0000   1.0000   1.0000

          k = 0.1667 0.4811-0.1434 (  5658 PWs)   bands (ev):

   -13.0861 -12.9610 -12.8715 -12.7032  -2.1806  -2.1189  -2.0946  -2.0503
    -2.0143  -1.9763  -1.9551  -1.9299  -1.9068  -1.8850  -1.8673  -1.8163
    -1.8024  -1.7863  -1.7509  -1.7251  -1.6921  -1.6469  -1.6308  -1.5776
    -0.2849  -0.2351  -0.0802   0.2575   1.1193   1.2452   1.3780   1.5060
     1.7943   1.8318   1.9605   2.0879

     occupation numbers 
     1.0000   1.0000   1.0000   1.0000   1.0000   1.0000   1.0000   1.0000
     1.0000   1.0000   1.0000   1.0000   1.0000   1.0000   1.0000   1.0000
     1.0000   1.0000   1.0000   1.0000   1.0000   1.0000   1.0000   1.0000
     1.0000   1.0000   1.0000   1.0000   1.0000   1.0000   1.0000   1.0000
     1.0000   1.0000   1.0000   1.0000

          k = 0.3333 0.5774 0.0000 (  5628 PWs)   bands (ev):

   -13.0562 -12.9364 -12.8518 -12.6758  -2.1915  -2.0843  -2.0425  -2.0330
    -2.0131  -1.9619  -1.8985  -1.8922  -1.8841  -1.8658  -1.8446  -1.8109
    -1.7883  -1.7680  -1.7474  -1.7140  -1.6952  -1.6153  -1.5534  -1.5448
    -0.2258  -0.0616   0.0096   0.1904   0.5346   0.9139   1.1413   1.4750
     1.5719   1.6176   1.8811   1.9874

     occupation numbers 
     1.0000   1.0000   1.0000   1.0000   1.0000   1.0000   1.0000   1.0000
     1.0000   1.0000   1.0000   1.0000   1.0000   1.0000   1.0000   1.0000
     1.0000   1.0000   1.0000   1.0000   1.0000   1.0000   1.0000   1.0000
     1.0000   1.0000   1.0000   1.0000   1.0000   1.0000   1.0000   1.0000
     1.0000   1.0000   1.0000   1.0000

          k = 0.3333 0.5774 0.0478 (  5619 PWs)   bands (ev):

   -13.0562 -12.9364 -12.8518 -12.6758  -2.1897  -2.0926  -2.0412  -2.0291
    -2.0047  -1.9657  -1.9004  -1.8923  -1.8833  -1.8685  -1.8448  -1.8104
    -1.7882  -1.7681  -1.7469  -1.7139  -1.6949  -1.6153  -1.5535  -1.5447
    -0.2200  -0.0643   0.0092   0.1803   0.5500   0.8632   1.1916   1.4813
     1.5768   1.6358   1.8606   1.9690

     occupation numbers 
     1.0000   1.0000   1.0000   1.0000   1.0000   1.0000   1.0000   1.0000
     1.0000   1.0000   1.0000   1.0000   1.0000   1.0000   1.0000   1.0000
     1.0000   1.0000   1.0000   1.0000   1.0000   1.0000   1.0000   1.0000
     1.0000   1.0000   1.0000   1.0000   1.0000   1.0000   1.0000   1.0000
     1.0000   1.0000   1.0000   1.0000

          k = 0.3333 0.5774 0.0956 (  5640 PWs)   bands (ev):

   -13.0562 -12.9364 -12.8518 -12.6758  -2.1855  -2.1075  -2.0384  -2.0221
    -1.9892  -1.9733  -1.9079  -1.8936  -1.8788  -1.8720  -1.8469  -1.8096
    -1.7876  -1.7690  -1.7460  -1.7140  -1.6946  -1.6153  -1.5537  -1.5449
    -0.2065  -0.0762   0.0161   0.1581   0.5862   0.7813   1.2762   1.4683
     1.6143   1.6788   1.8082   1.9251

     occupation numbers 
     1.0000   1.0000   1.0000   1.0000   1.0000   1.0000   1.0000   1.0000
     1.0000   1.0000   1.0000   1.0000   1.0000   1.0000   1.0000   1.0000
     1.0000   1.0000   1.0000   1.0000   1.0000   1.0000   1.0000   1.0000
     1.0000   1.0000   1.0000   1.0000   1.0000   1.0000   1.0000   1.0000
     1.0000   1.0000   1.0000   1.0000

          k = 0.3333 0.5774-0.1434 (  5646 PWs)   bands (ev):

   -13.0562 -12.9364 -12.8518 -12.6758  -2.1830  -2.1145  -2.0367  -2.0184
    -1.9818  -1.9766  -1.9137  -1.8942  -1.8774  -1.8713  -1.8488  -1.8092
    -1.7872  -1.7696  -1.7454  -1.7139  -1.6945  -1.6153  -1.5537  -1.5451
    -0.1982  -0.0855   0.0238   0.1452   0.6118   0.7384   1.3248   1.4442
     1.6569   1.7010   1.7700   1.8958

     occupation numbers 
     1.0000   1.0000   1.0000   1.0000   1.0000   1.0000   1.0000   1.0000
     1.0000   1.0000   1.0000   1.0000   1.0000   1.0000   1.0000   1.0000
     1.0000   1.0000   1.0000   1.0000   1.0000   1.0000   1.0000   1.0000
     1.0000   1.0000   1.0000   1.0000   1.0000   1.0000   1.0000   1.0000
     1.0000   1.0000   1.0000   1.0000

          k =-0.1667 0.0962 0.0000 (  5669 PWs)   bands (ev):

   -13.2657 -13.1487 -13.0122 -12.8402  -2.2600  -2.2209  -2.2049  -2.1881
    -2.1562  -2.1463  -2.1074  -2.0545  -2.0385  -2.0150  -1.9526  -1.8673
    -1.8525  -1.8399  -1.8206  -1.7716  -1.7214  -1.7193  -1.6786  -1.6571
    -0.3447   0.5490   0.6239   1.4250   1.7595   2.0234   2.0795   2.1096
     2.1950   2.3679   2.4809   2.6366

     occupation numbers 
     1.0000   1.0000   1.0000   1.0000   1.0000   1.0000   1.0000   1.0000
     1.0000   1.0000   1.0000   1.0000   1.0000   1.0000   1.0000   1.0000
     1.0000   1.0000   1.0000   1.0000   1.0000   1.0000   1.0000   1.0000
     1.0000   1.0000   1.0000   1.0000   1.0000   1.0000   1.0000   1.0000
     1.0000   1.0000   1.0000   1.0000

          k = 0.1667 0.0962 0.0000 (  5669 PWs)   bands (ev):

   -13.2642 -13.1448 -13.0111 -12.8407  -2.2729  -2.2274  -2.1950  -2.1800
    -2.1515  -2.1304  -2.0879  -2.0525  -2.0423  -2.0037  -1.9594  -1.8660
    -1.8542  -1.8402  -1.8244  -1.7706  -1.7286  -1.7147  -1.6830  -1.6513
    -0.3465   0.5291   0.6021   1.3439   1.6881   1.8933   2.0614   2.1669
     2.3325   2.4215   2.4738   2.6290

     occupation numbers 
     1.0000   1.0000   1.0000   1.0000   1.0000   1.0000   1.0000   1.0000
     1.0000   1.0000   1.0000   1.0000   1.0000   1.0000   1.0000   1.0000
     1.0000   1.0000   1.0000   1.0000   1.0000   1.0000   1.0000   1.0000
     1.0000   1.0000   1.0000   1.0000   1.0000   1.0000   1.0000   1.0000
     1.0000   1.0000   1.0000   1.0000

          k = 0.0000-0.1925 0.0478 (  5668 PWs)   bands (ev):

   -13.2650 -13.1459 -13.0096 -12.8425  -2.2634  -2.2281  -2.2075  -2.1855
    -2.1570  -2.1198  -2.0900  -2.0472  -2.0385  -2.0118  -1.9632  -1.8680
    -1.8537  -1.8418  -1.8244  -1.7756  -1.7274  -1.7187  -1.6758  -1.6587
    -0.3111   0.3709   0.7714   1.3470   1.6948   1.9031   2.0994   2.1623
     2.3266   2.4297   2.4740   2.5678

     occupation numbers 
     1.0000   1.0000   1.0000   1.0000   1.0000   1.0000   1.0000   1.0000
     1.0000   1.0000   1.0000   1.0000   1.0000   1.0000   1.0000   1.0000
     1.0000   1.0000   1.0000   1.0000   1.0000   1.0000   1.0000   1.0000
     1.0000   1.0000   1.0000   1.0000   1.0000   1.0000   1.0000   1.0000
     1.0000   1.0000   1.0000   1.0000

          k =-0.1667 0.0962 0.0478 (  5668 PWs)   bands (ev):

   -13.2652 -13.1501 -13.0110 -12.8405  -2.2600  -2.2213  -2.2052  -2.1884
    -2.1567  -2.1460  -2.1055  -2.0610  -2.0424  -1.9945  -1.9513  -1.8702
    -1.8522  -1.8401  -1.8210  -1.7818  -1.7210  -1.7192  -1.6788  -1.6621
    -0.2996   0.3493   0.8179   1.3980   1.7528   1.9937   2.0716   2.1589
     2.1863   2.3731   2.4649   2.6354

     occupation numbers 
     1.0000   1.0000   1.0000   1.0000   1.0000   1.0000   1.0000   1.0000
     1.0000   1.0000   1.0000   1.0000   1.0000   1.0000   1.0000   1.0000
     1.0000   1.0000   1.0000   1.0000   1.0000   1.0000   1.0000   1.0000
     1.0000   1.0000   1.0000   1.0000   1.0000   1.0000   1.0000   1.0000
     1.0000   1.0000   1.0000   1.0000

          k = 0.1667 0.0962 0.0478 (  5668 PWs)   bands (ev):

   -13.2637 -13.1461 -13.0100 -12.8410  -2.2729  -2.2280  -2.1962  -2.1804
    -2.1506  -2.1291  -2.0918  -2.0491  -2.0390  -1.9998  -1.9573  -1.8674
    -1.8543  -1.8413  -1.8247  -1.7769  -1.7290  -1.7142  -1.6829  -1.6560
    -0.3134   0.3695   0.7556   1.3328   1.6777   1.8620   2.1004   2.1708
     2.3193   2.4179   2.4729   2.6266

     occupation numbers 
     1.0000   1.0000   1.0000   1.0000   1.0000   1.0000   1.0000   1.0000
     1.0000   1.0000   1.0000   1.0000   1.0000   1.0000   1.0000   1.0000
     1.0000   1.0000   1.0000   1.0000   1.0000   1.0000   1.0000   1.0000
     1.0000   1.0000   1.0000   1.0000   1.0000   1.0000   1.0000   1.0000
     1.0000   1.0000   1.0000   1.0000

          k =-0.1667-0.0962 0.0478 (  5668 PWs)   bands (ev):

   -13.2637 -13.1461 -13.0099 -12.8410  -2.2732  -2.2288  -2.1933  -2.1794
    -2.1530  -2.1307  -2.0875  -2.0544  -2.0427  -1.9900  -1.9596  -1.8645
    -1.8550  -1.8450  -1.8245  -1.7781  -1.7284  -1.7142  -1.6831  -1.6565
    -0.3044   0.3397   0.7894   1.3116   1.6957   1.8491   2.0991   2.1779
     2.3255   2.4214   2.4612   2.6263

     occupation numbers 
     1.0000   1.0000   1.0000   1.0000   1.0000   1.0000   1.0000   1.0000
     1.0000   1.0000   1.0000   1.0000   1.0000   1.0000   1.0000   1.0000
     1.0000   1.0000   1.0000   1.0000   1.0000   1.0000   1.0000   1.0000
     1.0000   1.0000   1.0000   1.0000   1.0000   1.0000   1.0000   1.0000
     1.0000   1.0000   1.0000   1.0000

          k = 0.1667-0.0962 0.0478 (  5668 PWs)   bands (ev):

   -13.2652 -13.1499 -13.0111 -12.8405  -2.2601  -2.2205  -2.2054  -2.1893
    -2.1572  -2.1457  -2.1051  -2.0533  -2.0434  -2.0047  -1.9530  -1.8652
    -1.8524  -1.8435  -1.8207  -1.7756  -1.7218  -1.7188  -1.6786  -1.6625
    -0.3135   0.3889   0.7845   1.3974   1.7647   1.9734   2.0737   2.1759
     2.1852   2.3769   2.4611   2.6345

     occupation numbers 
     1.0000   1.0000   1.0000   1.0000   1.0000   1.0000   1.0000   1.0000
     1.0000   1.0000   1.0000   1.0000   1.0000   1.0000   1.0000   1.0000
     1.0000   1.0000   1.0000   1.0000   1.0000   1.0000   1.0000   1.0000
     1.0000   1.0000   1.0000   1.0000   1.0000   1.0000   1.0000   1.0000
     1.0000   1.0000   1.0000   1.0000

          k = 0.0000-0.1925 0.0956 (  5675 PWs)   bands (ev):

   -13.2640 -13.1485 -13.0073 -12.8431  -2.2638  -2.2290  -2.2077  -2.1858
    -2.1570  -2.1199  -2.0942  -2.0466  -2.0310  -2.0031  -1.9509  -1.8742
    -1.8540  -1.8453  -1.8249  -1.7911  -1.7274  -1.7177  -1.6763  -1.6671
    -0.2099   0.1683   0.9600   1.2808   1.6874   1.8656   2.1044   2.2185
     2.3096   2.4119   2.4792   2.5538

     occupation numbers 
     1.0000   1.0000   1.0000   1.0000   1.0000   1.0000   1.0000   1.0000
     1.0000   1.0000   1.0000   1.0000   1.0000   1.0000   1.0000   1.0000
     1.0000   1.0000   1.0000   1.0000   1.0000   1.0000   1.0000   1.0000
     1.0000   1.0000   1.0000   1.0000   1.0000   1.0000   1.0000   1.0000
     1.0000   1.0000   1.0000   1.0000

          k =-0.1667 0.0962 0.0956 (  5675 PWs)   bands (ev):

   -13.2641 -13.1527 -13.0088 -12.8411  -2.2602  -2.2212  -2.2061  -2.1898
    -2.1580  -2.1453  -2.1015  -2.0656  -2.0449  -1.9686  -1.9456  -1.8765
    -1.8520  -1.8442  -1.8215  -1.7986  -1.7211  -1.7187  -1.6793  -1.6706
    -0.1896   0.1453   1.0125   1.3114   1.7547   1.9362   2.0822   2.1628
     2.2428   2.3839   2.4218   2.6320

     occupation numbers 
     1.0000   1.0000   1.0000   1.0000   1.0000   1.0000   1.0000   1.0000
     1.0000   1.0000   1.0000   1.0000   1.0000   1.0000   1.0000   1.0000
     1.0000   1.0000   1.0000   1.0000   1.0000   1.0000   1.0000   1.0000
     1.0000   1.0000   1.0000   1.0000   1.0000   1.0000   1.0000   1.0000
     1.0000   1.0000   1.0000   1.0000

          k = 0.1667 0.0962 0.0956 (  5675 PWs)   bands (ev):

   -13.2627 -13.1486 -13.0078 -12.8416  -2.2732  -2.2299  -2.1957  -2.1804
    -2.1509  -2.1284  -2.0941  -2.0489  -2.0382  -1.9801  -1.9496  -1.8730
    -1.8557  -1.8467  -1.8251  -1.7920  -1.7291  -1.7132  -1.6830  -1.6644
    -0.2139   0.1682   0.9436   1.2677   1.6801   1.8025   2.1510   2.2016
     2.3037   2.3854   2.4757   2.6209

     occupation numbers 
     1.0000   1.0000   1.0000   1.0000   1.0000   1.0000   1.0000   1.0000
     1.0000   1.0000   1.0000   1.0000   1.0000   1.0000   1.0000   1.0000
     1.0000   1.0000   1.0000   1.0000   1.0000   1.0000   1.0000   1.0000
     1.0000   1.0000   1.0000   1.0000   1.0000   1.0000   1.0000   1.0000
     1.0000   1.0000   1.0000   1.0000

          k =-0.1667-0.0962 0.0956 (  5675 PWs)   bands (ev):

   -13.2627 -13.1487 -13.0077 -12.8417  -2.2735  -2.2306  -2.1930  -2.1795
    -2.1531  -2.1299  -2.0906  -2.0521  -2.0415  -1.9712  -1.9518  -1.8676
    -1.8604  -1.8501  -1.8249  -1.7928  -1.7286  -1.7132  -1.6833  -1.6648
    -0.1978   0.1419   0.9792   1.2342   1.7048   1.7846   2.1416   2.2187
     2.3077   2.3835   2.4679   2.6208

     occupation numbers 
     1.0000   1.0000   1.0000   1.0000   1.0000   1.0000   1.0000   1.0000
     1.0000   1.0000   1.0000   1.0000   1.0000   1.0000   1.0000   1.0000
     1.0000   1.0000   1.0000   1.0000   1.0000   1.0000   1.0000   1.0000
     1.0000   1.0000   1.0000   1.0000   1.0000   1.0000   1.0000   1.0000
     1.0000   1.0000   1.0000   1.0000

          k = 0.1667-0.0962 0.0956 (  5675 PWs)   bands (ev):

   -13.2642 -13.1525 -13.0089 -12.8411  -2.2603  -2.2205  -2.2062  -2.1906
    -2.1585  -2.1450  -2.1013  -2.0598  -2.0462  -1.9754  -1.9518  -1.8659
    -1.8529  -1.8500  -1.8212  -1.7916  -1.7218  -1.7184  -1.6791  -1.6715
    -0.2139   0.1827   0.9869   1.3163   1.7684   1.9200   2.0855   2.1583
     2.2596   2.3896   2.4123   2.6311

     occupation numbers 
     1.0000   1.0000   1.0000   1.0000   1.0000   1.0000   1.0000   1.0000
     1.0000   1.0000   1.0000   1.0000   1.0000   1.0000   1.0000   1.0000
     1.0000   1.0000   1.0000   1.0000   1.0000   1.0000   1.0000   1.0000
     1.0000   1.0000   1.0000   1.0000   1.0000   1.0000   1.0000   1.0000
     1.0000   1.0000   1.0000   1.0000

          k =-0.1667 0.0962-0.1434 (  5684 PWs)   bands (ev):

   -13.2636 -13.1539 -13.0077 -12.8414  -2.2604  -2.2209  -2.2065  -2.1909
    -2.1588  -2.1448  -2.0996  -2.0652  -2.0461  -1.9610  -1.9401  -1.8785
    -1.8524  -1.8499  -1.8216  -1.8037  -1.7215  -1.7183  -1.6798  -1.6743
    -0.0892   0.0190   1.1595   1.1926   1.7655   1.9042   2.0935   2.1462
     2.3084   2.3652   2.3987   2.6298

     occupation numbers 
     1.0000   1.0000   1.0000   1.0000   1.0000   1.0000   1.0000   1.0000
     1.0000   1.0000   1.0000   1.0000   1.0000   1.0000   1.0000   1.0000
     1.0000   1.0000   1.0000   1.0000   1.0000   1.0000   1.0000   1.0000
     1.0000   1.0000   1.0000   1.0000   1.0000   1.0000   1.0000   1.0000
     1.0000   1.0000   1.0000   1.0000

          k = 0.1667 0.0962-0.1434 (  5684 PWs)   bands (ev):

   -13.2622 -13.1500 -13.0066 -12.8420  -2.2735  -2.2311  -2.1942  -2.1801
    -2.1520  -2.1289  -2.0935  -2.0500  -2.0397  -1.9697  -1.9354  -1.8833
    -1.8584  -1.8499  -1.8252  -1.7999  -1.7289  -1.7127  -1.6833  -1.6682
    -0.0957   0.0137   1.1035   1.1493   1.7036   1.7599   2.1566   2.2497
     2.3028   2.3452   2.4777   2.6178

     occupation numbers 
     1.0000   1.0000   1.0000   1.0000   1.0000   1.0000   1.0000   1.0000
     1.0000   1.0000   1.0000   1.0000   1.0000   1.0000   1.0000   1.0000
     1.0000   1.0000   1.0000   1.0000   1.0000   1.0000   1.0000   1.0000
     1.0000   1.0000   1.0000   1.0000   1.0000   1.0000   1.0000   1.0000
     1.0000   1.0000   1.0000   1.0000

          k =-0.3333 0.1925 0.0000 (  5655 PWs)   bands (ev):

   -13.1475 -13.0375 -12.9209 -12.7444  -2.2293  -2.1884  -2.1622  -2.1312
    -2.1101  -2.0589  -2.0141  -1.9683  -1.9473  -1.9097  -1.8778  -1.8553
    -1.8252  -1.8071  -1.8011  -1.7517  -1.7104  -1.6953  -1.6625  -1.6161
    -0.0384   0.1548   0.2260   0.4148   0.9744   1.6758   1.7415   1.7837
     1.9019   2.0976   2.2357   2.3735

     occupation numbers 
     1.0000   1.0000   1.0000   1.0000   1.0000   1.0000   1.0000   1.0000
     1.0000   1.0000   1.0000   1.0000   1.0000   1.0000   1.0000   1.0000
     1.0000   1.0000   1.0000   1.0000   1.0000   1.0000   1.0000   1.0000
     1.0000   1.0000   1.0000   1.0000   1.0000   1.0000   1.0000   1.0000
     1.0000   1.0000   1.0000   1.0000

          k = 0.3333 0.1925 0.0000 (  5655 PWs)   bands (ev):

   -13.1427 -13.0245 -12.9180 -12.7464  -2.2207  -2.1801  -2.1386  -2.1026
    -2.0554  -2.0331  -1.9973  -1.9940  -1.9412  -1.9130  -1.8875  -1.8563
    -1.8244  -1.8068  -1.8048  -1.7401  -1.7077  -1.7028  -1.6669  -1.6059
    -0.0947   0.0148   0.1558   0.3165   0.9256   1.6555   1.7319   1.7919
     1.9803   2.1182   2.1968   2.3831

     occupation numbers 
     1.0000   1.0000   1.0000   1.0000   1.0000   1.0000   1.0000   1.0000
     1.0000   1.0000   1.0000   1.0000   1.0000   1.0000   1.0000   1.0000
     1.0000   1.0000   1.0000   1.0000   1.0000   1.0000   1.0000   1.0000
     1.0000   1.0000   1.0000   1.0000   1.0000   1.0000   1.0000   1.0000
     1.0000   1.0000   1.0000   1.0000

          k = 0.0000-0.3849 0.0478 (  5655 PWs)   bands (ev):

   -13.1469 -13.0242 -12.9163 -12.7510  -2.2249  -2.1747  -2.1395  -2.1252
    -2.0568  -2.0374  -2.0049  -1.9851  -1.9566  -1.9204  -1.9040  -1.8461
    -1.8234  -1.8145  -1.8064  -1.7379  -1.7077  -1.7019  -1.6576  -1.6144
    -0.0619   0.0276   0.1506   0.4054   0.9911   1.5425   1.7438   1.8485
     1.9872   2.1482   2.2066   2.3366

     occupation numbers 
     1.0000   1.0000   1.0000   1.0000   1.0000   1.0000   1.0000   1.0000
     1.0000   1.0000   1.0000   1.0000   1.0000   1.0000   1.0000   1.0000
     1.0000   1.0000   1.0000   1.0000   1.0000   1.0000   1.0000   1.0000
     1.0000   1.0000   1.0000   1.0000   1.0000   1.0000   1.0000   1.0000
     1.0000   1.0000   1.0000   1.0000

          k =-0.3333 0.1925 0.0478 (  5655 PWs)   bands (ev):

   -13.1473 -13.0378 -12.9206 -12.7444  -2.2295  -2.1865  -2.1618  -2.1341
    -2.1114  -2.0580  -2.0119  -1.9669  -1.9468  -1.9075  -1.8803  -1.8551
    -1.8249  -1.8076  -1.8022  -1.7536  -1.7070  -1.6952  -1.6627  -1.6208
    -0.0312   0.1076   0.2780   0.4146   0.9886   1.5521   1.7261   1.8814
     1.9205   2.1108   2.2268   2.3702

     occupation numbers 
     1.0000   1.0000   1.0000   1.0000   1.0000   1.0000   1.0000   1.0000
     1.0000   1.0000   1.0000   1.0000   1.0000   1.0000   1.0000   1.0000
     1.0000   1.0000   1.0000   1.0000   1.0000   1.0000   1.0000   1.0000
     1.0000   1.0000   1.0000   1.0000   1.0000   1.0000   1.0000   1.0000
     1.0000   1.0000   1.0000   1.0000

          k = 0.3333 0.1925 0.0478 (  5655 PWs)   bands (ev):

   -13.1427 -13.0248 -12.9177 -12.7464  -2.2211  -2.1784  -2.1389  -2.1047
    -2.0567  -2.0332  -1.9976  -1.9865  -1.9426  -1.9124  -1.8886  -1.8545
    -1.8246  -1.8096  -1.8067  -1.7421  -1.7056  -1.6994  -1.6669  -1.6095
    -0.1063   0.0108   0.1631   0.3347   0.9424   1.5300   1.7747   1.8440
     1.9715   2.1372   2.1978   2.3790

     occupation numbers 
     1.0000   1.0000   1.0000   1.0000   1.0000   1.0000   1.0000   1.0000
     1.0000   1.0000   1.0000   1.0000   1.0000   1.0000   1.0000   1.0000
     1.0000   1.0000   1.0000   1.0000   1.0000   1.0000   1.0000   1.0000
     1.0000   1.0000   1.0000   1.0000   1.0000   1.0000   1.0000   1.0000
     1.0000   1.0000   1.0000   1.0000

          k =-0.3333-0.1925 0.0478 (  5655 PWs)   bands (ev):

   -13.1426 -13.0248 -12.9177 -12.7464  -2.2208  -2.1826  -2.1356  -2.1007
    -2.0542  -2.0359  -1.9991  -1.9908  -1.9396  -1.9141  -1.8865  -1.8575
    -1.8250  -1.8069  -1.8000  -1.7518  -1.7072  -1.6944  -1.6668  -1.6108
    -0.0940  -0.0050   0.1904   0.3043   0.9581   1.5092   1.7541   1.8905
     1.9731   2.1198   2.1989   2.3801

     occupation numbers 
     1.0000   1.0000   1.0000   1.0000   1.0000   1.0000   1.0000   1.0000
     1.0000   1.0000   1.0000   1.0000   1.0000   1.0000   1.0000   1.0000
     1.0000   1.0000   1.0000   1.0000   1.0000   1.0000   1.0000   1.0000
     1.0000   1.0000   1.0000   1.0000   1.0000   1.0000   1.0000   1.0000
     1.0000   1.0000   1.0000   1.0000

          k = 0.3333-0.1925 0.0478 (  5655 PWs)   bands (ev):

   -13.1473 -13.0377 -12.9207 -12.7444  -2.2295  -2.1901  -2.1612  -2.1273
    -2.1119  -2.0571  -2.0169  -1.9711  -1.9439  -1.9113  -1.8750  -1.8559
    -1.8251  -1.8060  -1.8000  -1.7595  -1.7028  -1.6948  -1.6624  -1.6211
    -0.0534   0.1558   0.2416   0.4208   1.0002   1.5480   1.7243   1.8810
     1.9093   2.1132   2.2341   2.3698

     occupation numbers 
     1.0000   1.0000   1.0000   1.0000   1.0000   1.0000   1.0000   1.0000
     1.0000   1.0000   1.0000   1.0000   1.0000   1.0000   1.0000   1.0000
     1.0000   1.0000   1.0000   1.0000   1.0000   1.0000   1.0000   1.0000
     1.0000   1.0000   1.0000   1.0000   1.0000   1.0000   1.0000   1.0000
     1.0000   1.0000   1.0000   1.0000

          k = 0.0000-0.3849 0.0956 (  5655 PWs)   bands (ev):

   -13.1467 -13.0248 -12.9157 -12.7512  -2.2257  -2.1741  -2.1366  -2.1270
    -2.0592  -2.0380  -2.0036  -1.9778  -1.9548  -1.9227  -1.9055  -1.8459
    -1.8251  -1.8136  -1.8066  -1.7488  -1.7055  -1.6896  -1.6577  -1.6244
    -0.0649  -0.0061   0.1915   0.4194   1.0544   1.3622   1.7536   1.9019
     2.0203   2.1770   2.2037   2.3205

     occupation numbers 
     1.0000   1.0000   1.0000   1.0000   1.0000   1.0000   1.0000   1.0000
     1.0000   1.0000   1.0000   1.0000   1.0000   1.0000   1.0000   1.0000
     1.0000   1.0000   1.0000   1.0000   1.0000   1.0000   1.0000   1.0000
     1.0000   1.0000   1.0000   1.0000   1.0000   1.0000   1.0000   1.0000
     1.0000   1.0000   1.0000   1.0000

          k =-0.3333 0.1925 0.0956 (  5655 PWs)   bands (ev):

   -13.1471 -13.0385 -12.9201 -12.7445  -2.2298  -2.1866  -2.1604  -2.1329
    -2.1146  -2.0556  -2.0123  -1.9682  -1.9429  -1.9066  -1.8800  -1.8555
    -1.8246  -1.8061  -1.8029  -1.7626  -1.6971  -1.6931  -1.6628  -1.6317
    -0.0406   0.0850   0.3339   0.4085   1.0515   1.3769   1.7418   1.8493
     2.0391   2.1388   2.2062   2.3625

     occupation numbers 
     1.0000   1.0000   1.0000   1.0000   1.0000   1.0000   1.0000   1.0000
     1.0000   1.0000   1.0000   1.0000   1.0000   1.0000   1.0000   1.0000
     1.0000   1.0000   1.0000   1.0000   1.0000   1.0000   1.0000   1.0000
     1.0000   1.0000   1.0000   1.0000   1.0000   1.0000   1.0000   1.0000
     1.0000   1.0000   1.0000   1.0000

          k = 0.3333 0.1925 0.0956 (  5655 PWs)   bands (ev):

   -13.1425 -13.0254 -12.9173 -12.7465  -2.2216  -2.1796  -2.1358  -2.1053
    -2.0574  -2.0355  -1.9978  -1.9766  -1.9435  -1.9123  -1.8897  -1.8536
    -1.8256  -1.8101  -1.8065  -1.7533  -1.7061  -1.6858  -1.6666  -1.6190
    -0.1164  -0.0096   0.2013   0.3386   1.0169   1.3483   1.7824   1.8977
     2.0034   2.1498   2.2028   2.3710

     occupation numbers 
     1.0000   1.0000   1.0000   1.0000   1.0000   1.0000   1.0000   1.0000
     1.0000   1.0000   1.0000   1.0000   1.0000   1.0000   1.0000   1.0000
     1.0000   1.0000   1.0000   1.0000   1.0000   1.0000   1.0000   1.0000
     1.0000   1.0000   1.0000   1.0000   1.0000   1.0000   1.0000   1.0000
     1.0000   1.0000   1.0000   1.0000

          k =-0.3333-0.1925 0.0956 (  5655 PWs)   bands (ev):

   -13.1424 -13.0254 -12.9172 -12.7465  -2.2214  -2.1834  -2.1331  -2.1013
    -2.0542  -2.0389  -1.9986  -1.9822  -1.9397  -1.9143  -1.8875  -1.8565
    -1.8257  -1.8071  -1.7991  -1.7630  -1.7067  -1.6831  -1.6663  -1.6205
    -0.1049  -0.0220   0.2334   0.3008   1.0407   1.3249   1.7709   1.9219
     2.0160   2.1278   2.2051   2.3723

     occupation numbers 
     1.0000   1.0000   1.0000   1.0000   1.0000   1.0000   1.0000   1.0000
     1.0000   1.0000   1.0000   1.0000   1.0000   1.0000   1.0000   1.0000
     1.0000   1.0000   1.0000   1.0000   1.0000   1.0000   1.0000   1.0000
     1.0000   1.0000   1.0000   1.0000   1.0000   1.0000   1.0000   1.0000
     1.0000   1.0000   1.0000   1.0000

          k = 0.3333-0.1925 0.0956 (  5655 PWs)   bands (ev):

   -13.1471 -13.0384 -12.9201 -12.7445  -2.2298  -2.1900  -2.1596  -2.1269
    -2.1144  -2.0547  -2.0172  -1.9720  -1.9404  -1.9111  -1.8741  -1.8563
    -1.8247  -1.8051  -1.7997  -1.7681  -1.6964  -1.6897  -1.6624  -1.6326
    -0.0616   0.1169   0.3090   0.4177   1.0698   1.3645   1.7425   1.8467
     2.0266   2.1405   2.2175   2.3621

     occupation numbers 
     1.0000   1.0000   1.0000   1.0000   1.0000   1.0000   1.0000   1.0000
     1.0000   1.0000   1.0000   1.0000   1.0000   1.0000   1.0000   1.0000
     1.0000   1.0000   1.0000   1.0000   1.0000   1.0000   1.0000   1.0000
     1.0000   1.0000   1.0000   1.0000   1.0000   1.0000   1.0000   1.0000
     1.0000   1.0000   1.0000   1.0000

          k =-0.3333 0.1925-0.1434 (  5658 PWs)   bands (ev):

   -13.1469 -13.0388 -12.9199 -12.7446  -2.2299  -2.1883  -2.1592  -2.1294
    -2.1159  -2.0540  -2.0148  -1.9706  -1.9400  -1.9087  -1.8766  -1.8561
    -1.8244  -1.8046  -1.8017  -1.7695  -1.6959  -1.6855  -1.6626  -1.6392
    -0.0559   0.0906   0.3616   0.3960   1.1427   1.2471   1.7562   1.8266
     2.0849   2.1595   2.1890   2.3580

     occupation numbers 
     1.0000   1.0000   1.0000   1.0000   1.0000   1.0000   1.0000   1.0000
     1.0000   1.0000   1.0000   1.0000   1.0000   1.0000   1.0000   1.0000
     1.0000   1.0000   1.0000   1.0000   1.0000   1.0000   1.0000   1.0000
     1.0000   1.0000   1.0000   1.0000   1.0000   1.0000   1.0000   1.0000
     1.0000   1.0000   1.0000   1.0000

          k = 0.3333 0.1925-0.1434 (  5658 PWs)   bands (ev):

   -13.1423 -13.0257 -12.9170 -12.7466  -2.2218  -2.1820  -2.1329  -2.1038
    -2.0562  -2.0383  -1.9980  -1.9744  -1.9423  -1.9132  -1.8896  -1.8544
    -1.8260  -1.8075  -1.8041  -1.7629  -1.7064  -1.6783  -1.6660  -1.6257
    -0.1158  -0.0235   0.2366   0.3182   1.1393   1.1882   1.7836   1.9026
     2.0484   2.1361   2.2090   2.3672

     occupation numbers 
     1.0000   1.0000   1.0000   1.0000   1.0000   1.0000   1.0000   1.0000
     1.0000   1.0000   1.0000   1.0000   1.0000   1.0000   1.0000   1.0000
     1.0000   1.0000   1.0000   1.0000   1.0000   1.0000   1.0000   1.0000
     1.0000   1.0000   1.0000   1.0000   1.0000   1.0000   1.0000   1.0000
     1.0000   1.0000   1.0000   1.0000

          k = 0.5000-0.2887 0.0000 (  5678 PWs)   bands (ev):

   -13.0873 -12.9792 -12.8762 -12.6952  -2.2206  -2.1769  -2.1449  -2.1024
    -2.0757  -2.0188  -1.9701  -1.9441  -1.8566  -1.8444  -1.8242  -1.8000
    -1.7970  -1.7814  -1.7532  -1.6788  -1.6753  -1.6633  -1.6322  -1.6126
    -0.3937  -0.1773  -0.1155   0.1788   0.9398   1.5334   1.7151   1.7559
     1.7993   1.9509   2.0263   2.2436

     occupation numbers 
     1.0000   1.0000   1.0000   1.0000   1.0000   1.0000   1.0000   1.0000
     1.0000   1.0000   1.0000   1.0000   1.0000   1.0000   1.0000   1.0000
     1.0000   1.0000   1.0000   1.0000   1.0000   1.0000   1.0000   1.0000
     1.0000   1.0000   1.0000   1.0000   1.0000   1.0000   1.0000   1.0000
     1.0000   1.0000   1.0000   1.0000

          k =-0.5000-0.2887 0.0000 (  5678 PWs)   bands (ev):

   -13.0809 -12.9606 -12.8731 -12.6981  -2.2029  -2.1573  -2.0918  -2.0843
    -2.0104  -1.9670  -1.9633  -1.9281  -1.8613  -1.8553  -1.8394  -1.7975
    -1.7938  -1.7802  -1.7525  -1.6797  -1.6757  -1.6409  -1.6323  -1.6131
    -0.5027  -0.4146  -0.2084   0.0361   1.0257   1.5505   1.6921   1.7445
     1.8089   1.9206   2.0100   2.2609

     occupation numbers 
     1.0000   1.0000   1.0000   1.0000   1.0000   1.0000   1.0000   1.0000
     1.0000   1.0000   1.0000   1.0000   1.0000   1.0000   1.0000   1.0000
     1.0000   1.0000   1.0000   1.0000   1.0000   1.0000   1.0000   1.0000
     1.0000   1.0000   1.0000   1.0000   1.0000   1.0000   1.0000   1.0000
     1.0000   1.0000   1.0000   1.0000

          k = 0.5000-0.2887 0.0478 (  5664 PWs)   bands (ev):

   -13.0873 -12.9793 -12.8761 -12.6952  -2.2212  -2.1756  -2.1440  -2.1003
    -2.0787  -2.0163  -1.9736  -1.9454  -1.8626  -1.8416  -1.8191  -1.7972
    -1.7956  -1.7815  -1.7546  -1.6801  -1.6753  -1.6637  -1.6322  -1.6126
    -0.4014  -0.1814  -0.0958   0.1622   0.9791   1.5349   1.6097   1.7309
     1.8696   1.9734   2.0374   2.2392

     occupation numbers 
     1.0000   1.0000   1.0000   1.0000   1.0000   1.0000   1.0000   1.0000
     1.0000   1.0000   1.0000   1.0000   1.0000   1.0000   1.0000   1.0000
     1.0000   1.0000   1.0000   1.0000   1.0000   1.0000   1.0000   1.0000
     1.0000   1.0000   1.0000   1.0000   1.0000   1.0000   1.0000   1.0000
     1.0000   1.0000   1.0000   1.0000

          k =-0.5000-0.2887 0.0478 (  5664 PWs)   bands (ev):

   -13.0809 -12.9606 -12.8730 -12.6981  -2.2037  -2.1558  -2.0910  -2.0816
    -2.0134  -1.9757  -1.9591  -1.9261  -1.8624  -1.8535  -1.8389  -1.7957
    -1.7925  -1.7803  -1.7534  -1.6808  -1.6756  -1.6410  -1.6324  -1.6130
    -0.5041  -0.4200  -0.1934   0.0212   1.0601   1.5471   1.6224   1.7400
     1.8356   1.9299   2.0278   2.2570

     occupation numbers 
     1.0000   1.0000   1.0000   1.0000   1.0000   1.0000   1.0000   1.0000
     1.0000   1.0000   1.0000   1.0000   1.0000   1.0000   1.0000   1.0000
     1.0000   1.0000   1.0000   1.0000   1.0000   1.0000   1.0000   1.0000
     1.0000   1.0000   1.0000   1.0000   1.0000   1.0000   1.0000   1.0000
     1.0000   1.0000   1.0000   1.0000

          k = 0.5000-0.2887 0.0956 (  5654 PWs)   bands (ev):

   -13.0872 -12.9794 -12.8760 -12.6952  -2.2222  -2.1734  -2.1418  -2.0959
    -2.0841  -2.0119  -1.9822  -1.9464  -1.8707  -1.8402  -1.8086  -1.7968
    -1.7884  -1.7817  -1.7585  -1.6829  -1.6753  -1.6646  -1.6321  -1.6126
    -0.4151  -0.1904  -0.0473   0.1198   1.0865   1.4227   1.5713   1.6904
     1.9202   2.0152   2.0575   2.2294

     occupation numbers 
     1.0000   1.0000   1.0000   1.0000   1.0000   1.0000   1.0000   1.0000
     1.0000   1.0000   1.0000   1.0000   1.0000   1.0000   1.0000   1.0000
     1.0000   1.0000   1.0000   1.0000   1.0000   1.0000   1.0000   1.0000
     1.0000   1.0000   1.0000   1.0000   1.0000   1.0000   1.0000   1.0000
     1.0000   1.0000   1.0000   1.0000

          k =-0.5000-0.2887 0.0956 (  5654 PWs)   bands (ev):

   -13.0809 -12.9606 -12.8730 -12.6981  -2.2051  -2.1531  -2.0890  -2.0755
    -2.0183  -1.9899  -1.9553  -1.9221  -1.8642  -1.8535  -1.8347  -1.7949
    -1.7880  -1.7804  -1.7552  -1.6832  -1.6754  -1.6412  -1.6329  -1.6130
    -0.5062  -0.4310  -0.1559  -0.0165   1.1541   1.4546   1.5865   1.7224
     1.8589   1.9512   2.0573   2.2485

     occupation numbers 
     1.0000   1.0000   1.0000   1.0000   1.0000   1.0000   1.0000   1.0000
     1.0000   1.0000   1.0000   1.0000   1.0000   1.0000   1.0000   1.0000
     1.0000   1.0000   1.0000   1.0000   1.0000   1.0000   1.0000   1.0000
     1.0000   1.0000   1.0000   1.0000   1.0000   1.0000   1.0000   1.0000
     1.0000   1.0000   1.0000   1.0000

          k = 0.5000-0.2887-0.1434 (  5668 PWs)   bands (ev):

   -13.0872 -12.9795 -12.8760 -12.6952  -2.2228  -2.1725  -2.1405  -2.0941
    -2.0859  -2.0099  -1.9872  -1.9465  -1.8741  -1.8400  -1.8033  -1.7965
    -1.7849  -1.7818  -1.7613  -1.6846  -1.6754  -1.6650  -1.6321  -1.6127
    -0.4213  -0.1950  -0.0111   0.0862   1.2124   1.2775   1.5848   1.6665
     1.9362   2.0359   2.0654   2.2240

     occupation numbers 
     1.0000   1.0000   1.0000   1.0000   1.0000   1.0000   1.0000   1.0000
     1.0000   1.0000   1.0000   1.0000   1.0000   1.0000   1.0000   1.0000
     1.0000   1.0000   1.0000   1.0000   1.0000   1.0000   1.0000   1.0000
     1.0000   1.0000   1.0000   1.0000   1.0000   1.0000   1.0000   1.0000
     1.0000   1.0000   1.0000   1.0000

          k =-0.5000-0.2887-0.1434 (  5668 PWs)   bands (ev):

   -13.0809 -12.9607 -12.8730 -12.6981  -2.2058  -2.1520  -2.0878  -2.0719
    -2.0201  -1.9977  -1.9540  -1.9201  -1.8652  -1.8545  -1.8319  -1.7949
    -1.7857  -1.7805  -1.7562  -1.6845  -1.6753  -1.6414  -1.6331  -1.6129
    -0.5071  -0.4365  -0.1266  -0.0461   1.2566   1.3383   1.5916   1.7105
     1.8690   1.9599   2.0706   2.2436

     occupation numbers 
     1.0000   1.0000   1.0000   1.0000   1.0000   1.0000   1.0000   1.0000
     1.0000   1.0000   1.0000   1.0000   1.0000   1.0000   1.0000   1.0000
     1.0000   1.0000   1.0000   1.0000   1.0000   1.0000   1.0000   1.0000
     1.0000   1.0000   1.0000   1.0000   1.0000   1.0000   1.0000   1.0000
     1.0000   1.0000   1.0000   1.0000

          k =-0.1667 0.2887 0.0000 (  5671 PWs)   bands (ev):

   -13.1780 -13.0616 -12.9419 -12.7716  -2.2135  -2.1743  -2.1611  -2.1385
    -2.1222  -2.0724  -2.0369  -2.0058  -1.9871  -1.9721  -1.9045  -1.8677
    -1.8381  -1.8314  -1.8038  -1.7649  -1.7161  -1.7080  -1.6666  -1.6184
    -0.0536   0.3352   0.3995   0.7316   1.1485   1.6488   1.7491   1.8325
     1.8913   2.0496   2.2522   2.3408

     occupation numbers 
     1.0000   1.0000   1.0000   1.0000   1.0000   1.0000   1.0000   1.0000
     1.0000   1.0000   1.0000   1.0000   1.0000   1.0000   1.0000   1.0000
     1.0000   1.0000   1.0000   1.0000   1.0000   1.0000   1.0000   1.0000
     1.0000   1.0000   1.0000   1.0000   1.0000   1.0000   1.0000   1.0000
     1.0000   1.0000   1.0000   1.0000

          k = 0.3333 0.0000 0.0000 (  5671 PWs)   bands (ev):

   -13.1752 -13.0619 -12.9428 -12.7686  -2.2031  -2.1773  -2.1646  -2.1436
    -2.1154  -2.0720  -2.0332  -2.0015  -1.9756  -1.9626  -1.8960  -1.8691
    -1.8398  -1.8236  -1.8035  -1.7656  -1.7186  -1.7079  -1.6709  -1.6169
    -0.0653   0.2914   0.3798   0.7014   1.0999   1.6825   1.7510   1.8065
     1.8997   2.0323   2.2663   2.3884

     occupation numbers 
     1.0000   1.0000   1.0000   1.0000   1.0000   1.0000   1.0000   1.0000
     1.0000   1.0000   1.0000   1.0000   1.0000   1.0000   1.0000   1.0000
     1.0000   1.0000   1.0000   1.0000   1.0000   1.0000   1.0000   1.0000
     1.0000   1.0000   1.0000   1.0000   1.0000   1.0000   1.0000   1.0000
     1.0000   1.0000   1.0000   1.0000

          k =-0.1667-0.2887 0.0478 (  5673 PWs)   bands (ev):

   -13.1747 -13.0537 -12.9394 -12.7730  -2.1969  -2.1769  -2.1534  -2.1260
    -2.0866  -2.0566  -2.0364  -2.0097  -1.9731  -1.9511  -1.9149  -1.8618
    -1.8414  -1.8322  -1.8136  -1.7679  -1.7149  -1.7021  -1.6699  -1.6175
    -0.0590   0.1717   0.3712   0.6048   1.0999   1.5891   1.7077   1.9238
     2.0055   2.1055   2.2648   2.3173

     occupation numbers 
     1.0000   1.0000   1.0000   1.0000   1.0000   1.0000   1.0000   1.0000
     1.0000   1.0000   1.0000   1.0000   1.0000   1.0000   1.0000   1.0000
     1.0000   1.0000   1.0000   1.0000   1.0000   1.0000   1.0000   1.0000
     1.0000   1.0000   1.0000   1.0000   1.0000   1.0000   1.0000   1.0000
     1.0000   1.0000   1.0000   1.0000

          k =-0.1667 0.2887-0.0478 (  5673 PWs)   bands (ev):

   -13.1778 -13.0621 -12.9415 -12.7717  -2.2138  -2.1730  -2.1617  -2.1408
    -2.1218  -2.0723  -2.0331  -2.0046  -1.9882  -1.9718  -1.9040  -1.8672
    -1.8426  -1.8284  -1.8046  -1.7693  -1.7151  -1.7036  -1.6661  -1.6235
    -0.0463   0.3002   0.4353   0.7265   1.1767   1.6143   1.6752   1.8238
     1.9653   2.0764   2.2438   2.3374

     occupation numbers 
     1.0000   1.0000   1.0000   1.0000   1.0000   1.0000   1.0000   1.0000
     1.0000   1.0000   1.0000   1.0000   1.0000   1.0000   1.0000   1.0000
     1.0000   1.0000   1.0000   1.0000   1.0000   1.0000   1.0000   1.0000
     1.0000   1.0000   1.0000   1.0000   1.0000   1.0000   1.0000   1.0000
     1.0000   1.0000   1.0000   1.0000

          k = 0.1667-0.2887-0.0478 (  5673 PWs)   bands (ev):

   -13.1778 -13.0621 -12.9414 -12.7718  -2.2131  -2.1756  -2.1621  -2.1377
    -2.1204  -2.0743  -2.0394  -2.0070  -1.9801  -1.9661  -1.9066  -1.8643
    -1.8475  -1.8243  -1.8053  -1.7726  -1.7126  -1.7069  -1.6669  -1.6233
    -0.0262   0.2480   0.4806   0.7157   1.1644   1.6101   1.7046   1.8081
     1.9827   2.0629   2.2494   2.3291

     occupation numbers 
     1.0000   1.0000   1.0000   1.0000   1.0000   1.0000   1.0000   1.0000
     1.0000   1.0000   1.0000   1.0000   1.0000   1.0000   1.0000   1.0000
     1.0000   1.0000   1.0000   1.0000   1.0000   1.0000   1.0000   1.0000
     1.0000   1.0000   1.0000   1.0000   1.0000   1.0000   1.0000   1.0000
     1.0000   1.0000   1.0000   1.0000

          k = 0.3333 0.0000 0.0478 (  5673 PWs)   bands (ev):

   -13.1751 -13.0624 -12.9424 -12.7687  -2.2026  -2.1782  -2.1644  -2.1450
    -2.1151  -2.0720  -2.0299  -1.9991  -1.9769  -1.9635  -1.8937  -1.8680
    -1.8438  -1.8213  -1.8050  -1.7707  -1.7171  -1.7032  -1.6710  -1.6217
    -0.0631   0.2748   0.4037   0.6947   1.1277   1.6033   1.7099   1.8313
     1.9521   2.0551   2.2623   2.3854

     occupation numbers 
     1.0000   1.0000   1.0000   1.0000   1.0000   1.0000   1.0000   1.0000
     1.0000   1.0000   1.0000   1.0000   1.0000   1.0000   1.0000   1.0000
     1.0000   1.0000   1.0000   1.0000   1.0000   1.0000   1.0000   1.0000
     1.0000   1.0000   1.0000   1.0000   1.0000   1.0000   1.0000   1.0000
     1.0000   1.0000   1.0000   1.0000

          k =-0.3333-0.0000 0.0478 (  5673 PWs)   bands (ev):

   -13.1750 -13.0625 -12.9424 -12.7687  -2.2033  -2.1784  -2.1649  -2.1412
    -2.1159  -2.0735  -2.0337  -2.0050  -1.9681  -1.9550  -1.8995  -1.8675
    -1.8436  -1.8225  -1.8035  -1.7740  -1.7132  -1.7076  -1.6709  -1.6222
    -0.0378   0.2128   0.4533   0.6838   1.1174   1.6191   1.7176   1.8011
     1.9895   2.0413   2.2563   2.3839

     occupation numbers 
     1.0000   1.0000   1.0000   1.0000   1.0000   1.0000   1.0000   1.0000
     1.0000   1.0000   1.0000   1.0000   1.0000   1.0000   1.0000   1.0000
     1.0000   1.0000   1.0000   1.0000   1.0000   1.0000   1.0000   1.0000
     1.0000   1.0000   1.0000   1.0000   1.0000   1.0000   1.0000   1.0000
     1.0000   1.0000   1.0000   1.0000

          k =-0.1667-0.2887 0.0956 (  5667 PWs)   bands (ev):

   -13.1744 -13.0547 -12.9385 -12.7732  -2.1971  -2.1772  -2.1553  -2.1255
    -2.0891  -2.0544  -2.0377  -1.9981  -1.9695  -1.9486  -1.9180  -1.8604
    -1.8485  -1.8305  -1.8139  -1.7778  -1.7142  -1.6947  -1.6678  -1.6285
    -0.0204   0.1055   0.4296   0.5869   1.1588   1.4361   1.7135   1.9286
     2.0833   2.1486   2.2415   2.2980

     occupation numbers 
     1.0000   1.0000   1.0000   1.0000   1.0000   1.0000   1.0000   1.0000
     1.0000   1.0000   1.0000   1.0000   1.0000   1.0000   1.0000   1.0000
     1.0000   1.0000   1.0000   1.0000   1.0000   1.0000   1.0000   1.0000
     1.0000   1.0000   1.0000   1.0000   1.0000   1.0000   1.0000   1.0000
     1.0000   1.0000   1.0000   1.0000

          k =-0.1667 0.2887-0.0956 (  5667 PWs)   bands (ev):

   -13.1774 -13.0631 -12.9406 -12.7720  -2.2137  -2.1727  -2.1633  -2.1417
    -2.1200  -2.0739  -2.0338  -2.0029  -1.9838  -1.9625  -1.9065  -1.8632
    -1.8528  -1.8221  -1.8067  -1.7807  -1.7130  -1.6960  -1.6652  -1.6347
    -0.0068   0.2126   0.5169   0.7012   1.2451   1.4744   1.6697   1.7978
     2.0456   2.1354   2.2265   2.3175

     occupation numbers 
     1.0000   1.0000   1.0000   1.0000   1.0000   1.0000   1.0000   1.0000
     1.0000   1.0000   1.0000   1.0000   1.0000   1.0000   1.0000   1.0000
     1.0000   1.0000   1.0000   1.0000   1.0000   1.0000   1.0000   1.0000
     1.0000   1.0000   1.0000   1.0000   1.0000   1.0000   1.0000   1.0000
     1.0000   1.0000   1.0000   1.0000

          k = 0.1667-0.2887-0.0956 (  5667 PWs)   bands (ev):

   -13.1774 -13.0632 -12.9405 -12.7720  -2.2131  -2.1756  -2.1634  -2.1390
    -2.1185  -2.0759  -2.0390  -2.0052  -1.9799  -1.9520  -1.9098  -1.8606
    -1.8571  -1.8173  -1.8090  -1.7847  -1.7117  -1.6981  -1.6667  -1.6339
     0.0266   0.1637   0.5530   0.6831   1.2253   1.4891   1.6835   1.7876
     2.0726   2.1057   2.2431   2.3036

     occupation numbers 
     1.0000   1.0000   1.0000   1.0000   1.0000   1.0000   1.0000   1.0000
     1.0000   1.0000   1.0000   1.0000   1.0000   1.0000   1.0000   1.0000
     1.0000   1.0000   1.0000   1.0000   1.0000   1.0000   1.0000   1.0000
     1.0000   1.0000   1.0000   1.0000   1.0000   1.0000   1.0000   1.0000
     1.0000   1.0000   1.0000   1.0000

          k = 0.3333 0.0000 0.0956 (  5667 PWs)   bands (ev):

   -13.1747 -13.0634 -12.9416 -12.7689  -2.2024  -2.1800  -2.1644  -2.1442
    -2.1152  -2.0733  -2.0287  -2.0003  -1.9703  -1.9554  -1.8940  -1.8656
    -1.8511  -1.8184  -1.8071  -1.7830  -1.7140  -1.6947  -1.6713  -1.6328
    -0.0324   0.1991   0.4863   0.6647   1.1957   1.4561   1.7142   1.7985
     2.0363   2.1087   2.2414   2.3764

     occupation numbers 
     1.0000   1.0000   1.0000   1.0000   1.0000   1.0000   1.0000   1.0000
     1.0000   1.0000   1.0000   1.0000   1.0000   1.0000   1.0000   1.0000
     1.0000   1.0000   1.0000   1.0000   1.0000   1.0000   1.0000   1.0000
     1.0000   1.0000   1.0000   1.0000   1.0000   1.0000   1.0000   1.0000
     1.0000   1.0000   1.0000   1.0000

          k =-0.3333-0.0000 0.0956 (  5667 PWs)   bands (ev):

   -13.1746 -13.0635 -12.9415 -12.7689  -2.2031  -2.1801  -2.1650  -2.1407
    -2.1158  -2.0747  -2.0320  -2.0048  -1.9678  -1.9387  -1.9033  -1.8662
    -1.8501  -1.8194  -1.8054  -1.7865  -1.7120  -1.6977  -1.6712  -1.6331
     0.0056   0.1422   0.5268   0.6449   1.1791   1.4743   1.7225   1.7819
     2.0612   2.1002   2.2323   2.3747

     occupation numbers 
     1.0000   1.0000   1.0000   1.0000   1.0000   1.0000   1.0000   1.0000
     1.0000   1.0000   1.0000   1.0000   1.0000   1.0000   1.0000   1.0000
     1.0000   1.0000   1.0000   1.0000   1.0000   1.0000   1.0000   1.0000
     1.0000   1.0000   1.0000   1.0000   1.0000   1.0000   1.0000   1.0000
     1.0000   1.0000   1.0000   1.0000

          k =-0.1667 0.2887 0.1434 (  5664 PWs)   bands (ev):

   -13.1772 -13.0637 -12.9401 -12.7721  -2.2134  -2.1740  -2.1640  -2.1408
    -2.1184  -2.0756  -2.0368  -2.0026  -1.9820  -1.9486  -1.9108  -1.8623
    -1.8570  -1.8158  -1.8102  -1.7889  -1.7119  -1.6924  -1.6654  -1.6407
     0.0467   0.1389   0.5750   0.6687   1.3125   1.3766   1.6761   1.7819
     2.0836   2.1576   2.2319   2.2906

     occupation numbers 
     1.0000   1.0000   1.0000   1.0000   1.0000   1.0000   1.0000   1.0000
     1.0000   1.0000   1.0000   1.0000   1.0000   1.0000   1.0000   1.0000
     1.0000   1.0000   1.0000   1.0000   1.0000   1.0000   1.0000   1.0000
     1.0000   1.0000   1.0000   1.0000   1.0000   1.0000   1.0000   1.0000
     1.0000   1.0000   1.0000   1.0000

          k = 0.3333 0.0000-0.1434 (  5664 PWs)   bands (ev):

   -13.1745 -13.0640 -12.9411 -12.7690  -2.2026  -2.1808  -2.1647  -2.1422
    -2.1155  -2.0745  -2.0301  -2.0021  -1.9690  -1.9382  -1.9000  -1.8669
    -1.8525  -1.8171  -1.8078  -1.7907  -1.7126  -1.6904  -1.6715  -1.6394
     0.0101   0.1355   0.5531   0.6236   1.2536   1.3686   1.7254   1.7741
     2.0661   2.1605   2.2086   2.3701

     occupation numbers 
     1.0000   1.0000   1.0000   1.0000   1.0000   1.0000   1.0000   1.0000
     1.0000   1.0000   1.0000   1.0000   1.0000   1.0000   1.0000   1.0000
     1.0000   1.0000   1.0000   1.0000   1.0000   1.0000   1.0000   1.0000
     1.0000   1.0000   1.0000   1.0000   1.0000   1.0000   1.0000   1.0000
     1.0000   1.0000   1.0000   1.0000

          k =-0.1667 0.4811 0.0000 (  5650 PWs)   bands (ev):

   -13.0877 -12.9655 -12.8724 -12.7025  -2.1890  -2.1273  -2.0949  -2.0565
    -2.0208  -1.9859  -1.9559  -1.9463  -1.9150  -1.9016  -1.8663  -1.8333
    -1.8051  -1.7824  -1.7461  -1.7203  -1.7060  -1.6424  -1.6197  -1.5779
    -0.1862  -0.1421  -0.0495   0.2896   0.9769   1.2397   1.3887   1.5639
     1.7975   1.8778   1.9096   2.0525

     occupation numbers 
     1.0000   1.0000   1.0000   1.0000   1.0000   1.0000   1.0000   1.0000
     1.0000   1.0000   1.0000   1.0000   1.0000   1.0000   1.0000   1.0000
     1.0000   1.0000   1.0000   1.0000   1.0000   1.0000   1.0000   1.0000
     1.0000   1.0000   1.0000   1.0000   1.0000   1.0000   1.0000   1.0000
     1.0000   1.0000   1.0000   1.0000

          k =-0.3333 0.3849 0.0000 (  5650 PWs)   bands (ev):

   -13.0880 -12.9753 -12.8750 -12.6979  -2.1921  -2.1394  -2.1157  -2.0755
    -2.0460  -2.0212  -1.9503  -1.9353  -1.9026  -1.8759  -1.8508  -1.8282
    -1.8063  -1.7978  -1.7509  -1.7229  -1.7029  -1.6457  -1.6282  -1.5769
    -0.1854  -0.0068   0.0807   0.2351   0.9546   1.2214   1.3397   1.5546
     1.8134   1.8713   1.9141   2.0790

     occupation numbers 
     1.0000   1.0000   1.0000   1.0000   1.0000   1.0000   1.0000   1.0000
     1.0000   1.0000   1.0000   1.0000   1.0000   1.0000   1.0000   1.0000
     1.0000   1.0000   1.0000   1.0000   1.0000   1.0000   1.0000   1.0000
     1.0000   1.0000   1.0000   1.0000   1.0000   1.0000   1.0000   1.0000
     1.0000   1.0000   1.0000   1.0000

          k = 0.5000 0.0962 0.0000 (  5650 PWs)   bands (ev):

   -13.0833 -12.9662 -12.8740 -12.6977  -2.1835  -2.1261  -2.0968  -2.0384
    -2.0209  -1.9842  -1.9529  -1.9357  -1.9066  -1.8812  -1.8540  -1.8344
    -1.7988  -1.7855  -1.7505  -1.7207  -1.7002  -1.6379  -1.6225  -1.5776
    -0.2897  -0.1352  -0.0335   0.1493   0.9859   1.2614   1.3966   1.5666
     1.8107   1.8540   1.9103   2.0832

     occupation numbers 
     1.0000   1.0000   1.0000   1.0000   1.0000   1.0000   1.0000   1.0000
     1.0000   1.0000   1.0000   1.0000   1.0000   1.0000   1.0000   1.0000
     1.0000   1.0000   1.0000   1.0000   1.0000   1.0000   1.0000   1.0000
     1.0000   1.0000   1.0000   1.0000   1.0000   1.0000   1.0000   1.0000
     1.0000   1.0000   1.0000   1.0000

          k =-0.3333-0.3849 0.0000 (  5650 PWs)   bands (ev):

   -13.0832 -12.9613 -12.8727 -12.7000  -2.1802  -2.1215  -2.0825  -2.0458
    -2.0190  -1.9625  -1.9483  -1.9281  -1.8936  -1.8834  -1.8568  -1.8270
    -1.8054  -1.7880  -1.7515  -1.7170  -1.6963  -1.6510  -1.6300  -1.5690
    -0.3155  -0.2373  -0.0650   0.1650   0.9933   1.2632   1.4284   1.5976
     1.8295   1.8606   1.9025   2.0544

     occupation numbers 
     1.0000   1.0000   1.0000   1.0000   1.0000   1.0000   1.0000   1.0000
     1.0000   1.0000   1.0000   1.0000   1.0000   1.0000   1.0000   1.0000
     1.0000   1.0000   1.0000   1.0000   1.0000   1.0000   1.0000   1.0000
     1.0000   1.0000   1.0000   1.0000   1.0000   1.0000   1.0000   1.0000
     1.0000   1.0000   1.0000   1.0000

          k = 0.5000-0.0962 0.0000 (  5650 PWs)   bands (ev):

   -13.0865 -12.9755 -12.8756 -12.6963  -2.1876  -2.1423  -2.1163  -2.0758
    -2.0410  -2.0241  -1.9482  -1.9275  -1.9021  -1.8734  -1.8452  -1.8252
    -1.8000  -1.7930  -1.7502  -1.7228  -1.6985  -1.6424  -1.6299  -1.5841
    -0.2276  -0.0306   0.0624   0.2330   0.9667   1.2150   1.3468   1.5474
     1.8128   1.8621   1.9374   2.0907

     occupation numbers 
     1.0000   1.0000   1.0000   1.0000   1.0000   1.0000   1.0000   1.0000
     1.0000   1.0000   1.0000   1.0000   1.0000   1.0000   1.0000   1.0000
     1.0000   1.0000   1.0000   1.0000   1.0000   1.0000   1.0000   1.0000
     1.0000   1.0000   1.0000   1.0000   1.0000   1.0000   1.0000   1.0000
     1.0000   1.0000   1.0000   1.0000

          k =-0.1667-0.4811 0.0478 (  5655 PWs)   bands (ev):

   -13.0861 -12.9609 -12.8716 -12.7032  -2.1816  -2.1171  -2.0961  -2.0531
    -2.0202  -1.9701  -1.9483  -1.9299  -1.9099  -1.8877  -1.8636  -1.8198
    -1.8071  -1.7843  -1.7481  -1.7170  -1.6965  -1.6511  -1.6292  -1.5763
    -0.2838  -0.2174  -0.1003   0.2764   1.0304   1.2327   1.3846   1.6336
     1.7500   1.8926   1.9321   2.0491

     occupation numbers 
     1.0000   1.0000   1.0000   1.0000   1.0000   1.0000   1.0000   1.0000
     1.0000   1.0000   1.0000   1.0000   1.0000   1.0000   1.0000   1.0000
     1.0000   1.0000   1.0000   1.0000   1.0000   1.0000   1.0000   1.0000
     1.0000   1.0000   1.0000   1.0000   1.0000   1.0000   1.0000   1.0000
     1.0000   1.0000   1.0000   1.0000

          k =-0.1667 0.4811-0.0478 (  5655 PWs)   bands (ev):

   -13.0877 -12.9656 -12.8724 -12.7025  -2.1887  -2.1249  -2.1002  -2.0522
    -2.0187  -1.9912  -1.9518  -1.9425  -1.9230  -1.9026  -1.8658  -1.8275
    -1.8063  -1.7854  -1.7464  -1.7199  -1.7075  -1.6406  -1.6189  -1.5790
    -0.1862  -0.1445  -0.0481   0.2852   0.9884   1.2493   1.3901   1.5843
     1.7114   1.8842   1.9458   2.0585

     occupation numbers 
     1.0000   1.0000   1.0000   1.0000   1.0000   1.0000   1.0000   1.0000
     1.0000   1.0000   1.0000   1.0000   1.0000   1.0000   1.0000   1.0000
     1.0000   1.0000   1.0000   1.0000   1.0000   1.0000   1.0000   1.0000
     1.0000   1.0000   1.0000   1.0000   1.0000   1.0000   1.0000   1.0000
     1.0000   1.0000   1.0000   1.0000

          k = 0.1667-0.4811-0.0478 (  5655 PWs)   bands (ev):

   -13.0877 -12.9656 -12.8724 -12.7025  -2.1884  -2.1296  -2.0887  -2.0622
    -2.0202  -1.9806  -1.9593  -1.9518  -1.9087  -1.8999  -1.8668  -1.8385
    -1.8027  -1.7808  -1.7484  -1.7247  -1.7015  -1.6418  -1.6205  -1.5782
    -0.1913  -0.1526  -0.0315   0.2825   1.0109   1.2419   1.3332   1.6119
     1.7762   1.8243   1.9422   2.0709

     occupation numbers 
     1.0000   1.0000   1.0000   1.0000   1.0000   1.0000   1.0000   1.0000
     1.0000   1.0000   1.0000   1.0000   1.0000   1.0000   1.0000   1.0000
     1.0000   1.0000   1.0000   1.0000   1.0000   1.0000   1.0000   1.0000
     1.0000   1.0000   1.0000   1.0000   1.0000   1.0000   1.0000   1.0000
     1.0000   1.0000   1.0000   1.0000

          k =-0.3333 0.3849 0.0478 (  5655 PWs)   bands (ev):

   -13.0879 -12.9753 -12.8750 -12.6979  -2.1916  -2.1384  -2.1179  -2.0740
    -2.0464  -2.0221  -1.9522  -1.9248  -1.9009  -1.8885  -1.8495  -1.8256
    -1.8072  -1.7967  -1.7529  -1.7251  -1.7002  -1.6439  -1.6295  -1.5774
    -0.1878  -0.0182   0.1015   0.2236   0.9762   1.2412   1.3027   1.5936
     1.7087   1.8982   1.9429   2.0897

     occupation numbers 
     1.0000   1.0000   1.0000   1.0000   1.0000   1.0000   1.0000   1.0000
     1.0000   1.0000   1.0000   1.0000   1.0000   1.0000   1.0000   1.0000
     1.0000   1.0000   1.0000   1.0000   1.0000   1.0000   1.0000   1.0000
     1.0000   1.0000   1.0000   1.0000   1.0000   1.0000   1.0000   1.0000
     1.0000   1.0000   1.0000   1.0000

          k = 0.5000 0.0962 0.0478 (  5655 PWs)   bands (ev):

   -13.0833 -12.9662 -12.8740 -12.6977  -2.1829  -2.1254  -2.0986  -2.0374
    -2.0176  -1.9884  -1.9522  -1.9339  -1.9079  -1.8843  -1.8548  -1.8261
    -1.8012  -1.7874  -1.7508  -1.7230  -1.6996  -1.6367  -1.6216  -1.5786
    -0.2877  -0.1428  -0.0277   0.1432   1.0014   1.2679   1.3910   1.5918
     1.7261   1.8779   1.9285   2.0895

     occupation numbers 
     1.0000   1.0000   1.0000   1.0000   1.0000   1.0000   1.0000   1.0000
     1.0000   1.0000   1.0000   1.0000   1.0000   1.0000   1.0000   1.0000
     1.0000   1.0000   1.0000   1.0000   1.0000   1.0000   1.0000   1.0000
     1.0000   1.0000   1.0000   1.0000   1.0000   1.0000   1.0000   1.0000
     1.0000   1.0000   1.0000   1.0000

          k =-0.5000-0.0962 0.0478 (  5655 PWs)   bands (ev):

   -13.0833 -12.9662 -12.8740 -12.6977  -2.1831  -2.1285  -2.0920  -2.0424
    -2.0203  -1.9808  -1.9540  -1.9389  -1.9030  -1.8798  -1.8512  -1.8412
    -1.7969  -1.7860  -1.7507  -1.7244  -1.6972  -1.6371  -1.6230  -1.5780
    -0.2938  -0.1429  -0.0113   0.1330   1.0193   1.2735   1.3405   1.6023
     1.7613   1.8408   1.9510   2.0861

     occupation numbers 
     1.0000   1.0000   1.0000   1.0000   1.0000   1.0000   1.0000   1.0000
     1.0000   1.0000   1.0000   1.0000   1.0000   1.0000   1.0000   1.0000
     1.0000   1.0000   1.0000   1.0000   1.0000   1.0000   1.0000   1.0000
     1.0000   1.0000   1.0000   1.0000   1.0000   1.0000   1.0000   1.0000
     1.0000   1.0000   1.0000   1.0000

          k = 0.3333-0.3849 0.0478 (  5655 PWs)   bands (ev):

   -13.0879 -12.9753 -12.8750 -12.6979  -2.1910  -2.1418  -2.1127  -2.0818
    -2.0404  -2.0162  -1.9551  -1.9414  -1.9018  -1.8667  -1.8544  -1.8303
    -1.8046  -1.7974  -1.7505  -1.7271  -1.7015  -1.6445  -1.6282  -1.5773
    -0.1941   0.0272   0.0554   0.2273   0.9812   1.2340   1.3150   1.5616
     1.7623   1.8752   1.9351   2.0915

     occupation numbers 
     1.0000   1.0000   1.0000   1.0000   1.0000   1.0000   1.0000   1.0000
     1.0000   1.0000   1.0000   1.0000   1.0000   1.0000   1.0000   1.0000
     1.0000   1.0000   1.0000   1.0000   1.0000   1.0000   1.0000   1.0000
     1.0000   1.0000   1.0000   1.0000   1.0000   1.0000   1.0000   1.0000
     1.0000   1.0000   1.0000   1.0000

          k =-0.3333-0.3849-0.0478 (  5655 PWs)   bands (ev):

   -13.0832 -12.9613 -12.8727 -12.7001  -2.1803  -2.1178  -2.0874  -2.0414
    -2.0227  -1.9622  -1.9509  -1.9231  -1.8933  -1.8854  -1.8577  -1.8249
    -1.8070  -1.7874  -1.7514  -1.7200  -1.6947  -1.6490  -1.6310  -1.5695
    -0.3098  -0.2499  -0.0584   0.1591   1.0284   1.2654   1.3754   1.6463
     1.7591   1.8814   1.9215   2.0579

     occupation numbers 
     1.0000   1.0000   1.0000   1.0000   1.0000   1.0000   1.0000   1.0000
     1.0000   1.0000   1.0000   1.0000   1.0000   1.0000   1.0000   1.0000
     1.0000   1.0000   1.0000   1.0000   1.0000   1.0000   1.0000   1.0000
     1.0000   1.0000   1.0000   1.0000   1.0000   1.0000   1.0000   1.0000
     1.0000   1.0000   1.0000   1.0000

          k = 0.5000-0.0962-0.0478 (  5655 PWs)   bands (ev):

   -13.0865 -12.9755 -12.8755 -12.6963  -2.1873  -2.1411  -2.1174  -2.0756
    -2.0429  -2.0231  -1.9455  -1.9251  -1.9003  -1.8822  -1.8456  -1.8196
    -1.8009  -1.7941  -1.7519  -1.7257  -1.6951  -1.6419  -1.6299  -1.5849
    -0.2332  -0.0301   0.0731   0.2223   0.9932   1.2254   1.3087   1.5943
     1.7145   1.8844   1.9595   2.1045

     occupation numbers 
     1.0000   1.0000   1.0000   1.0000   1.0000   1.0000   1.0000   1.0000
     1.0000   1.0000   1.0000   1.0000   1.0000   1.0000   1.0000   1.0000
     1.0000   1.0000   1.0000   1.0000   1.0000   1.0000   1.0000   1.0000
     1.0000   1.0000   1.0000   1.0000   1.0000   1.0000   1.0000   1.0000
     1.0000   1.0000   1.0000   1.0000

          k =-0.5000 0.0962-0.0478 (  5655 PWs)   bands (ev):

   -13.0865 -12.9755 -12.8755 -12.6963  -2.1865  -2.1443  -2.1130  -2.0827
    -2.0348  -2.0203  -1.9562  -1.9277  -1.9038  -1.8651  -1.8467  -1.8296
    -1.7970  -1.7927  -1.7502  -1.7255  -1.6985  -1.6402  -1.6307  -1.5845
    -0.2328  -0.0173   0.0542   0.2248   0.9926   1.2393   1.3180   1.5456
     1.7427   1.9058   1.9493   2.0938

     occupation numbers 
     1.0000   1.0000   1.0000   1.0000   1.0000   1.0000   1.0000   1.0000
     1.0000   1.0000   1.0000   1.0000   1.0000   1.0000   1.0000   1.0000
     1.0000   1.0000   1.0000   1.0000   1.0000   1.0000   1.0000   1.0000
     1.0000   1.0000   1.0000   1.0000   1.0000   1.0000   1.0000   1.0000
     1.0000   1.0000   1.0000   1.0000

          k = 0.3333 0.3849-0.0478 (  5655 PWs)   bands (ev):

   -13.0832 -12.9613 -12.8727 -12.7001  -2.1793  -2.1259  -2.0772  -2.0473
    -2.0146  -1.9639  -1.9476  -1.9352  -1.8955  -1.8774  -1.8573  -1.8270
    -1.8047  -1.7883  -1.7517  -1.7199  -1.6948  -1.6510  -1.6294  -1.5693
    -0.3174  -0.2390  -0.0574   0.1547   1.0094   1.2788   1.4317   1.5711
     1.7861   1.8856   1.9037   2.0693

     occupation numbers 
     1.0000   1.0000   1.0000   1.0000   1.0000   1.0000   1.0000   1.0000
     1.0000   1.0000   1.0000   1.0000   1.0000   1.0000   1.0000   1.0000
     1.0000   1.0000   1.0000   1.0000   1.0000   1.0000   1.0000   1.0000
     1.0000   1.0000   1.0000   1.0000   1.0000   1.0000   1.0000   1.0000
     1.0000   1.0000   1.0000   1.0000

          k =-0.1667-0.4811 0.0956 (  5655 PWs)   bands (ev):

   -13.0861 -12.9609 -12.8716 -12.7032  -2.1811  -2.1160  -2.0972  -2.0499
    -2.0210  -1.9693  -1.9521  -1.9331  -1.9057  -1.8865  -1.8666  -1.8167
    -1.8058  -1.7850  -1.7491  -1.7226  -1.6938  -1.6488  -1.6295  -1.5773
    -0.2850  -0.2296  -0.0863   0.2639   1.1010   1.2288   1.3507   1.5951
     1.7470   1.8641   1.9577   2.0728

     occupation numbers 
     1.0000   1.0000   1.0000   1.0000   1.0000   1.0000   1.0000   1.0000
     1.0000   1.0000   1.0000   1.0000   1.0000   1.0000   1.0000   1.0000
     1.0000   1.0000   1.0000   1.0000   1.0000   1.0000   1.0000   1.0000
     1.0000   1.0000   1.0000   1.0000   1.0000   1.0000   1.0000   1.0000
     1.0000   1.0000   1.0000   1.0000

          k =-0.1667 0.4811-0.0956 (  5655 PWs)   bands (ev):

   -13.0877 -12.9657 -12.8723 -12.7025  -2.1877  -2.1252  -2.1006  -2.0510
    -2.0169  -1.9921  -1.9536  -1.9382  -1.9299  -1.8975  -1.8682  -1.8253
    -1.8050  -1.7871  -1.7491  -1.7245  -1.7039  -1.6381  -1.6190  -1.5805
    -0.1880  -0.1617  -0.0268   0.2729   1.0379   1.2340   1.3938   1.5883
     1.6548   1.8583   1.9732   2.0822

     occupation numbers 
     1.0000   1.0000   1.0000   1.0000   1.0000   1.0000   1.0000   1.0000
     1.0000   1.0000   1.0000   1.0000   1.0000   1.0000   1.0000   1.0000
     1.0000   1.0000   1.0000   1.0000   1.0000   1.0000   1.0000   1.0000
     1.0000   1.0000   1.0000   1.0000   1.0000   1.0000   1.0000   1.0000
     1.0000   1.0000   1.0000   1.0000

          k = 0.1667-0.4811-0.0956 (  5655 PWs)   bands (ev):

   -13.0877 -12.9657 -12.8723 -12.7025  -2.1874  -2.1299  -2.0891  -2.0625
    -2.0135  -1.9882  -1.9575  -1.9509  -1.9121  -1.8940  -1.8715  -1.8354
    -1.8016  -1.7816  -1.7518  -1.7273  -1.6996  -1.6390  -1.6208  -1.5796
    -0.1942  -0.1658  -0.0125   0.2695   1.0778   1.2032   1.3376   1.6121
     1.7216   1.8076   1.9708   2.0917

     occupation numbers 
     1.0000   1.0000   1.0000   1.0000   1.0000   1.0000   1.0000   1.0000
     1.0000   1.0000   1.0000   1.0000   1.0000   1.0000   1.0000   1.0000
     1.0000   1.0000   1.0000   1.0000   1.0000   1.0000   1.0000   1.0000
     1.0000   1.0000   1.0000   1.0000   1.0000   1.0000   1.0000   1.0000
     1.0000   1.0000   1.0000   1.0000

          k =-0.3333 0.3849 0.0956 (  5655 PWs)   bands (ev):

   -13.0879 -12.9754 -12.8749 -12.6979  -2.1899  -2.1392  -2.1192  -2.0770
    -2.0411  -2.0190  -1.9562  -1.9243  -1.9026  -1.8867  -1.8518  -1.8250
    -1.8050  -1.7956  -1.7554  -1.7298  -1.6975  -1.6400  -1.6316  -1.5783
    -0.1982  -0.0133   0.1263   0.1922   1.0345   1.2285   1.3082   1.5643
     1.6623   1.8804   1.9762   2.1119

     occupation numbers 
     1.0000   1.0000   1.0000   1.0000   1.0000   1.0000   1.0000   1.0000
     1.0000   1.0000   1.0000   1.0000   1.0000   1.0000   1.0000   1.0000
     1.0000   1.0000   1.0000   1.0000   1.0000   1.0000   1.0000   1.0000
     1.0000   1.0000   1.0000   1.0000   1.0000   1.0000   1.0000   1.0000
     1.0000   1.0000   1.0000   1.0000

          k = 0.5000 0.0962 0.0956 (  5655 PWs)   bands (ev):

   -13.0833 -12.9663 -12.8739 -12.6977  -2.1819  -2.1273  -2.0963  -2.0373
    -2.0166  -1.9897  -1.9519  -1.9348  -1.9064  -1.8848  -1.8557  -1.8214
    -1.8020  -1.7903  -1.7516  -1.7281  -1.6967  -1.6348  -1.6207  -1.5802
    -0.2896  -0.1574   0.0040   0.1166   1.0573   1.2507   1.3917   1.6017
     1.6534   1.8708   1.9615   2.0984

     occupation numbers 
     1.0000   1.0000   1.0000   1.0000   1.0000   1.0000   1.0000   1.0000
     1.0000   1.0000   1.0000   1.0000   1.0000   1.0000   1.0000   1.0000
     1.0000   1.0000   1.0000   1.0000   1.0000   1.0000   1.0000   1.0000
     1.0000   1.0000   1.0000   1.0000   1.0000   1.0000   1.0000   1.0000
     1.0000   1.0000   1.0000   1.0000

          k =-0.5000-0.0962 0.0956 (  5655 PWs)   bands (ev):

   -13.0833 -12.9663 -12.8739 -12.6977  -2.1821  -2.1301  -2.0893  -2.0460
    -2.0142  -1.9848  -1.9528  -1.9404  -1.9007  -1.8804  -1.8555  -1.8345
    -1.7972  -1.7883  -1.7515  -1.7290  -1.6949  -1.6350  -1.6224  -1.5795
    -0.2957  -0.1564   0.0272   0.0984   1.0878   1.2360   1.3462   1.5946
     1.7090   1.8368   1.9811   2.0943

     occupation numbers 
     1.0000   1.0000   1.0000   1.0000   1.0000   1.0000   1.0000   1.0000
     1.0000   1.0000   1.0000   1.0000   1.0000   1.0000   1.0000   1.0000
     1.0000   1.0000   1.0000   1.0000   1.0000   1.0000   1.0000   1.0000
     1.0000   1.0000   1.0000   1.0000   1.0000   1.0000   1.0000   1.0000
     1.0000   1.0000   1.0000   1.0000

          k = 0.3333-0.3849 0.0956 (  5655 PWs)   bands (ev):

   -13.0879 -12.9754 -12.8749 -12.6979  -2.1892  -2.1428  -2.1137  -2.0844
    -2.0341  -2.0139  -1.9615  -1.9406  -1.8984  -1.8695  -1.8563  -1.8284
    -1.8050  -1.7942  -1.7530  -1.7319  -1.6986  -1.6413  -1.6296  -1.5782
    -0.2036   0.0229   0.0817   0.2029   1.0402   1.2189   1.3265   1.5235
     1.7123   1.8622   1.9734   2.1117

     occupation numbers 
     1.0000   1.0000   1.0000   1.0000   1.0000   1.0000   1.0000   1.0000
     1.0000   1.0000   1.0000   1.0000   1.0000   1.0000   1.0000   1.0000
     1.0000   1.0000   1.0000   1.0000   1.0000   1.0000   1.0000   1.0000
     1.0000   1.0000   1.0000   1.0000   1.0000   1.0000   1.0000   1.0000
     1.0000   1.0000   1.0000   1.0000

          k =-0.3333-0.3849-0.0956 (  5655 PWs)   bands (ev):

   -13.0832 -12.9614 -12.8726 -12.7001  -2.1795  -2.1192  -2.0871  -2.0336
    -2.0259  -1.9650  -1.9527  -1.9234  -1.8946  -1.8821  -1.8590  -1.8222
    -1.8082  -1.7869  -1.7516  -1.7251  -1.6926  -1.6467  -1.6314  -1.5704
    -0.3017  -0.2684  -0.0425   0.1413   1.0967   1.2603   1.3479   1.6062
     1.7534   1.8665   1.9420   2.0744

     occupation numbers 
     1.0000   1.0000   1.0000   1.0000   1.0000   1.0000   1.0000   1.0000
     1.0000   1.0000   1.0000   1.0000   1.0000   1.0000   1.0000   1.0000
     1.0000   1.0000   1.0000   1.0000   1.0000   1.0000   1.0000   1.0000
     1.0000   1.0000   1.0000   1.0000   1.0000   1.0000   1.0000   1.0000
     1.0000   1.0000   1.0000   1.0000

          k = 0.5000-0.0962-0.0956 (  5655 PWs)   bands (ev):

   -13.0864 -12.9756 -12.8755 -12.6963  -2.1859  -2.1414  -2.1174  -2.0802
    -2.0390  -2.0188  -1.9497  -1.9240  -1.9024  -1.8802  -1.8479  -1.8178
    -1.7969  -1.7960  -1.7541  -1.7299  -1.6929  -1.6388  -1.6308  -1.5861
    -0.2429  -0.0237   0.0887   0.1968   1.0611   1.2150   1.3024   1.5705
     1.6544   1.8876   1.9861   2.1213

     occupation numbers 
     1.0000   1.0000   1.0000   1.0000   1.0000   1.0000   1.0000   1.0000
     1.0000   1.0000   1.0000   1.0000   1.0000   1.0000   1.0000   1.0000
     1.0000   1.0000   1.0000   1.0000   1.0000   1.0000   1.0000   1.0000
     1.0000   1.0000   1.0000   1.0000   1.0000   1.0000   1.0000   1.0000
     1.0000   1.0000   1.0000   1.0000

          k =-0.5000 0.0962-0.0956 (  5655 PWs)   bands (ev):

   -13.0864 -12.9756 -12.8755 -12.6963  -2.1850  -2.1449  -2.1118  -2.0878
    -2.0297  -2.0169  -1.9613  -1.9278  -1.9021  -1.8664  -1.8489  -1.8270
    -1.7967  -1.7907  -1.7525  -1.7303  -1.6956  -1.6365  -1.6323  -1.5857
    -0.2424  -0.0111   0.0674   0.2020   1.0542   1.2422   1.3110   1.5058
     1.6939   1.8943   1.9888   2.1102

     occupation numbers 
     1.0000   1.0000   1.0000   1.0000   1.0000   1.0000   1.0000   1.0000
     1.0000   1.0000   1.0000   1.0000   1.0000   1.0000   1.0000   1.0000
     1.0000   1.0000   1.0000   1.0000   1.0000   1.0000   1.0000   1.0000
     1.0000   1.0000   1.0000   1.0000   1.0000   1.0000   1.0000   1.0000
     1.0000   1.0000   1.0000   1.0000

          k = 0.3333 0.3849-0.0956 (  5655 PWs)   bands (ev):

   -13.0831 -12.9614 -12.8726 -12.7001  -2.1784  -2.1269  -2.0781  -2.0422
    -2.0130  -1.9696  -1.9500  -1.9323  -1.8971  -1.8758  -1.8579  -1.8239
    -1.8061  -1.7878  -1.7519  -1.7251  -1.6926  -1.6489  -1.6296  -1.5702
    -0.3132  -0.2537  -0.0412   0.1369   1.0631   1.2939   1.4083   1.5255
     1.7733   1.8705   1.9281   2.0847

     occupation numbers 
     1.0000   1.0000   1.0000   1.0000   1.0000   1.0000   1.0000   1.0000
     1.0000   1.0000   1.0000   1.0000   1.0000   1.0000   1.0000   1.0000
     1.0000   1.0000   1.0000   1.0000   1.0000   1.0000   1.0000   1.0000
     1.0000   1.0000   1.0000   1.0000   1.0000   1.0000   1.0000   1.0000
     1.0000   1.0000   1.0000   1.0000

          k =-0.1667 0.4811 0.1434 (  5658 PWs)   bands (ev):

   -13.0876 -12.9657 -12.8723 -12.7025  -2.1871  -2.1279  -2.0958  -2.0560
    -2.0102  -1.9953  -1.9568  -1.9432  -1.9229  -1.8903  -1.8743  -1.8282
    -1.8028  -1.7849  -1.7521  -1.7272  -1.7007  -1.6372  -1.6200  -1.5808
    -0.1899  -0.1733  -0.0095   0.2643   1.1039   1.1764   1.4064   1.5316
     1.7132   1.8179   1.9818   2.0964

     occupation numbers 
     1.0000   1.0000   1.0000   1.0000   1.0000   1.0000   1.0000   1.0000
     1.0000   1.0000   1.0000   1.0000   1.0000   1.0000   1.0000   1.0000
     1.0000   1.0000   1.0000   1.0000   1.0000   1.0000   1.0000   1.0000
     1.0000   1.0000   1.0000   1.0000   1.0000   1.0000   1.0000   1.0000
     1.0000   1.0000   1.0000   1.0000

          k =-0.3333 0.3849-0.1434 (  5658 PWs)   bands (ev):

   -13.0879 -12.9755 -12.8749 -12.6979  -2.1887  -2.1412  -2.1180  -2.0813
    -2.0339  -2.0163  -1.9605  -1.9348  -1.8981  -1.8783  -1.8555  -1.8258
    -1.8045  -1.7936  -1.7560  -1.7326  -1.6970  -1.6383  -1.6320  -1.5788
    -0.2055   0.0002   0.1338   0.1709   1.0823   1.1798   1.4032   1.4368
     1.7041   1.8587   1.9877   2.1211

     occupation numbers 
     1.0000   1.0000   1.0000   1.0000   1.0000   1.0000   1.0000   1.0000
     1.0000   1.0000   1.0000   1.0000   1.0000   1.0000   1.0000   1.0000
     1.0000   1.0000   1.0000   1.0000   1.0000   1.0000   1.0000   1.0000
     1.0000   1.0000   1.0000   1.0000   1.0000   1.0000   1.0000   1.0000
     1.0000   1.0000   1.0000   1.0000

          k = 0.5000 0.0962-0.1434 (  5658 PWs)   bands (ev):

   -13.0832 -12.9663 -12.8739 -12.6977  -2.1815  -2.1296  -2.0920  -2.0424
    -2.0124  -1.9900  -1.9515  -1.9384  -1.9032  -1.8815  -1.8581  -1.8245
    -1.7999  -1.7907  -1.7522  -1.7305  -1.6948  -1.6340  -1.6211  -1.5807
    -0.2935  -0.1635   0.0464   0.0785   1.1261   1.1936   1.4137   1.5287
     1.6986   1.8478   1.9827   2.1001

     occupation numbers 
     1.0000   1.0000   1.0000   1.0000   1.0000   1.0000   1.0000   1.0000
     1.0000   1.0000   1.0000   1.0000   1.0000   1.0000   1.0000   1.0000
     1.0000   1.0000   1.0000   1.0000   1.0000   1.0000   1.0000   1.0000
     1.0000   1.0000   1.0000   1.0000   1.0000   1.0000   1.0000   1.0000
     1.0000   1.0000   1.0000   1.0000

          k =-0.3333-0.3849 0.1434 (  5658 PWs)   bands (ev):

   -13.0831 -12.9614 -12.8726 -12.7001  -2.1785  -2.1239  -2.0831  -2.0342
    -2.0195  -1.9707  -1.9518  -1.9261  -1.8969  -1.8784  -1.8587  -1.8212
    -1.8080  -1.7870  -1.7519  -1.7275  -1.6917  -1.6468  -1.6306  -1.5708
    -0.3032  -0.2705  -0.0326   0.1290   1.1180   1.2614   1.3920   1.5135
     1.7930   1.8442   1.9450   2.0860

     occupation numbers 
     1.0000   1.0000   1.0000   1.0000   1.0000   1.0000   1.0000   1.0000
     1.0000   1.0000   1.0000   1.0000   1.0000   1.0000   1.0000   1.0000
     1.0000   1.0000   1.0000   1.0000   1.0000   1.0000   1.0000   1.0000
     1.0000   1.0000   1.0000   1.0000   1.0000   1.0000   1.0000   1.0000
     1.0000   1.0000   1.0000   1.0000

          k = 0.5000-0.0962 0.1434 (  5658 PWs)   bands (ev):

   -13.0864 -12.9757 -12.8754 -12.6963  -2.1847  -2.1432  -2.1153  -2.0854
    -2.0320  -2.0164  -1.9576  -1.9269  -1.9012  -1.8734  -1.8498  -1.8209
    -1.7972  -1.7915  -1.7550  -1.7319  -1.6933  -1.6351  -1.6329  -1.5865
    -0.2471  -0.0176   0.0935   0.1823   1.1147   1.1742   1.3837   1.4379
     1.6887   1.8837   1.9996   2.1236

     occupation numbers 
     1.0000   1.0000   1.0000   1.0000   1.0000   1.0000   1.0000   1.0000
     1.0000   1.0000   1.0000   1.0000   1.0000   1.0000   1.0000   1.0000
     1.0000   1.0000   1.0000   1.0000   1.0000   1.0000   1.0000   1.0000
     1.0000   1.0000   1.0000   1.0000   1.0000   1.0000   1.0000   1.0000
     1.0000   1.0000   1.0000   1.0000

          k =-0.3333-0.5774 0.0478 (  5619 PWs)   bands (ev):

   -13.0562 -12.9364 -12.8518 -12.6758  -2.1895  -2.0934  -2.0405  -2.0300
    -2.0031  -1.9656  -1.9033  -1.8942  -1.8812  -1.8647  -1.8467  -1.8105
    -1.7879  -1.7686  -1.7468  -1.7139  -1.6950  -1.6153  -1.5533  -1.5449
    -0.2200  -0.0662   0.0122   0.1800   0.5457   0.8699   1.1879   1.4871
     1.5680   1.6388   1.8597   1.9706

     occupation numbers 
     1.0000   1.0000   1.0000   1.0000   1.0000   1.0000   1.0000   1.0000
     1.0000   1.0000   1.0000   1.0000   1.0000   1.0000   1.0000   1.0000
     1.0000   1.0000   1.0000   1.0000   1.0000   1.0000   1.0000   1.0000
     1.0000   1.0000   1.0000   1.0000   1.0000   1.0000   1.0000   1.0000
     1.0000   1.0000   1.0000   1.0000

          k =-0.3333-0.5774 0.0956 (  5640 PWs)   bands (ev):

   -13.0562 -12.9364 -12.8518 -12.6758  -2.1853  -2.1081  -2.0377  -2.0234
    -1.9860  -1.9744  -1.9108  -1.8944  -1.8792  -1.8666  -1.8490  -1.8096
    -1.7873  -1.7695  -1.7458  -1.7139  -1.6947  -1.6153  -1.5535  -1.5451
    -0.2065  -0.0779   0.0191   0.1576   0.5801   0.7886   1.2729   1.4748
     1.6019   1.6869   1.8051   1.9274

     occupation numbers 
     1.0000   1.0000   1.0000   1.0000   1.0000   1.0000   1.0000   1.0000
     1.0000   1.0000   1.0000   1.0000   1.0000   1.0000   1.0000   1.0000
     1.0000   1.0000   1.0000   1.0000   1.0000   1.0000   1.0000   1.0000
     1.0000   1.0000   1.0000   1.0000   1.0000   1.0000   1.0000   1.0000
     1.0000   1.0000   1.0000   1.0000

     highest occupied level (ev):     2.7848

!    total energy              =    -722.99223619 Ry
     estimated scf accuracy    <          2.7E-10 Ry

     The total energy is the sum of the following terms:
     one-electron contribution =    -389.73187558 Ry
     hartree contribution      =     266.43660362 Ry
     xc contribution           =    -217.88544270 Ry
     ewald contribution        =    -381.81152154 Ry

     convergence has been achieved in  45 iterations

     Forces acting on atoms (cartesian axes, Ry/au):

     atom    1 type  1   force =    -0.00397306    0.00386890   -0.00363411
     atom    2 type  1   force =    -0.00023507   -0.00116130   -0.02124685
     atom    3 type  2   force =     0.00343975   -0.00383042    0.02223719
     atom    4 type  2   force =     0.00105713   -0.00064385    0.00279372
     atom    5 type  1   force =    -0.00138383   -0.00215596   -0.00624779
     atom    6 type  1   force =    -0.00295466    0.00025501   -0.02321717
     atom    7 type  2   force =    -0.00046247    0.00277662    0.02197447
     atom    8 type  2   force =     0.00451221    0.00089101    0.00734055
     The non-local contrib.  to forces
     atom    1 type  1   force =    -0.09678625    0.05260589    0.15374325
     atom    2 type  1   force =     0.04134181   -0.07362342    0.20677261
     atom    3 type  2   force =    -0.01533960    0.07982885    0.25651027
     atom    4 type  2   force =    -0.14315357    0.08913016    0.18053236
     atom    5 type  1   force =    -0.05733256   -0.02240624    0.14376858
     atom    6 type  1   force =    -0.01776389    0.08493139    0.18362818
     atom    7 type  2   force =     0.04587541   -0.06991559    0.24579482
     atom    8 type  2   force =    -0.04165952   -0.03217410    0.15380900
     The ionic contribution  to forces
     atom    1 type  1   force =    -0.68985215    0.35120907    1.04996918
     atom    2 type  1   force =     0.30740907   -0.51274442    1.85184867
     atom    3 type  2   force =     0.07052075   -0.46682253   -1.92639811
     atom    4 type  2   force =     0.79969925   -0.49012276   -1.65088325
     atom    5 type  1   force =    -0.40627104   -0.14882673    2.37442854
     atom    6 type  1   force =    -0.09954406    0.59307105   -0.03532523
     atom    7 type  2   force =    -0.28154629    0.45122158   -1.00051407
     atom    8 type  2   force =     0.29958447    0.22301473   -0.66312573
     The local contribution  to forces
     atom    1 type  1   force =     0.77632253   -0.39635748   -1.19794419
     atom    2 type  1   force =    -0.34649802    0.58080302   -2.06931866
     atom    3 type  2   force =    -0.05187637    0.38390236    1.69460347
     atom    4 type  2   force =    -0.65683420    0.40118982    1.47479503
     atom    5 type  1   force =     0.45869654    0.16760488   -2.51599844
     atom    6 type  1   force =     0.11308319   -0.67254466   -0.16306178
     atom    7 type  2   force =     0.23563413   -0.37916208    0.77908229
     atom    8 type  2   force =    -0.25377327   -0.19023916    0.51811545
     The core correction contribution to forces
     atom    1 type  1   force =     0.00634637   -0.00359059   -0.00939345
     atom    2 type  1   force =    -0.00249115    0.00440704   -0.01054738
     atom    3 type  2   force =     0.00013514   -0.00073531   -0.00247791
     atom    4 type  2   force =     0.00134361   -0.00083969   -0.00164241
     atom    5 type  1   force =     0.00352403    0.00147287   -0.00845240
     atom    6 type  1   force =     0.00127088   -0.00520303   -0.00847422
     atom    7 type  2   force =    -0.00042601    0.00063264   -0.00238645
     atom    8 type  2   force =     0.00036005    0.00029010   -0.00146380
     The Hubbard contrib.    to forces
     atom    1 type  1   force =     0.00000000    0.00000000    0.00000000
     atom    2 type  1   force =     0.00000000    0.00000000    0.00000000
     atom    3 type  2   force =     0.00000000    0.00000000    0.00000000
     atom    4 type  2   force =     0.00000000    0.00000000    0.00000000
     atom    5 type  1   force =     0.00000000    0.00000000    0.00000000
     atom    6 type  1   force =     0.00000000    0.00000000    0.00000000
     atom    7 type  2   force =     0.00000000    0.00000000    0.00000000
     atom    8 type  2   force =     0.00000000    0.00000000    0.00000000
     The SCF correction term to forces
     atom    1 type  1   force =    -0.00000370    0.00000174   -0.00000754
     atom    2 type  1   force =     0.00000308   -0.00000379   -0.00000073
     atom    3 type  2   force =    -0.00000031   -0.00000404    0.00000084
     atom    4 type  2   force =     0.00000189   -0.00000164   -0.00000666
     atom    5 type  1   force =    -0.00000095   -0.00000099    0.00000729
     atom    6 type  1   force =    -0.00000093   -0.00000000    0.00001724
     atom    7 type  2   force =     0.00000015   -0.00000019   -0.00000076
     atom    8 type  2   force =     0.00000033   -0.00000083    0.00000698

     Total force =     0.046759     Total SCF correction =     0.000024

     init_run     :      4.66s CPU      4.93s WALL (       1 calls)
     electrons    :    412.19s CPU    434.19s WALL (       1 calls)
     forces       :      1.50s CPU      1.52s WALL (       1 calls)

     Called by init_run:
     wfcinit      :      2.94s CPU      3.15s WALL (       1 calls)
     wfcinit:atom :      0.06s CPU      0.06s WALL (      28 calls)
     wfcinit:wfcr :      2.61s CPU      2.82s WALL (      28 calls)
     potinit      :      0.71s CPU      0.73s WALL (       1 calls)
     hinit0       :      0.89s CPU      0.90s WALL (       1 calls)

     Called by electrons:
     c_bands      :    360.75s CPU    379.36s WALL (      45 calls)
     sum_band     :     43.63s CPU     46.73s WALL (      45 calls)
     v_of_rho     :      3.98s CPU      4.17s WALL (      46 calls)
     v_h          :      0.22s CPU      0.24s WALL (      46 calls)
     v_xc         :      3.84s CPU      4.02s WALL (      47 calls)
     newd         :      2.93s CPU      2.98s WALL (      46 calls)
     mix_rho      :      0.61s CPU      0.65s WALL (      45 calls)

     Called by c_bands:
     init_us_2    :      4.04s CPU      4.08s WALL (    2576 calls)
     init_us_2:cp :      4.03s CPU      4.07s WALL (    2576 calls)
     cegterg      :    321.20s CPU    339.72s WALL (    1264 calls)

     Called by sum_band:
     sum_band:wei :      0.01s CPU      0.01s WALL (      45 calls)
     sum_band:loo :     39.93s CPU     42.83s WALL (      45 calls)
     sum_band:buf :      0.32s CPU      0.33s WALL (    1260 calls)
     sum_band:ini :      1.91s CPU      1.92s WALL (    1260 calls)
     sum_band:cal :      5.04s CPU      5.18s WALL (    1260 calls)
     sum_band:bec :      0.11s CPU      0.11s WALL (    1260 calls)
     addusdens    :      3.20s CPU      3.30s WALL (      45 calls)
                                        0.00s GPU  (      45 calls)
     addusd:skk   :      0.02s CPU      0.02s WALL (      90 calls)
                                        0.00s GPU  (      90 calls)

     Called by *egterg:
     cdiaghg      :     28.84s CPU     28.90s WALL (    7968 calls)
     cegterg:over :     17.16s CPU     17.58s WALL (    6704 calls)
     cegterg:upda :     11.67s CPU     11.71s WALL (    6704 calls)
     cegterg:last :     21.85s CPU     21.88s WALL (    3446 calls)
     h_psi        :    216.33s CPU    234.31s WALL (    7996 calls)
     s_psi        :     19.32s CPU     19.37s WALL (    7996 calls)
     g_psi        :      1.51s CPU      1.52s WALL (    6704 calls)

     Called by h_psi:
     h_psi:calbec :     17.85s CPU     18.68s WALL (    7996 calls)
     vloc_psi     :    177.39s CPU    194.44s WALL (    7996 calls)
     add_vuspsi   :     20.04s CPU     20.12s WALL (    7996 calls)

     General routines
     calbec       :     23.28s CPU     24.28s WALL (    9368 calls)
     fft          :      2.23s CPU      2.52s WALL (     607 calls)
     ffts         :      0.26s CPU      0.28s WALL (      91 calls)
     fftw         :    169.46s CPU    186.31s WALL (  331252 calls)
     interpolate  :      0.38s CPU      0.41s WALL (      46 calls)

     Parallel routines

     PWSCF        :   6m58.74s CPU   7m21.05s WALL


   This run was terminated on:  23:54: 3  24Sep2025            

=------------------------------------------------------------------------------=
   JOB DONE.
=------------------------------------------------------------------------------=
Note: The following floating-point exceptions are signalling: IEEE_INVALID_FLAG
Note: The following floating-point exceptions are signalling: IEEE_INVALID_FLAG
Note: The following floating-point exceptions are signalling: IEEE_INVALID_FLAG
Note: The following floating-point exceptions are signalling: IEEE_INVALID_FLAG
