# total energy = -12264.714724863037 eV

CRYSTAL
PRIMVEC
2.876560207838307 0.0 0.0
-1.4382801039191535 2.49117305399317 0.0
0.0 0.0 4.248849144029442
PRIMCOORD
4 1
Zn   0.073516824544  1.715938639701  4.190693438652 -1.897860826944 -0.076231408960  0.541807540737
Zn   1.453528174269  0.852564119392  2.150341804175  0.131303410233  0.861950764857 -5.984023292793
O    0.016168857272  1.711994300344  1.682427576247 -0.206336170900 -0.995108711800 -0.264708183081
O    1.449628996907  0.876157090904  3.756363626462  1.972893330500  0.209389355904  5.706923935137