# total energy = -110416.29931116482 eV

CRYSTAL
PRIMVEC
10.54738813431007 0.0 0.0
-5.273694067155035 9.134301809015879 0.0
0.0 0.0 5.4188261278831416
PRIMCOORD
36 1
Zn  -0.160115680312  2.155577096181  5.333800467916  0.026673395526 -0.946115312621  0.559381545065
Zn   2.038165680947  1.037355663047  2.724847056999 -0.967324599709 -0.671646707720  0.536636538059
O   -0.292768071399  2.016809329453  2.036851476386  1.351713006961  1.106480673217 -0.416238976104
O    1.574335849830  1.218808709554  4.767473228388  1.370268144256 -0.748326774181 -0.344767193317
Zn  -1.870614092001  5.215977704545  5.437404297343  0.391452256078 -0.114159551464 -0.252427308831
Zn  -0.060216093598  4.209291736715  2.621422533170 -0.428640435093 -1.003672285100  0.249161236485
O   -1.671370765927  5.229748374493  2.000661278219 -0.515614941502 -0.350150569116  0.556854407767
O   -0.016830467246  4.045836753320  4.985457153698 -0.089449707422  0.962030441189 -0.835836584268
Zn  -3.474051240432  8.147417507669  5.416719814473 -0.074989566133 -0.079750477857  0.362567197613
Zn  -1.589035744673  7.122822074787  2.774601196306 -0.109576817190  0.490924123623 -0.358886663437
O   -3.481951234145  8.050904687285  2.086135202182  0.104884811031  0.604438842414 -0.115886047237
O   -1.714862920899  7.129706355023  4.769042679742 -0.291194916517  0.133753671546 -0.008959008966
Zn   3.554802043989  2.121999486055  5.439443107469 -0.015567258311 -0.144678545989  0.032613672270
Zn   5.257675748795  1.015504639049  2.791104694519  1.579735918806 -0.531578406809 -0.478812170851
O    3.698455360900  1.906946679907  2.114238717866 -1.039688041073  0.888420014792 -0.655212473423
O    5.654226955220  1.191900212946  4.634159516064 -1.474492953105 -0.852884026669  1.224108128625
Zn   1.704056067017  4.978013861892  5.694145655092 -0.281170956622 -0.137381240996 -3.662046658100
Zn   3.699256962399  4.084591021542  2.721303134585 -0.750791947892 -0.681786624367  0.823089054795
O    1.854033597854  5.272511704945  2.003011236295 -0.223285397159 -5.100713859755  1.426397126039
O    3.515121715089  4.015750328667  4.864921602099  0.160511656366  0.283497033652 -0.422854938759
Zn   0.262585665514  8.208267499294  5.390380876824 -0.012640314472  0.028315816226  0.312413973797
Zn   1.893466063133  6.866599648535  2.526087856040 -0.179524707134  5.520457763689  2.211969929056
O    0.106288139707  8.103844137809  2.076640443383 -0.267362847095  0.002348445628 -0.275951874315
O    1.772153169028  7.068853199182  4.793320657750  0.434793342068 -0.065472627782  0.086485996808
Zn   7.246686382081  2.040953355631  5.575266043430 -0.577804784767 -0.361010137538 -0.858212380860
Zn   8.775682174539  0.925728435466  2.583086996257 -0.196112436289 -0.175517385746  0.773876340515
O    7.203195281848  1.874939575875  2.039760446033 -1.058089169288  0.581675580576 -0.036162823074
O    8.659800130585  0.883678108452  4.739036415239  1.076632736618  0.302902948983  0.056408717807
Zn   5.298908653229  5.080531310341  5.280303060560 -0.176430898700 -0.014559642982  0.314844951836
Zn   6.975938092890  4.385637737888  2.728919403557  0.412431943653 -0.646347309723  0.200991875868
O    5.202985431841  4.990359579703  2.157292101491  1.025800484457  0.788599505658 -0.771189280602
O    6.936822049255  4.085988550470  4.693665770440  0.741275009541  0.747395777726  0.444580503362
Zn   3.523889758845  8.123383174328  5.300841989474 -0.351193665668 -0.110431708991  0.093061593143
Zn   5.158154813315  7.240024651736  2.813148735720  1.060361767372 -0.118719917141 -0.170505534354
O    3.536084649006  7.977698430461  2.197267757259 -0.251989707073  0.505182690425 -0.771099806212
O    5.378973876556  7.095367223474  4.782725806369 -0.403598147412 -0.091520216798  0.169607190910