# total energy = -36808.5498617514 eV

CRYSTAL
PRIMVEC
3.387949124333044 0.0 0.0
-1.693974562166522 2.934048640400525 0.0
0.0 0.0 15.991682266406608
PRIMCOORD
12 1
Zn   0.013668003152  1.957600030994  5.353355328904  0.008173022729 -0.537806389997  0.185397363864
Zn   1.714548899609  1.062383261356  2.721812939071 -0.328101045515 -0.387932672961 -0.337149785981
O   -0.049627695158  1.883758663444  1.989331901287  0.388413726362  0.310814747631  0.848110516540
O    1.726862061906  0.854038619596  4.721201967334 -0.069342138039  0.805499366737 -0.226648657205
Zn   0.002034463449  1.912605017468  10.654937374469 -0.018001321673  0.147035476257 -0.178373367138
Zn   1.678329013110  1.016356617322  7.929701590398  0.094652334669  0.056598979441  0.652138719594
O    0.006778608608  2.014481325227  7.368156815323 -0.069186072077 -0.197429612439 -0.489654769992
O    1.693512107111  1.015352090407  9.963297724584 -0.005376176710 -0.187462731034  0.111688978437
Zn  -0.025631529100  2.014555521312  16.040671671950  0.026646141833 -0.126476678269 -0.617743787054
Zn   1.751278333655  0.883635404351  13.387775716376 -0.217703532196  0.089312410514 -0.583243953504
O   -0.022752449934  1.883354142318  12.667354083500  0.190968944415  0.091074901731  0.334460154964
O    1.676720753661  1.010131260806  15.364426524090 -0.001143883796 -0.063227283391  0.301018844586