# total energy = -49079.90367705781 eV

CRYSTAL
PRIMVEC
6.392356429000733 0.0 0.0
-1.5980891072501833 2.7679734343908944 0.0
0.0 0.0 10.262921854404247
PRIMCOORD
16 1
Zn   0.032216197931  1.907594220830  5.171839525057 -0.471685329998 -1.107237863098 -0.171465327164
Zn   1.602190443135  0.965267554791  2.567170341887 -0.334178104947 -0.203954043821 -0.291488536498
O   -0.083704711260  1.850347472830  1.977310538516  0.878273927497  0.437579132343  0.287603085401
O    1.555206623382  0.869993317631  4.507160385863  0.138345661792  1.006873822756  0.152119318537
Zn   0.003934495382  1.844823198404  10.331366093161 -0.036361312238 -0.059533636589 -0.244927143799
Zn   1.662199967584  0.895293625141  7.716646847213 -0.063051419935  0.491178919946  0.413873304086
O    0.029135082132  1.852155231228  7.118339544821  0.520449900996 -0.136121400447 -0.283705807229
O    1.524389712273  0.875910721977  9.692412353179  0.830337251717  0.503807150233 -0.372013944848
Zn   3.184968578266  1.857238433060  5.094341791890 -0.100205403277  0.031469788474  0.285106030011
Zn   4.827324114552  0.837151947241  2.551852338176 -0.572308023318  1.331624463742  0.356437173455
O    3.178507184388  1.890924872970  1.974373889972  0.065815355833 -1.636956076770 -0.758175899061
O    4.733545049560  0.917785770472  4.480196787210  0.549767676124  0.145369144298  0.674659526404
Zn   3.279973697221  1.869759141598  10.214026720079 -1.238952135617 -0.388863155195  0.699162653752
Zn   4.840033397604  0.968578156186  7.681806586968 -0.161332866716 -0.310735557653  0.494447820506
O    3.257803087419  1.882370621596  7.119552814071 -0.539225896052 -0.145335205736 -0.389305384938
O    4.774890810943  0.907418646815  9.707475941104  0.534310975249  0.040834260408 -0.852327125724