# total energy = -36803.32828004993 eV

CRYSTAL
PRIMVEC
3.4518726727477356 0.0 0.0
-1.7259363363738678 2.989408031416358 0.0
0.0 0.0 17.956003047189263
PRIMCOORD
12 1
Zn  -0.011891010983  1.933901309289  6.169697372703  0.060619670565 -0.042814781173 -1.450814378541
Zn   1.800694233222  0.713286684602  3.037813641906  0.318143420082  3.183913515594  2.274180084036
O   -0.109614561910  2.058309907100  2.500933874683 -0.167938287848 -2.851755783511 -2.487021403044
O    1.731583254879  1.101497747683  5.156992145781  0.117609200576 -0.173517581708  0.726937766982
Zn   0.052815723017  2.053222882342  12.264218481590 -0.046872239072  0.035128982493 -2.837359405580
Zn   1.790436993575  0.924242705188  9.103558904631 -0.072618237687 -0.132910606820 -0.376660699591
O    0.164175551750  2.040580743866  8.093159183468 -0.086762390398 -0.088800246764  1.425841510646
O    1.787368969143  0.816421736319  11.206055198254 -0.014727793128  0.244915316724  0.483333198650
Zn   0.148316613130  2.084897956362  18.096720707817 -0.343023728263  0.137903432048 -0.355764315758
Zn   1.486210337810  1.017751864769  15.054038544693  0.031277727067  0.070468538334 -0.553624073755
O   -0.196760194219  2.058593996221  14.083311886532  0.098218711864 -0.071020554183  2.528066493910
O    1.574540652820  1.135026477328  17.099461920732  0.106073946243 -0.311510488146  0.622885222045