# total energy = -24531.935546478093 eV

CRYSTAL
PRIMVEC
2.876560207838307 0.0 0.0
-1.4382801039191535 2.49117305399317 0.0
0.0 0.0 9.051893501140805
PRIMCOORD
8 1
Zn   0.055984190077  1.696298637226  4.511880658810 -6.458823257161  3.424230157204  1.604290211106
Zn   1.389456247512  0.867054216127  2.235066282601  3.557816707044 -3.743541629451  1.428790565972
O    0.009440295290  1.586846671941  1.900587628346 -3.424617879560  3.733482445443 -3.330034964676
O    1.336555729977  0.920925860387  4.034862405480  6.600316977664 -3.490433492503 -1.630219015157
Zn  -0.113005092453  1.656348106091  9.086287380922  3.609875632523  0.743600572350  2.015284650982
Zn   1.515676545215  0.818167363051  6.787919802043 -0.170324014471  0.029833538422 -1.986348684674
O    0.071205220761  1.646901194713  6.293052492624  0.019686679796  0.035915740060 -0.462000498610
O    1.491253110771  0.796652706288  8.483052569417 -3.733930845834 -0.733087331524  2.360237477947