# total energy = -110427.79303494105 eV

CRYSTAL
PRIMVEC
9.204993617601557 0.0 0.0
-1.5341686712647988 2.65725153256113 0.0
0.0 0.0 15.96088822331681
PRIMCOORD
36 1
Zn   0.053862099654  1.822198444556  5.308530865263 -0.245181940122 -2.212464095083  1.307492089470
Zn   1.492915571868  0.990980156891  2.622410631719 -0.249183605082 -1.235074397829  0.840475368592
O   -0.050200353193  1.774631640037  2.035387017239 -0.280004961339  0.802128136272 -0.776587311689
O    1.553886688093  0.805703886355  4.697012762767  0.174015090169  2.444019702671 -1.320304153633
Zn  -0.050196671196  1.741570064460  10.666905850466  1.044102110980  0.679868838519  0.291476195203
Zn   1.536731341488  0.838093497397  7.981885613659 -0.298287561698  1.467556116776  1.568769392492
O   -0.008370100696  1.820239621914  7.379548571797  0.818111399074 -1.340533850416 -1.635880070097
O    1.528809523981  0.892095512954  10.028175025338 -0.403548525121 -0.360805734837 -1.042806017876
Zn  -0.033153625513  1.818148247364  15.912744265698  0.578947125901 -1.800926123999  1.388832537521
Zn   1.623585979266  0.916006404375  13.270257542900 -1.552410491518 -0.554797525238  0.471349029705
O   -0.072026313560  1.764099286340  12.576121861187  1.775813902312  0.556191320262  0.503260533701
O    1.523536903636  0.812638008047  15.306827401818  0.318244978656  2.545685749654 -1.119847067222
Zn   3.078017313818  1.828354744287  5.295284879447 -0.214116071955 -1.034643279560  1.061134640982
Zn   4.541037827914  0.920421119314  2.641999778636  0.774527086726 -0.406815111687  0.418535999669
O    3.028636205057  1.727649352613  1.929756953979  0.445073126727  1.032016640570 -0.264062579077
O    4.608552774102  0.878201495588  4.663511188496 -0.278563600906  0.692358743456 -1.095608249279
Zn   3.067562282067  1.782085843868  10.585137892161 -0.015260525703 -0.944339451667  1.196946737719
Zn   4.588512582497  0.817341759786  7.940059043160  0.603729217942  1.462946643028  1.183623795358
O    3.051772036015  1.766696935538  7.367732121490  0.295967655315 -0.860419158704 -1.474731551478
O    4.569523601163  0.828925323754  10.023276127735  0.966013079986  1.536817779286 -1.350609232374
Zn   3.131500167735  1.792642130549  15.942864845814 -0.801500015770 -0.333605777383  0.121226485613
Zn   4.595917079363  0.903999410701  13.330323808252  0.999730783954 -0.412668228034 -0.597762201725
O    3.114099047800  1.728116966288  12.622554610493  0.050851535434  1.137849160226 -0.832097686051
O    4.588715092357  0.869011229960  15.202917751865  0.535422720256  0.163158349960  0.794358519629
Zn   6.175938585335  1.735650333065  5.296385796684 -0.028865775192  0.253050544237  0.824200542691
Zn   7.653961398029  0.874539749127  2.735723182652 -0.077764814885  0.036330716110 -0.072467828152
O    6.134785820369  1.774777078936  1.987277118096 -0.443334032549 -0.316731113115 -0.197324968540
O    7.698295408790  0.861305729803  4.662724161541  0.429044612509 -0.007756246907 -0.244251714998
Zn   6.170148644350  1.761920464350  10.666202588954 -0.880281701956 -0.104921834916  0.537993566307
Zn   7.704787690788  0.936681740540  7.970259706720 -0.611830249783 -1.063343989929  0.902304228973
O    6.179978657034  1.760270929494  7.259978466202 -0.810314785848  0.266458075892  0.065554131752
O    7.676776895210  0.888688744816  10.022335377387 -0.606214960478 -0.767034892114 -1.534601745471
Zn   6.148874063101  1.828785537988  15.963548466472 -0.556085390812 -0.334500007063  0.581945032187
Zn   7.676606602828  0.915689752595  13.273938619847  0.310125434873 -0.891202976854  1.404036241845
O    6.216461728738  1.779725683505  12.665564943171 -1.747545651495  0.154864999603 -0.835510311277
O    7.640578257809  0.918825893920  15.339865044411 -0.019424941494 -0.248718235410 -1.069062123360