# total energy = -110417.8261612336 eV

CRYSTAL
PRIMVEC
9.204993617601557 0.0 0.0
-1.5341686712647988 2.65725153256113 0.0
0.0 0.0 13.891891012882125
PRIMCOORD
36 1
Zn  -0.022656250791  1.821809993825  4.636818548003  1.335604017215 -1.031898626935 -0.454516274418
Zn   1.591252518685  0.966082490155  2.410055110958 -2.959223781887 -0.836221478412 -4.964916932527
O    0.029519494032  1.872753190003  1.741125463269 -0.995395389803 -1.025740834864  3.244538071254
O    1.528445006233  0.839645459321  4.038995635011  0.043572485274  1.684740286133  6.406015112221
Zn   0.121572191706  1.716690807711  9.196541592462 -2.393233987478  0.933473198377 -0.031481358438
Zn   1.519933148635  0.840428804278  6.852907874450 -0.358461917195  4.424147860357  0.451989394231
O   -0.063863325220  1.883659266441  6.448712002204  0.180952697829 -4.821041084945 -0.525595192643
O    1.496597569315  0.828019552382  8.672799547605  2.546622659646 -0.721432006673  0.297461466252
Zn  -0.068060802309  1.704493270668  13.917525999608  0.907223520652  0.818737462694 -2.301296994857
Zn   1.520294904884  0.973051590822  11.572883414295  0.590072803501 -1.183257670268 -0.567728117257
O   -0.015677945129  1.728173116749  10.998614238972 -0.140624173414  1.639381655493  0.705253854251
O    1.537939957150  0.902340670851  13.374972629794 -0.124744011848 -0.627556916489  0.514484684552
Zn   3.150412747622  1.853881112088  4.634991356770 -1.561428892966  0.170779356841 -0.978512755115
Zn   4.639677619021  0.922418602929  2.277647721264 -1.429066188231 -1.019998275953 -3.349428024491
O    2.957608633305  1.715944282728  1.739651743791  3.781332217936  2.107076119164  2.272986835059
O    4.572434220145  0.961665934217  3.982587434123  0.965814847932 -0.463922912444  3.318590470285
Zn   3.066948308993  1.739018440230  9.330514751570 -0.393066137532 -1.045982872943 -2.372963667265
Zn   4.557757778321  0.990411288286  6.985289490161  0.160578247938 -1.450137921299  0.043099145182
O    3.054101819900  1.766815679956  6.417145317591 -0.805008028923  1.447302765843  0.488200811155
O    4.573959487587  0.802809836362  8.783954448034  0.511627674719  0.941785832008  0.109504826301
Zn   3.045592723800  1.854368976750  13.924704053631 -0.365987021927 -0.419053819845 -2.920559275438
Zn   4.573554467868  0.873569542800  11.624087111793  0.435845180371  1.505823387787 -1.071400027464
O    3.104442088996  1.857158089816  11.064341575399 -0.512322129683 -1.658036808700  1.794561872344
O    4.569229961867  0.940649092789  13.393317261575  0.164334886767  0.485159453225  1.218801371701
Zn   6.124951205188  1.849299786765  4.651724194168  0.029155024297 -0.870472172064 -1.413904392888
Zn   7.649010952462  0.861095855948  2.380002647795  1.030848074184  0.781173131287 -3.487083087974
O    6.124160496236  1.770829977673  1.693403094358  0.962750092964  0.401140172790  8.124235532390
O    7.700812054045  0.926670389481  4.093167942950 -1.149518626144  0.210429110022  2.459652781223
Zn   6.189023483762  1.775136994186  9.267013182600 -0.608722300281 -0.334662757893 -2.396680037045
Zn   7.620271121389  0.907904168993  6.959055258351  0.302263772737  0.269455982178 -2.091994542241
O    6.082720535469  1.789201303935  6.418621798568  0.416797162601  0.058143955331  0.716328109787
O    7.672702765035  0.859941549749  8.685102021575  0.573845285898  0.196128634239  2.215753564468
Zn   6.130238553522  1.761043228458  13.991713645669  0.529593258059 -0.185174963441 -8.410872397222
Zn   7.703708865536  0.867258599175  11.597314387856 -0.846529545206 -0.407032369904 -2.637839229161
O    6.115483869252  1.724836306563  10.977331373229  0.215051953506  0.136925898626  3.371576792674
O    7.661549994768  0.844566448909  13.324881816025 -1.040554502838 -0.110181283543  2.223737868225