# total energy = -24534.585640431254 eV

CRYSTAL
PRIMVEC
3.5157962211624265 0.0 0.0
-1.7578981105812133 3.044767422432191 0.0
0.0 0.0 12.418133285379142
PRIMCOORD
8 1
Zn  -0.043164133366  2.079650772296  6.138474728263 -0.045556605584 -0.121235227364  0.413993888824
Zn   1.954277830629  1.188650622298  3.175642585185 -0.487451848804 -0.339833503460 -0.756489512498
O   -0.052265475044  2.077604930475  2.322437596145  0.302138817123  0.083866814018  0.845941019692
O    1.713491846410  0.990642737020  5.598704378657  0.138181625410  0.361202713165 -0.519625348213
Zn  -0.156231436680  1.910729772315  12.283016314485  0.652686621677  0.588821190482  0.671067438177
Zn   1.683030987950  0.887525488593  9.388170529255  0.222742894392 -0.033371376372 -1.595171279524
O   -0.118770627943  2.157454639511  8.376147883834  0.030100933150 -0.164197332748  1.669137289489
O    1.920036084913  0.810635728395  11.756456569181 -0.812842694476 -0.375253020610 -0.728853238838