# total energy = -110413.26654732996 eV

CRYSTAL
PRIMVEC
9.013222972357486 0.0 0.0
-1.5022068331339051 2.6018921415452976 0.0
0.0 0.0 14.76013505853937
PRIMCOORD
36 1
Zn   0.147764580053  1.660277132334  4.972025478158 -4.111297570354  1.923234786933  2.867613062258
Zn   1.594942081652  0.833116535037  2.554980118619 -0.375242221977  1.868811989208 -2.031319592958
O   -0.110235322241  1.768413274945  2.004347004758  7.769597359816  1.709751720576 -4.237947026755
O    1.308003424360  0.716091551931  4.278407496386  4.364238328485 -1.370991909796  0.262541257336
Zn  -0.082932467213  1.815950815546  9.903859192437  1.141191080115 -0.505960449131 -0.738603890466
Zn   1.509492221262  0.861264830380  7.320122385925 -0.231679020540  0.080947840599 -1.091712770879
O    0.033121791779  1.750299400737  6.913589075658 -1.200552967013 -1.151028120810 -1.869919106229
O    1.676225129061  0.822999192251  9.050325003401 -1.795137799452 -0.193558045298  3.118083504473
Zn   0.006964517391  1.739900845394  14.682008441815  0.358612326730 -0.598251225547  0.394489500242
Zn   1.451676001184  0.829381455437  12.028080260083  0.494881822719  8.426646115117  3.610469300243
O    0.009034854707  1.880617986405  11.824405756610 -1.116586394193 -9.005731052148 -1.882269657374
O    1.641141158641  0.887278794523  14.198499503397 -2.367097695402 -0.635302621873 -1.497030729196
Zn   2.993340921846  1.851793699340  4.900520876351 -0.844401957340 -1.316242067748 -0.208339060262
Zn   4.361944750861  0.760751170437  2.455480446260  0.875874574027  1.300283230426 -1.825172655251
O    2.983556166987  1.749408894308  1.684081054204  0.018275401270 -1.894776531592  8.805078304786
O    4.377176196362  0.882176408998  4.193173052026 -0.151281396017  0.756876463523  1.730159594808
Zn   2.841573569471  1.768934239233  9.983116968645  1.561214462963  0.756104618354  0.220710180233
Zn   4.395823653369  0.764872015980  7.603100633043  0.323640438640  1.243755984763 -3.387288289872
O    2.908519283098  1.804289507664  6.672904476015  2.155333925729 -0.060248660378  0.733745019712
O    4.482700306955  0.909637896750  9.303821899498 -0.864622912372  0.196029903878  1.987022056592
Zn   2.952917518138  1.886892992239  14.875192455071  1.458496834787 -0.185063377564 -8.746782397259
Zn   4.493526089067  1.033274078906  12.278484719379  1.262038585123 -3.458937735888  1.700279776530
O    3.064681482995  1.747059147079  11.796216000442 -4.178838907739  2.284151850536 -1.513716417382
O    4.542211914275  0.835632125569  14.046385141937  0.512607007913  2.328739921559  1.779836136098
Zn   5.930161725077  1.793758457943  4.730764032245  0.172887918543 -2.318691536185  1.843287619684
Zn   7.588475777448  1.013078150192  2.450588970153 -4.629836370370 -5.440798302884  3.009560325359
O    6.020788780742  1.615078523094  2.022772736481 -2.771936657200  1.521261833829 -1.069123572725
O    7.464789121243  0.863493800421  4.394107535715  0.521232030578  2.457347015908 -0.629084923098
Zn   6.024231831918  1.786471267170  9.754780484474 -0.718944464364 -1.629108555702 -0.079159124130
Zn   7.403159406525  0.867100892254  7.253925671127  11.987335772833 -8.715675391441  5.183228273510
O    6.245695733571  1.662439404525  6.793314825670 -14.128928437717  8.233846545251 -4.841607339132
O    7.484867878058  0.863948968181  9.405309888845  1.373591295092  1.726740541824 -2.332457993841
Zn   6.054980442088  1.772261019832  14.904388086923 -0.908367404448 -0.617382547059 -0.436730154079
Zn   7.374082749216  0.769451634572  12.249299903395  0.135336442652  3.467646576516  0.155551484147
O    5.866943880472  1.809164759970  11.570857485142  3.280347110533 -1.774436562349 -0.750175397354
O    7.458340160206  0.827988912488  14.040712219398  0.628019715058  0.590008011701  1.766785216451