# total energy = -12268.384121336774 eV

CRYSTAL
PRIMVEC
3.4518726727477356 0.0 0.0
-1.7259363363738678 2.989408031416358 0.0
0.0 0.0 5.874493566916933
PRIMCOORD
4 1
Zn   0.055166793494  1.962549781349  5.940165789703 -0.419182117893  0.060530710395 -0.502631898978
Zn   1.642507680559  0.971598946386  2.923701635091 -0.289491303562 -0.068242220107  0.176197956753
O   -0.180575744006  1.873707553622  2.160758726529  0.429658591944  0.291609892567 -0.116211806008
O    1.569714589636  1.037195227973  5.041373051357  0.279014829511 -0.283898382856  0.442645748233