# total energy = -49077.89708457708 eV

CRYSTAL
PRIMVEC
6.775898248666088 0.0 0.0
-1.693974562166522 2.9340520283496487 0.0
0.0 0.0 10.878697862335157
PRIMCOORD
16 1
Zn  -0.000000000000  1.956033104524  5.438499233527  0.000001542662  0.000000771331  0.008938697251
Zn   1.693974562167  0.978016891057  2.718825106738 -0.000023911259 -0.000013883957  0.008919928197
O   -0.000000000000  1.956033104524  2.067800190956  0.000003085324  0.000001799772 -0.008926870176
O    1.693974562167  0.978016891057  4.787474317744  0.000002828213  0.000001799772 -0.008933555044
Zn  -0.000000000000  1.956033104524  10.877846809515 -0.000001542662 -0.000000771331  0.008961065848
Zn   1.693974562167  0.978016891057  8.158172682726  0.000018254832  0.000010541523  0.008920185308
O   -0.000000000000  1.956033104524  7.507147766944  0.000000771331  0.000000514221 -0.008933812155
O    1.693974562167  0.978016891057  10.226821893732 -0.000002313993 -0.000001285552 -0.008945639229
Zn   3.387949124333  1.956033104524  5.438499233527  0.000000257110  0.000000257110  0.008966979385
Zn   5.081923686500  0.978016891057  2.718825106738  0.000023654149  0.000013626847  0.008924813293
O    3.387949124333  1.956033104524  2.067800190956 -0.000007199089 -0.000004113765 -0.008918385536
O    5.081923686500  0.978016891057  4.787474317744 -0.000003342434 -0.000002056883 -0.008928412838
Zn   3.387949124333  1.956033104524  10.877846809515  0.000002571103  0.000001542662  0.008930212610
Zn   5.081923686500  0.978016891057  8.158172682726 -0.000017997722 -0.000010541523  0.008915557322
O    3.387949124333  1.956033104524  7.507147766944 -0.000000514221 -0.000000257110 -0.008933812155
O    5.081923686500  0.978016891057  10.226821893732  0.000003856655  0.000002056883 -0.008956952083