# total energy = -110394.5081510145 eV

CRYSTAL
PRIMVEC
9.013222972357486 0.0 0.0
-4.506611486178743 7.805676424635892 0.0
0.0 0.0 4.341218844635983
PRIMCOORD
36 1
Zn   0.007576515231  1.609621917907  4.385298011582 -2.671541506509  1.024645030697 -5.513848743013
Zn   1.599927295278  0.912045328606  2.158439768661 -3.194069630191 -2.672266814711 -3.405111434096
O    0.042713663666  1.752424718714  1.653754262869 -0.605107586347 -1.631221231169  5.365404045113
O    1.471903476179  0.986553136307  3.808570715895  1.432815627971 -3.088064075292  3.747300582273
Zn  -1.484587784868  4.372427129178  4.272284814021  0.101696643111 -2.094330389463 -2.205667898097
Zn  -0.062422878340  3.392834003650  2.182231072019  0.615987466484  0.218410585566 -8.088963596561
O   -1.394142796307  4.363229135134  1.652166132981 -2.800743039908 -0.081532252348  0.959923679259
O    0.086405262025  3.426715610125  3.733864617288 -0.431423140044  0.160657437915  10.338659322302
Zn  -2.961776614997  6.802613767810  4.281971324749 -3.814870458903  3.047458385956 -0.937383074954
Zn  -1.442184176072  6.012318153793  2.245716609347 -0.204987370181  1.829239626232 -8.899498725950
O   -3.106009814290  6.974889807737  1.649415297330  1.812558566032 -0.405893114094  2.357280966422
O   -1.520098982056  6.116292891357  3.822381677455  2.615861953559 -0.864098921548  6.483871458379
Zn   3.018636532118  1.657211735201  4.334656316990  0.516208095001  1.683579433056 -2.729737141013
Zn   4.497594657917  0.887583441459  2.069691068663 -0.102692688475  0.833947851886 -1.352923225219
O    2.961775713675  1.743255566984  1.692648122639  3.282736179590  2.765120405609  1.194221625479
O    4.506596163700  0.829716747332  3.806419259571  1.458334855288  1.952199549596  1.584139447190
Zn   1.537377330494  4.321310437735  4.401259528144  1.066785925731 -1.667070893878 -13.267816109601
Zn   2.816582606135  3.498713235229  2.286246369086 -1.703278454147  0.532717405510 -16.806034582798
O    1.411742015483  4.350102277198  1.553540743251 -0.949247430492  0.030134357492  13.593137021268
O    3.080542051459  3.486120861414  3.726376431643  2.208528507474 -1.638524706809  16.598015367769
Zn  -0.066643770658  7.011633112506  4.366843437546  1.510313048127 -2.232017077514 -3.553291565480
Zn   1.471186924952  6.066546209806  2.141670667321  2.983351271063 -1.459353012140 -2.857535366307
O    0.142502660482  6.963189742997  1.681387001857 -3.712819517777  0.502596417755  2.724191785715
O    1.597811891846  5.981942691054  3.801402499665 -3.051039932660  0.429962496338  3.344274505315
Zn   6.140592540491  1.748812218947  4.353766152336 -2.282128906569 -1.699034848379 -2.429744680809
Zn   7.477886235544  0.840519996387  2.112733714968  1.602494295548  1.830128199484 -4.055779996902
O    6.020462502071  1.740901313144  1.685169851539 -0.830541397308  0.262373621410  2.975114227866
O    7.456820530813  0.846068536448  3.763039518727  2.347914437605 -1.080745473235  4.378413591545
Zn   4.447145846296  4.372000803731  4.421841222801  0.637627156241 -0.920256185466 -13.418106859570
Zn   5.982146389893  3.452579053445  2.182278842100  0.143647019400  1.847691662289 -5.146323944285
O    4.516012277739  4.373915212291  1.573079608010  0.043101716285 -1.331802898301  14.599178577931
O    5.988339375397  3.345949020392  3.819362247759  0.105565382037  4.147194284250  4.544521511052
Zn   2.927328978119  6.919849660334  4.317934084409  1.749231009617  1.128311910160 -0.466485016744
Zn   4.467523842115  6.040032913111  2.262573138950  0.530692147550 -0.221750448572 -11.290979221072
O    3.049238226754  6.983742595341  1.728953384772 -0.827062694730 -2.176981585906  0.066979294234
O    4.458322242782  6.051425626948  3.791059826304  0.416103221857  1.038574753404  11.570603659143