# total energy = -24538.665964040105 eV

CRYSTAL
PRIMVEC
3.004407833844898 0.0 0.0
-1.502203916922449 2.601892294305528 0.0
0.0 0.0 10.225973754521023
PRIMCOORD
8 1
Zn  -0.007212982327  1.732394134132  5.144135976800 -0.997064807086  0.321418748399  0.558119390523
Zn   1.498252820180  0.863102977658  2.576889011431 -0.403509701463  0.006284290347  0.379892062044
O   -0.032590013537  1.732760972329  1.944559406543  0.400903374189 -0.024235218398 -1.224576583621
O    1.431929916366  0.877846808662  4.525751631314  1.026659747134 -0.325706320030 -0.662661473502
Zn   0.024342012711  1.714303993683  10.111370317258 -1.272255120644 -0.349130355381  2.340855473876
Zn   1.525395241433  0.903354531612  7.619595278438 -2.188876794682 -0.797986603300  1.791480405205
O   -0.083051747073  1.753936339182  7.095306883222  2.196465148552  0.759613659949 -1.447354702127
O    1.454404990049  0.818976939362  9.617783064374  1.237678154000  0.409741798416 -1.735754572398