# total energy = -49076.07889419427 eV

CRYSTAL
PRIMVEC
6.775898248666088 0.0 0.0
-3.387949124333044 5.86809728080105 0.0
0.0 0.0 5.7657066823654555
PRIMCOORD
16 1
Zn  -0.000000000000  1.956033104524  5.764808875848  0.000000000000  0.000010027302 -0.080077265069
Zn   1.693974562167  0.978016891057  2.881954857075 -0.000005656427 -0.000003342434 -0.080067751987
O   -0.000000000000  1.956033104524  2.191868243068  0.000000000000  0.000007713309  0.080069551759
O    1.693974562167  0.978016891057  5.074722939431 -0.000003599544 -0.000002056883  0.080075208186
Zn  -1.693974562167  4.890083100104  5.764808875848  0.000008741751 -0.000005142206 -0.080077265069
Zn   0.000000000000  3.912066886637  2.881954857075  0.000000000000  0.000000000000 -0.080063124001
O   -1.693974562167  4.890083100104  2.191868243068  0.000006684868 -0.000003856655  0.080069551759
O    0.000000000000  3.912066886637  5.074722939431  0.000000000000  0.000000000000  0.080064923773
Zn   3.387949124333  1.956033104524  5.764808875848  0.000000000000  0.000000000000 -0.080068009097
Zn   5.081923686500  0.978016891057  2.881954857075  0.000005656427 -0.000003342434 -0.080067751987
O    3.387949124333  1.956033104524  2.191868243068 -0.000000000000 -0.000000000000  0.080067494877
O    5.081923686500  0.978016891057  5.074722939431  0.000003599544 -0.000002056883  0.080075208186
Zn   1.693974562167  4.890083100104  5.764808875848 -0.000008741751 -0.000005142206 -0.080077265069
Zn   3.387949124333  3.912066886637  2.881954857075 -0.000000000000  0.000006427758 -0.080067751987
O    1.693974562167  4.890083100104  2.191868243068 -0.000006684868 -0.000003856655  0.080069551759
O    3.387949124333  3.912066886637  5.074722939431  0.000000000000  0.000004113765  0.080075208186