# total energy = -73590.19853852876 eV

CRYSTAL
PRIMVEC
8.629681152692129 0.0 0.0
-2.8765575076703254 4.982346413506801 0.0
0.0 0.0 4.710684050820052
PRIMCOORD
24 1
Zn   0.055903074507  1.409610090078  4.754935329835 -1.456512714477  4.210525183098  1.804389657067
Zn   1.400646440265  0.866035966919  2.222803930395  3.945531607567  7.130467393777  5.148658763065
O   -0.169952940621  1.423169045105  1.950899936635  7.974513767550  10.665279926617 -4.365042826665
O    1.568297844922  0.895685825423  4.244802084111 -0.361146663116  2.011603602586 -4.837636013189
Zn  -1.562994042886  4.312406143293  4.655604247895 -1.885462710390 -5.662435365807  0.876422990331
Zn  -0.017412970630  3.298693031712  2.284381020260 -1.418750922347 -0.327357996701 -0.453747000352
O   -1.704718433488  4.368476633614  1.773245005586  7.892594049956 -6.139579662037 -4.505901741797
O   -0.123980040216  3.460937078160  4.150622921819 -4.175595203990 -5.679881843418 -2.124859154179
Zn   2.896129624525  1.807466006197  4.682540934645  1.666821239761  1.613887367876  2.955453259101
Zn   4.408546832111  0.614945901132  2.425889668833 -2.142374023134  9.009109995922  0.152430164910
O    2.886877743361  1.614665984724  1.744984525747  2.625882313909 -2.623411740882 -0.295088338034
O    4.205276418495  0.934162984779  4.033386977423  0.754547815390 -1.218449130567  3.109639744581
Zn   1.255929276238  4.160678226298  4.570643311010  6.302896134842  2.226415672167  3.103602537248
Zn   2.748740711213  3.221861254474  2.265425925608  6.748288335471 -2.036946195116 -4.947270680200
O    1.567055170836  4.190668957208  1.820035136795 -7.046341669671 -6.114424760038 -8.741668215961
O    2.759964474521  3.277273300123  3.855720827788  0.436427792347  4.884690286364  7.967976994873
Zn   5.680834531942  1.560708903317  4.673656677898  1.718436135724  2.279461129929  0.525310057302
Zn   7.156645495046  0.708352706961  2.302587921556 -9.663064428568  11.945683387400  9.392998066500
O    5.724376451166  1.532833307257  1.775046020042 -0.617159889526  5.177748224232 -1.545172064788
O    7.236944678172  0.928173123091  4.023461981130 -2.674689822330  0.139383616138  2.239257304017
Zn   4.389566711383  4.159802313661  4.706511599983 -9.673475339489  3.521271818041  3.879686684048
Zn   5.718236433026  3.479152609137  2.244341025647 -4.165768447708 -8.814193122603  0.687395743024
O    4.325479247271  4.367099336502  1.746074454476 -3.401876729209 -19.600738358491 -8.255488034780
O    5.537879548807  3.476661220188  3.953961118030  8.616279114329 -6.598110199820 -1.771347639011