# total energy = -110427.97171794897 eV

CRYSTAL
PRIMVEC
9.780305553333779 0.0 0.0
-1.630054185657481 2.8233297056086286 0.0
0.0 0.0 15.702270785571828
PRIMCOORD
36 1
Zn   0.070989369828  1.927532937398  5.206089899078 -0.609085597158  0.279982592741  0.356138925489
Zn   1.599155266323  0.904112962022  2.578105170378  0.179895460209  1.089391578945  0.184485907794
O   -0.009131871295  1.964723527295  1.987496968776 -0.298245652716 -1.351961889747 -0.924614976655
O    1.658402401304  1.083124828657  4.537158076514  0.350668646403 -0.639707692919  0.523357047341
Zn  -0.048491732964  1.945867098189  10.447955177840  0.040453222919 -0.630250404161 -0.537395784822
Zn   1.644798974310  0.948653451543  7.819737677868 -0.490189816560 -0.043933468158  0.984923543737
O    0.028097839824  1.922153769344  7.331555682235 -0.013488521405 -0.236068150746 -1.535067115143
O    1.621768310793  0.929931990653  9.830480476883  0.013128824072  0.567222381265 -0.431134919380
Zn   0.031397714918  1.845940738320  15.560595235387 -0.224030759966  0.298133552618  0.763393695817
Zn   1.624120474278  0.966267781844  13.167688952936 -0.074409782370 -0.148487121102 -2.872095266399
O    0.043691558998  1.882439860614  12.320451401798 -0.188648009591  0.091820521647  2.228753576272
O    1.655099592118  0.944763824024  15.005346750483  0.312057104678  0.035396377221  1.555883280558
Zn   3.449845321019  1.921434916886  5.179652755137 -1.618858338728 -0.268709590930  0.761517561840
Zn   4.977870381114  0.953074149653  2.641257581367 -1.060857733172 -0.507162182749 -0.213899327959
O    3.283969382773  1.896814953716  1.974133159268  0.150480497382  0.031785262831  0.267482660502
O    4.920032588163  0.923131744201  4.638747088327  0.548052750315 -0.002968852820 -0.630837644123
Zn   3.298847183581  1.830897650348  10.443613700205 -0.260836873051  0.127596136585 -0.614568474649
Zn   4.759428234610  0.897594388371  7.768324567635  1.600903811133  0.204723060776  1.214961429129
O    3.237476744265  1.851136036629  7.298590184336  0.034715291994  0.691451658261 -1.562777950795
O    4.927631885578  0.922017767399  9.820727556186 -0.610517701619 -0.368187114902 -0.647087787433
Zn   3.329654168044  1.826897505377  15.715306954844 -0.729928731290  0.638629886474  0.260625271260
Zn   4.848435861360  0.965126420186  13.140424395145  0.174956628147  0.167573448309 -1.312946684826
O    3.227745340239  1.957356023122  12.335026013134  0.188834928791 -0.235243597962  1.896357502926
O    4.920586153457  1.048042872637  15.100013262025 -0.018664666289 -1.004192933490 -0.234754317031
Zn   6.483866280980  1.968794090467  5.218581305331  0.723616158808  0.008770289993  0.628710313367
Zn   8.127696027009  0.866754150870  2.542267196739  0.439316940970  1.477413726296  0.628440604646
O    6.458859995741  1.930486589675  1.943545253650  0.712894658626 -0.650860624212 -0.152825086355
O    8.084592264375  0.969027784072  4.530032145888  0.421382467979  0.421702056101 -0.049434857592
Zn   6.456674097450  1.882164055997  10.445041624816  0.465368386641  0.088150014774  0.144406523274
Zn   8.256470376138  0.876498269293  7.851624408064 -0.755964750342  1.062786317653  0.936783493697
O    6.546891547996  1.979615020531  7.203924650825 -0.314739536606 -1.607793853384 -0.654266821680
O    8.084654858330  0.921988426482  9.891374615320  0.443894790148  0.318980057050 -0.735379212882
Zn   6.513968105412  1.884486878566  15.719254286165  0.203503586547  0.538507529829 -0.531819576286
Zn   8.094525142695  0.928920707058  13.184656805041  0.338274900724 -0.187137743594 -3.634592675654
O    6.534334613696  1.877864633676  12.423017466136 -0.463475540494  0.120852904324  0.843135174812
O    8.104207645192  1.088011069311  14.949819065704  0.389542183539 -0.378204647039  3.096142481425