# total energy = -49071.01261085377 eV

CRYSTAL
PRIMVEC
5.880968041683205 0.0 0.0
-2.9404840208416023 5.093065348298698 0.0
0.0 0.0 4.6265222725839275
PRIMCOORD
16 1
Zn   0.015329331297  1.617487923958  4.648006036937 -2.083038361488  2.088116290232 -3.810316520984
Zn   1.501431724430  0.859770475241  2.319059770781 -1.357033390733 -0.284302046052  1.496323932937
O   -0.003325687428  1.696860997229  1.677473797983  0.289286129530  0.341422959435  5.053707666209
O    1.434590405959  0.801077237991  4.231353565507  2.938850103327  0.228070734363 -2.635055238658
Zn  -1.473523002491  4.193947080181  4.634198112072  0.176135993167 -0.911799827169 -0.281070169378
Zn  -0.048923773139  3.416529564718  2.315275367846  1.659264767570 -0.669819167593 -0.656582614298
O   -1.499682724534  4.222633854192  1.796398145625  0.355855847031  1.539006045187 -0.193365212561
O    0.028730293174  3.415716226838  4.077979683270 -0.730883896114 -1.680115642877  0.588121850422
Zn   2.950835112692  1.748997543209  4.711585182436 -0.623416154848 -0.643975467057 -1.975190354065
Zn   4.434381637113  0.896058988542  2.407863564404  0.739364937002 -1.378505958784 -1.363452921106
O    2.958306882589  1.672051545449  1.807237357823  0.297663297850 -0.073953154449  1.357951274562
O    4.364727451628  0.813403158910  4.145836644923 -0.139330651413  0.232726745078  0.677023398650
Zn   1.508659434153  4.183022593947  4.626121778660 -0.786701774415  0.942619897873 -0.238669850035
Zn   2.944337819199  3.392040037599  2.279889583139 -0.434041294393 -0.693394126699 -0.072068021611
O    1.506938074807  4.209845689185  1.746397567238 -1.708210344231  1.612380958534  1.591896465428
O    2.918325121357  3.388651423813  4.034354074240  1.406234535048 -0.648478240023  0.460746571598