# total energy = -36808.06464046337 eV

CRYSTAL
PRIMVEC
3.4518726727477356 0.0 0.0
-1.7259363363738678 2.989408031416358 0.0
0.0 0.0 15.628374237101408
PRIMCOORD
12 1
Zn  -0.065992211383  1.928172236214  5.228145251997  0.079071963733  0.150753805649 -0.775558870424
Zn   1.708239275555  0.880200952131  2.599045416099 -0.068507557953  0.555856562630  0.024816287713
O   -0.068465823340  2.003566313196  2.002288084745  0.016148841846 -0.407822984127  0.196269787802
O    1.666995610487  1.003536362728  4.596175022322  0.059017101964 -0.164591739973  0.240504075030
Zn   0.038858421052  2.084089182595  10.448486510256  0.055790624607 -0.144244800885  0.311445182126
Zn   1.821556661282  1.034036074103  7.806743155132 -0.157840023071 -0.074818587773  0.303628257184
O    0.055139523700  1.993875180667  7.163346536535  0.036043266777  0.083845473862  0.884462572806
O    1.812435087744  1.059341407480  9.942262133865 -0.221023083488 -0.021153494149 -1.050002792735
Zn  -0.049738378529  2.109198104416  15.661082456612 -0.099359253227 -0.226782097459 -0.767554769173
Zn   1.570262056642  1.035533841656  12.963867852824  0.607150584919 -0.334886958088  0.491651745818
O   -0.052382512996  1.939099484347  12.448246098269 -0.490642073606  0.498909712932 -0.402449378519
O    1.566508835485  1.024234136461  14.970004085225  0.184149864610  0.084934850271  0.542787645262