# total energy = -49066.36595820952 eV

CRYSTAL
PRIMVEC
5.753120944853822 0.0 0.0
-2.876560472426911 4.982346566267031 0.0
0.0 0.0 5.080143869208602
PRIMCOORD
16 1
Zn   0.139819248947  1.387466946092  5.102337108565 -18.490380718817  9.633471288292  9.590961182844
Zn   1.554494429924  0.913971284840  2.752039347384 -6.332779295554 -6.346580205993  5.828746402463
O    0.037386656460  1.694283762642  2.157101056108 -1.264365176373 -4.823761054979 -3.925301396563
O    1.328710897195  0.845457942820  4.538543912836  17.634285641410 -7.864002868582 -8.387095092297
Zn  -1.298738287696  4.152365094100  5.336156600630  0.306775287454 -2.508350246428 -8.924111382293
Zn  -0.014627885314  3.286299472056  2.436454199203 -1.768507855569  5.895589428230  1.440381099023
O   -1.546902036213  4.360687904762  1.771553354740 -1.704172683826 -0.959348009261  10.237806515249
O   -0.017517102653  3.375379070830  4.349410637086 -3.417636306036 -3.788437461523 -2.111256732904
Zn   2.895337508567  1.623831043551  5.113097170669 -0.761486194381  1.014323851276  2.103638554237
Zn   4.205985331931  0.912819510027  2.546822646721 -0.739346425059  3.359623219856 -0.350114830782
O    2.568491201448  1.712972200719  1.911838031171  8.723782079709  4.186325960144 -7.404280881593
O    4.284544773745  0.915616102119  4.326746217124  1.257015935097 -0.699849138296  1.399620372166
Zn   1.266645077817  4.164854544360  4.984239918370  5.623438415718  1.567993947778  3.073426784995
Zn   2.677607769848  3.321149577491  2.620357888014  3.822061577335  0.842075108979  1.071775408526
O    1.437309109398  4.303111820970  2.003604912739 -2.160701360689 -1.155686188408 -4.534460527271
O    2.964372083344  3.292869536175  4.407810567797 -0.727983177528  1.646611854693  0.890264524200