# total energy = -98158.40669425442 eV

CRYSTAL
PRIMVEC
6.648050622659499 0.0 0.0
-3.3240253113297493 5.7573780404886925 0.0
0.0 0.0 10.673438626629203
PRIMCOORD
32 1
Zn  -0.000000000000  1.919126678301  5.335885647767  0.000000000000  0.000000257110  0.005325525978
Zn   1.662012655665  0.959563671553  2.667526323512 -0.000000514221 -0.000000257110  0.005325268868
O   -0.000000000000  1.919126678301  2.028784943712  0.000000000000 -0.000000514221 -0.005325783088
O    1.662012655665  0.959563671553  4.697144267967  0.000001542662  0.000001028441 -0.005325011757
Zn  -0.000000000000  1.919126678301  10.672603631471  0.000000000000 -0.000000514221  0.005327325750
Zn   1.662012655665  0.959563671553  8.004244307216 -0.000000000000 -0.000000000000  0.005330411074
O   -0.000000000000  1.919126678301  7.365502927416  0.000000000000 -0.000000000000 -0.005330668184
O    1.662012655665  0.959563671553  10.033862251671  0.000000514221  0.000000257110 -0.005327839971
Zn  -1.662012655665  4.797817028156  5.335885647767  0.000000257110 -0.000000000000  0.005325525978
Zn   0.000000000000  3.838254021408  2.667526323512  0.000000000000  0.000000000000  0.005326554419
O   -1.662012655665  4.797817028156  2.028784943712 -0.000000514221  0.000000257110 -0.005325783088
O    0.000000000000  3.838254021408  4.697144267967  0.000000000000  0.000000000000 -0.005326040199
Zn  -1.662012655665  4.797817028156  10.672603631471 -0.000000257110  0.000000257110  0.005327325750
Zn   0.000000000000  3.838254021408  8.004244307216  0.000000000000  0.000000000000  0.005328868412
O   -1.662012655665  4.797817028156  7.365502927416 -0.000000000000  0.000000000000 -0.005330668184
O    0.000000000000  3.838254021408  10.033862251671  0.000000000000  0.000000000000 -0.005325783088
Zn   3.324025311330  1.919126678301  5.335885647767  0.000000000000  0.000000000000  0.005326554419
Zn   4.986037966995  0.959563671553  2.667526323512  0.000000514221 -0.000000257110  0.005325268868
O    3.324025311330  1.919126678301  2.028784943712  0.000000000000  0.000000000000 -0.005324240426
O    4.986037966995  0.959563671553  4.697144267967 -0.000001542662  0.000001028441 -0.005325011757
Zn   3.324025311330  1.919126678301  10.672603631471  0.000000000000  0.000000000000  0.005328097081
Zn   4.986037966995  0.959563671553  8.004244307216  0.000000000000 -0.000000000000  0.005330411074
O    3.324025311330  1.919126678301  7.365502927416  0.000000000000  0.000000000000 -0.005331182405
O    4.986037966995  0.959563671553  10.033862251671 -0.000000514221  0.000000257110 -0.005327839971
Zn   1.662012655665  4.797817028156  5.335885647767 -0.000000257110 -0.000000000000  0.005325525978
Zn   3.324025311330  3.838254021408  2.667526323512 -0.000000000000  0.000000771331  0.005325268868
O    1.662012655665  4.797817028156  2.028784943712  0.000000514221  0.000000257110 -0.005325783088
O    3.324025311330  3.838254021408  4.697144267967  0.000000000000 -0.000001799772 -0.005325011757
Zn   1.662012655665  4.797817028156  10.672603631471  0.000000257110  0.000000257110  0.005327325750
Zn   3.324025311330  3.838254021408  8.004244307216  0.000000000000  0.000000000000  0.005330411074
O    1.662012655665  4.797817028156  7.365502927416  0.000000000000  0.000000000000 -0.005330668184
O    3.324025311330  3.838254021408  10.033862251671  0.000000000000 -0.000000514221 -0.005327839971