# total energy = -73618.29771297696 eV

CRYSTAL
PRIMVEC
9.204993617601557 0.0 0.0
-3.0683281375359797 5.31450306512226 0.0
0.0 0.0 4.926199614357356
PRIMCOORD
24 1
Zn  -0.000000000000  1.771501942207  4.925432838389  0.000016969281  0.000009255971 -0.004840873032
Zn   1.534165909767  0.885750510854  2.462332110711  0.000021340156  0.000004113765 -0.004837787708
O   -0.000000000000  1.771501942207  1.872724654523  0.000004113765 -0.000000000000  0.004837273488
O    1.534165909767  0.885750510854  4.335825382201  0.000004627986  0.000003856655  0.004839844591
Zn  -1.534165909767  4.428754395267  4.925432838389  0.000017997722  0.000005913537 -0.004838559039
Zn  -0.000000000000  3.543003884414  2.462332110711  0.000018769053  0.000005656427 -0.004839844591
O   -1.534165909767  4.428754395267  1.872724654523 -0.000000771331  0.000004370875  0.004838301929
O   -0.000000000000  3.543003884414  4.335825382201  0.000006170648  0.000005142206  0.004838816150
Zn   3.068330899034  1.771501942207  4.925432838389  0.000004885096  0.000002056883 -0.004838044819
Zn   4.602496808801  0.885750510854  2.462332110711 -0.000008741751  0.000001542662 -0.004839073260
O    3.068330899034  1.771501942207  1.872724654523  0.000004370875  0.000002828213  0.004838044819
O    4.602496808801  0.885750510854  4.335825382201 -0.000003856655 -0.000001799772  0.004840358811
Zn   1.534165909767  4.428754395267  4.925432838389  0.000006941979 -0.000001799772 -0.004836759267
Zn   3.068330899034  3.543003884414  2.462332110711 -0.000005399317 -0.000003856655 -0.004839073260
O    1.534165909767  4.428754395267  1.872724654523  0.000007713309  0.000006684868  0.004840615922
O    3.068330899034  3.543003884414  4.335825382201 -0.000003856655 -0.000003342434  0.004838301929
Zn   6.136662718567  1.771501942207  4.925432838389 -0.000020568825 -0.000005142206 -0.004838301929
Zn   7.670827707835  0.885750510854  2.462332110711 -0.000014398178 -0.000003856655 -0.004839330370
O    6.136662718567  1.771501942207  1.872724654523 -0.000005142206 -0.000004627986  0.004838559039
O    7.670827707835  0.885750510854  4.335825382201 -0.000002056883 -0.000005142206  0.004840101701
Zn   4.602496808801  4.428754395267  4.925432838389 -0.000023139928 -0.000008227530 -0.004837530598
Zn   6.136662718567  3.543003884414  2.462332110711 -0.000012855516 -0.000007456199 -0.004841644363
O    4.602496808801  4.428754395267  1.872724654523 -0.000006684868 -0.000003342434  0.004836245046
O    6.136662718567  3.543003884414  4.335825382201 -0.000006170648 -0.000002056883  0.004840615922