# total energy = -73617.78645325177 eV

CRYSTAL
PRIMVEC
6.392356429000733 0.0 0.0
-1.5980891072501833 2.7679734343908944 0.0
0.0 0.0 14.470716043219696
PRIMCOORD
24 1
Zn   0.091378095917  1.768355273857  4.857265912065 -0.419236625280  0.121853834785 -4.151014172217
Zn   1.573285485834  0.922597936392  2.409649894763  0.212852374751  1.881199307128  0.012591977732
O    0.047113584589  1.978080817465  1.956282242807 -0.566847771535 -2.361610961256 -0.886786078733
O    1.710327379902  0.937435234899  4.296309148288 -1.296714025018 -1.056984880480  0.209095478812
Zn  -0.107634497552  1.887534367120  9.665924345844  0.512479995417 -0.111697205967 -0.818267207926
Zn   1.594379622814  0.762070524804  7.261287336993  0.164667073296  1.293139420293 -1.665273435658
O    0.007921408087  1.827736429669  6.571254833730 -0.002691173679 -0.888002467639  3.628177773266
O    1.610153401539  0.963492397411  9.036115510970 -0.944198812325 -0.256737506170  2.016829626872
Zn   0.001128890145  1.926524545158  14.470594588448 -0.032820903185 -0.230574731732  0.325787052670
Zn   1.537684535174  0.878764269887  11.990739360732  0.358197093569  0.940951251921  0.074640924544
O   -0.086476437007  1.846557444703  11.530373356956  0.695610931845 -0.328544303700 -0.175420712268
O    1.592290600733  0.983630237869  13.876596373524 -0.331050872172  0.011460949452  0.195239803876
Zn   3.232257313421  1.758076364720  4.894423401516  0.006884385825  1.222112438352 -1.266065704004
Zn   4.717054048445  0.888891040942  2.470464856122  0.615305352815  0.328345557425 -2.437284440830
O    3.222765942596  1.869395416517  1.788020079940 -0.220857504444  0.011089939266  1.596556075687
O    4.701417705384  0.888526037390  4.231753379947  1.904242562101 -0.305817037306  2.361127336751
Zn   3.131410219926  1.945875486540  9.594507022113  0.396083069982 -3.345033752078  0.513150024901
Zn   4.743350285087  1.056349045370  7.178953786187  0.555763745806 -1.079533455204 -0.003873881133
O    3.174412880095  1.866950979418  6.695828436582 -0.961408748445  0.693790847917  1.628071372686
O    4.820335351268  0.800323024911  9.068079850058  0.009220233047  3.982929845710 -0.759556067238
Zn   3.153033644018  1.868915989785  14.456234798965  0.593959283039  0.441959520799 -1.315285103152
Zn   4.733953521136  0.904774128961  12.028497092451 -0.139675693457 -0.075287556989  0.439546283372
O    3.202098175789  1.866341787851  11.470170144108 -0.775879229878 -0.568521045472  0.355255751553
O    4.826162623389  1.001000187993  13.923708040406 -0.333884484966 -0.320487751944  0.122757577546