# total energy = -12269.624769961358 eV

CRYSTAL
PRIMVEC
3.3240255759183532 0.0 0.0
-1.6620127879591766 2.878689249384692 0.0
0.0 0.0 4.803047431897649
PRIMCOORD
4 1
Zn  -0.030283202607  1.809459914456  4.787065516929 -1.954083139772  1.246906614577  0.159177768046
Zn   1.607572229479  1.073755328153  2.395142251648  0.657423365031  0.098847603698 -0.099921810598
O    0.102101434395  2.113578006020  1.888380591692 -0.886557250552 -0.442546246540  0.343935698554
O    1.446668450244  0.916951402063  4.333610922731  2.183217282403 -0.903207971734 -0.403191656002