# total energy = -12267.724316435804 eV

CRYSTAL
PRIMVEC
2.876560207838307 0.0 0.0
-1.4382801039191535 2.49117305399317 0.0
0.0 0.0 4.89541070538505
PRIMCOORD
4 1
Zn  -0.046971639290  1.642092449013  4.846099559678  1.848440367530  0.545446165930  2.239723187909
Zn   1.365155642188  0.755886095023  2.388942980767  1.725070867431  1.929586697293  2.123961067845
O    0.016299740762  1.659223228019  1.874596180932 -1.748195626374 -1.957485223475 -3.005391538693
O    1.465003348250  0.824429059311  4.255703987005 -1.825315351477 -0.517547382638 -1.358292459951