# total energy = -73617.54487643625 eV

CRYSTAL
PRIMVEC
9.204993617601557 0.0 0.0
-3.0683281375359797 5.31450306512226 0.0
0.0 0.0 5.123250912729351
PRIMCOORD
24 1
Zn  -0.049096674458  1.781661493663  5.138151956398  0.030181408679  0.125399643154  0.320076118328
Zn   1.621946569903  0.841038174856  2.593442516804 -1.228606530716 -0.000914284284  0.461064359949
O    0.009611854335  1.677164565117  1.926184495956  1.866978021323  1.833295284358 -0.423352961441
O    1.515975921879  0.894823873063  4.543527778688 -0.004226122266  0.714396439982 -0.796280162132
Zn  -1.544923785808  4.458877736881  5.058330854242  0.431702618958 -1.010441742613  1.084355559183
Zn   0.096283312741  3.522736329466  2.614718939052 -1.910064053879 -0.948983635308 -1.479546456368
O   -1.559840477965  4.453588547548  1.902751343703  1.136519642782 -0.889544358204 -0.441490037362
O    0.071607486350  3.544735343713  4.416932421964 -1.398633068552 -0.257240671059  1.474463642529
Zn   3.063818611163  1.765175350093  5.078478744273 -0.390804852302  0.724025992652  1.302314916144
Zn   4.599075312673  0.932401418508  2.627003003034  1.264879139895 -0.581761455422 -0.026261504800
O    3.075637822968  1.744002023774  2.018334766562  0.256435401549  0.743258101409 -1.710517652208
O    4.620178681041  0.940250516565  4.614484471989 -2.656977492652 -2.416915133145 -1.944248670180
Zn   1.560005247351  4.363527810493  5.074944947223  0.209797647086  1.023934120673  1.601454284319
Zn   3.092766475091  3.491486296634  2.656971700755  0.326519817071  1.053354482816 -2.597899198433
O    1.501601403846  4.416591837200  1.991162545902  1.747511712934  0.953613420770 -1.460944267886
O    3.094780527695  3.580527120396  4.412875781277  0.285836737529 -0.501946442876  2.442224558444
Zn   6.077902641810  1.683981783390  5.068017269026  2.516382886925  2.614595685252  1.434455477567
Zn   7.761955303650  0.888072930743  2.523973350471 -2.287339761346  0.206958377865  1.490783205624
O    6.136526484662  1.821270581199  1.857280516231  0.064823681344 -0.534485038933  0.980043332827
O    7.628641222085  0.861052592478  4.570859245737  0.723591990439  1.138016796152 -1.904367517715
Zn   4.602867770044  4.480584952830  5.183046551269 -0.219236423901 -1.073229367363  0.184473052278
Zn   6.210137898123  3.540826903423  2.642975507960 -0.900389528449  0.007422774827 -0.347056503571
O    4.611178038282  4.501807986115  1.901332854187 -0.321554759756 -1.886330971928  0.950726843251
O    6.095822002885  3.596067911121  4.538835072941  0.456671630198 -1.036478018776 -0.594471189679