# total energy = -73592.07453174134 eV

CRYSTAL
PRIMVEC
5.880968041683205 0.0 0.0
-1.4702420104208012 2.5465356146333695 0.0
0.0 0.0 12.746545395809136
PRIMCOORD
24 1
Zn   0.034058450220  1.705181978912  4.188477191806  1.824952311710 -2.607499183416 -0.918506806875
Zn   1.461241188833  0.801150750092  2.066413383710  1.448422481270  0.344384613166 -5.375411807058
O    0.029830622295  1.636968042499  1.524865617786 -0.428683372515  0.090147247710  4.703786182385
O    1.462442670604  0.736277791624  3.686030218099  1.274389136268  4.058622865668  4.745902137718
Zn  -0.017197714844  1.682914869615  8.481226299377 -0.745980642546  0.739619476215 -7.547924044339
Zn   1.539813862354  0.897746826370  6.290773302022 -1.938321248952 -0.655440273163 -3.568673190143
O   -0.116160880759  1.667971329821  5.875771030225  2.624501631512  1.105724254667  2.651564292056
O    1.432170975706  0.870453841786  7.964594430755  0.992299010266 -0.589531843396  2.978138359404
Zn  -0.008546222758  1.728008956365  12.632485784931  1.483170940495  1.035006576437 -3.452163393279
Zn   1.498431254535  0.926528283966  10.617374437836  0.457604683535 -0.786282684600 -9.474214587379
O    0.068115136149  1.753155975712  10.060605550425 -0.211108909698  1.345316873627  7.012152168274
O    1.481828693657  0.888863036046  12.165699237139 -0.851054172549 -0.892116489807  9.206157542431
Zn   3.000733950332  1.756159974187  4.164815704987 -2.365816514697 -1.940441894840 -3.515602021349
Zn   4.344949168007  0.907862679499  2.104178608087  2.229843209792 -0.416666550560 -1.025850878079
O    2.997450605874  1.770769474996  1.601907475325 -2.788537241871  0.221844550948  3.310532632977
O    4.439169921293  0.859986306768  3.829496433476 -0.075947559171  0.573447022019  0.036415048294
Zn   2.970572817633  1.693545895544  8.443104100241 -0.614974194728 -0.771418108783 -5.856431784194
Zn   4.377685576611  0.796906455456  6.416760104186  0.071800369772 -1.768735141089 -12.591033366207
O    3.021518467585  1.663213626676  5.820574616573 -1.153128712093  0.531816490962  2.696047976291
O    4.416441156005  0.839478195013  7.915786512686  0.265053996456  0.239279972815  13.604666104953
Zn   2.855460513476  1.768892858094  12.690293936490  0.335955765673  1.179055459261 -3.073672068237
Zn   4.521651086174  0.914122381882  10.608713536201 -1.819424439913 -0.438421168628 -2.305880500463
O    2.922719968775  1.752039179881  10.042872079392  2.042804196559  0.681784310374  7.031309715039
O    4.388158404499  0.976741753397  12.319782952219 -2.057820724572 -1.279496118477  0.728691773559