# total energy = -73574.9543889002 eV

CRYSTAL
PRIMVEC
8.629681152692129 0.0 0.0
-2.8765575076703254 4.982346413506801 0.0
0.0 0.0 4.3412128819486915
PRIMCOORD
24 1
Zn  -0.032703039696  1.548399526120  4.535994278214  0.085431073181 -1.705214751938 -9.614101625516
Zn   1.377517168839  0.662683571333  2.024307456393  2.339606689071  27.756060070763  0.884054795845
O    0.055451742183  1.745125189550  1.749467645106 -1.358489406453 -2.283423971232  6.595559922595
O    1.428105222724  0.817450862029  3.605134735381  0.010979381830  1.094057874073  9.967270155523
Zn  -1.546239516928  4.197721995614  4.488083151423  2.696967917002 -0.294945898919 -12.022648074981
Zn  -0.010252924178  3.355721416642  1.972004684863 -0.793221834922  3.763592891675  1.202731976943
O   -1.543556549057  4.322886028085  1.693353143410  0.418411558276 -28.649477024549  2.192390464262
O   -0.098830560433  3.196318261230  3.791708441902 -0.112829262689  1.871571040010  1.271402028615
Zn   2.883826288105  1.868955073314  3.989626727266  0.236670817327 -8.646164331924  3.518200892425
Zn   4.167644967893  0.570874119485  2.012491696958 -4.439021435035  35.538409845148  0.158271711292
O    2.868906432360  1.633309547886  1.594832388530 -1.287719277718 -5.592520900204 -3.172891453451
O    4.314864739453  0.762788735672  3.733621195095 -0.489542669895  4.516508827889  3.089391792965
Zn   1.501878640962  4.131971591944  4.195706965065 -4.660790138439 -1.309919725075  3.625454975018
Zn   2.942556446158  3.193930428455  1.867363760109 -5.202358052361  2.227417888180 -2.829423695673
O    1.507615652993  4.247702519946  1.896106639125  5.563326795138 -35.435803802850 -6.443598984012
O    2.808186269834  3.380099402930  3.534552573233  2.067634625339  5.016584021884  2.017139959023
Zn   5.811096980037  1.694380938435  4.331590787463 -6.241556041171 -5.702043724227 -1.748312097348
Zn   7.171332349400  0.786755949137  2.216285932220  7.223391947122 -4.490520888466 -5.132688870000
O    5.884362973024  1.451893801790  1.605549589554 -7.687254181532  3.213973825314  3.283205405917
O    7.061772506390  0.906592016464  3.779631203129  6.927420435152 -5.594189031935  6.196883637965
Zn   4.344935726398  3.988415983001  4.119040014736 -6.709467248839  6.720296478244  0.388291598962
Zn   5.776032859578  3.225837811549  1.977101374551  0.336664618814 -3.065645341278  3.109671369150
O    4.289088744818  4.004715724762  1.655499910002  5.190151482993  5.711103006216 -1.433015916907
O    5.691617318542  3.212862222968  4.055123418311  5.885592722028  5.340293108978 -5.103239711501