# total energy = -98110.93524324233 eV

CRYSTAL
PRIMVEC
5.753120944853822 0.0 0.0
-2.876560472426911 4.982346566267031 0.0
0.0 0.0 8.49769906968484
PRIMCOORD
32 1
Zn   0.038029280070  1.651905698450  4.234676146083 -0.760016037594  1.536605149054 -5.146295147929
Zn   1.507511567728  0.826244820113  2.147316148005 -0.402971055351 -0.588392073364 -5.617222516715
O    0.076949718574  1.702917471244  1.569759761039 -0.675616491001 -0.696762271840  7.472887427018
O    1.396169116833  0.819964137977  3.741977142429  2.974192744492  0.975654973951  4.755120056772
Zn  -0.042257823964  1.649973800437  8.472604531435  5.491910033958 -0.246547967232 -2.539737759601
Zn   1.367790697149  0.822062876498  6.391705863491  0.711479009225  2.260085296506 -9.208598804883
O   -0.082534273075  1.678274552989  5.830234052062  0.517184857092  1.090862507064  5.831083792347
O    1.464177334835  0.848560025634  7.935685889576  0.712811611994 -0.155354023425  8.943706016595
Zn  -1.431990924397  4.175466175942  4.217037077266 -2.267172799480 -0.568244137661 -3.665422259440
Zn  -0.063238305426  3.367730871845  2.137613509531  0.972113536457 -1.012057423840 -2.071404891015
O   -1.456655704511  4.126035936096  1.500799976833 -0.618565254514  1.090241842761  15.359257093331
O   -0.025848197093  3.365704622649  3.823100174936  0.702677351773 -2.058897759687  0.927722926157
Zn  -1.472377258117  4.141153987315  8.525300818042  2.277606593219  0.464506809972 -15.763858228086
Zn   0.100288979623  3.371528506981  6.335463353134 -2.132873796953  0.386997048520 -2.637423738890
O   -1.507504663982  4.193908955755  5.841448035408  2.911619292636 -1.014267544117  4.490377935130
O    0.045324237428  3.231911767891  8.008500264814  0.414886318731  5.314570250291  2.124952742334
Zn   2.979703575350  1.696280095610  4.230946973086 -1.713293158070 -3.679995272158 -5.540090964539
Zn   4.306051665773  0.743720327344  2.083402426180  0.956650150714  6.196867954235  0.125517399679
O    2.880864957518  1.678630671175  1.534929216214  1.121556079493  0.824721448192  10.098016150591
O    4.361749355576  0.770207696174  3.825503828867  0.215835882860  1.780659917551 -1.377094680259
Zn   2.925564406011  1.619115210313  8.497735889659 -1.314120393420  1.524507851570 -9.544137794733
Zn   4.297309223185  0.828749153660  6.503646063651  0.433022109100 -2.454765628334 -14.638393814677
O    3.005799731956  1.620357309125  5.820394489310 -4.473677077435 -1.510161353041  5.293610617320
O    4.395367717818  0.937656308458  7.963180054571 -3.606908322364 -2.989329857244  13.802990204181
Zn   1.421047913047  4.147416834776  4.243745365940  0.535072536006 -1.601219285490 -1.822070105066
Zn   2.849412645312  3.348780091453  2.132466192222  2.107455613991 -1.378508529888 -2.605890187058
O    1.461557938868  4.163002614728  1.686077510926 -2.574243763797 -3.500039391024 -0.383271520039
O    2.838496673632  3.256707719164  3.781479796773  0.495677836258  3.360976391450  1.946256444639
Zn   1.551056940159  4.209940027268  8.474894273572 -5.599119893577  1.599014050309 -0.646326998008
Zn   2.929774539918  3.238556047271  6.322903714799 -0.414104446260 -0.915890195188 -2.135816681632
O    1.548639478738  4.188428532743  5.902912078335  0.201772977009  0.170886571843  2.491624449033
O    2.839185897521  3.395936122590  7.972558792335  2.799157954809 -4.206725092626  1.679932837442