# total energy = -36808.9150400195 eV

CRYSTAL
PRIMVEC
10.163846843821924 0.0 0.0
-1.6939778619192687 2.934048487640294 0.0
0.0 0.0 4.89541683232683
PRIMCOORD
12 1
Zn  -0.004227143902  1.862322673578  4.901304748803  0.368254220695  0.287175768055 -0.294638652091
Zn   1.716904451245  0.948200517830  2.448237952584  0.043238498974  0.240920336632 -1.261365727425
O    0.011908979347  1.975034653153  1.943790987955 -0.165149155138 -0.595020120204 -0.149807896795
O    1.776138334266  0.927401221649  4.283626432026 -0.712045937472 -0.186735880170  1.679197244828
Zn   3.392597552692  1.906619767278  4.890338974444  0.046498143562  0.254944418826 -1.656412128613
Zn   5.088332743731  0.986700153290  2.344004654047  0.128901485660 -0.583580510908  0.483681068907
O    3.448361498401  1.835674083538  1.812709887979 -0.504512660941  0.558591445063  1.833142303720
O    5.088893788076  0.965036930127  4.369015958515  0.073033213738 -0.281177384380 -0.439621616694
Zn   6.729341717823  1.930226317957  4.882084914422  0.031050955769 -0.098414629925 -0.270524018431
Zn   8.436163632999  1.003152372176  2.566332705447  0.121930967880 -0.089265873546 -2.985514854374
O    6.770909818645  1.883336426928  1.899714449732  0.307732252051  0.436569974352  0.476594080154
O    8.448066514038  0.929874085586  4.329557872298  0.261067758114  0.055992456205  2.585269939705