# total energy = -49074.61036424367 eV

CRYSTAL
PRIMVEC
6.264509332171351 0.0 0.0
-3.1322546660856756 5.425221694393695 0.0
0.0 0.0 4.525945115251164
PRIMCOORD
16 1
Zn  -0.067786376131  1.717893841928  4.498688861598  1.284568905015  1.216743717841 -2.086385680694
Zn   1.606993233220  0.863225580838  2.221247166768  0.054026590728 -0.507597727624 -0.762488924614
O    0.094360424718  1.776004056944  1.711329889050 -1.009732118141  0.754573269311  2.637952357700
O    1.525372314681  0.775031939107  4.033287813645  0.135057220849  2.575552198196  0.300442917478
Zn  -1.514737057187  4.496977397648  4.489948618178 -0.545181599415 -1.086949030942 -1.825052841844
Zn   0.026955557205  3.653173675093  2.317952397328 -0.271331087714 -0.950486702216 -6.900300181897
O   -1.565361810002  4.454081169996  1.683826187278  0.148123052894  0.164470641014  3.226756064680
O   -0.021791095712  3.647306335653  3.937123836691  1.141053268986 -1.596439090493  6.750727026820
Zn   3.101352468001  1.755539157858  4.558340772361 -0.887069671412  0.681435411675 -4.732395104371
Zn   4.678324293149  0.936390038230  2.255088672631  0.629009846886  0.420551744547 -1.663429697581
O    3.116022069504  1.817242695427  1.702421756779  0.327942922670  0.622087665845  4.768633003657
O    4.665156920983  0.916243376218  4.042361328962 -0.641405135226 -0.933465227957  0.725781799001
Zn   1.544165216226  4.506747526403  4.535076890505  0.606077920680 -0.481571221653 -1.839603228854
Zn   3.122863540146  3.669108081030  2.326586144090 -0.061589490677 -0.379496883488 -5.866175750954
O    1.561494101941  4.541942792733  1.777857725255  0.266851197565  0.350929870484  1.180633088161
O    3.198379067890  3.619944838242  3.963164149082 -1.176402337909 -0.850338120319  6.084904896202