# total energy = -73619.66976687084 eV

CRYSTAL
PRIMVEC
6.520203525830115 0.0 0.0
-1.6300508814575287 2.8233328893302754 0.0
0.0 0.0 15.388221497851715
PRIMCOORD
24 1
Zn  -0.028369405541  1.900032296831  5.177966164369  0.233210369583  0.000888830363 -0.604788769555
Zn   1.701137400398  0.884787706333  2.601377989087 -0.403195769767  1.236782124549 -0.769410848545
O   -0.009111332407  1.967703533165  2.024167191658  0.251627438637 -1.445606609088 -1.032679985186
O    1.602971172174  0.951834307169  4.466776920850  0.178947237364  0.229219503256  1.672162963689
Zn   0.052419176246  1.857390165772  10.205036562581 -0.651273543380  0.315851281613  0.379479142877
Zn   1.673200936371  0.907444109545  7.638085900130 -0.467563851631  0.381151645483  0.520070920390
O   -0.027669787703  1.891243062478  7.139546574403  0.368147005693 -0.418177587888 -0.531320268052
O    1.626252862904  0.974581993230  9.610127324701  0.272325333306 -0.551058884131 -0.158194321087
Zn   0.005391556296  1.928283034668  15.342745686340 -0.169051832627 -0.342275794353  0.719733021704
Zn   1.664360192410  0.917800800825  12.822836988288  0.043548831125  0.312795011285 -0.635335017773
O    0.017869269783  1.893937862596  12.191173363133  0.214924941010 -0.160620928251  0.033226366153
O    1.618677038427  0.954321112794  14.760603658984  0.171203588862  0.261068015225  0.322695815339
Zn   3.296246511160  1.820296727914  5.166888990599 -0.496477449341  0.442225887086 -0.695085912579
Zn   4.859731330782  0.928413736104  2.610585168486  0.651213122456  0.392896187613 -0.860740289489
O    3.327963389192  1.936120319306  1.963755549930 -0.560213039827 -0.349420375818 -0.080563460676
O    4.888420878316  0.994344730116  4.484019599074  0.131866738936 -0.608793262728  1.218745578762
Zn   3.221346977198  1.897316632063  10.231891324842  0.453170301913 -0.046703831814  0.150666388141
Zn   4.886192924771  0.976884929115  7.697592537609 -0.101589942329 -0.476801825289  0.221635520261
O    3.249327778609  1.840390039119  7.078121693047  0.194454588971  0.585247614198  0.105462280801
O    4.892776374271  0.935947831278  9.639834676005 -0.023749537011  0.243010386392 -0.084922508976
Zn   3.262376661925  1.851237049705  15.415962355773  0.185572455990  0.282389659521 -0.338856227149
Zn   4.922886674154  0.925797178429  12.871700045531 -0.016363528960  0.009573245511 -1.514153504919
O    3.321158252772  1.886244022435  12.172813122025 -0.347264762927 -0.146683492234  0.411418929008
O    4.907627441842  0.949311640425  14.718556170487 -0.113468696045 -0.146955772059  1.550754701082