# total energy = -24538.041093657972 eV

CRYSTAL
PRIMVEC
6.775898248666088 0.0 0.0
-1.693974562166522 2.9340520283496487 0.0
0.0 0.0 5.004197357689118
PRIMCOORD
8 1
Zn   0.135500347638  1.844307351071  5.192446718013  0.646816793160 -1.620504873193 -4.616471519027
Zn   1.693580204888  0.877970753415  2.549309072302  0.374570649831  1.193539511810  0.431902650784
O   -0.103114264369  2.117018960654  1.832906902267 -0.804273207640 -1.543611662279  4.783361311006
O    1.822783032694  0.642231155036  4.472844968825 -0.422520438238  1.920469822593 -0.375797837370
Zn   3.414930751159  2.005029624760  5.079211294431 -0.090161645888 -2.911847349486 -0.122476555970
Zn   5.113524443162  0.876053851801  2.636665307704 -0.245824973023  0.448610964677 -1.228050143992
O    3.288522303791  1.960994417221  1.936939978438  0.373797776221 -0.320413189952  1.188901241707
O    5.098513118182  0.727803974018  4.482643595283  0.167595045576  2.833756775830 -0.061369147136