# total energy = -36809.59219013683 eV

CRYSTAL
PRIMVEC
3.3240255759183532 0.0 0.0
-1.6620127879591766 2.878689249384692 0.0
0.0 0.0 15.369749122852014
PRIMCOORD
12 1
Zn  -0.060007636514  1.908028574469  5.081961099532  0.598921769251  0.346233750560  0.682361780144
Zn   1.574354909497  0.909743585004  2.636547614684  0.573459877534 -0.138533866544 -1.295206073014
O    0.046938897560  1.874516081015  1.963197094550 -0.574266432596  0.247937648490  0.354076129422
O    1.680460132698  1.001050578744  4.529874024030 -0.530434265903 -0.389280702348  0.614420121997
Zn  -0.018044472839  1.922119118885  10.227831909202  0.209729512852  0.045993436011  0.064816739365
Zn   1.650519304725  1.002616527193  7.679910129228  0.209112448093 -0.228765189327  0.142510077582
O    0.021985769964  1.925930779013  7.125138238269 -0.254328382508  0.201712041864 -0.578630623102
O    1.679504807747  0.965110881814  9.664802473907 -0.191063046791 -0.032585390135 -0.108251670620
Zn   0.010576716980  1.986135862647  15.350608053976  0.185437987294 -0.627290035981  0.155638901655
Zn   1.656429422199  1.014029236605  12.811232676160  0.230896890958 -0.340079043812 -0.279574301559
O    0.027552847999  1.896142523814  12.203623071854 -0.212288274718  0.331531925573  0.169107368455
O    1.742720461345  0.929881861553  14.770735116282 -0.245178340578  0.583125425649  0.078732063895