# total energy = -36806.59436367799 eV

CRYSTAL
PRIMVEC
9.013222972357486 0.0 0.0
-1.5022068331339051 2.6018921415452976 0.0
0.0 0.0 4.9200480239207804
PRIMCOORD
12 1
Zn  -0.024717862679  1.738293787738  4.943077709937  0.456978877026 -0.682280276174  0.355778971046
Zn   1.526846280773  0.950862575981  2.440680734139 -3.683373187491 -4.927459044790  2.627749706135
O    0.037473375830  1.617705877591  1.927896847507 -2.117170013065  2.112642043288 -1.486429042421
O    1.587458402618  0.855103391156  4.338877209308 -1.455095008194  0.197815535023  0.044474942484
Zn   3.086247421601  1.680838997901  4.886599953470 -1.378758955336  1.743031822785  1.829752047092
Zn   4.529679929054  0.806000253725  2.489095261335  0.245780492938  0.952126551812 -1.100132105291
O    2.888061970918  1.666013147434  1.977148703117  7.094683808420  2.682504433279 -3.464762827210
O    4.530670482259  0.931293967586  4.291818270847  1.439316405204 -1.687926654281  0.492183192841
Zn   6.027173747896  1.717188424826  5.012020753775 -0.240216882807  0.906416708480 -0.829373859362
Zn   7.485342874909  0.894550662817  2.492600503749  0.324396857190  0.109368043613  0.267218351097
O    6.053438279637  1.791104063778  1.873783259425 -1.714184302426 -0.788426213305  0.593699601620
O    7.454529369534  0.882935322372  4.306261059338  1.027641651431 -0.617812949729  0.669840507749