# total energy = -73618.70937495548 eV

CRYSTAL
PRIMVEC
6.648050622659499 0.0 0.0
-1.6620126556648747 2.8786923442696573 0.0
0.0 0.0 14.729341182956913
PRIMCOORD
24 1
Zn  -0.036638071787  1.860603888670  4.878489792852  0.269412273424  0.234023609512 -1.390221447449
Zn   1.677723328896  0.929493873782  2.526237962849 -0.130423064511 -0.196169257669 -2.400775033050
O    0.060462025998  1.895386489528  1.883945859211 -0.388128848132 -0.016573845198  0.646474836440
O    1.676838473358  0.954890091965  4.318784427684 -0.058378697049 -0.089057099970  1.832033644037
Zn   0.001527057228  1.948168687446  9.852004826888  0.030467058241 -0.448726921430 -1.009517945247
Zn   1.590151217264  1.000890613444  7.437090466131  0.185998230673 -0.071811168405 -2.017297053427
O    0.040322421442  1.976623008916  6.689137569923 -0.369039692711 -0.074043143059  2.169911309323
O    1.666660972660  0.896838649123  9.249118378512 -0.076294143877  0.551169955788  1.223020037768
Zn  -0.003679031215  1.863949852548  14.700664816596  0.271185049054  0.386147041815 -0.223602671289
Zn   1.655829303781  1.021814687974  12.228925578337  0.325117023186 -0.269942949117  0.431054700961
O    0.000218720865  1.910341944209  11.707852700143  0.133513530511  0.339169901735  0.668870173416
O    1.714191875392  0.981524841980  14.206220040366 -0.312217798626 -0.419373407968 -0.388276686563
Zn   3.310549712718  1.907718623433  4.892719280404 -0.064904928204 -0.116810873044 -0.506515293193
Zn   4.929060184328  0.890936509781  2.445401656107  0.698402892767  0.528873863394 -0.704092229843
O    3.384613650289  1.930764090916  1.837104359329 -0.176646357145 -0.334017668110  2.315642464946
O    4.968826828738  0.936798087001  4.329451889713 -0.112896368481  0.016127244579  0.579529737878
Zn   3.352806052085  1.990946898788  9.748185544340 -0.189009763806 -0.748397222408 -0.126626573583
Zn   4.950686957809  0.946961626793  7.334767659778  0.309132989053  0.450380397873 -0.489891311483
O    3.335136863140  1.963868723797  6.778499336782 -0.113102570955 -0.311313541644  0.862386823953
O    4.975656371142  0.940782928544  9.259841019361  0.287354459725  0.716121135983 -0.103488959124
Zn   3.315597577555  1.946912205879  14.787807464158  0.112098555170 -0.239462521140 -2.554050062458
Zn   5.043312917524  1.011274868516  12.253304644775 -0.942604985475 -0.586627782375 -1.177290911162
O    3.294701424838  1.843451253258  11.624575229213  0.543384141195  0.470164522478  0.836597887914
O    5.035030111253  0.912244176831  14.080604459046 -0.232419241140  0.230149985490  1.526124047018