# total energy = -24539.10329887086 eV

CRYSTAL
PRIMVEC
6.392356429000733 0.0 0.0
-1.5980891072501833 2.7679734343908944 0.0
0.0 0.0 4.926199166088696
PRIMCOORD
8 1
Zn  -0.008593244748  1.829943710344  5.002431851918 -0.417260475390  0.330651836961 -1.959076479222
Zn   1.567791255484  0.885724267567  2.533097803649  0.351094935307  0.253709775087 -2.509071183755
O   -0.124595976100  1.821502603679  1.885142347344  2.670864792157  1.484747026733  0.369615619819
O    1.573165948769  1.040193642967  4.274561073245 -0.360046745184 -0.845001795707  3.079974613416
Zn   3.175624231639  1.937638935281  4.976495504943  0.306696611697 -2.405212757106  0.117724128887
Zn   4.863678084799  0.917299951383  2.390860202276 -2.463070034434 -1.413819546484  1.375314191320
O    3.218747068109  1.822832213817  1.949584331740 -0.672345790669 -0.508902562478 -0.090749400070
O    4.705875734757  0.806920575981  4.344588059453  0.584066706516  3.103827765885 -0.383731490395