# total energy = -98154.40597251496 eV

CRYSTAL
PRIMVEC
6.264509332171351 0.0 0.0
-3.1322546660856756 5.425221694393695 0.0
0.0 0.0 9.655356678979729
PRIMCOORD
32 1
Zn  -0.007215461849  1.849934663828  4.824386339836 -0.193039196680 -0.128110614328 -0.846154935475
Zn   1.428880077437  0.852592202697  2.515239336825  0.856433177473 -0.622523982051 -4.312958704375
O    0.083022289277  1.934253080086  1.857560451038 -1.304673389074 -1.847249432545  0.170098528724
O    1.608449731640  0.839072138657  4.200853415066 -1.307677208897  1.053724721671  3.333647107508
Zn   0.012345468541  1.884888746548  9.687586326592 -0.019094040517 -1.067852162212 -1.027628538805
Zn   1.534180214802  0.882433192901  7.298579358614  1.366928795470  0.919907029657 -1.570565308050
O    0.031873197031  1.740768071303  6.644444932207  0.291339155404  1.927962274316  0.515310522887
O    1.622509169934  0.869505751443  9.090128169015 -0.558495800025  1.242330822281  1.636565011980
Zn  -1.580672270810  4.558968476196  4.852908024374 -0.818346397903 -1.182091674984 -1.229850430426
Zn   0.082748530220  3.630813135483  2.484644726148 -1.655443079831  1.033484997586 -1.419378271519
O   -1.654788307170  4.422576326114  1.884043037788  1.090712868860  0.988674011919 -0.180181366881
O   -0.045536718336  3.686502117642  4.242303793964  0.393886576551 -1.069042068755  2.237539035774
Zn  -1.430868432699  4.532326144457  9.658063573462 -2.956588915368  0.817534186415  1.708212915334
Zn  -0.003338357023  3.742034487068  7.336692006940  0.657368086313 -0.640790641571 -4.051831810888
O   -1.577420364016  4.560324742466  6.634558283579  0.461867572577 -0.682604749393  1.694627206230
O   -0.043303420759  3.685682719821  9.063394375440  1.944576485833 -1.863718376735  1.581583256427
Zn   3.097754133841  1.743365336872  4.786439074556 -0.368597462967  1.461221175697  0.642180322829
Zn   4.673551363489  0.907372204552  2.508570766641  0.543577231042  0.034361251089 -2.868350968865
O    3.163118024212  1.882178093360  1.899080365989 -0.385164623297 -3.260368610528 -0.764522924325
O    4.552000462466  0.802280048898  4.262069573809  2.225842316162  1.652145382916  0.913189508427
Zn   3.199437143517  1.806312379544  9.677977195727 -0.344449147856  0.412372551170 -0.261372433839
Zn   4.833533776363  0.796616306011  7.223854411947 -1.509848192676  1.576287041025 -0.762942724322
O    3.205632116795  1.792192801960  6.622499103115 -0.244232431725  0.193603296714  1.785095841835
O    4.695438306193  0.889986311803  9.032960762653  0.645018820719  0.455068290267  1.681943954335
Zn   1.593338482229  4.542812933079  4.764245170894  0.509283085746 -2.210363760911  0.637363618167
Zn   3.023231530825  3.557416891245  2.386618937020  0.688166045531  1.584249490405  0.410841202128
O    1.545809023475  4.444815960694  1.790453147719 -0.085131796773  2.302800318876  0.491881859551
O    3.144255586613  3.557874200426  4.233355568834 -0.105911709633  0.502390986612  0.931282104263
Zn   1.599353037639  4.470881331123  9.617265329985 -2.236720910748  1.922305333140  0.512109242341
Zn   3.182958978169  3.685070050809  7.415907980347  0.544343419784 -1.655479589496 -4.779682319492
O    1.692539493308  4.526004628090  6.639348753866 -1.337566540258 -1.757214284933  0.037023628412
O    3.053135166122  3.731359136715  9.098304606595  3.211637720982 -2.093013984644  3.154926384333