# total energy = -110405.57032727708 eV

CRYSTAL
PRIMVEC
9.204993617601557 0.0 0.0
-4.602496808800779 7.971754597683389 0.0
0.0 0.0 5.024729866040162
PRIMCOORD
36 1
Zn  -0.013372094228  1.894468690446  4.946485579292 -0.793691832579 -0.336865164861 -1.556084340825
Zn   1.717416161208  0.891832250137  2.485224009339 -2.882226698406  1.311962723647  2.351219590719
O    0.034015212915  1.624570913583  1.676503646575 -0.243464700321  1.429877885499  3.624943068379
O    1.595354263841  0.949841199416  4.551999134314 -6.504685566911 -2.761340369741 -3.938764721157
Zn  -1.439413387465  4.525289924833  5.093344808965 -7.520979654540  2.724670782234  4.196977783431
Zn   0.124088836961  3.581545192690  2.448843113064  0.653098255293 -1.197118230300  0.233231709739
O   -1.522914646068  4.364171239547  2.098142061227  8.010487357431  4.112987299351 -3.825560591627
O   -0.214475430791  3.732541146496  4.534211404647  8.842565245988 -5.992883314287 -4.685656562664
Zn  -3.159055316129  7.158275253220  5.210141449983  3.456272787461  0.798217231254  2.053529810506
Zn  -1.565542051012  6.052280542075  2.567733890129 -2.546430598240  2.070735889972  1.280628432310
O   -3.178738353982  7.264604895995  2.084161516920 -0.100318531816 -5.266433285574 -1.083141227160
O   -1.590360554803  6.160194364252  4.521314288090 -1.281174534621  3.171012491261 -0.379390954038
Zn   2.889589253467  1.667431204866  5.110039905889  8.020888498160  4.256368209574  2.788053874476
Zn   4.741484848432  0.739229104446  2.553629998908 -0.251497083707  2.162835376312 -2.299521648124
O    3.027607086770  1.864260662891  2.095201065766  3.925476488688  1.029447337181 -2.548494936968
O    4.691484243600  0.743479970499  4.323683995619 -2.481728787186  3.222737687550  2.025361061382
Zn   1.485949232698  4.476837599928  4.949274692358  1.049295482256 -1.473160093226 -0.179198948363
Zn   3.186723685945  3.603555252930  2.549616621691 -2.537376201347 -1.706678480967 -4.426490135337
O    1.599736761302  4.610596282685  1.779987105323 -0.289638370663 -2.093016812857  1.048417707636
O    3.162973881912  3.645849437104  4.230760505549 -4.443243957756 -2.057485195610  5.166900739995
Zn   0.028604517667  7.050460844974  4.856094382966 -13.917952711163  7.638808684436  4.857669791911
Zn   1.527479402403  6.273334781804  2.536726869128 -1.277806389480 -0.593446347959  1.058868213546
O   -0.148348597641  6.984719701056  2.155283900107  1.280502705365  0.536944299107 -2.176659683790
O    1.207586543705  6.220855272192  4.583197619182  15.934862556454 -8.327188645749 -4.114982732515
Zn   6.123892630922  1.686619934561  4.942720736902 -7.072638912805  5.863671239365  3.140405050788
Zn   7.765210189394  0.701996746262  2.595185942595  1.064474761099  6.417162387087  1.460611052916
O    6.178677991436  1.770119352165  1.808474719571 -0.586204064574 -0.022317432550  0.947177178227
O    7.443001354301  0.993259313311  4.454026705244  9.552806011931 -4.639493433844 -3.277338662724
Zn   4.519480653361  4.391841450361  4.885232790262  4.263461111865  2.113245224089  2.109998435017
Zn   6.426400938674  3.522347878736  2.424251052115 -9.378604773892 -6.143594182513  2.499632921160
O    4.431755223187  4.726677695698  2.242816025415 -1.270444549798 -35.535771379084 -14.689948546826
O    6.240571448021  3.709362052067  4.341972476939 -1.933854985651 -1.085185768394  0.938889741407
Zn   3.036815762385  7.108996319888  5.040095761886  0.160532225192 -0.204982999306  0.183645928391
Zn   4.590532158097  5.971246221761  2.636126992708  5.258886069355  37.172726941634  9.536425256580
O    2.919162136462  7.190451308410  1.967666799693  1.001763755223 -4.893613556996 -3.357580478395
O    4.793501346865  6.460690460399  4.341500260766 -5.161410406304 -1.702836481513  1.036227079107