# total energy = -36805.80027155004 eV

CRYSTAL
PRIMVEC
9.780305553333779 0.0 0.0
-1.630054185657481 2.8233297056086286 0.0
0.0 0.0 5.757499614053189
PRIMCOORD
12 1
Zn  -0.162891967021  1.914987739465  5.672180140528  3.805879311148  1.797756468022  0.298678883599
Zn   1.711610197606  0.788205582879  2.510468489294  0.046891522345  2.954057664306  0.686335677190
O    0.064454169658  1.886381323752  2.316253137677 -1.099461047366 -2.967793782945 -0.382268789807
O    1.752606304394  1.028358051650  5.172951289772 -6.730852142273 -3.717512038157 -1.327213222048
Zn   3.081032932695  1.804533858698  5.688966078949  5.996160185266  3.682117203597  1.416035066078
Zn   4.881955902583  0.966202253797  2.751417074936 -1.110778015041  0.232906208079  0.970372899617
O    3.177083357473  1.994651262289  2.167322556833  0.533858461093 -0.889609150004 -0.443955211073
O    4.818661677164  0.976148824545  4.966216169016  0.811194360240  0.508289097264  0.454617832993
Zn   6.480522394511  2.017043271853  5.853422894859 -1.278589547503 -0.451014174802 -0.421391209729
Zn   7.902897659927  1.143171014601  2.934445713061  3.390640237063 -1.053279406604  1.043394029169
O    6.521112618619  1.755627440779  2.098658943665 -1.991183387059  1.901414091513 -0.766172287003
O    8.116402708187  1.149890084517  5.299099626860 -2.373759680803 -1.997331923159 -1.528433668987