# total energy = -73606.09034630467 eV

CRYSTAL
PRIMVEC
9.013222972357486 0.0 0.0
-3.004404653044838 5.203784283090595 0.0
0.0 0.0 4.534155895582267
PRIMCOORD
24 1
Zn   0.050771485003  1.683301410417  4.412213298022 -2.174804889970  0.314481912070  1.460412820863
Zn   1.652046257116  0.792828329673  2.244288013506 -3.991400602185  0.259901248610  0.898222602705
O    0.035518407767  1.711960755502  1.756553676158 -0.911173249328 -0.785253214894  0.609916063479
O    1.489984902783  0.903841493057  4.015769389550  3.527735828498 -1.263363474582  0.439878212790
Zn  -1.486229994093  4.358509811586  4.551670390462  0.899365458060  0.034969574097 -4.089711102432
Zn   0.000307350903  3.502442906895  2.202718127835 -2.473532881639 -2.437635139301 -0.141420958283
O   -1.546311237105  4.397421697802  1.684272134531 -1.054290364367 -3.084551177043  3.888367242541
O   -0.034425103821  3.381602626504  3.991975382225  0.868565699070  2.588610059821  0.839490378971
Zn   3.126388711430  1.739821529032  4.475552821138 -4.495157873017  0.898447831342 -0.113630418434
Zn   4.344920575311  0.838360428162  2.217313239794  1.416612792959  1.718701987791 -0.082601317042
O    2.844582183299  1.795850426995  1.689286190470  3.913367621240  3.368321004741  0.626795869953
O    4.504323028866  0.928102385331  4.070524719107  4.184882028609  0.964139260002 -2.667281702792
Zn   1.487963236871  4.498297689309  4.475800684770 -0.115233244144 -4.709537740156 -1.863743830656
Zn   3.062466032788  3.537937880282  2.339080980828 -3.152411074110 -0.991001631611 -1.579868073508
O    1.378901436261  4.346147274957  1.668784713498  3.690587960072  0.446450209580  1.819079912090
O    3.040657638484  3.454856694890  4.088553869019 -2.411259477521  1.160109514286  0.642814356869
Zn   6.116898579941  1.756468951862  4.612729568166 -1.196918455585  0.961153952122 -7.503540633128
Zn   7.422247610136  0.759167547160  2.216986059800  2.351730468917  3.182752405406  1.527384144677
O    6.072658076304  1.747980298466  1.669110090847 -3.112279496196  0.282838831243  8.536460759349
O    7.486641680339  0.829546397418  4.098709968664  1.076596741174 -0.838027935493 -1.709453472609
Zn   4.514502562891  4.292593408022  4.551950701697  1.193066943049  0.381111793384 -2.643168611794
Zn   5.920400404598  3.492358913033  2.272390341411  1.840926318541 -0.646908838653 -0.961879003213
O    4.466382768086  4.334313814517  1.722454851009  0.578565574192 -1.343892225365  1.506905050887
O    6.045333589541  3.488536405171  4.028475329974 -0.453541312099 -0.461818464506  0.560571708718