# total energy = -36808.692443552405 eV

CRYSTAL
PRIMVEC
3.3240255759183532 0.0 0.0
-1.6620127879591766 2.878689249384692 0.0
0.0 0.0 15.68995250658023
PRIMCOORD
12 1
Zn   0.023327014284  1.747409996628  5.199225741397  1.718431764848  1.146338171534  1.405818273446
Zn   1.657465188569  1.044803065387  2.673688614456  0.007982246875  0.079600068322 -0.355903412439
O   -0.013558367922  2.019049366692  2.037220484905  0.098364493414  0.008023384525  0.265025200100
O    1.760747981653  1.204955614842  4.674102164159 -1.964417946039 -1.157387230259 -1.107044001920
Zn   0.042583426848  1.946070385172  10.429173456776 -1.707099113444  1.070115761435  0.894197283595
Zn   1.658032932137  1.011299546802  7.935496782579 -0.265652549272 -0.308000932331 -1.817794874730
O   -0.067560155025  1.887362775061  7.253785008511  0.421056194987  0.333723019687  0.170023966732
O    1.460567198384  1.043281991283  9.796928834122  1.854382186936 -1.164426653604  1.071369688447
Zn  -0.002920156468  2.111016844313  15.714451904685  0.025690977008 -0.687132719170  0.046041258530
Zn   1.660904890235  0.930032772314  13.037225529808  0.535791159339  0.489176030584  1.030853473500
O    0.123349935487  1.968057817149  12.554068107869 -0.733017397518 -0.317158430460 -1.219638265780
O    1.668240682278  1.057249879156  15.120696506576  0.008488239977  0.507129272628 -0.382948589482