# total energy = -73589.458738826 eV

CRYSTAL
PRIMVEC
6.136662235341968 0.0 0.0
-1.534165558835492 2.6572545245121315 0.0
0.0 0.0 13.300742872111595
PRIMCOORD
24 1
Zn  -0.047010514720  1.788037434513  4.556541667691 -3.215568680605  0.923451809585 -24.386482567907
Zn   1.559022722886  1.032595289689  2.172544121191 -2.402214079489 -2.692589585429  0.466761667444
O    0.015476662158  1.734519603159  1.529077652176 -1.396438889114  1.309521204085  2.772334406859
O    1.657200113658  0.828816374173  3.963953651603 -3.786790669948 -0.664975209237 -2.170232182997
Zn   0.227757309535  1.780248169138  8.994987566326 -2.319276462154  5.394088300422 -20.434444269570
Zn   1.252493375900  1.123360206147  6.682511590847  14.779943585229 -8.620480039784  6.966702006361
O    0.178051572761  1.705663176329  5.945648190941 -13.919055200199  6.746021393814  14.307948951521
O    1.423994061724  0.944141440229  8.335333196000  6.886737355610 -5.172276916705  0.917952219923
Zn   0.067857983666  1.779464517370  13.046283717858 -6.205075943967  3.150639584032 -0.517940504311
Zn   1.573155456014  0.930101370701  10.968255854749 -10.997527904421 -7.241853496262  7.108278773495
O   -0.011004262720  1.677951237007  10.391167206469 -5.970193843109 -1.083714326055  23.421110206829
O    1.425835674061  0.936319650544  12.958763868390  6.663103316862 -3.365375034739 -2.833278036422
Zn   3.117436075212  1.573539611070  4.487517718200  2.379700471768  2.325436311108 -13.184841982601
Zn   4.743972515012  0.772717462682  2.228899545163  0.552990296826  4.505769587094  1.848999325357
O    3.004010306117  1.856405374811  1.695786218461  0.504773885022 -1.074133110125  11.912199396710
O    4.581213504542  0.790459166871  4.086564163065  3.106169012423 -1.228489802633 -2.006827264244
Zn   3.225438875889  1.726425959336  8.881170891847  1.172083398819 -1.562309752909 -5.861837271480
Zn   4.581464494027  0.914144207890  6.681621161157 -0.678471701061  0.580502900424 -8.730425810278
O    2.840900278567  1.602091045786  5.957514041039  0.521955796118  1.699188343238  17.023907807803
O    4.606294043098  0.687194483106  8.261621450228  0.942995793155  1.521467264972  6.739466880525
Zn   3.208053711776  1.661185875780  13.521153369618  0.581117908300 -1.248881221805 -13.516263607848
Zn   4.556499938388  0.846688175601  11.037921699110 -0.364232758240 -0.178373624248 -2.047243463277
O    2.798332093639  1.606427824988  10.449758830160  11.732509367643  6.674844002338  1.772076289647
O    4.519833995198  0.772808285283  12.767297551983  1.430765944530 -0.697478324071  0.432078771350