# total energy = -73618.4510485808 eV

CRYSTAL
PRIMVEC
9.780305553333779 0.0 0.0
-1.630054185657481 2.8233297056086286 0.0
0.0 0.0 10.886908005471282
PRIMCOORD
24 1
Zn  -0.050605256994  1.870452140097  5.453953160747  0.142286134497  0.045858453095 -0.132308197349
Zn   1.659220034848  1.018297051327  2.700435276178 -0.157627649950 -0.505605122674  0.085139510083
O    0.006760147198  1.843859489298  2.014189378692  0.073865736941  0.469976060617 -0.091115782271
O    1.601001788011  0.946684676035  4.731235525822  0.079044967149  0.041147163662  0.393940569717
Zn  -0.016647058082  1.862924238913  10.838064181507 -0.139193354504  0.491468940383  0.715661165627
Zn   1.615176384850  0.934400612260  8.181540521203 -0.022754520088 -0.270982960346  0.120651072726
O    0.046910257556  1.863677322441  7.532172243836 -0.959471936433  0.028999472556 -0.138466246530
O    1.610931732240  1.049426785873  10.225484523480 -1.063729398293 -1.452634719579 -0.579296538821
Zn   3.205800290638  1.946459784705  5.487331387540  0.264557773546  0.086835409728 -0.304067401604
Zn   4.838412026198  0.917235197983  2.686609836248  0.844841358870  0.097348136334  0.437480659092
O    3.310532692656  1.861005342963  2.036530530668 -0.754465797199  0.081508598198 -0.213802397370
O    4.882600424719  1.058585063993  4.774132924010 -0.411985343034 -0.681367791662  0.320592910063
Zn   3.168029728622  1.770066105867  10.849130597241  1.744955779281  0.841141541421  0.676205016514
Zn   4.834789401021  0.957180899955  8.188138315329  0.032503114834 -0.350701556523  0.444128503426
O    3.201641704717  1.849512505908  7.622477717132  0.287974352697  0.522947213497 -0.858898351184
O    4.886324765073  0.854207974906  10.275635974296 -0.021525275666  0.461312471404 -0.405546529388
Zn   6.551211508959  1.875714922516  5.582887906887 -0.235644432945 -0.242462484308 -1.114454949672
Zn   8.208007006060  0.932140383647  2.756679857354 -0.620106630859 -0.325146076652 -0.107286735604
O    6.502804864653  1.831519677781  2.034221400527  0.376842733695  0.278046809171  0.028330985734
O    8.131370487806  0.865905220348  4.805064118353  0.253366018595  0.625162191005 -0.009341074895
Zn   6.468911215758  1.911860975780  10.885739258958 -0.236456130213 -0.574981970606  0.678053639687
Zn   8.132241913030  0.963334668209  8.305889282069 -0.146717945016 -0.058721939321 -1.086065857006
O    6.387558634166  1.911987141721  7.477843624518  0.869867962821  0.158103304035  1.213415167688
O    8.149195094677  0.938603209556  10.235232554025 -0.200426490283  0.232748856565 -0.072948624444