# total energy = -49071.480364474206 eV

CRYSTAL
PRIMVEC
6.392356429000733 0.0 0.0
-1.5980891072501833 2.7679734343908944 0.0
0.0 0.0 10.057663289469033
PRIMCOORD
16 1
Zn   0.132717464943  1.860914677242  4.985726067627 -1.265010009046  0.213441414486  1.286518058321
Zn   1.629269104204  0.940070164219  2.405510204740 -2.196456921022 -0.834036297835  1.346161223905
O   -0.231508776611  1.887985028248  2.130047585323  23.137100495206  16.349246224517 -11.050081510148
O    1.516887642768  0.871139467138  4.302238698111  1.212865722942  0.310757412030  1.277537709200
Zn   0.069732937813  1.993595066518  10.094864246943 -0.769109001034 -5.320626226677  1.713811235357
Zn   1.834434979971  0.840429947618  7.780678442326 -2.752616359604 -1.101552125567 -3.224533603108
O   -0.197511668179  1.888936850120  7.032053600035  1.686217384899 -0.033684536737 -0.608626398133
O    1.698475951082  0.798918624203  9.522201160837 -1.804361117822  3.908013298906  1.181169677391
Zn   3.167263668665  1.906615551060  5.075958014036 -0.423446035376  0.274146445675 -1.187014051987
Zn   5.124102046481  1.101495701885  2.537419675830 -24.825452409950 -18.704980158167  8.648983546541
O    2.936374311392  1.837193921006  1.888069407353  4.455284176750  3.282993032796 -1.788975893616
O    4.747925294583  1.065391033538  4.434300307285 -0.026068672063 -1.190902331297  0.861223142662
Zn   3.227794170163  1.808264672751  9.856943936834  0.622224962753  0.882555842702  2.612016354560
Zn   4.727331679111  0.820774090834  7.467257371199  2.865542809993 -1.049857268296  0.814796989989
O    3.235459244757  1.610496671079  7.001694381647 -1.346342743788  2.574671852474 -1.546356829125
O    4.767780592887  0.864749667652  9.467742119476  1.429627460051  0.439813678101 -0.336629651811