# total energy = -73617.55075844898 eV

CRYSTAL
PRIMVEC
10.163846843821924 0.0 0.0
-3.3879455599916932 5.868096975280588 0.0
0.0 0.0 5.3305616072513775
PRIMCOORD
24 1
Zn   0.000000000000  1.956033341478  5.329729188195  0.000000257110 -0.000001542662 -0.047666195728
Zn   1.693974812765  0.978016162547  2.664448384569  0.000002056883 -0.000002056883 -0.047665424397
O    0.000000000000  1.956033341478  2.026444406873 -0.000003599544  0.000000771331  0.047665167286
O    1.693974812765  0.978016162547  4.691724194114 -0.000000514221  0.000001542662  0.047665938617
Zn  -1.693974812765  4.890082845503  5.329729188195 -0.000003342434  0.000000257110 -0.047665681507
Zn   0.000000000000  3.912066682956  2.664448384569 -0.000002056883  0.000002056883 -0.047664910176
O   -1.693974812765  4.890082845503  2.026444406873  0.000001028441 -0.000002056883  0.047665424397
O    0.000000000000  3.912066682956  4.691724194114  0.000002828213 -0.000000514221  0.047665938617
Zn   3.387948609146  1.956033341478  5.329729188195  0.000000771331 -0.000002571103 -0.047666195728
Zn   5.081923421911  0.978016162547  2.664448384569  0.000003599544 -0.000000771331 -0.047665681507
O    3.387948609146  1.956033341478  2.026444406873 -0.000003085324  0.000000257110  0.047664910176
O    5.081923421911  0.978016162547  4.691724194114 -0.000000514221  0.000002056883  0.047666195728
Zn   1.693974812765  4.890082845503  5.329729188195 -0.000004113765  0.000000514221 -0.047666195728
Zn   3.387948609146  3.912066682956  2.664448384569 -0.000000257110  0.000002828213 -0.047665424397
O    1.693974812765  4.890082845503  2.026444406873  0.000000000000 -0.000002313993  0.047665424397
O    3.387948609146  3.912066682956  4.691724194114  0.000003856655 -0.000000257110  0.047665938617
Zn   6.775898234676  1.956033341478  5.329729188195  0.000002313993 -0.000002056883 -0.047665681507
Zn   8.469872031057  0.978016162547  2.664448384569  0.000003599544 -0.000001028441 -0.047665167286
O    6.775898234676  1.956033341478  2.026444406873 -0.000002828213  0.000000257110  0.047665681507
O    8.469872031057  0.978016162547  4.691724194114 -0.000000771331  0.000001799772  0.047665681507
Zn   5.081923421911  4.890082845503  5.329729188195 -0.000002313993  0.000002056883 -0.047665681507
Zn   6.775898234676  3.912066682956  2.664448384569 -0.000000514221  0.000003085324 -0.047665424397
O    5.081923421911  4.890082845503  2.026444406873  0.000000257110 -0.000002056883  0.047665167286
O    6.775898234676  3.912066682956  4.691724194114  0.000002828213 -0.000000514221  0.047665424397