# total energy = -110392.44313718924 eV

CRYSTAL
PRIMVEC
8.82145232711341 0.0 0.0
-4.410726163556705 7.639598251588392 0.0
0.0 0.0 4.720941356091976
PRIMCOORD
36 1
Zn  -0.163505618883  1.634158164984  4.560377691560  6.338874609819 -13.317879344806  6.315067222987
Zn   1.512380662043  0.828352016421  2.404386514166 -9.518712155571 -3.232154352878  0.550013730696
O   -0.076951292940  1.715769831188  1.723459491181 -0.537004205811 -1.647318393841  0.985025359423
O    1.299516370955  0.663035353375  4.073135358015 -1.431038224355  10.172586626909  1.002856216956
Zn  -1.472388607918  4.161111702073  4.854795427268  0.954748305706  0.389233651160 -5.878302873235
Zn   0.177154169924  3.359709222512  2.314991680574 -1.980766562601  0.851880525105  0.494579203877
O   -1.362959373946  4.393735164229  1.746574342714  1.002622760789 -1.044909180262  6.253763896091
O    0.134140768377  2.991590899047  4.194231844835  0.726682970659  18.562283418495 -6.315859894091
Zn  -2.801408326181  6.908072260201  4.639704601612 -10.708103963761  0.405972046961  9.099638795341
Zn  -1.473823858212  6.086472183391  2.492926549028  5.936280221081 -2.583493564530  0.810308100980
O   -2.861710892144  6.752608277259  2.049714730483 -7.655124390877 -0.055221382367 -4.030799672808
O   -1.662577355801  6.034342693009  4.342356379441  15.152136735967 -11.878560625610 -2.631360820525
Zn   2.936713526265  1.660052656145  4.666086919086 -2.164562129196  1.539589171383 -0.409345591419
Zn   4.416325139349  0.876344245661  2.103907558564 -6.696961145952  0.081648209100  3.824592314177
O    2.729295599843  1.536405005311  1.809547162296  9.518755607214  6.538686606447 -4.797395934722
O    4.386274861996  0.730590035296  4.407171118269  1.308956589830  2.463398364308 -2.364839752606
Zn   1.205966633316  4.203559648526  4.560362695091  2.782338055039  1.732467159896  2.252248316960
Zn   2.834697840828  3.342140418057  2.378465558648  8.727032211215 -6.144796944572 -0.861568956037
O    1.673543303188  4.164436507455  1.772206836741 -7.827705833923  5.279416328098 -5.900603336505
O    2.849248826441  3.488754720024  4.037315850840  1.668215806116 -0.897065092062  5.461310821015
Zn   0.152911054638  6.673837118704  4.599997480397 -4.649194977402 -0.121571270547  2.072591969344
Zn   1.564706870812  5.899163639694  2.226805385950 -10.589586906659 -5.964625347883  2.632374863612
O    0.124531560357  6.878379251668  1.873725874412 -1.266081130623 -4.949053997352 -0.895459695248
O    1.532302147834  5.884435342889  4.130025786217  1.090609253403 -3.035089065757 -1.863423471202
Zn   5.990083702394  1.799198716572  4.719639309728 -7.061141453688  0.798154753447 -0.259422252091
Zn   7.307505857282  0.725696775690  2.318600536721  0.097038061293  1.696053140043  0.636523895874
O    5.720607740996  1.686954557161  1.736860159412  7.692203812227  4.545497758922  1.738940426325
O    7.299303670908  0.959034775485  4.418650474182 -4.704931865953 -10.601824329265 -4.518789396393
Zn   4.567180795595  4.229996659005  4.704908366487 -6.185642774943 -0.985702073775  0.466547237441
Zn   5.827956876509  3.490646039403  2.258371188812  5.354879491433 -2.774492847963  2.468914151920
O    4.520588530839  4.293395554735  1.691352933292 -4.117901191713 -3.227130674411 -1.752782474414
O    5.846820670166  3.399658933666  4.162238201535  4.766655825326 -0.893889265437 -4.362298431150
Zn   2.844792228726  6.820468181431  4.629082690865  4.323558591378  0.103809061468  1.889069196795
Zn   4.214357106174  5.585488673556  2.607225224685  0.012001138226  5.868068854212 -1.414502688594
O    2.850093921574  6.635292664906  1.903359779214  11.480918952891  6.482344994432 -3.908050322792
O    4.531657689219  5.828973107818  4.220740309078 -1.840050600804  5.843686825823  3.210439586909