# total energy = -110425.91994164562 eV

CRYSTAL
PRIMVEC
10.163846843821924 0.0 0.0
-5.081923421910962 8.802145462920882 0.0
0.0 0.0 4.89541683232683
PRIMCOORD
36 1
Zn   0.036309326465  1.942045855452  4.971806272436 -0.205244994718  0.176095883958 -1.204632279289
Zn   1.774917656260  0.920607706419  2.547678997335 -0.655188819274 -0.108831968604 -1.918428623793
O    0.062041137519  1.963571866682  1.936783015556 -0.621286510099 -0.478727067336  0.740783414616
O    1.623567812909  0.937557953800  4.335666344251  0.333536871818  0.161888224999  1.820359293023
Zn  -1.667608777668  4.804530697465  4.962931201372 -0.109772735250  0.194265355778 -1.433832756381
Zn  -0.084429042962  3.875385359697  2.432560218827  0.805022684211  0.022202247129  0.038974581491
O   -1.677269514093  4.908921535628  1.925155574767 -0.282879711783 -0.724751043744  0.442674801698
O    0.047848341787  3.918774821873  4.377729424414 -0.414645663475 -0.242421860878  0.096411226342
Zn  -3.345924151601  7.890948462295  4.986228771107 -0.178826395515 -0.554614976914 -3.414667967436
Zn  -1.644195340078  6.739404942583  2.471245852684  0.099461840243  0.873021935069 -1.558365680660
O   -3.276028393240  7.848099716771  1.814728427963 -0.332215581904 -0.486583073046  3.558937450912
O   -1.718282668877  6.811057013678  4.271923778770  0.152717100022  0.229722411034  2.220352496692
Zn   3.462740292531  1.907618873422  4.871440317622 -0.573327208611  0.360839416288 -0.003985467010
Zn   5.067270203916  0.952183729409  2.530740946569  0.036709439606 -0.227160049623 -2.416529981891
O    3.261696352806  1.880576942510  1.898132955163  1.636394547840  0.594161371748  0.060865468027
O    5.129030819263  0.976391979821  4.323620152972 -0.475811179241 -0.154052788115  2.030896646488
Zn   1.751849789463  4.891719224845  4.918290569649 -0.151094733928  0.207639205982 -2.294830156186
Zn   3.380355199169  3.958645560272  2.436804641269 -0.032790821278 -0.168987812158 -0.852020393117
O    1.663769892715  4.821388453840  1.801039759033  0.166860995623  0.161131806449  2.600662105890
O    3.401927964095  3.849765350958  4.320379918598  0.173802717048 -0.008271238870  0.701756382621
Zn  -0.064703049008  7.842217898602  4.918820106069  0.411681952861 -0.606998889832 -0.739890470488
Zn   1.816523363315  6.807624682599  2.407730957373 -1.160749718973 -0.641466841702 -0.479960682633
O    0.140199086979  7.784448625911  1.897681680363 -0.761379236490  0.320860561902  0.466721558235
O    1.731094197824  6.863762657872  4.264774528900 -0.200909086347 -0.220540487424  1.441069640449
Zn   6.766147040014  1.908432997555  4.906861323873  0.360669980590  0.263345241295 -0.054162602085
Zn   8.495249123856  0.898711731163  2.415070271179  0.190122794364  0.237948141378 -0.525906553236
O    6.826284489020  1.928689544314  2.002019666523 -0.378239099822 -0.330686289744 -0.800537394746
O    8.412810162106  0.959030096643  4.287616758297  0.513404564114 -0.080018901027  1.383654849975
Zn   5.074499748176  4.941758892011  4.803097595060  0.149102900309 -0.747807925563  0.431084525758
Zn   6.812768605487  3.814060773380  2.477127670853 -0.299420132640  0.687220136678 -1.842016209171
O    5.093843581489  4.973368455696  1.924134108159  0.012638514700 -0.941660362173 -0.467560509196
O    6.772392723900  3.840136122458  4.272335414567  0.085494836540  0.315044212331  2.583466053727
Zn   3.380717032116  7.838827239295  4.931744453716 -0.082149317106 -0.195703630886 -1.616260238984
Zn   5.068620979162  6.866662403376  2.471362736923  0.510308184577  0.052198536380 -2.325731987971
O    3.363123413230  7.721029270760  1.879334920425  1.114465748305  1.042704202191  0.562559428572
O    5.031972180212  6.759897290590  4.237322994960  0.163535273684  1.018995545720  2.768089772650