# total energy = -12268.09346144339 eV

CRYSTAL
PRIMVEC
3.5157962211624265 0.0 0.0
-1.7578981105812133 3.044767422432191 0.0
0.0 0.0 5.870391750603106
PRIMCOORD
4 1
Zn   0.011294846940  1.916642638400  5.887441604378  0.447887199137  0.199880902192  0.035839635406
Zn   1.830153699780  0.914709976554  3.026143195110  0.035238511487  0.339110509251 -0.130484256766
O   -0.013343852978  2.044661568303  2.353752441507  0.103901878292 -0.198093214164 -0.182173200500
O    1.883079089775  1.180595229996  5.151538343619 -0.587027846027 -0.340898197280  0.276817821860