# total energy = -98145.74092556194 eV

CRYSTAL
PRIMVEC
6.392356429000733 0.0 0.0
-3.1961782145003665 5.535940476425361 0.0
0.0 0.0 10.057663289469033
PRIMCOORD
32 1
Zn   0.040161257736  1.823442683856  5.063354204865  0.287470159367  1.489372184209 -0.540125782159
Zn   1.561140647855  1.023842634457  2.403706281756 -1.268370440878 -0.906747866567  1.074268864371
O   -0.254427931351  1.968239145507  2.026415981367  2.759562451905  0.396368462433  0.734157167549
O    1.466788827727  0.869224956388  4.360854049623  1.344458896502 -0.595562108750 -0.226359150989
Zn   0.022376443680  1.746313789655  10.347785499884  0.856539364033 -0.480586232032 -3.813894468143
Zn   1.411347281183  0.933749402182  7.235320945943  28.951596815508 -18.021949119869  9.222058015711
O    0.311186303320  1.634781233153  6.950195001312 -30.513633003041  20.212619259006 -7.342473104258
O    1.560254667254  0.684708309593  9.503544429364  0.229766376898  3.103967119676 -0.206794084373
Zn  -1.513154506614  4.581030456756  5.039756821107 -0.174704660037 -0.675747103041 -2.690148580088
Zn   0.213642779627  3.798218653047  2.251530483842 -2.562376065826 -0.756289480672  1.383993978482
O   -1.423639782596  4.716270984782  1.838102914090 -1.059717191810 -0.493509110741  1.904892794091
O    0.176383651710  3.644356551508  4.236384642180 -0.903613177593  0.820179080237  1.464133464247
Zn  -1.708461451060  4.500501468171  10.075843790389  3.053400462472  1.227825429576  0.032481003347
Zn   0.023031020978  3.730134943193  7.560066715720  0.085440843373 -0.784951367383  0.640164063730
O   -1.486934339013  4.671419655134  6.830337679033 -0.035727021088 -1.816293093373  2.120444055830
O   -0.114924980059  3.569256591237  9.552773244695  1.860958811712  0.287504097929 -0.786677863155
Zn   3.436078876631  1.698840954635  5.046061602253 -14.625278617452  5.513862112749  6.883390293515
Zn   4.728935521339  1.123821006713  2.608643950398 -0.980460622870 -2.525913966344 -1.144622988615
O    3.140156241992  1.808472424335  1.932158128879  0.292389451046  0.519744904510  0.520909614242
O    4.699294803814  1.238904517212  4.409321535303  12.996524102655 -6.220682283046 -4.600610383625
Zn   3.187370186577  1.972218387384  10.163532218175 -0.535097475706 -3.267073019132 -1.742225010613
Zn   4.627766253080  0.776939785094  7.490468017392  0.479716427833  6.540774085103  3.252876415916
O    3.212752316249  1.811645590066  7.037587462996 -0.557600027684  1.139484381837 -0.613178022060
O    4.830294642584  1.010359237041  9.474858090653 -0.649255741619 -0.204278517040  0.055188729357
Zn   1.619134023086  4.840085814927  4.842993697866  0.386943826685 -2.048727504022  0.274282971253
Zn   3.408219708842  3.605467372701  2.491620998959 -0.146748798254  1.427158943906  0.928992536898
O    1.744752136979  4.556777217229  1.992489828092  2.630301526023  2.274455963405 -0.740378465868
O    3.097090936730  3.521170090000  4.514899611791  0.648720695051  1.755982212298 -0.469438185835
Zn   1.578835329686  4.753506460981  10.063541061206 -0.385354627821 -0.696192001159  0.093857606682
Zn   3.168877099428  3.636723438696  7.628340917796  0.239609074020  0.474697634462 -0.306415847232
O    1.640829041570  4.791504545302  7.012684760055  1.236889339551 -7.787269580285 -2.609377888496
O    3.239987590051  3.674509296783  9.673375276498 -3.942351152956  0.097776739231 -2.753370978382