# total energy = -98155.97342605019 eV

CRYSTAL
PRIMVEC
6.136662235341968 0.0 0.0
-3.068331117670984 5.314502912362029 0.0
0.0 0.0 10.049453306556126
PRIMCOORD
32 1
Zn   0.071992253014  1.714126247218  5.148274233064 -1.374215301829  1.151777340272 -1.033087247927
Zn   1.577938984226  0.773140892376  2.627859912405 -0.057371853051  2.103586103733 -2.974816237009
O   -0.032968604193  1.616660095599  1.920159772440  1.553698357091  1.819816018925 -0.619081017808
O    1.482193552698  0.912210545620  4.380179518043  1.142645553174 -0.506088747179  2.064473196892
Zn  -0.024315910441  1.814594454003  9.946309515037 -0.037431662484 -0.861956421284  1.933204496551
Zn   1.522747685080  0.999798512039  7.417584926379 -0.276901896933 -2.616273072954  2.156608935787
O    0.004262525589  1.808339354186  6.955389323134 -1.826639983825 -0.038879707784  0.352802662027
O    1.464026577817  0.852657306957  9.480410436132  1.133075907207 -0.063073788532 -1.164866055135
Zn  -1.542558671775  4.407068530960  4.973130210870 -1.260590282712  0.400342873699  1.639327148106
Zn   0.115053825586  3.645713098406  2.684903256213 -1.881579316176 -2.477825852587 -2.620298649174
O   -1.513634741661  4.407231152509  1.994820859860  0.299333229354 -1.416299375483 -1.214467520212
O   -0.068847827285  3.561882610274  4.411474654445  0.956605413519 -1.286771826203  2.577195390227
Zn  -1.549629947669  4.370590983300  10.064084950324 -0.018904550214  0.883991803817  0.888221525628
Zn   0.049095138881  3.590640236841  7.562194144623 -1.430923296044 -0.175187256101  0.216462460700
O   -1.552806284042  4.373647041094  6.992090858965  0.024022845277  1.049277227423 -1.230960632771
O   -0.016383047170  3.552063950698  9.425032582454  0.317684992388  0.680384858923  0.160319852070
Zn   3.070412673501  1.822012451313  4.962902235922  0.010770608253 -1.282275995215  1.000770538072
Zn   4.614744226996  0.834944445081  2.562108644884 -0.524010621764  0.758322451941 -0.723839587673
O    3.126161181578  1.760807223176  1.836854582595 -0.835069624195  0.090554767561  0.702489404132
O    4.608875736900  0.883230158214  4.418809193148  0.070992272048  2.013684653485  0.420979833223
Zn   3.110561172510  1.780665462170  9.964697409759 -1.405340048258 -0.934272554350  1.154949310242
Zn   4.539695302522  0.832916278212  7.486888094002  1.027134629888 -0.265203120439  0.601735841661
O    3.053178471279  1.743949198349  6.947110352112  1.028345619477  0.590229897904 -1.582806073091
O    4.581196321888  0.882919029438  9.406095456462  0.531826518264 -1.119876120688 -0.644460634223
Zn   1.493189837758  4.535132080484  4.972549068956 -0.390031207361 -1.987584613964  1.671065616860
Zn   3.062702571069  3.556611217414  2.560385470129  0.268402858323 -0.973529185858 -0.524275445390
O    1.507088764054  4.393361682191  1.940116811695  1.478622144782  0.304196470983 -1.479467266391
O    2.965316809725  3.527225196634  4.467786508115  0.563650090533  1.290911302293 -0.544767394696
Zn   1.548444344525  4.386772747949  10.072489109255 -0.370909913150  0.752281387953  0.389633714812
Zn   3.047950648721  3.500281567423  7.601574333519  0.730415441118  0.239176357358 -0.697617934972
O    1.550263864877  4.330831548678  6.945788515066  0.574703263023  1.381993146002 -1.520999581307
O    3.049752372753  3.523816894428  9.421923135700 -0.022010185723  0.494571233457  0.645570579458