# total energy = -98105.0689521551 eV

CRYSTAL
PRIMVEC
5.753120944853822 0.0 0.0
-2.876560472426911 4.982346566267031 0.0
0.0 0.0 8.312966356145585
PRIMCOORD
32 1
Zn   0.070816891646  1.682644048346  4.190789613579 -0.792637680283  0.276694923129 -12.024127744851
Zn   1.381875487846  0.842477250859  2.095167558512  3.495752847834 -0.228286449918 -6.340604705136
O   -0.009674448181  1.586463947702  1.581386818468 -1.783537496209  2.411970901766  4.786653094383
O    1.413473354011  0.803429093070  3.678761274175  1.928975031851  2.382452323481  4.396266560566
Zn   0.037774416812  1.634879912326  8.287796452012  0.018511685651  1.790018733058 -4.694738213250
Zn   1.474087085662  0.815083765480  6.258872053995 -1.127787148005  3.302650659126 -8.036286577882
O   -0.066897290347  1.647953879673  5.680866923595  2.973170473876  0.594361403574  12.214214543771
O    1.462924880405  0.850382039037  7.808982605759  0.412292846972  0.151524108156  7.616778958329
Zn  -1.345031926003  4.235573057638  4.171776699480 -0.516331507953 -4.990204503449 -5.810491312908
Zn  -0.018059621958  3.306787486364  2.117485065281 -0.675533701479 -0.452187112064 -13.255575087450
O   -1.491452305922  4.131226977125  1.585088951796  2.576719736142  0.989973961677  8.063356437516
O    0.067818940322  3.300461354574  3.619126148397 -2.964797162210 -0.991051768122  10.982949492386
Zn  -1.452836782828  4.210819104149  8.349519385381 -0.679567505229 -1.332181621797 -8.869758775684
Zn   0.014877570763  3.316711044682  6.189961171318 -0.355610306679 -0.515223876711 -2.711122097015
O   -1.415596830952  4.221020538208  5.759287139883 -0.783340057032 -3.144527557597  5.377254002473
O   -0.027862940048  3.323849517151  7.838186598299 -0.577842065763 -0.082483560517  3.561813744019
Zn   2.887425816643  1.668850365569  4.132580111171  0.793425209182  0.041558283058 -7.342422196415
Zn   4.290854796797  0.781595423772  2.063800967809 -0.735530136637  1.810623296682 -1.476929844681
O    2.917992723535  1.713290923619  1.538029573092 -1.433451976003 -2.386323890622  11.700120924010
O    4.367676796086  0.762578482489  3.737138192402  0.167729771381  6.159913488498  1.428466864084
Zn   2.890544008195  1.655899515010  8.336073191108  0.472831013567 -0.847835665612 -10.734776330846
Zn   4.358822167640  0.907150384648  6.283589187510 -2.893876881051 -3.120109276653 -8.457502181266
O    2.888052331514  1.660674030082  5.712051140365 -0.078631533761  0.367634584833  6.791652304279
O    4.352072030835  0.844794032663  7.824101807602 -1.067415588895 -0.961440373014  8.574955572990
Zn   1.397698296381  4.175366071638  4.053533955325  0.729475445803 -1.863053232347 -1.372824592129
Zn   2.902998939729  3.303847066250  2.079975292033 -1.813582636421  0.255494377792 -2.816819890866
O    1.459303866082  4.164473687753  1.558537148012 -0.510745015004 -2.498599594800  9.965249268438
O    2.831061340122  3.363284859979  3.703142425427  3.517140312371 -0.317006992484  4.807145043689
Zn   1.417437254342  4.167721324526  8.343217416698 -0.477061506708 -0.319837519954 -10.488165114476
Zn   2.881306221894  3.354423327788  6.222913322153  0.569806339942  0.071492351613 -6.271633577283
O    1.423384830775  4.122524806384  5.695445332070  0.588825047137  2.177772714349  4.678164110941
O    2.826320193152  3.285185092529  7.813177206240  1.022624143612  1.266216627760  5.758737577374