# total energy = -24538.345427952034 eV

CRYSTAL
PRIMVEC
3.387949124333044 0.0 0.0
-1.693974562166522 2.934048640400525 0.0
0.0 0.0 10.878694474386032
PRIMCOORD
8 1
Zn   0.054597816523  2.247077245614  5.428793098081  0.040922963467 -0.926251740928 -0.245191967424
Zn   1.823051358265  0.872807518950  2.678914388464 -0.062148448504  0.544538309404  0.061811633990
O    0.170941683428  1.949649530783  2.016015727385 -0.315688016562 -0.272323019313  0.218235750551
O    1.688144918108  1.095550944488  4.750547366264  0.198490449603  0.557842225602 -0.117669107279
Zn  -0.138698910406  2.012515975940  10.857559431364  0.976080491524 -0.246983769218  1.245573240478
Zn   1.732570078591  0.983653760810  8.263974268340  0.088084965864  0.016488741684 -0.712464513067
O    0.143393591508  2.013149183631  7.420375613971 -0.194806830104  0.060532253057  1.395271351168
O    1.774709051004  0.926973710755  10.443993159346 -0.730935832398  0.266156999712 -1.845566388416