# total energy = -36806.85844662093 eV

CRYSTAL
PRIMVEC
3.387949124333044 0.0 0.0
-1.693974562166522 2.934048640400525 0.0
0.0 0.0 17.297123435045492
PRIMCOORD
12 1
Zn  -0.015905404754  1.899124029108  5.809864533662  0.153095823518  0.152805545971 -0.367814562054
Zn   1.715502268492  0.908115708339  2.924166670395 -0.042821466041  0.117459819482 -0.440252822520
O   -0.000554268477  1.905383942705  2.182437209091  0.084164290654  0.013687010569  0.088632867948
O    1.714261940318  1.032022494073  5.038774427657 -0.126621688487 -0.276081715025  0.540731534064
Zn   0.027821160619  2.021998167949  11.523539432171  0.041117853086 -0.641531376391  0.395044858525
Zn   1.679380632519  1.002073362609  8.677152958978  0.187767663869 -0.228989389523  0.097420641443
O    0.026376877907  1.910089126448  7.989296631880 -0.185765288727  0.171606737838 -0.074270171468
O    1.724073779777  0.910528266910  10.879021411477 -0.021980618036  0.712226171804 -0.428670259889
Zn   0.063545728956  1.915379747801  17.211704090158 -0.348783256455  0.166084008248  0.058194091842
Zn   1.620518743227  0.977292208739  14.403186079508  0.425152476544 -0.121771816594 -0.194010816565
O    0.086149786718  1.982238213410  13.711082958182 -0.482362864317  0.127543171860 -0.167348991003
O    1.661748390096  0.989722255281  16.480842830851  0.317036817281 -0.193037911129  0.492343886789