# total energy = -73618.58646140667 eV

CRYSTAL
PRIMVEC
9.97207619857785 0.0 0.0
-3.3240220755005505 5.757378193248923 0.0
0.0 0.0 5.016512764151779
PRIMCOORD
24 1
Zn  -0.025579372657  1.947665149289  5.038483242432  0.119740645096 -0.146109622008 -0.712923197871
Zn   1.721047723261  0.851847656734  2.471439476751  0.050367396709  0.843744526261 -0.505334385511
O    0.073156148200  1.896488454238  1.910467310653 -0.340353380520 -0.122868392092  0.491300018905
O    1.686321962315  0.997679299062  4.365664269692 -0.301500926429 -0.343062294810  0.802675781246
Zn  -1.679070268503  4.884952160072  5.075323083533 -0.304468493698 -0.396373090418 -2.707568832447
Zn  -0.086591526463  3.887145218434  2.600074273674  0.923953946033 -0.641450643752 -1.709687957218
O   -1.619389386870  4.719064678093  1.821656000029 -0.334921925091  0.334144423495  2.332676537610
O    0.003465296479  3.818611127552  4.403908179121 -0.024683361679  0.334344198211  1.683285041744
Zn   3.362541214233  1.851668957763  4.988095338609 -0.187238016617  1.018861848356  0.116003289541
Zn   5.007352414956  0.904942979246  2.496511270729  0.254925906883  0.430115476976 -0.232903122755
O    3.417901195249  1.909506999715  1.944191875149 -0.605086246190 -0.182985669099 -0.054510729453
O    4.984822503200  0.982774036768  4.453602026441  0.323808074566 -0.670406150444 -0.059620025655
Zn   1.645207092148  4.827795210924  5.059590138914  0.469088258695 -0.379760935783 -0.623139504148
Zn   3.367223104008  3.889704053187  2.556938063662 -0.049719735823 -0.682698594658 -0.914717000815
O    1.722082824771  4.758387566167  1.954107110513 -0.547595351063  0.184176861194  0.208133114899
O    3.424068924378  3.881730381058  4.407472199154 -0.768910254759 -0.237674318891  1.472934350368
Zn   6.710487297741  1.836593172966  4.954127455453 -1.005504710323  1.063232918272  0.202087422925
Zn   8.315229699091  0.954602921507  2.446609007016  0.080307635912  0.124113834463 -0.543798603025
O    6.669667601030  1.990508180261  1.885980877547  0.146946773198 -1.013085093773  0.176984200100
O    8.225318468462  0.942443968998  4.342781346439  1.398883494000 -0.103057528014  0.748023384008
Zn   5.034337850357  4.853251927044  5.038098320291 -0.126569752203 -0.628655291760 -0.327188046782
Zn   6.603171802523  3.835010206860  2.485343542594  0.685593399708 -0.417572864424 -0.256120955632
O    5.044083560426  4.735873609733  1.986189274059 -0.631585578033  1.236450195131 -0.763752364708
O    6.592541569295  3.803820544134  4.366653499650  0.774522201630  0.396576464678  1.177161584673