# total energy = -73614.69150188078 eV

CRYSTAL
PRIMVEC
6.775898248666088 0.0 0.0
-1.693974562166522 2.9340520283496487 0.0
0.0 0.0 15.0125988489656
PRIMCOORD
24 1
Zn  -0.109313533676  1.907494635009  5.097797583327  1.001288872469  0.500629009616 -2.001846780310
Zn   1.671726577857  1.029274528538  2.410237826287 -1.736082902271 -1.137244693873  2.013392319056
O    0.041372957117  1.999486939992  1.959581642436 -0.637859069746 -0.161531612990 -1.239561229956
O    1.702460697133  1.004241650048  4.507986132322 -0.678858909197 -0.441787256887 -0.843540637781
Zn   0.170057428706  1.955091254667  9.894157136445 -1.418784603799 -0.251510453443  0.418789767551
Zn   1.414519578646  0.945413979043  7.563877619851  0.536949441313  0.985034872504 -3.572830149734
O   -0.106217625766  2.107512375411  6.906883137711 -0.193617180671 -1.319645951223  1.598535568011
O    1.702714115728  0.920392619581  9.284181967432  0.841677616430  0.403137662836  3.853581759430
Zn   0.030928587556  1.882162261817  14.909446639567  1.650113182978  1.090855050865  0.287361658814
Zn   1.802901869643  0.915284947481  12.500637172630 -1.032352940864 -0.062641586091 -1.328997310531
O   -0.013187253172  2.002767829924  11.961451167801  0.272988935032 -0.623949401644 -0.764137515961
O    1.758758925322  1.011298748074  14.293285753043  0.386455831305 -0.022004529296  2.756393310148
Zn   3.347190741188  1.893379761367  4.986553596239  0.272590928263  0.116833241642 -0.553651327449
Zn   5.107970916957  1.193594804197  2.284077376795 -0.494032844455 -0.788406672921  2.090818519655
O    3.202763147607  1.799005050560  1.989787241649  3.534245347482  1.750347125500 -1.794640290990
O    5.232410288294  0.893196874370  4.394949242559 -1.063618069526 -0.047592147957 -0.857626426450
Zn   3.269431210476  1.891975117660  10.220380724857  0.707689717386  0.333656171005 -9.261882603907
Zn   5.085520333290  0.886518549056  7.457602398949 -0.926021112974 -0.232938603978 -0.109823128872
O    3.261252023700  1.819670862628  6.878471118765  0.681482462863  0.730244976979  1.033281623326
O    5.123997271495  1.166956037822  9.383234080801 -0.326230825075 -0.611491378386  0.970089049828
Zn   3.649225050442  1.760912305785  15.064051632317 -1.308235138283  0.214775302806 -0.237897747756
Zn   5.069528535833  1.059296500909  12.366865356636  0.572341704770 -0.044442546584 -0.007297562103
O    3.322853069858  1.897582173461  11.828086583291  0.880891824736  0.691014570723  7.576351446442
O    5.285185726983  1.016803487812  14.347571539452 -1.523022268164 -1.071340892091 -0.024862310459