# total energy = -73595.57974765025 eV

CRYSTAL
PRIMVEC
9.013222972357486 0.0 0.0
-1.5022068331339051 2.6018921415452976 0.0
0.0 0.0 8.682428676048994
PRIMCOORD
24 1
Zn  -0.003519663571  1.803081735786  4.374745330126 -1.027117917717 -1.298066168170 -9.204516150173
Zn   1.627085037416  0.789468200149  2.174011012668 -0.782238596437 -0.707388384096 -6.086302033660
O   -0.040357607181  1.635007660409  1.597218821775  1.311029927420  0.126543784061  4.440321127683
O    1.436343607586  0.899863056437  3.792725469909 -0.186478255633  0.995097141836  4.932766058826
Zn  -0.027016234537  1.736916567268  8.595772846426  1.890310011180  3.107038559512 -1.546221589098
Zn   1.432093872954  0.918339262208  6.499024082399 -0.119888226418  0.807807446045 -2.541207145057
O   -0.070554608105  1.832277367638  5.947611324752  0.947540732214 -0.113271749543  8.001038553313
O    1.461632007279  0.938798377033  8.186749182651  2.114948322823 -0.866088184064  2.403900980273
Zn   3.014623845251  1.637298821688  4.369292330228 -1.310719595268  1.263367588347 -5.589372841493
Zn   4.568473742050  0.813864290768  2.148980391151 -0.887581578051  1.017944221638 -3.728016023012
O    3.003771023470  1.784999407859  1.540597755062  0.217294726794 -2.028246096239  11.135708758500
O    4.458955872357  0.910244486656  3.795138309699  1.448020360736 -1.549728059590  4.298412945350
Zn   3.055216697552  1.784541536132  8.682252918201 -0.038155942244 -3.870592177946 -9.629099898697
Zn   4.431202356181  0.779258021166  6.485013928611  0.895301829513  5.031005853736 -0.613101403185
O    2.962310197797  1.802523817284  5.994700908171  0.362781627616 -3.402603580073  4.202589473191
O    4.504225686058  0.789299652879  8.225850346550  1.256145873787  4.599411735332 -0.205820150495
Zn   6.004093587831  1.737259069741  4.478789469508 -1.983264646432 -0.689145892946 -28.366408593793
Zn   7.404816036907  0.854407570342  2.156764210510  1.420899593259  1.090393280737 -5.188220070298
O    5.994863146185  1.779279616560  1.703279219135 -1.114674521882 -0.335094703224 -0.328449944214
O    7.467701293585  0.842249633875  3.768226628548  1.016849188801  0.508897677382  6.863008130314
Zn   6.138468123836  1.670932564532  8.638418009597 -3.780567571856  1.680225943203 -0.965838244971
Zn   7.502051587655  0.961643291978  6.470846043421  0.031568518835 -2.313796927096 -0.364852908323
O    6.091505626861  1.769867107810  5.857609786761 -1.174772515615  1.350862228925  28.867238406566
O    7.570563799435  0.911637930928  8.226086492992 -0.507231088313 -4.404573537769 -0.787556409106