# total energy = -36806.6021947061 eV

CRYSTAL
PRIMVEC
9.97207619857785 0.0 0.0
-1.6620160237883748 2.8786890966244614 0.0
0.0 0.0 4.803050501045022
PRIMCOORD
12 1
Zn   0.063494203572  1.987817714103  4.951870774610 -0.294711157200  0.894614059418 -7.295840749111
Zn   1.700872218696  0.898107121012  2.208423972598 -2.055548126488 -1.079277116219  1.170733569659
O   -0.155561397075  1.637000073437  1.733851869100  3.412332634435  1.613155117696  5.148665962154
O    1.600799442421  0.963340454672  4.169466662107  0.957595545346  0.282757841493  0.015065636084
Zn   3.409913562214  1.898184704399  4.619824570180 -3.939160413933  1.566547702250  0.115889132561
Zn   4.839391738335  0.878554871209  2.238976419655  1.495768574654  0.138712043993 -0.064845278610
O    3.211568966624  1.767983294305  1.699164999251  0.920143828258  1.325543547655  0.444235718428
O    4.885604333855  1.182595496843  4.153546242456  2.451328320517 -2.710999712505 -1.334314351869
Zn   6.480644902271  1.949501008517  4.825798801269  1.462843027571  1.305427236521 -4.677972820866
Zn   8.502108401467  0.700670981564  2.301639949279 -3.483702858648 -1.157887052714  2.178978304621
O    6.698292445758  1.780271883804  1.691131494665 -0.686803360855 -1.375262255036  4.884503881385
O    8.279004137884  1.102845811860  4.252733498366 -0.240085756546 -0.803331412552 -0.585099261546