# total energy = -98152.873129411 eV

CRYSTAL
PRIMVEC
5.880968041683205 0.0 0.0
-2.9404840208416023 5.093065348298698 0.0
0.0 0.0 10.197233964260093
PRIMCOORD
32 1
Zn  -0.000000000000  1.697689037530  5.097823051444 -0.000000000000  0.000000000000  1.451278462662
Zn   1.470242010421  0.848844812813  2.548513972283  0.000000514221  0.000000257110  1.451278462662
O   -0.000000000000  1.697689037530  1.938270030566  0.000000000000 -0.000000000000 -1.451278976882
O    1.470242010421  0.848844812813  4.487579109728 -0.000000257110 -0.000000257110 -1.451278719772
Zn  -0.000000000000  1.697689037530  10.196441209768 -0.000000000000 -0.000000257110  1.451278205551
Zn   1.470242010421  0.848844812813  7.647132130606 -0.000000257110 -0.000000257110  1.451277691331
O   -0.000000000000  1.697689037530  7.036888776987  0.000000000000 -0.000000000000 -1.451277177110
O    1.470242010421  0.848844812813  9.586197856148  0.000000000000  0.000000000000 -1.451278719772
Zn  -1.470242010421  4.244222887873  5.097823051444  0.000000000000 -0.000000000000  1.451278462662
Zn   0.000000000000  3.395378663156  2.548513972283  0.000000000000  0.000000000000  1.451278976882
O   -1.470242010421  4.244222887873  1.938270030566 -0.000000000000  0.000000000000 -1.451278976882
O    0.000000000000  3.395378663156  4.487579109728  0.000000000000  0.000000000000 -1.451278205551
Zn  -1.470242010421  4.244222887873  10.196441209768 -0.000000257110  0.000000257110  1.451278205551
Zn   0.000000000000  3.395378663156  7.647132130606  0.000000000000  0.000000000000  1.451277434220
O   -1.470242010421  4.244222887873  7.036888776987 -0.000000000000  0.000000000000 -1.451277177110
O    0.000000000000  3.395378663156  9.586197856148  0.000000000000  0.000000000000 -1.451278462662
Zn   2.940484020842  1.697689037530  5.097823051444  0.000000000000  0.000000000000  1.451278205551
Zn   4.410726031262  0.848844812813  2.548513972283 -0.000000514221  0.000000257110  1.451278462662
O    2.940484020842  1.697689037530  1.938270030566  0.000000000000  0.000000000000 -1.451278719772
O    4.410726031262  0.848844812813  4.487579109728  0.000000257110 -0.000000257110 -1.451278719772
Zn   2.940484020842  1.697689037530  10.196441209768  0.000000000000  0.000000000000  1.451278462662
Zn   4.410726031262  0.848844812813  7.647132130606  0.000000257110 -0.000000257110  1.451277691331
O    2.940484020842  1.697689037530  7.036888776987  0.000000000000  0.000000000000 -1.451277434220
O    4.410726031262  0.848844812813  9.586197856148 -0.000000000000  0.000000000000 -1.451278719772
Zn   1.470242010421  4.244222887873  5.097823051444 -0.000000000000 -0.000000000000  1.451278462662
Zn   2.940484020842  3.395378663156  2.548513972283 -0.000000000000 -0.000000514221  1.451278462662
O    1.470242010421  4.244222887873  1.938270030566  0.000000000000  0.000000000000 -1.451278976882
O    2.940484020842  3.395378663156  4.487579109728 -0.000000000000  0.000000514221 -1.451278719772
Zn   1.470242010421  4.244222887873  10.196441209768  0.000000257110  0.000000257110  1.451278205551
Zn   2.940484020842  3.395378663156  7.647132130606 -0.000000000000  0.000000257110  1.451277691331
O    1.470242010421  4.244222887873  7.036888776987  0.000000000000  0.000000000000 -1.451277177110
O    2.940484020842  3.395378663156  9.586197856148 -0.000000000000 -0.000000000000 -1.451278719772