# total energy = -49078.349691933094 eV

CRYSTAL
PRIMVEC
6.520203525830115 0.0 0.0
-3.2601017629150575 5.646659258457025 0.0
0.0 0.0 4.710677522120586
PRIMCOORD
16 1
Zn   0.018353068885  1.927770546671  4.689543586432  0.094268726078 -0.987414685590 -1.971307474070
Zn   1.624725179218  0.954643862868  2.292098003023  0.267956000594 -0.122707441034 -1.432753921495
O    0.062697625084  1.862959071604  1.760908106119 -0.975240255011  0.645300613626  1.981875222284
O    1.682750426455  0.967752732057  4.074580158568 -0.452118463610 -0.538938189609  2.520023826112
Zn  -1.605029600427  4.657097097627  4.704983428381 -0.484530304282  0.574685779522 -1.595023955313
Zn   0.012275587178  3.809381312481  2.319319200723  0.030946568980 -0.208471472075 -1.313228477733
O   -1.669534625929  4.735422346521  1.810481865546  0.461799438343 -0.473740412755  1.025006013581
O    0.009282161739  3.734458305786  4.143312232015 -0.220940808187  0.405598722782  0.934678531539
Zn   3.271956796966  1.870514683449  4.731500444101 -0.220545372520  0.035266279401 -2.848026398375
Zn   4.901326969175  0.958858522427  2.372882020667  0.212227082463  0.097530684658 -1.850660515110
O    3.254075790816  1.871400779109  1.764118654335  0.391680055818  0.003674106417  2.815622271013
O    4.862194011654  0.921957430573  4.166057962015  0.573521584010  0.413492009487  1.415098413197
Zn   1.557178478771  4.741482875699  4.732478474630  0.722425738045 -0.422311664661 -2.740527032540
Zn   3.326782580333  3.695366425546  2.388964102663 -0.605121984524  0.429763492953 -2.482896068021
O    1.623817566887  4.756246572542  1.765463772323  0.322395253379 -0.469183646622  3.003086544709
O    3.248892881034  3.724169424622  4.143375477989 -0.118723516686  0.617456337720  2.539033020224