# total energy = -110429.93368947454 eV

CRYSTAL
PRIMVEC
9.588534908089704 0.0 0.0
-4.794267454044852 8.303910943778387 0.0
0.0 0.0 5.131457872622735
PRIMCOORD
36 1
Zn   0.007253726658  1.950883312400  5.031112895956 -0.276809594330 -1.660746494322  0.894991240252
Zn   1.619556282918  0.927599661276  2.611041475727 -0.087583600748 -0.243446702599 -0.650518667492
O    0.046877388312  1.789758530658  1.938842989116 -0.323654322597  0.838484306304 -0.316034858379
O    1.592179098049  0.876879188173  4.506190470120 -0.058523450157  0.771980409044  0.401598857594
Zn  -1.636472376203  4.595885461064  5.142625639230  0.403741357858  0.451446377243  0.217270301314
Zn  -0.008653652755  3.698328597362  2.626341900879  0.484055678638 -0.289576407077 -1.134505697675
O   -1.587993702561  4.627230381678  1.989326625407  0.053045200651 -0.570352442254 -0.608594002233
O   -0.024119959561  3.714413364670  4.508466788307  0.151659605292  0.684978648942  0.305791840495
Zn  -3.180760577800  7.386279523393  5.121989194401 -0.509910692028 -0.393043511825  0.341409332588
Zn  -1.621893008875  6.394909393004  2.559389955884  0.121343727918  1.148516153022  0.135533903375
O   -3.231099427214  7.376464699061  1.964907503557  0.714789561656 -0.004861441857 -0.239304398295
O   -1.592920291797  6.474144251216  4.518692001933  0.086961393783 -0.258511824462  0.037602126623
Zn   3.209124422912  1.773202966286  5.122578889298 -0.857752153394  0.914810331860  0.203275786807
Zn   4.781211704914  0.922900320318  2.529954112569  0.618887927960  0.160497772409  0.327566256057
O    3.223443940943  1.833329792134  1.950074998907 -0.379451889183 -0.345608458271 -0.394447077040
O    4.751023161609  0.970617664288  4.508638423082  0.861904227890 -0.633775129485 -0.380199823093
Zn   1.683847409477  4.577213707037  5.063618029295 -1.359715051330  0.398648259606  0.959174974018
Zn   3.236655983193  3.614198792078  2.545894093000 -0.514400352368  1.007888122953 -0.106512062221
O    1.593530122617  4.605898768068  1.910748581835  0.142578726037 -0.072157753111  0.426468110032
O    3.165401662584  3.719794450461  4.476022062738  1.405087308817 -1.294374835362 -0.041327655104
Zn  -0.027911266264  7.422663219102  5.140418358494  0.465521624390 -0.375209568967 -0.061495902522
Zn   1.560554192215  6.499602770251  2.556691742160  1.042011289889 -0.911931981871  0.415459160516
O    0.058748953382  7.404875527994  1.975577625202 -1.322306785885  0.012212482906 -0.344972624459
O    1.611947780469  6.408117599839  4.599261584205 -1.051789452322  0.565904176674 -1.035476831205
Zn   6.392518971251  1.814240936839  5.155119500215  0.199903785011  0.096434109160 -0.757318950377
Zn   8.005296159989  0.912679900959  2.533263115966 -0.047642027358  0.273827114663  0.110709902353
O    6.396387945086  1.885157741019  1.896726308386 -0.074563534339 -0.261357521441  0.880354464175
O    7.956264227883  0.872280526831  4.493133762135  0.392729323018  0.469561084566  0.003708302090
Zn   4.794364298247  4.588742961411  5.149116118509  0.082477132759  0.248053348133 -0.342886174244
Zn   6.391378894450  3.714701020717  2.542473862599  0.022260096950 -0.274512313655  0.246984283438
O    4.801602683250  4.604752938147  1.952475009195 -0.153965370607  0.237528537342 -0.093133326922
O    6.434921390321  3.679133309329  4.502356015010 -0.720902102311 -0.094113945667 -0.022421819339
Zn   3.150843390033  7.323754604964  5.138606125397  0.618608449047  0.531651940360 -0.185489666468
Zn   4.794661542830  6.478391972181  2.602834648699 -0.484026882283 -0.095332134345 -0.625847132887
O    3.184127112406  7.415276211808  1.907107815131  0.044719454395 -0.609676179554  0.660853730869
O    4.773460333294  6.471451790614  4.483835759835  0.310711132173 -0.423834271953  0.771734611582