# total energy = -36806.49668365362 eV

CRYSTAL
PRIMVEC
10.355617489065997 0.0 0.0
-1.7259397000501626 2.989407878656127 0.0
0.0 0.0 5.209455511579583
PRIMCOORD
12 1
Zn   0.075487273687  1.957994590116  5.064366061626 -1.218910900695  0.794766039480  0.190385561108
Zn   1.552300848240  0.920441455966  2.439613648297  0.654654029816  1.080050504050  1.090834996260
O    0.112771638894  2.125670677375  2.058644978739 -0.515028729981 -1.151745458592 -0.802508145320
O    1.493687017691  0.899195871125  4.584085984785  1.584313510874 -0.370569499092 -0.296290585872
Zn   3.483210320813  1.940691388853  5.122699254941 -2.259964197547  1.959860151465  1.201925678991
Zn   5.254164854527  1.051929837910  2.586122853409 -0.366977667975  0.347790553524 -0.126008737493
O    3.722497574133  2.219074204879  2.117690638538 -0.703137322129 -1.087403344871 -1.083306291983
O    4.844704774571  0.990771632143  4.588014906061  3.302341355416 -1.509517805919 -0.440280333324
Zn   6.842332383941  2.054499625058  4.981942595345  0.375910451689  0.133003166533  0.443640250935
Zn   8.659909978713  1.148964044906  2.307171513982  0.923460551336 -1.128014433524  0.539321283980
O    7.036011426715  1.937197403512  2.090798135481 -1.076529635381  1.535778025168 -0.526408175462
O    8.631902175652  1.087247671356  4.720521245204 -0.700131188312 -0.603998155333 -0.191305758929