# total energy = -73617.36694623125 eV

CRYSTAL
PRIMVEC
9.97207619857785 0.0 0.0
-3.3240220755005505 5.757378193248923 0.0
0.0 0.0 5.443457234517691
PRIMCOORD
24 1
Zn   0.063422404623  1.937676120561  5.536523630056 -0.217910248890 -0.140651169997 -0.595803021116
Zn   1.618170799158  0.841382959971  2.714367230609  0.074760995062  1.053859190367  0.270882944433
O   -0.039875341095  1.977305151374  2.067456709040  0.571996405615 -0.345171627844 -0.007245625819
O    1.612630313623  0.893890927195  4.722766312778  0.327187018341  0.424899994213  0.518173960478
Zn  -1.607777901344  4.774420670279  5.430122574225 -0.165276424745 -0.061320039066 -0.043335686673
Zn  -0.037714392183  3.907667751251  2.801422458615  0.628832697878 -0.553751086252 -0.439582535926
O   -1.575488318613  4.800616317245  2.100124233459 -0.986449236353 -0.214314561119 -0.799256985372
O    0.045240318090  3.816239767832  4.719040745110  0.192479724632  0.175387030816  0.993904664190
Zn   3.384162669847  1.887065839438  5.540446644833 -0.670974621353  0.290266748276 -0.500347216709
Zn   5.007975669718  0.900093558590  2.726407515411  0.039072797632  0.425898096461 -0.077622632880
O    3.389192585081  1.887486661053  2.028369161964 -0.315269440968  0.378832767542  0.639929322012
O    4.897716417606  0.996511568939  4.740834717642  0.884260741208 -0.440181345853  0.074999850546
Zn   1.679216858023  4.874540315313  5.474730662684 -0.094210362036 -0.491934310055 -0.165625580554
Zn   3.442542195536  3.844311162331  2.773841690265 -0.653672639740 -0.292150852672 -0.088919545951
O    1.640372629607  4.831641440714  2.019840045191  0.492041010836 -0.370926368210  0.302003319987
O    3.403318031016  3.848843470963  4.869462534112 -0.953733748398 -0.302603415464 -0.800442778150
Zn   6.666169396700  1.832814753295  5.401835782880 -0.139731229286  0.802383189706  0.118317539497
Zn   8.346420359025  0.952202642766  2.662483515355 -0.053299996975  0.465150614203  0.552123577951
O    6.721394754687  1.923771057510  2.092747888695 -0.702139219881 -0.084321899278 -0.360173243459
O    8.269134774071  0.948331482786  4.798662787518  0.541689269991 -0.138538237419 -0.235851920970
Zn   4.937621674930  4.809605146730  5.426371079159  1.092727328187  0.219410487585 -0.035934252003
Zn   6.575867260683  3.824311166307  2.623451811907  0.697482180725 -0.051548818612  0.563640320341
O    4.987859000403  4.860807769180  2.017796766778  0.112897396922 -0.555781229308  0.274054914403
O    6.735018605190  3.832604942081  4.800128682719 -0.702760655516 -0.192892643800 -0.157889645362