# total energy = -12269.696917544254 eV

CRYSTAL
PRIMVEC
3.3240255759183532 0.0 0.0
-1.6620127879591766 2.878689249384692 0.0
0.0 0.0 5.443454199354079
PRIMCOORD
4 1
Zn  -0.000000000000  1.919127163464  5.442603581209  0.000000000000 -0.000000000000  0.053615985553
Zn   1.662012787959  0.959563415531  2.720877146337 -0.000000000000 -0.000000000000  0.053615985553
O   -0.000000000000  1.919127163464  2.069361153004  0.000000000000  0.000000000000 -0.053615985553
O    1.662012787959  0.959563415531  4.791087255473  0.000000000000  0.000000000000 -0.053615985553