# total energy = -73609.11311689488 eV

CRYSTAL
PRIMVEC
6.264509332171351 0.0 0.0
-1.5661273330428378 2.7126139794515134 0.0
0.0 0.0 14.181301794230892
PRIMCOORD
24 1
Zn  -0.103435192936  1.860101336023  4.616365790050  1.475590042824 -9.292603172920  0.005010565841
Zn   1.576322195530  0.654007883318  2.410695325737  1.396242456832  4.234989743899  0.430461290351
O   -0.130551748032  1.799182115022  1.691044781381  6.521045239216  0.676905385015  3.112248642958
O    1.584777403776  0.631044071459  4.237391165745  1.458137651675  12.474075940282 -3.116055418299
Zn  -0.047178646232  1.801327709468  9.712611162021  0.718270578226 -0.178033724410 -9.234274869492
Zn   1.477226428208  0.962018145908  7.034681264938 -0.607746566631 -0.952140949990 -0.490444098663
O   -0.140713408619  1.574054443152  6.277603409577  0.947322702665  0.481269888363  5.844753576525
O    1.632179066539  0.932676437098  8.896966408914 -1.966863065146 -1.161518735929  0.050160680015
Zn   0.030119760869  1.870016174943  14.263497168276  0.669528118715 -1.268662775307 -7.382470470586
Zn   1.457935498171  0.986082632057  11.772936239515 -0.606867763571  0.448661615409 -1.296038853328
O   -0.081005117272  1.909201933717  11.307800180307 -0.767362707767 -0.509429895737  6.587389213859
O    1.440290254735  0.777778926449  13.501660165176  0.038011703357  1.505342077275  3.376713599680
Zn   3.282123028643  1.828781295166  4.761944843067 -2.731933891554  0.612429059709 -0.795569252108
Zn   4.860691050769  1.040449176296  2.273322779944 -6.943707602348 -5.341850683273  3.696287838671
O    3.227247806246  1.784331469199  1.785745995406 -1.807362880763  0.077438027674  2.825546729216
O    4.677375219985  0.938250597502  4.253247891767 -0.131006190708 -2.897639690527 -2.824296658859
Zn   3.063234181617  1.921517959064  9.338874293969  1.216771999975 -0.083696606989  1.250115351323
Zn   4.559219056569  0.850288116165  7.096964896071 -0.041240494707  4.869183706088 -0.650587315946
O    3.033852379947  1.993438284903  6.545497633757 -0.518409730638 -5.540248316052 -0.447501790773
O    4.727258254895  0.987811636632  8.840179884720  0.098657342064  0.981848504356  2.601101764531
Zn   3.103763677643  1.808875816763  14.212548540329 -1.433761536824 -0.248149764501 -2.120150692960
Zn   4.701740402581  0.982022603558  11.935733296432 -0.846896698737 -0.956199693440 -4.140127607211
O    3.014035231125  1.609030451655  11.272603661075  2.831067659034  2.283058360362 -0.846635988877
O    4.545825535617  0.852310926228  13.615733747860  1.032514149032 -0.215028042247  3.564364021244