# total energy = -24531.544951689004 eV

CRYSTAL
PRIMVEC
2.9404842854302067 0.0 0.0
-1.4702421427151033 2.546532903289695 0.0
0.0 0.0 9.064210417442881
PRIMCOORD
8 1
Zn   0.017492646966  1.604633448400  4.347509838638  10.877008729287  6.327013596715  3.168134912603
Zn   1.263294387288  0.900059598041  2.145336755967 -2.996355910853  0.094639222043  2.471996904610
O   -0.334247789209  1.788073502207  1.690175958892  3.018370467451  0.106202758511 -0.471092433609
O    1.676429782955  0.898403811340  4.009012167491 -11.152479550201 -6.535778174550 -4.067831271640
Zn  -0.079598909607  1.714873380454  8.985044053075  7.098992977318  2.988301930200  1.967822343735
Zn   1.619290880417  0.767324373106  6.914551737673 -2.317295684278 -0.562350397885 -10.669904055652
O    0.003023111894  1.648757767490  6.162812813425  2.141148378257  0.358143871734  0.878306837617
O    1.671431253718  0.823052725332  8.478458890623 -6.669389406981 -2.776173063878  6.722566505225