# total energy = -98157.12669824089 eV

CRYSTAL
PRIMVEC
6.0088151385125865 0.0 0.0
-3.0044075692562933 5.203784130330363 0.0
0.0 0.0 10.611855957739877
PRIMCOORD
32 1
Zn  -0.000000000000  1.734595310992  5.305101766788  0.000000000000 -0.000000771331  1.156884322481
Zn   1.502203784628  0.867297955937  2.652137176472 -0.000000257110 -0.000000257110  1.156880208716
O   -0.000000000000  1.734595310992  2.017080526520  0.000000000000 -0.000000257110 -1.156882522709
O    1.502203784628  0.867297955937  4.670045116837  0.000000000000  0.000000000000 -1.156881237157
Zn  -0.000000000000  1.734595310992  10.611030947421  0.000000000000  0.000000000000  1.156882008488
Zn   1.502203784628  0.867297955937  7.958066357105  0.000001028441  0.000000514221  1.156879694495
O   -0.000000000000  1.734595310992  7.323009707153  0.000000000000 -0.000000000000 -1.156881237157
O    1.502203784628  0.867297955937  9.975974898351  0.000000000000  0.000000000000 -1.156881494267
Zn  -1.502203784628  4.336488577920  5.305101766788 -0.000000514221  0.000000257110  1.156884322481
Zn   0.000000000000  3.469191222865  2.652137176472  0.000000000000  0.000000000000  1.156879951605
O   -1.502203784628  4.336488577920  2.017080526520 -0.000000257110  0.000000000000 -1.156882522709
O    0.000000000000  3.469191222865  4.670045116837  0.000000000000 -0.000000000000 -1.156881237157
Zn  -1.502203784628  4.336488577920  10.611030947421  0.000000000000 -0.000000000000  1.156882008488
Zn   0.000000000000  3.469191222865  7.958066357105  0.000000000000  0.000000000000  1.156880208716
O   -1.502203784628  4.336488577920  7.323009707153 -0.000000000000  0.000000000000 -1.156881237157
O    0.000000000000  3.469191222865  9.975974898351  0.000000000000 -0.000000000000 -1.156881494267
Zn   3.004407569256  1.734595310992  5.305101766788  0.000000000000  0.000000000000  1.156884836701
Zn   4.506611353884  0.867297955937  2.652137176472  0.000000257110 -0.000000257110  1.156880208716
O    3.004407569256  1.734595310992  2.017080526520  0.000000000000  0.000000000000 -1.156882008488
O    4.506611353884  0.867297955937  4.670045116837 -0.000000000000  0.000000000000 -1.156881237157
Zn   3.004407569256  1.734595310992  10.611030947421  0.000000000000  0.000000000000  1.156881751378
Zn   4.506611353884  0.867297955937  7.958066357105 -0.000001028441  0.000000514221  1.156879694495
O    3.004407569256  1.734595310992  7.323009707153  0.000000000000  0.000000000000 -1.156881237157
O    4.506611353884  0.867297955937  9.975974898351 -0.000000000000  0.000000000000 -1.156881494267
Zn   1.502203784628  4.336488577920  5.305101766788  0.000000514221  0.000000257110  1.156884322481
Zn   3.004407569256  3.469191222865  2.652137176472  0.000000000000  0.000000257110  1.156880208716
O    1.502203784628  4.336488577920  2.017080526520  0.000000257110  0.000000000000 -1.156882522709
O    3.004407569256  3.469191222865  4.670045116837  0.000000000000 -0.000000000000 -1.156881237157
Zn   1.502203784628  4.336488577920  10.611030947421 -0.000000000000 -0.000000000000  1.156882008488
Zn   3.004407569256  3.469191222865  7.958066357105 -0.000000000000 -0.000001028441  1.156879694495
O    1.502203784628  4.336488577920  7.323009707153  0.000000000000  0.000000000000 -1.156881237157
O    3.004407569256  3.469191222865  9.975974898351  0.000000000000 -0.000000000000 -1.156881494267