# total energy = -73598.45870049839 eV

CRYSTAL
PRIMVEC
9.013222972357486 0.0 0.0
-1.5022068331339051 2.6018921415452976 0.0
0.0 0.0 9.261257855333792
PRIMCOORD
24 1
Zn  -0.168111930914  1.867254080704  4.746238834766  3.316148179392 -3.183667203911 -2.074925759684
Zn   1.494612291457  0.807406316508  2.244130282104 -0.091588093922  4.327154536259  0.896412803189
O   -0.083981606367  1.857644182371  1.615148826234  0.178281321645 -4.635065737090  1.081978060090
O    1.328869035541  0.735842227430  4.028445586338  0.957087495362  6.840558800172 -0.945920165891
Zn  -0.238860323313  1.904439934721  9.145007108081  1.105460716593 -1.179357820993 -1.027786404539
Zn   1.778012357410  0.760388838873  6.991044207271  1.334602058313  2.958676136914 -8.162200698779
O   -0.082283515159  1.832207064499  6.425738467734  4.809230979684 -0.655536175311  0.836773751371
O    1.501308214804  0.934733413472  8.510532092809 -2.141664398662  3.464583878430  10.161867440719
Zn   3.084706160472  1.766168081102  4.624213315555 -8.615739439776  4.291388948624 -5.954081253818
Zn   4.539513355317  0.864652900895  2.163345665925 -2.692830240685  0.258778704970  3.374871918485
O    3.104389236799  1.848820237081  1.730635252178 -2.249666929386 -3.401941778119  2.459985739082
O    4.315543777677  0.942714622414  4.083546122335  7.438095773260 -4.618169475555 -3.705216765729
Zn   3.066775254691  1.740906721078  9.298082279110 -3.254480270068  0.973702735321 -3.201383904464
Zn   4.411739202494  0.936998436405  6.628920849232  9.436672881680 -6.819659073905  5.914630504022
O    3.148898334482  1.684529912708  6.238110205118 -10.329913972009  6.469565326169  4.432744343777
O    4.498472545835  0.977584979449  8.738580153844 -3.989614713929 -5.791710946977 -4.364239871147
Zn   6.049587830784  1.589066361596  4.761084514324 -0.551571304991  0.133901252868 -14.048861971282
Zn   7.350725883205  0.740986975103  2.176078646018  1.358939092396  9.777599618204  3.629055547885
O    5.870957468661  1.824150144484  1.819798560432  4.157922212191 -6.223701529488 -2.805724295173
O    7.547747726803  0.922837761793  4.187577643205 -1.598288484997 -4.125490059804 -3.651419774513
Zn   5.829638150589  1.766326713827  9.149338863041  5.806882769621 -1.198737768181  2.289954316151
Zn   7.763004221796  0.858309394567  6.943087551802 -5.769142060537 -4.117229876678  1.606093325753
O    5.935768851089  1.746565222460  6.257233560298  1.348130431816  1.903762280031  14.755873945874
O    7.400034522120  0.778629799525  8.784490807699  0.037045997010  4.550595742270 -1.498480060048