# total energy = -110417.95752024357 eV

CRYSTAL
PRIMVEC
8.82145232711341 0.0 0.0
-1.470244995003011 2.546532750529464 0.0
0.0 0.0 14.729346558175477
PRIMCOORD
36 1
Zn  -0.009183131873  1.743365980503  4.874578416257  0.267851870916 -1.737710153462  1.264867827041
Zn   1.476968705967  0.823576964276  2.453680789770  0.941001388433 -0.567552510911  0.242962049653
O    0.021482000707  1.624519846171  1.907529679729  2.394708515141  2.154951088468 -1.952527108139
O    1.502911715116  0.825955227823  4.276686841882 -1.196309618356  1.082076019121 -0.643875451144
Zn  -0.023530341937  1.722479427828  9.835083071051  1.992744303788 -0.727184592886  1.581008614871
Zn   1.430920724819  0.830259214414  7.277482044287  1.164531040393  0.644561421467  2.076459165609
O   -0.005463125426  1.698420680896  6.734986544090 -0.818064090776 -0.527812512009 -0.911445272043
O    1.457308335165  0.798209113819  9.244584755871 -0.511036320992  1.720551382295 -2.419161763087
Zn  -0.028699713001  1.727896681702  14.796760096859  0.481505401412 -0.788609790071  0.157614794434
Zn   1.514173181156  0.829816377507  12.356765790375 -0.691283251004  0.446798594059 -0.581566308692
O   -0.023136023018  1.694960907293  11.698307006467  2.036255082586  0.333709649951 -0.655243069551
O    1.487906424707  0.833769270295  14.152288607762 -0.486943027488  1.013867737576  0.395380130377
Zn   2.879163253428  1.749975012586  4.840917518467  0.936688877101 -0.157878332508  1.868713773067
Zn   4.370995224421  0.784609962911  2.519989000477  2.642979635711  0.622909904635  0.040937104534
O    2.994047673520  1.657309184471  1.911729573182 -1.219728768611  0.302177897891 -1.634044302440
O    4.417415470856  0.898136761490  4.342894488033 -1.904143317519 -0.221664830837 -1.005338359948
Zn   2.903578387034  1.651011549655  9.841299548506  0.560363192252  0.048788482258 -0.335286764630
Zn   4.409961343640  0.812295208895  7.355296957409  0.108656105148  1.825747039697  1.899026050897
O    2.950190941130  1.740301407964  6.739119394506 -0.228507307680 -1.971406461542 -1.133630494159
O    4.441184874152  0.823378481599  9.298894027123  0.102263571358  0.481517485597 -1.702961180017
Zn   2.956896127044  1.691611401845  14.768777567932 -0.220894271219  1.027105833532  0.562432158965
Zn   4.381206937634  0.865092483218  12.250967466180  1.010157892824 -0.446857729431  1.132276294124
O    2.946264512699  1.691678444883  11.652159342909 -0.879546623562  0.579541307842  0.167299882933
O    4.433417585378  0.909176809077  14.139236386898 -1.590264329141 -2.158581486132 -1.575273769269
Zn   5.841424587777  1.686482609462  4.869737203220  2.013616519251  1.182024569192  1.483526781172
Zn   7.404658276051  0.962318120041  2.448777826567 -3.964051263638 -2.106996157856  1.117913083424
O    5.876608068239  1.751305287597  1.805538694359 -0.837998110696 -0.409198781428  1.098114560641
O    7.358419751533  0.866867359426  4.296860621209 -0.122340030393 -0.212445626231 -0.453514829737
Zn   5.941052306069  1.700835112398  9.867334300759 -1.037434983373 -0.114265480914 -0.760330740621
Zn   7.344036373514  0.835062495206  7.445615397060 -0.123747709373  0.138013732374  0.062937520064
O    5.899509440625  1.712355929137  6.735047412111 -0.030901831785 -0.189921991208 -0.196606602317
O    7.399592115979  0.869604656083  9.284648263760 -1.078099808082 -1.321038974916 -1.692068444364
Zn   5.861253448318  1.686142983547  14.703905489664  1.736236140020 -0.759432654286  1.346334773369
Zn   7.386516959340  0.849432641047  12.250921594628 -1.505484773501 -0.166254472387  2.133505259890
O    5.876224335062  1.716809880417  11.638475506059  0.060474146126 -0.758120620343  1.312958511901
O    7.380364878487  0.799615253320  14.203097526730 -0.003254502382  1.738591270515 -2.291394391031