# total energy = -73582.08195075928 eV

CRYSTAL
PRIMVEC
8.82145232711341 0.0 0.0
-1.470244995003011 2.546532750529464 0.0
0.0 0.0 9.253050703669762
PRIMCOORD
24 1
Zn   0.083822322157  1.763033408466  4.591368335730 -5.186644755391 -0.122331802862  3.354728610768
Zn   1.446092740677  0.816970578628  2.402204086860  2.978590873560 -2.223988036562 -0.775837063786
O   -0.006138848674  1.370075639538  1.747044526123  3.047990090090  5.953748295959 -3.624114144720
O    1.439204068554  0.917616292519  4.171633930409 -1.952085906837 -3.006573731926 -2.378203318397
Zn   0.114907355868  1.719394565949  9.119373061540 -4.425276060424  0.270445342675  4.423361617010
Zn   1.402182197428  0.980343875726  7.223794685424  3.371961429707  0.277218142622 -31.703064663331
O    0.066537568468  1.609417519787  6.523017630413 -5.707159962407  3.061940895843 -4.073106918216
O    1.311274484761  0.750223941740  8.552250712883  2.635778489977 -5.844219301288  32.627709207672
Zn   2.851188663808  1.552680584855  4.694809567863 -4.455398076620  8.975097900643  7.721167803560
Zn   4.503423748900  0.761428068341  2.188126846076 -10.899766334698 -6.755941738251  7.648359304239
O    3.009306139610  1.625911871348  1.854598319331 -2.973942061934 -2.526206557884 -2.830369347415
O    4.083849011866  0.895430339916  4.123764319356  12.408940127015 -5.837447786892 -4.732885670854
Zn   2.928326971537  1.996742791404  9.234667679165 -0.400138470998 -4.113379392583  2.595751813073
Zn   4.392713640050  0.679794348506  7.236756045328 -5.479877014053  2.552103994476 -36.144132439371
O    2.785011892741  1.801069746610  6.708255779249  3.180691923332 -9.673682313293 -8.220959147766
O    4.619469954264  0.987582759506  8.498752133100  2.017424580143  10.370845677227  37.203921107849
Zn   5.788187122983  1.720728369541  4.728849788103 -1.494091701172  0.184594922568 -3.770365691623
Zn   7.468231836537  0.623951908840  2.180199889015 -5.870123679859  0.102772135563  3.758391549980
O    5.671970663590  1.551221516640  1.757880798162  13.216133850735  5.580958649287 -3.792916837450
O    7.283032502091  0.944079767355  4.046776858461  0.589151834348 -0.431886452834 -0.925229470311
Zn   5.940628876358  1.730828932455  9.261161146939  2.967583466706  0.101442875229  2.782397190411
Zn   7.254094609877  0.718939543207  7.133364213328  1.893783057331  1.114959914333 -17.929761958911
O    5.957744258163  1.677360345610  6.400424143132 -1.517656632976 -1.295655501846  1.464715562003
O    7.241199410865  0.739138022601  8.594688955738  2.054130677315  3.285183869800  17.320443162697