# total energy = -49077.77840525566 eV

CRYSTAL
PRIMVEC
6.903745345495471 0.0 0.0
-1.7259363363738678 2.98941148328903 0.0
0.0 0.0 10.418918459316055
PRIMCOORD
16 1
Zn  -0.000000000000  1.992939377985  5.208645278082 -0.000005399317 -0.000003085324 -0.200018970432
Zn   1.725936336374  0.996470034180  2.603916698815 -0.000003856655 -0.000002056883 -0.200017941991
O   -0.000000000000  1.992939377985  1.980406318685  0.000002056883  0.000001285552  0.200019227543
O    1.725936336374  0.996470034180  4.585135588327 -0.000000257110 -0.000000257110  0.200017684881
Zn  -0.000000000000  1.992939377985  10.418103817365 -0.000004627986 -0.000002828213 -0.200017941991
Zn   1.725936336374  0.996470034180  7.813374547724 -0.000003085324 -0.000001799772 -0.200017941991
O   -0.000000000000  1.992939377985  7.189864857969  0.000001542662  0.000001028441  0.200017684881
O    1.725936336374  0.996470034180  9.794593437236 -0.000000257110 -0.000000000000  0.200018199101
Zn   3.451872672748  1.992939377985  5.208645278082  0.000004370875  0.000002571103 -0.200020513094
Zn   5.177809009122  0.996470034180  2.603916698815  0.000004370875  0.000002571103 -0.200019741763
O    3.451872672748  1.992939377985  1.980406318685  0.000000257110  0.000000257110  0.200020255984
O    5.177809009122  0.996470034180  4.585135588327 -0.000001285552 -0.000000771331  0.200018199101
Zn   3.451872672748  1.992939377985  10.418103817365  0.000004113765  0.000002313993 -0.200016656439
Zn   5.177809009122  0.996470034180  7.813374547724  0.000003599544  0.000002056883 -0.200017427770
O    3.451872672748  1.992939377985  7.189864857969  0.000000257110  0.000000000000  0.200018199101
O    5.177809009122  0.996470034180  9.794593437236 -0.000001542662 -0.000001028441  0.200017684881