# total energy = -24537.790056124573 eV

CRYSTAL
PRIMVEC
6.903745345495471 0.0 0.0
-1.7259363363738678 2.98941148328903 0.0
0.0 0.0 5.320295409307284
PRIMCOORD
8 1
Zn   0.181056244682  2.014670987584  5.312038529874 -0.964062898238 -0.444782592070  0.020274433978
Zn   1.848173361087  0.899937724512  2.628759136066 -1.285194968634 -0.700488828762 -0.281973397919
O    0.116588380271  1.904937336066  2.140946012949 -0.477396778561 -0.208347030682 -1.268297678659
O    1.811436460980  0.961862249138  4.555753248137 -0.711066604278 -0.347914737807  1.194493133973
Zn   3.145414726487  2.141882851193  5.159503037963  1.795801658288  0.660778654657  0.293234829765
Zn   5.118291130124  0.860268113382  2.455149961488  0.459083324963  0.338729214653  0.780532669490
O    3.358928239536  1.757349758445  1.965302994993  1.315442968886  1.354164296715 -0.782998100311
O    5.193298252179  1.072993909088  4.610067774268 -0.132606445316 -0.652139233814  0.044733852572