# total energy = -12268.938153819921 eV

CRYSTAL
PRIMVEC
3.004407833844898 0.0 0.0
-1.502203916922449 2.601892294305528 0.0
0.0 0.0 4.72710223728539
PRIMCOORD
4 1
Zn  -0.000000000000  1.734595764193  4.726363753840  0.000000000000  0.000000000000 -0.539906724169
Zn   1.502203916922  0.867297731876  2.362813236079  0.000000000000 -0.000000000000 -0.539906724169
O   -0.000000000000  1.734595764193  1.797035771322  0.000000000000  0.000000000000  0.539906724169
O    1.502203916922  0.867297731876  4.160586289083  0.000000000000  0.000000000000  0.539906724169