# total energy = -73603.30415978527 eV

CRYSTAL
PRIMVEC
8.629681152692129 0.0 0.0
-1.438283068675739 2.4911732067534005 0.0
0.0 0.0 9.606095056394633
PRIMCOORD
24 1
Zn   0.107820099290  1.663945778946  4.835348424752 -5.309134938208  2.961204816873  0.323766679806
Zn   1.516087410980  0.816653479491  2.361106652420 -1.069577886654  1.363777651435  1.342288628324
O   -0.026891812408  1.682461622827  1.908885470975  7.489990405247  1.913231138753 -4.214229114312
O    1.380313185533  0.939107792079  4.159407074264  3.947542724460 -3.890466548272 -2.446734273389
Zn  -0.045493953101  1.645457550045  9.666746181472  5.595534747329  0.280802260429  3.496359628180
Zn   1.406298881420  0.818387182434  7.193275902635  2.855214688594 -0.995547084889  2.525861515839
O    0.070080777673  1.624478795162  6.580579759380 -1.814936836456  1.656484890832  0.110634054809
O    1.535939129504  0.732165449134  9.070745019374 -0.736917246793  2.915768281807 -1.981323720656
Zn   2.793619368048  1.701203564355  4.873324199632  2.111749099160 -1.010436343297 -1.517396180226
Zn   4.316147973041  0.711498225741  2.332161838866  1.237404845734  8.549439173886  3.485231122367
O    2.881721508872  1.718316222081  1.832826913168  1.517552503298 -6.798030439891 -3.579744617466
O    4.364059962800  0.809702271322  4.161766429091 -1.973473885594  1.313113549422 -0.671777062650
Zn   2.920845031346  1.696629833344  9.621445533229 -1.496806271890 -0.400542905525  1.273512904311
Zn   4.327302698899  0.806149431592  7.292758003995  0.337317679017  2.239448594092 -0.524106009692
O    2.906502501270  1.728811640299  6.597853792143  0.166800060478 -2.294107419087  1.272303200273
O    4.318423619961  0.850779553609  9.065801075042 -0.193501481029 -0.579983280475 -1.450252592500
Zn   5.731995596656  1.647554562565  4.886535378509 -0.004437466946  0.907560849387 -2.289876154615
Zn   7.338431454464  0.906191599259  2.390745292339 -6.480242346267 -5.901087732340  4.368696364257
O    5.862543687197  1.629551321744  1.819233439416 -2.444865081391  0.688342937428 -1.226936856324
O    7.199623896091  0.863800879500  4.248404975992  0.742197007134 -0.149042736495 -0.751558907965
Zn   5.707329379017  1.686133552158  9.574855610622  2.688166259550  0.005594206258  2.079449358586
Zn   7.225968586714  0.885953271019  7.266226912259  0.597716950310 -1.555040215831 -0.071324972797
O    5.841995553405  1.646617379192  6.590075860520 -2.099452026960  1.012667032399  2.561442755378
O    7.338764560157  0.857214706845  9.037458613232 -5.663841759236 -2.233150676898 -2.114286263759