# total energy = -98156.0446971544 eV

CRYSTAL
PRIMVEC
6.520203525830115 0.0 0.0
-3.2601017629150575 5.646659258457025 0.0
0.0 0.0 9.421361564444698
PRIMCOORD
32 1
Zn  -0.007963776586  1.874842142530  4.721742307504 -0.721258971430  1.406192368956 -0.577953394529
Zn   1.721825354165  0.962859319311  2.347363248107 -1.981673133575 -0.292605937932 -0.417461535658
O   -0.021467770109  1.856740753501  1.802934077945  0.217257702908  0.192095087599  0.962445674350
O    1.428682871827  0.938925608228  4.181589086814  2.724696236155 -0.355629589952  0.480550493698
Zn  -0.009771177004  1.896530295518  9.380598556042  0.161503330856 -0.256395292339 -0.594157000873
Zn   1.612886445676  0.929598457085  7.078833047252  0.312027279881  0.126155547484 -3.188012882474
O    0.041164652940  1.840312448697  6.572908939011 -1.110401348428  0.177306616436  0.792317835050
O    1.672712573127  0.992187194770  8.797526747663 -0.493511681845 -0.779693204308  3.834396701862
Zn  -1.601212673283  4.726183218125  4.710802710028  0.305376350224  0.079790072845 -1.202504948533
Zn   0.038848676648  3.769949729638  2.361022422474 -0.769810140866 -0.795195670819 -1.748863341865
O   -1.672121842688  4.746624056179  1.929364736433  0.900903491971 -0.115331460285 -1.215181515560
O   -0.022647274927  3.764694445596  4.148595552932  0.541726036766  0.266483786924  2.528297893195
Zn  -1.627285663142  4.720597359765  9.385371997043 -0.086723566740 -0.245383257500 -0.096052043230
Zn  -0.028355713113  3.697803025604  7.010446544591  0.069452952585  0.532574195064 -0.585160710911
O   -1.584520952257  4.783630123310  6.531924243688 -0.117651366668 -1.346248898523  1.280504505137
O    0.104854000980  3.755249930789  8.893941649220 -1.670322825156 -0.078226327903 -0.048586907770
Zn   3.233460211309  1.888425030515  4.685062250549 -0.117550322313 -0.168161716712 -1.895228531528
Zn   4.798119319585  0.994415800335  2.369157028393  1.160389764531 -0.709419812703 -3.380927123541
O    3.223713159058  1.839440045466  1.806705363664  0.445325866168  1.278489274480  2.534141239350
O    4.988387334733  0.986299450986  4.083525225785 -1.432926956738 -0.351334562121  3.820983256669
Zn   3.203431413970  1.826724996570  9.485389963068  0.835807787913  0.382073900187 -3.171062370662
Zn   4.814029268209  0.874740072700  6.996732600515  0.645125521501  0.195362445497  0.306105257970
O    3.267836028337  1.858496644311  6.472857067927  0.077192744432  0.058652519536  1.421236150663
O    4.913429770960  0.931757948492  8.934988286476 -0.408200422071 -0.036926183602 -0.429221504407
Zn   1.804525659626  4.735694891029  4.645179469622 -1.983833374452  0.578929642400 -0.915500158838
Zn   3.369136518396  3.728312361942  2.401952348087 -1.124677398731 -0.033145633514 -3.934883126714
O    1.539883638919  4.712895043340  1.865048144813  1.514901181719  0.313537545878  0.261206597685
O    3.299264713373  3.849270613611  4.111457777690  0.476450612597 -1.516152794737  3.458930536799
Zn   1.565700384780  4.714212776472  9.401219351713  1.654657350705  0.299706810643  0.030732396087
Zn   3.145454416239  3.738798805273  7.027721823833  2.735486127682 -1.142980567916  0.014646803379
O    1.756265069188  4.641862642089  6.492658926035 -2.918790356463  1.515416173682  0.112733617651
O    3.301518095711  3.657962626000  8.849739233457  0.159051269771  0.820064666146  1.561528651769