# total energy = -73615.55331919751 eV

CRYSTAL
PRIMVEC
6.775898248666088 0.0 0.0
-1.693974562166522 2.9340520283496487 0.0
0.0 0.0 16.644404544700613
PRIMCOORD
24 1
Zn   0.027440355138  1.949350036081  5.579270552413 -0.138065668658 -0.128852377590  0.076833818431
Zn   1.661068767502  0.953604684846  2.778864985940  0.080743180787 -0.027321313523  0.414229916094
O   -0.048190188345  1.913412026950  2.196581557890  0.287396368707  0.132077312285 -0.708835143844
O    1.738198817266  0.959070124374  4.940014016708 -0.533153721716 -0.125550566910 -0.602111736943
Zn   0.002491497786  1.962187652903  11.093058824150 -0.033689936053  0.109159784257 -0.016468687079
Zn   1.659623468405  0.947803160766  8.327310622040  0.671365943254  0.029628107279 -0.080669904347
O    0.106114632113  1.915341802771  7.656011541107 -0.889598865591  0.203721616095  0.099283405683
O    1.702722924395  1.025837792947  10.455322122423 -0.179389981328 -0.276673840083  0.043636248633
Zn  -0.012988719353  1.937361439309  16.657978701662  0.267061256694  0.198499962685 -0.180738524936
Zn   1.740578512731  0.965907005707  13.839739648589 -0.287439563240  0.078835165131  0.086286222093
O   -0.023017726351  2.013985329475  13.180132380084  0.009475029370 -0.411998712771  0.284064219010
O    1.831231900220  1.009532948991  15.957639476015 -1.134951012743 -0.486735282353  0.181477974205
Zn   3.370210500308  1.916633966567  5.460842080412  0.223448147989  0.451591644572  0.632628417475
Zn   5.049055159275  1.002788897464  2.715957546599 -0.125627442895 -0.296081298075  0.708770609155
O    3.353991032670  1.875612678569  2.105258034064 -0.061819861520  0.384230284408 -0.060520683093
O    5.043257023144  1.026169134371  4.881592222008  0.422542292615 -0.264901787149 -0.393030142088
Zn   3.337437513249  2.040546173020  11.163885933364  0.081716343334 -0.406407591836 -0.339018463758
Zn   5.057764221294  0.963860006846  8.391640322423 -0.212967303063 -0.153876410438 -0.583356824933
O    3.348646881721  1.965906265862  7.610789196196  0.369742375205 -0.001176536807  0.485252270049
O    5.058743338591  0.950994608841  10.456850765068  0.147864399916  0.508753952716 -0.000408548292
Zn   3.383363196398  1.985938531444  16.694721009916 -0.084046791239 -0.070851889816  0.001490468503
Zn   5.056666525778  0.939915337615  13.921863535363  0.134996028594  0.298567811942 -0.215431962553
O    3.374008391276  1.967554164316  13.206324614765  0.176834819006  0.081041685864  0.247815521090
O    5.010267884930  0.986000254373  16.018513468292  0.807563448355  0.174320794335 -0.081178468553