# total energy = -24536.065825425732 eV

CRYSTAL
PRIMVEC
3.5157962211624265 0.0 0.0
-1.7578981105812133 3.044767422432191 0.0
0.0 0.0 11.740779985409992
PRIMCOORD
8 1
Zn  -0.027111710980  2.060846536207  5.797000559225  0.031962926060 -0.028760617072  0.102271798888
Zn   1.880380364595  0.963252574980  2.754759939537 -0.123835641101  0.779920489827  0.774028806933
O   -0.024682295791  2.172977934566  2.265000736439 -0.093291963987 -0.762687156668 -0.730944831259
O    1.618869464812  0.963368947835  5.209797548061  0.299284892614  0.187772548965 -0.163173262359
Zn  -0.041024771366  2.285008077994  11.747228307259  0.214766303945 -0.646773598627 -0.591801613266
Zn   1.605323101971  1.114143517200  8.711193067902  0.317810462222 -0.483316743589 -0.089464105600
O    0.124745723621  2.166562661202  8.044050694898 -0.575277904580  0.253082683026  0.115282866435
O    1.537527651859  0.983627668820  10.953940572158 -0.071419075173  0.700762394139  0.583800597339