# total energy = -49076.37430873275 eV

CRYSTAL
PRIMVEC
6.520203525830115 0.0 0.0
-3.2601017629150575 5.646659258457025 0.0
0.0 0.0 5.024723124942193
PRIMCOORD
16 1
Zn  -0.091891184351  1.738321469085  5.155980038080  1.261120187073  1.513736986207 -0.548432245142
Zn   1.644335343342  0.868664547054  2.434193450481  0.686325906998  1.454269169859  1.328006921594
O    0.086203610815  1.962703189081  1.981536796965  0.158775390401 -6.238144444387 -0.784490111476
O    1.471172430123  1.020068889087  4.500498109445  2.110191010644 -0.787068413726 -0.858274087336
Zn  -1.608677654300  4.567714887593  5.009217428937 -6.115070364041  3.885084458024  0.439189671363
Zn  -0.018187455715  3.538415998395  2.360121330346 -0.714670519579  7.235807290067  2.313372437964
O   -1.625557157188  4.807503196500  1.829067705697 -0.184911168257 -1.547124817639  1.535530170823
O   -0.227987392545  3.833717972141  4.634871679868  7.776098651270 -3.667913915514 -2.479899447287
Zn   3.308432771550  1.750660954258  5.071236300834 -0.583148565577  0.080683274084 -1.726795820542
Zn   4.933054279532  1.000088377402  2.352003024936 -0.119042333478 -0.943153401779  1.222938276687
O    3.381043714075  1.943542266979  1.877748197241 -0.945436284276  0.232160845272  1.054077991246
O    5.024684655741  1.057879549333  4.354444898446 -2.776422460885 -1.989197466977 -0.549575100497
Zn   1.613992924214  4.502970570622  4.978021515168 -0.282796665151  0.435931312327 -0.035338527400
Zn   3.274635296574  3.903570216554  2.570948199232  0.254640257322 -0.508143058605 -1.850541473033
O    1.543541473097  4.652248674285  2.140574341265  0.395829302100  0.721778334269 -1.316360338494
O    3.301786728096  3.667999827308  4.355240363276 -0.921482087453  0.121293591406  2.256591938640