# total energy = -98151.5412782959 eV

CRYSTAL
PRIMVEC
5.880968041683205 0.0 0.0
-2.9404840208416023 5.093065348298698 0.0
0.0 0.0 10.197233964260093
PRIMCOORD
32 1
Zn   0.006372028873  1.609446876355  5.066036419179  0.458722856300  3.347176766563  2.636863495511
Zn   1.522198010682  0.838677207166  2.519085020105 -3.457907237741 -0.872786164909  2.390618918452
O   -0.010568099571  1.734229844360  1.915969399752  0.598883716924 -1.276002503502 -1.236736101802
O    1.469237541079  0.885666141819  4.486737543201  1.359283105999 -0.669482095968 -2.153277043200
Zn  -0.035635137752  1.747329112576  10.231076582953  0.156553957270 -0.697182390097  0.422300351807
Zn   1.389115820576  0.848256127912  7.643521804325  2.440802224175 -1.035674291928  1.148186280486
O    0.017023050093  1.733490018580  7.063677174513 -1.228495716170 -0.419988672955 -2.606481026565
O    1.483261885568  0.820400922783  9.587378166434 -1.317085389585  1.153115599467 -1.364208568325
Zn  -1.404374580257  4.294265221133  5.125417729690 -1.249360218324 -1.024319529037  0.876999174550
Zn   0.002538813904  3.389467114081  2.542164291088  1.450242565198 -0.030083963870  2.102757437184
O   -1.442054530597  4.210522588607  2.030401864004 -0.779090280616  0.910895570187 -3.103666300606
O    0.027902840971  3.436771856718  4.458274245976 -0.646999855705 -1.880815698537 -0.995853303276
Zn  -1.455232015688  4.255415546250  10.173413103207 -0.095786191163 -1.464407286734  1.668941371428
Zn   0.065064089929  3.397297623028  7.630120254352 -1.067638760649  1.156165956258  1.198947313089
O   -1.490384914060  4.192775591347  7.018367844333  0.707009403490  0.731651113298 -0.634579627664
O    0.060528099279  3.413099784156  9.529758793949 -0.833858377496 -0.194459731177 -0.645541525992
Zn   2.964287827087  1.643285966467  5.145026641431  1.175182863680  0.061344207435  0.502675864842
Zn   4.429715677069  0.838086169878  2.550568782516  0.052598342922  0.739877614972  1.233967280808
O    2.891842534169  1.644562724628  2.000985261859  2.953695395870  2.233838189884 -2.697772929402
O    4.540725417921  0.783176159369  4.431507608031 -2.951281901333  1.847958028577 -2.101243314532
Zn   2.928083411629  1.646707513673  10.237865572460  0.225752627753  1.139685442104  1.376025872675
Zn   4.468344227554  0.859135330693  7.748083651816 -0.821485200643 -0.379764535327 -0.576180104679
O    2.979311936143  1.688207740853  7.006269516878 -0.419727705984 -1.028780650132 -0.065218859899
O    4.372629708385  0.787262255965  9.560301013377  0.857388342297  2.165728124479 -0.330911775491
Zn   1.452951964378  4.291756400166  5.062528421742  0.814612641893 -2.186708840496  2.330517839396
Zn   2.987271238291  3.392392895681  2.573202864218 -1.576508670118 -0.462211843290  1.561495227428
O    1.465054996608  4.275116789189  1.931601600904  0.803103355701 -1.275843352216 -1.479094713543
O    2.934087879999  3.345363382349  4.508550641765  0.929135747344  0.545698391150 -1.018728408102
Zn   1.493451250797  4.273873552545  10.211912860492  0.616342021610 -1.734734358663  2.023094119724
Zn   2.906811950222  3.388669066717  7.667139771981  0.440438713279 -0.592751121664  0.649180922517
O    1.492367388387  4.234505176281  6.996036044388  0.048524429963  1.589092934541 -1.463830331185
O    2.941426151922  3.369094852688  9.525700926000  0.356953193860 -0.396230651303  0.350752721476