# total energy = -110398.9944846614 eV

CRYSTAL
PRIMVEC
8.629681152692129 0.0 0.0
-4.314840576346064 7.473519620260201 0.0
0.0 0.0 4.618311943761636
PRIMCOORD
36 1
Zn   0.027531271781  1.693695741752  4.628490652681  1.256669350391  1.391864639480  1.337211213801
Zn   1.453059671713  0.761587484056  2.359523968897  0.290814907470  2.441355268465 -0.445028903753
O   -0.080030800042  1.663675669926  1.798435044870  6.095176967552  3.362952284230 -0.627368454627
O    1.467870793476  0.846198918853  4.200588775693 -5.772431015701 -2.447522059397 -3.345452070562
Zn  -1.400071703500  4.112131092006  4.714891883350 -7.019511179742  3.644609693570 -1.464770840721
Zn  -0.003612384531  3.397015303925  2.402127841779 -0.712136440303 -1.607207127643  0.616492174035
O   -1.468476597093  4.194186415246  1.778700690010  1.540986308841 -0.162251007655  1.470668437152
O   -0.057200978553  3.420677889646  4.229305765665  1.292275786741 -4.617822119518 -4.163522846207
Zn  -2.830130686037  6.668964953745  4.587566978719  1.204015985861 -1.550741074235  2.134679739814
Zn  -1.413913712069  5.842802428592  2.315471172548 -0.477417347386 -0.434899785739 -1.623526947849
O   -2.887329075685  6.600666205231  1.790117758175 -1.217964220511 -0.070809466613 -1.244493120040
O   -1.369304301286  5.892197860542  3.995492321546 -4.275351692655 -4.305807695152  1.868540480714
Zn   2.768169575361  1.659026860689  4.494512263881  7.727084169044  2.777824740549  1.561039885058
Zn   4.237106134459  0.779231730140  2.268356565327  2.215577701012  2.802837203433  2.484708952860
O    2.958817354354  1.740907864370  1.677226858240 -3.366556713751 -2.348165634384 -0.413692041313
O    4.341791070586  0.801887232070  4.117819777821 -0.389943789853  1.889369758754 -1.205409780885
Zn   1.373363703300  4.115792665719  4.543111176261  4.721068366504  3.542282615964  0.490568025835
Zn   2.922399236922  3.314500881648  2.257456415063 -1.863020836447  1.980519222477  1.976161716839
O    1.392400779923  4.159869625174  1.738937708163  1.370993966678 -0.982675885354 -0.358664777234
O    2.906109850778  3.343557018089  4.127874219332 -1.929892401459  0.578088377445 -1.927937334615
Zn  -0.013950742551  6.590713593957  4.527756384586  3.931122631230  1.342412555496  2.454426499827
Zn   1.479003945131  5.834312548274  2.133311547937 -1.635691351125  0.392609509611  1.479335368799
O   -0.047225930108  6.690013609045  1.730326149341  1.999975788539 -2.808229063873 -1.993360597216
O    1.507598393630  5.903030699293  3.994454170903 -0.035554242956 -2.278466113006 -1.043049244236
Zn   5.799199238632  1.674274644318  4.665455891899 -0.115528149677 -1.124109956263 -3.043934174853
Zn   7.231331070582  0.866023022397  2.288746775955 -5.165516200942 -0.143066464307  1.584472405049
O    5.723759428964  1.701664389328  1.710227621936 -0.155458667323 -0.204142505682  4.320341884213
O    7.294742830660  0.921844977902  4.047216041471 -2.411699650382 -1.687393150375 -0.177769415005
Zn   4.353070063852  4.120516553182  4.536594904022 -3.283518823393  4.900052627753  2.535038040132
Zn   5.764058314010  3.408162263070  2.336786484996  0.442701026951 -2.724185357957  0.771953412461
O    4.351470120967  4.106108437529  1.730291630616 -1.141523266644  2.718986844475 -1.330540743759
O    5.655272553400  3.317434973240  4.085012318983  6.557392924607 -1.536720077366 -1.122165173832
Zn   2.860955044146  6.710453871823  4.689352341979  1.513992039641  0.355173990472 -1.004972749079
Zn   4.262262517987  5.776658511461  2.404696034890  0.273978038418 -1.075250511558 -2.999352788698
O    2.905472980309  6.711100234942  1.816567730908  0.980961987986 -0.981148135855 -0.570424176032
O    4.388127280567  5.892171108531  4.069150965025 -2.446072471435 -1.030326140242  3.019797943926