# total energy = -98100.8049104799 eV

CRYSTAL
PRIMVEC
5.753120944853822 0.0 0.0
-2.876560472426911 4.982346566267031 0.0
0.0 0.0 8.312966356145585
PRIMCOORD
32 1
Zn  -0.032472915861  1.630620301578  4.146557893819  0.473573805270 -1.477928975370 -3.951570100452
Zn   1.498320957018  0.784283281877  2.113376186303 -2.022971220993  4.672801818188 -16.498563554829
O   -0.117712881716  1.760806524815  1.597400055306  2.364489825466 -2.459798562772  4.096034216437
O    1.468271255699  0.762051496610  3.574019378941 -1.143274445007  0.964166770806  17.204835823042
Zn  -0.030439187607  1.658593126236  8.272510984973  1.383028786356  1.060600622856 -2.870617653412
Zn   1.444400406275  0.777855895158  6.205526240034 -0.814699288069  1.182435431477 -4.239748341629
O   -0.022781783630  1.660484177091  5.796057637089  3.123722962147 -0.344070681470  2.136663345903
O    1.431064096612  0.850978637679  7.833111195001  2.060049871013  4.171152337728  4.190709176814
Zn  -1.480399985275  4.146527402278  4.200886916149  0.759592834013 -2.430422166492 -5.558652272481
Zn  -0.058790567623  3.381399711898  2.061507773800  0.623008634997  1.996586046132 -4.446766111977
O   -1.519999292050  4.195448490920  1.613339652196 -0.727657675868 -2.507128201096  2.627897544567
O    0.159223375270  3.257656984120  3.660688995351 -4.101446645701  0.094994548500  4.230425264456
Zn  -1.431721678336  4.257502804056  8.300313517252 -0.253102480521 -3.818910947521 -3.878544085803
Zn  -0.037891780479  3.303858572491  6.317340446845  4.163593551544 -0.827105375043 -15.112219845168
O   -1.361795369812  4.117934966494  5.806052534107 -3.517390737819 -0.101962495177  2.660489105350
O    0.004450614363  3.361437532844  7.780284312549  1.041629223960  1.192266558635  17.474951550292
Zn   2.852739675155  1.735519832326  4.095053078560 -0.296431739436 -1.577284371941 -1.849603534600
Zn   4.223859128082  0.806802723192  2.027324455082  4.988750030390  0.288201895327 -1.735101255084
O    2.945507024454  1.660331719386  1.607378268273 -5.714985629099  0.813818685236  10.399441229476
O    4.251553501687  0.810984091495  3.647422873764  0.554360694811  0.246345621413  5.518038869835
Zn   2.974515986194  1.725154434320  8.427655397493 -1.240869407244 -0.650376742597 -13.706750213310
Zn   4.271603128179  0.981343782977  6.190164256487  0.371899273647 -5.169672646313 -2.959326368904
O    2.852867394440  1.662444265397  5.758844149570 -2.762600724511 -1.062388053773  0.589240794518
O    4.328960018063  0.806248122333  7.823643283862 -1.468789989183 -2.133198527283  2.765441022173
Zn   1.483079789011  4.120894947220  4.174511733178 -1.927944790814  4.799148912857 -8.378050465596
Zn   2.851326133339  3.265687190334  2.079997153893 -0.296020620041  1.443276675403 -10.441664399812
O    1.463959291551  4.238161386751  1.568988842832 -1.258275518536 -3.698234163764  11.624794286253
O    2.772143628526  3.336604761597  3.593978106123  4.959741301863  0.518991828394  9.349950343381
Zn   1.552763891143  4.105729145097  8.390665131066 -2.508328906272  0.000684941882 -11.988768648625
Zn   2.857175331403  3.256542604593  6.267959108527  1.543489020659  1.932415682101 -14.301732538297
O    1.482774873601  4.067906402070  5.686457806530 -1.932938644484  2.752968086517  12.640007482112
O    2.836945632225  3.302852351638  7.738927427325  3.576798133243  0.127624932941  14.408759335372