# total energy = -24529.919363617246 eV

CRYSTAL
PRIMVEC
2.9404842854302067 0.0 0.0
-1.4702421427151033 2.546532903289695 0.0
0.0 0.0 8.497696715011898
PRIMCOORD
8 1
Zn  -0.035755406766  1.629150030178  4.335755840804  0.578527778976  0.925822623810 -10.172758890820
Zn   1.624037704199  0.849012202749  2.179451666549 -2.706133642662 -1.295265465497 -5.327359688746
O    0.021447598329  1.688564867552  1.676179547742  3.599207354176  1.157877796742  0.304776511856
O    1.461448624460  0.868116235103  3.782146159611 -1.750004397448 -1.582540992355  5.333499997316
Zn  -0.030649549852  1.696652375531  8.455404317631  1.293776282546  0.138576289746 -0.822534210732
Zn   1.433326714899  0.904730263280  6.366001453742  0.443069208923 -0.363297905131 -9.116909152386
O    0.002119207025  1.722451302506  5.873562373091 -0.681553425310  1.601270707554  9.554830241450
O    1.503086764087  0.841704217155  7.910406726814 -0.776888902090 -0.582443054870  10.246455449174