# total energy = -24539.006081576066 eV

CRYSTAL
PRIMVEC
3.13225493067428 0.0 0.0
-1.56612746533714 2.7126110763371933 0.0
0.0 0.0 9.454200950686614
PRIMCOORD
8 1
Zn   0.014337270494  1.782949042599  4.719901927062 -0.316314594403 -0.243262868723 -0.160788049956
Zn   1.632315144277  0.901608932128  2.408812417709 -0.844802792323  0.265078679046 -1.640617327672
O   -0.031833106860  1.840456929901  1.830915768157  0.982476624859 -0.234984687874  0.761182032877
O    1.549475458449  0.855993590347  4.193609490717  0.210325494565  0.271329030831  1.351742574648
Zn  -0.035164886430  1.857604146293  9.466035549491  0.786016318312  0.283611961964 -1.145009168310
Zn   1.547996720896  0.917373571194  7.088520309824  0.092440928840 -0.495860641693 -2.027832148630
O   -0.005097431674  1.787792448399  6.566507473391 -0.174208180017  0.445468305283  0.081602443464
O    1.601552328927  0.972830771192  8.842778210484 -0.735934056944 -0.291379778834  2.779719386469