# total energy = -36805.9218382714 eV

CRYSTAL
PRIMVEC
9.013222972357486 0.0 0.0
-1.5022068331339051 2.6018921415452976 0.0
0.0 0.0 4.823570485224667
PRIMCOORD
12 1
Zn   0.111416054450  1.705463123061  4.906976146644 -1.638049309835  1.596426749198 -1.785827063574
Zn   1.457521076282  0.949479046255  2.422734505879  0.471153111644 -0.123614012009 -1.194041391147
O   -0.116694197823  1.747608953680  1.791851259962  0.231870567725  0.929969298989  2.603810421711
O    1.463160649895  0.915335154991  4.201681534512  2.497116839606 -1.558801482646  0.111944288980
Zn   3.028142778387  1.702087671058  4.882136605454  0.699028699277  0.263214115033 -3.317300547829
Zn   4.609178358315  0.924461944573  2.454735052720 -3.897009748707 -1.755450251054 -3.262783904838
O    3.040833396332  1.790058529913  1.766392510354 -0.639340025167 -0.708581118852  2.660555954032
O    4.594592259579  0.892787676403  4.098289952474 -0.656890889567 -0.401658507187  6.267300754236
Zn   6.125831585229  1.719765305274  4.880054550948 -1.289159866819  0.740946165446 -1.932179140610
Zn   7.449110619883  0.782749743745  2.365618613226  0.435558759479  0.912009114966  1.455364459805
O    5.950506371971  1.692321843968  1.802213762413  3.009300901050  1.247268883013 -0.504115939723
O    7.569197394832  0.915403655485  4.252763074385  0.776420961314 -1.141729212007 -1.102727891043