# total energy = -24538.733869368258 eV

CRYSTAL
PRIMVEC
3.004407833844898 0.0 0.0
-1.502203916922449 2.601892294305528 0.0
0.0 0.0 9.840087612341986
PRIMCOORD
8 1
Zn  -0.000000000000  1.734595764193  4.919276480410  0.000000000000 -0.000000000000  0.403629000650
Zn   1.502203916922  0.867297731876  2.459254427104  0.000000000000  0.000000000000  0.403633628636
O   -0.000000000000  1.734595764193  1.870384182414  0.000000000000 -0.000000000000 -0.403632857305
O    1.502203916922  0.867297731876  4.330405935279  0.000000000000 -0.000000000000 -0.403622315782
Zn  -0.000000000000  1.734595764193  9.839320587022  0.000000000000  0.000000000000  0.403634142856
Zn   1.502203916922  0.867297731876  7.379298533716  0.000000000000  0.000000000000  0.403633628636
O   -0.000000000000  1.734595764193  6.790427988585  0.000000000000 -0.000000000000 -0.403628486429
O    1.502203916922  0.867297731876  9.250450041891  0.000000000000  0.000000000000 -0.403646484151