# total energy = -110394.72282393478 eV

CRYSTAL
PRIMVEC
8.82145232711341 0.0 0.0
-1.470244995003011 2.546532750529464 0.0
0.0 0.0 14.729346558175477
PRIMCOORD
36 1
Zn  -0.014424838845  1.755193783783  4.846131878937  9.877633528901  9.804650451675  6.877566230634
Zn   1.489133488726  0.724280050446  2.566021103011  0.643745867544 -0.124350375954 -5.639126772988
O   -0.049912659412  1.560654295613  1.821299983232  2.887218238083  0.738008422974  1.514337081685
O    1.542117777838  0.994882511307  4.182835410574 -1.589782761519 -1.011710067803  3.878198272428
Zn   0.016201479344  1.764001121786  9.943189969320  0.281258888350  1.053953035632 -6.806109103134
Zn   1.343486017934  0.830223046459  7.475121390804  0.235391950615  1.293589363346 -3.553296964797
O   -0.047005990870  1.794219006733  6.712042828733 -0.476696410059 -1.675137730046 -0.505933195437
O    1.594180225182  1.003604281222  9.125994443657 -8.980788523270 -5.267419560747 -1.002717120275
Zn  -0.041631079967  1.779480124185  14.887695156028 -0.356648261025 -1.678450596470 -3.858053422049
Zn   1.378825638101  0.999650506289  12.326375004963  0.783248782869 -0.609887267124 -4.409386899998
O   -0.084488341808  1.580761914048  11.540704703482 -1.199356632712  0.727231901184  6.145390355181
O    1.483987935583  0.733724297308  13.951370327414 -3.690719086334 -1.306435366070  3.347610768777
Zn   2.927076971743  1.696126221146  4.873314302138  2.562496907674 -0.885655050452  3.061508436291
Zn   4.284223890750  0.906003732675  2.631369539705 -1.072921092094  1.415831177598 -7.409475281310
O    2.859748119001  1.833744406030  1.800147022697 -0.583385364178 -1.782839698811 -0.513502266034
O    4.496321597632  0.768538158917  4.230532121161  1.955372290897  2.443486712986  6.248854374605
Zn   2.778046473983  1.601580541540  9.923299358612  8.973861971353 -0.484366525010  7.599300856149
Zn   4.567384571143  0.850287439777  7.397562299799 -2.295881480269 -0.006873587191  0.686056198277
O    2.946164830288  1.737717604578  6.717483018383  0.636032043840 -1.358277033332  0.015028869309
O    4.311377203158  0.567177041662  9.248327698094  2.087351644152  6.982371851687 -1.734333523680
Zn   2.834591983400  1.528387187291  14.608881687342  1.137884898560  3.671464608979  3.107624771033
Zn   4.519941918383  0.702421373725  12.258434825575  0.055349680415  33.032839732568  12.193782501169
O    2.964589315618  1.981760436772  11.839762523114 -2.673485260499 -35.047386991164 -11.887392879189
O    4.353445827161  0.846899119938  14.245046178981  2.517532170038 -1.094174859267 -1.624762362918
Zn   5.834736162623  1.913854661048  4.861164515848 -1.015054044574 -4.824378633958  1.837762833211
Zn   7.356039723695  0.866638883811  2.495029583263 -1.818573661877 -2.871246802356  0.825969461666
O    5.888171227949  1.561596426722  1.872549974817 -1.554361701707  1.862001651154 -0.351968853271
O    7.778207967714  0.838006213847  4.288141497729 -10.823199139666 -5.604200136314 -6.333880499038
Zn   5.905178988036  1.794057574155  9.721058742561 -1.467681329500 -8.641615279101  3.805885224685
Zn   7.268171001355  0.591825943755  7.410985903805 -0.378508037212  13.115004392982  4.023889575952
O    6.039889622233  1.785049989184  6.817026932878  1.706977757375 -12.106413330425 -7.405022387745
O    7.399253372210  0.740722355439  9.205599229457  0.129808827966  8.177472794447 -1.594007084013
Zn   6.068276173676  1.497667361707  14.715750935849 -14.791860391271  10.114384821757  9.565726319537
Zn   7.049578941270  0.936248081979  12.280996572047  21.221756938096 -12.119061358206  9.841252419168
O    5.972770720057  1.574482804281  11.674993672257 -19.371327050940  14.087881547078 -13.047052450422
O    7.108287470798  0.751457180776  14.051700233311  16.447308099088 -10.020291959135 -6.899723997678