# total energy = -49077.66465636489 eV

CRYSTAL
PRIMVEC
6.136662235341968 0.0 0.0
-1.534165558835492 2.6572545245121315 0.0
0.0 0.0 10.443543618647551
PRIMCOORD
16 1
Zn  -0.066222563180  1.688260215896  5.030877429837  2.154731773369  2.092911140517  1.913822492480
Zn   1.544592975306  0.784695000033  2.482635800605 -0.414659033212  3.034058567610  2.091425042890
O   -0.007039978916  1.828404398697  1.923949161370 -0.231356861314 -3.440895533674 -0.599530349369
O    1.595445654251  0.932012940987  4.667764375043 -1.751870504123 -2.016190707736 -1.971975189561
Zn   0.009273723970  1.692918556199  10.420849628035 -1.207011321044  1.507836561562  0.566087496330
Zn   1.510397652332  0.760695741363  7.907161702853 -0.041786597018  2.438508285935  0.215349944362
O    0.008423182584  1.806813166288  7.250217896236  0.070279048031 -2.466609415046 -1.674012872413
O    1.486868461989  0.945381659667  9.821072512138  1.350058244967 -1.597427422548 -0.435687057527
Zn   3.022982411084  1.819117174070  5.177934562646  1.258722119155 -2.913103333380  2.524049916552
Zn   4.588689800143  0.954121494023  2.633709992514 -0.448660844078 -0.715492501260 -0.037666147092
O    2.994502161650  1.760855702808  1.944062071846  1.162994549144  1.048016358433  0.009379127222
O    4.645983519771  0.770531583594  4.648583009894 -1.791448009305  2.923343780161 -2.644195767507
Zn   3.094866045177  1.702940952962  10.379312402363 -0.070534358575 -0.224752211513  0.844433067688
Zn   4.610393947137  0.880680988721  7.764199564753 -0.503198570115 -0.169241837150  0.439960230981
O    2.992448834466  1.740487507182  7.164818263570  0.576870188768  0.069196356490  0.040799293405
O    4.624134547548  0.809371132548  9.861183577507 -0.113129824648  0.429842168710 -1.282238971330