# total energy = -24539.44032152008 eV

CRYSTAL
PRIMVEC
6.520203525830115 0.0 0.0
-1.6300508814575287 2.8233328893302754 0.0
0.0 0.0 4.710677522120586
PRIMCOORD
8 1
Zn  -0.000000000000  1.882220404839  4.709945303265 -0.000000257110 -0.000000257110 -1.842916866608
Zn   1.630050881458  0.941110528430  2.354605238164 -0.000000257110 -0.000000257110 -1.842915838167
O   -0.000000000000  1.882220404839  1.790792806959  0.000000257110  0.000000257110  1.842915838167
O    1.630050881458  0.941110528430  4.146132872060  0.000000514221  0.000000257110  1.842917123719
Zn   3.260101762915  1.882220404839  4.709945303265  0.000000000000  0.000000000000 -1.842916095277
Zn   4.890152644373  0.941110528430  2.354605238164  0.000000257110  0.000000000000 -1.842916095277
O    3.260101762915  1.882220404839  1.790792806959 -0.000000257110 -0.000000257110  1.842914552616
O    4.890152644373  0.941110528430  4.146132872060 -0.000000257110 -0.000000257110  1.842917380829