# total energy = -12269.425158133874 eV

CRYSTAL
PRIMVEC
3.196178479088971 0.0 0.0
-1.5980892395444855 2.767970467353026 0.0
0.0 0.0 5.644604610638119
PRIMCOORD
4 1
Zn   0.138870758738  1.910090274520  5.644623468091 -2.139445536634  0.972448808309  0.653710434956
Zn   1.580817730279  0.865118578235  2.807831287637 -0.093356241566  0.380253044928 -0.022389166328
O   -0.037282143487  1.833751469254  2.025259132510  0.109199379246  0.004665266686 -0.163739162165
O    1.510383545136  1.179774039437  4.792158880073  2.123602398954 -1.357367119923 -0.467582106463