# total energy = -49079.46413252662 eV

CRYSTAL
PRIMVEC
6.520203525830115 0.0 0.0
-3.2601017629150575 5.646659258457025 0.0
0.0 0.0 4.920041257334992
PRIMCOORD
16 1
Zn   0.030713418708  1.873388789164  4.877720572310 -0.438714788609  0.342693341507 -0.487533095664
Zn   1.587530678205  0.954784699264  2.457919167071  1.207237578122 -0.308942727419 -0.570505422892
O    0.048558563738  1.746842723073  1.830157883726 -0.965694777415  1.626923375125  0.660415357780
O    1.605839409705  0.983625515520  4.316874833710  0.792491641624 -0.366790748776  0.868507849249
Zn  -1.587689119150  4.725384493193  4.953472296873 -0.498306532130  0.256706910043 -1.255633195817
Zn  -0.023803959032  3.792517458081  2.465566713787  0.225537426418 -0.297178902015 -1.480086902253
O   -1.650093335076  4.723991125700  1.866408911289  0.182650397247 -0.347093784567  1.208978729183
O   -0.021543404470  3.808718859802  4.287677362321  0.224892079525 -0.437620269994  1.347456288568
Zn   3.301492014897  1.910939293289  4.911915779701 -0.457338060138 -0.080982293381 -0.563377810708
Zn   4.913599948272  0.934646398654  2.434497291966 -0.264483468664  0.191223226517  0.216319250254
O    3.284335403360  1.906799616071  1.872601800598 -0.172708712653 -0.248857846312  0.922101466205
O    4.885216850304  0.959852853465  4.415766108566  0.172190635366 -0.237474544176 -0.686018917281
Zn   1.610383991563  4.688484705380  4.976976326543  0.072529277518  0.199707095619 -2.429935970885
Zn   3.255226606739  3.745712177071  2.504989820365 -0.052772406606  0.230703801111 -0.701302325802
O    1.641549260375  4.745738612540  1.823667021116 -0.246596818192 -0.647944993227  2.764520053021
O    3.244776676548  3.790140191876  4.389485124214  0.219087299918  0.124928102835  0.186094647042