# total energy = -49079.83279806963 eV

CRYSTAL
PRIMVEC
6.392356429000733 0.0 0.0
-1.5980891072501833 2.7679734343908944 0.0
0.0 0.0 10.878691156853458
PRIMCOORD
16 1
Zn  -0.000000000000  1.845314131377  5.438498591200  0.000000514221  0.000000257110  0.284378664926
Zn   1.598089107250  0.922657385307  2.718825162751  0.000000000000  0.000000000000  0.284375579602
O   -0.000000000000  1.845314131377  2.067800096889 -0.000000000000 -0.000000000000 -0.284380207588
O    1.598089107250  0.922657385307  4.787474164573  0.000000000000  0.000000000000 -0.284378922037
Zn  -0.000000000000  1.845314131377  10.877846087334  0.000001799772  0.000001028441  0.284391006221
Zn   1.598089107250  0.922657385307  8.158172019649 -0.000002828213 -0.000001542662  0.284373265610
O   -0.000000000000  1.845314131377  7.507147593022  0.000000257110  0.000000000000 -0.284378664926
O    1.598089107250  0.922657385307  10.226821021471 -0.000000257110 -0.000000000000 -0.284380464698
Zn   3.196178214500  1.845314131377  5.438498591200 -0.000000514221 -0.000000257110  0.284376865154
Zn   4.794267321751  0.922657385307  2.718825162751  0.000000771331  0.000000257110  0.284376865154
O    3.196178214500  1.845314131377  2.067800096889  0.000000000000  0.000000000000 -0.284380464698
O    4.794267321751  0.922657385307  4.787474164573 -0.000000257110 -0.000000000000 -0.284379179147
Zn   3.196178214500  1.845314131377  10.877846087334 -0.000002056883 -0.000001028441  0.284392034663
Zn   4.794267321751  0.922657385307  8.158172019649  0.000002828213  0.000001542662  0.284373265610
O    3.196178214500  1.845314131377  7.507147593022 -0.000000257110 -0.000000000000 -0.284379179147
O    4.794267321751  0.922657385307  10.226821021471 -0.000000257110 -0.000000000000 -0.284380721809