# total energy = -98152.12824648569 eV

CRYSTAL
PRIMVEC
6.903745345495471 0.0 0.0
-3.4518726727477356 5.978816062832716 0.0
0.0 0.0 10.862276985403774
PRIMCOORD
32 1
Zn   0.078849056340  1.868235645061  5.484447143136 -0.656943340071  0.357813227867 -0.931738732184
Zn   1.734630913262  0.908024771810  2.602262561430  0.093655517974  0.795661811822  0.002385212403
O   -0.025258733096  2.071947910843  2.047079929734  0.428539647849 -0.587058442155 -0.211281687830
O    1.802070840044  1.034185195002  4.793114368733 -0.492160052913 -0.377615607305  0.093425404241
Zn  -0.031521120498  1.949220029836  10.805819536717 -0.363633948314  0.441028524344  0.568508189956
Zn   1.812713653869  1.070371176231  8.152969090894 -0.333154034558 -0.232429268442  0.132422611440
O   -0.061037393349  1.949286305791  7.422191767459  0.475972130299  0.086770103708  0.639301972840
O    1.747521586571  1.072660458187  10.314337763324 -0.812188862942 -0.771190309043 -1.058722946217
Zn  -1.741176354224  5.057936517190  5.377250618033  0.427973233822 -0.377681427546 -0.126186657832
Zn   0.003830888292  3.997562654594  2.685727461908 -0.193772732412 -0.360864870209 -0.086504765861
O   -1.688786592295  4.985015016603  2.171490253481 -0.567178415401 -0.112735417423 -0.630894979723
O   -0.046513984265  3.872926578373  4.675839756174  0.621052282601  0.549989562327  1.189580784273
Zn  -1.787788371673  4.953402766666  10.714315915159  0.414335074213 -0.167809218469  0.206759631590
Zn   0.030290182703  4.047939284380  8.063578015411 -0.403250534264 -0.379260599108  0.754953535469
O   -1.716936613941  5.009481199733  7.591777439249  0.234061661839  0.341882415570 -0.703841033064
O    0.013078455183  3.959654188901  10.142743792013 -0.227035094010  0.144406266164  0.203240305583
Zn   3.330778217890  2.110566771931  5.430314185508  0.804569655834 -0.542521536084 -0.350382739731
Zn   5.168401275339  0.937957340504  2.846900229620 -0.049591437775  0.697527432141 -1.647720257265
O    3.502452963022  1.933190913893  2.033692877134 -0.681941147667  0.566208852399  0.133294472521
O    5.148433572677  0.972676275847  4.675509066772  0.305035679055 -0.360320053450  2.222774218760
Zn   3.326011872103  2.027496765687  10.812050166892  1.131281020090  0.283672897108  0.628688458990
Zn   5.200467101346  0.995173510804  8.134198497674 -0.067806418121 -0.031583688344  0.470871061627
O    3.476760674718  2.063887097777  7.456066374746 -0.252187682016 -0.527376195803  0.059800259987
O    5.060664186976  0.994906335859  10.249272034567  0.625089428785 -0.029290521434 -0.630821446173
Zn   1.711252760399  4.828877150371  5.506886386633 -0.255937121756  0.504707807671 -0.532946747912
Zn   3.372075732172  4.015646325152  2.663935789725  0.553139420810 -0.376515432262 -0.049070532274
O    1.710048056836  5.074807890065  2.039683947345  0.318185843284 -0.805811755771  0.181315223375
O    3.556476841474  3.968100921332  4.761135529918 -0.834250470728  0.433733019124  0.292972577243
Zn   1.680147935744  5.011006237080  10.933310311638 -0.176427299155  0.061506701155 -0.759702877229
Zn   3.532915048984  3.963179241275  8.002062882885 -0.173631738688  0.318144191412  0.961376095435
O    1.727185223907  4.933091947860  7.677229928012  0.273423965687  0.296222451639 -1.464019307267
O    3.488094553452  3.974263894802  10.105713482729 -0.165224745571  0.160788307066  0.442164437721