# total energy = -73615.1075338715 eV

CRYSTAL
PRIMVEC
10.163846843821924 0.0 0.0
-3.3879455599916932 5.868096975280588 0.0
0.0 0.0 5.656922729406499
PRIMCOORD
24 1
Zn   0.000000000000  1.956033341478  5.656038474731  0.000002571103 -0.000003085324 -0.016111560850
Zn   1.693974812765  0.978016162547  2.827578126413  0.000005142206 -0.000000000000 -0.016108475526
O    0.000000000000  1.956033341478  2.150512452527 -0.000004627986  0.000000771331  0.016110789519
O    1.693974812765  0.978016162547  4.978972800845 -0.000002056883  0.000000771331  0.016109503967
Zn  -1.693974812765  4.890082845503  5.656038474731 -0.000002056883  0.000003342434 -0.016111560850
Zn   0.000000000000  3.912066682956  2.827578126413  0.000000257110  0.000003342434 -0.016109246857
O   -1.693974812765  4.890082845503  2.150512452527 -0.000000000000 -0.000004113765  0.016110018188
O    0.000000000000  3.912066682956  4.978972800845  0.000002056883  0.000000257110  0.016109761078
Zn   3.387948609146  1.956033341478  5.656038474731  0.000000000000 -0.000003342434 -0.016108989747
Zn   5.081923421911  0.978016162547  2.827578126413  0.000001285552 -0.000001542662 -0.016110275298
O    3.387948609146  1.956033341478  2.150512452527 -0.000003599544 -0.000000514221  0.016110018188
O    5.081923421911  0.978016162547  4.978972800845  0.000002056883  0.000002313993  0.016110018188
Zn   1.693974812765  4.890082845503  5.656038474731 -0.000003085324  0.000001542662 -0.016109761078
Zn   3.387948609146  3.912066682956  2.827578126413 -0.000000771331  0.000001799772 -0.016111046629
O    1.693974812765  4.890082845503  2.150512452527 -0.000001028441 -0.000002313993  0.016110018188
O    3.387948609146  3.912066682956  4.978972800845  0.000003856655  0.000001285552  0.016110018188
Zn   6.775898234676  1.956033341478  5.656038474731  0.000000771331 -0.000003599544 -0.016110532409
Zn   8.469872031057  0.978016162547  2.827578126413  0.000002828213 -0.000003085324 -0.016110018188
O    6.775898234676  1.956033341478  2.150512452527 -0.000001285552  0.000001542662  0.016109761078
O    8.469872031057  0.978016162547  4.978972800845 -0.000001542662  0.000003085324  0.016110275298
Zn   5.081923421911  4.890082845503  5.656038474731 -0.000003856655  0.000001799772 -0.016108989747
Zn   6.775898234676  3.912066682956  2.827578126413 -0.000002828213  0.000002828213 -0.016110789519
O    5.081923421911  4.890082845503  2.150512452527  0.000002313993 -0.000001285552  0.016110018188
O    6.775898234676  3.912066682956  4.978972800845  0.000003856655 -0.000001285552  0.016110789519