# total energy = -24538.21124031872 eV

CRYSTAL
PRIMVEC
6.0088151385125865 0.0 0.0
-1.5022037846281466 2.6018950695727505 0.0
0.0 0.0 4.92004187067466
PRIMCOORD
8 1
Zn   0.089501301488  1.734608530385  4.945279495138 -1.652954766192  0.199329400564 -1.850819666395
Zn   1.473539933773  0.879379880536  2.423338320680  0.266979752724 -0.548672643287  0.130739310200
O   -0.034145092025  1.683405613945  1.754831197734 -0.213079660271  0.609733772265  2.757902033483
O    1.486374162027  0.865371529803  4.300271045554  0.612001485253 -0.745037819017 -1.341948214265
Zn   3.021095250659  1.688843591645  4.835194396511 -1.196844922034  1.766243742125  1.172879155247
Zn   4.429724958898  0.860729119227  2.441075141206  2.120209571222 -1.146463898478  0.903188174240
O    3.054036176130  1.697510105720  1.820567034467 -2.449166794090  1.105485913404 -0.959887940925
O    4.471689922944  0.909357258380  4.317890093303  2.512855076277 -1.240618724686 -0.812052594475