# total energy = -110418.90274575807 eV

CRYSTAL
PRIMVEC
9.013222972357486 0.0 0.0
-1.5022068331339051 2.6018921415452976 0.0
0.0 0.0 14.470720468896971
PRIMCOORD
36 1
Zn  -0.044724513711  1.806135415729  4.808103794604  0.423141873872 -0.022266267597  0.852234051790
Zn   1.465732122409  0.841068901666  2.413373372500  1.212266398796  0.404142449951  0.178792714064
O    0.042065612934  1.743679188464  1.796749946648 -1.203122784623 -0.098221540078  0.928803817926
O    1.416556879194  0.904237173545  4.227389049073  1.459977275987  1.061092732001  0.293637207410
Zn   0.052741775545  1.702621253858  9.693877235528 -1.058106652789  1.024749674595 -0.767961774803
Zn   1.574124240553  0.849612535721  7.286444478289 -2.906602813258 -0.899420222557 -0.391072761251
O   -0.018669088743  1.762441113403  6.656306625912 -0.144765706386 -1.295546487072  0.596962588642
O    1.544890753164  0.950962622756  9.080783387791 -0.908250162144 -2.207454814794  0.699483784536
Zn   0.096464920184  1.747892870204  14.479530894352 -5.325191734561  2.956734182696  0.749822384890
Zn   1.428192048729  0.899367329173  12.051604772041  0.696673311671  0.640339155856  0.747135324976
O   -0.062851907753  1.786728144025  11.517114340524 -0.026826890385 -0.460672266717  0.049165920202
O    1.378511163706  0.911830813899  13.964098021488  4.252389170322 -3.763215710841 -3.499571193139
Zn   2.984092453754  1.820581809509  4.876976535303 -0.635449946084 -0.970173382011 -0.714584901844
Zn   4.441579279789  0.919021563187  2.274283118235  2.206910512255 -2.541388922051  2.520278365325
O    3.053120221888  1.720030294029  1.796444398389 -3.863507760295  1.626063598228  0.222652905782
O    4.501729023295  0.932491824919  4.287021433581 -1.325988862722 -0.093983333627 -1.553896332035
Zn   3.007019389029  1.789610572731  9.583655433121  0.847942880614 -0.689128152334  1.077060568184
Zn   4.631680770788  0.793598058915  7.223920651852 -1.835041320515  1.528889268467  0.540462853783
O    2.916558176667  1.751047498244  6.721282950319  3.023966730592 -0.840930453851 -1.205659435002
O    4.472172862524  0.859056590751  9.064889470402  0.807973796420  1.690074553862 -0.437242317829
Zn   2.902281231479  1.672128619220  14.450644416048  1.849636958941 -0.352154744030 -0.216684861124
Zn   4.502342823779  0.797924405941  12.044840348200  0.336853337786  0.337039999876  1.545226057954
O    3.034876557270  1.682154027132  11.443206813473 -0.533767701151 -0.318159360921  0.330795818738
O    4.520588291042  0.798083038666  13.996154450312  0.083718718476  1.436773069957 -1.608348954557
Zn   6.007710594209  1.687456506207  4.841598733814  0.140997497593  1.719395928534 -1.020808173449
Zn   7.531947546932  0.810390594635  2.378558897447 -0.360872326409  1.987205633358  0.637075654613
O    5.937848201628  1.763863399988  1.809024153691  1.851313061092 -1.378040846223  0.222378054854
O    7.502581565166  0.946158574912  4.242478085652  0.043508721916 -1.780108673033 -0.694641111732
Zn   6.029030471828  1.619690589289  9.745677129272  0.016926343442 -0.160215208172 -2.646319755828
Zn   7.430694802705  0.847297038739  7.214053876664  1.726486516832  0.990953809092  1.153943494685
O    5.989912182806  1.754225560664  6.643888207300  0.279263198077  0.447953790709  0.149553871803
O    7.565726402666  0.752344537370  9.123824231451 -0.095528566627  0.492737522683 -0.693207207499
Zn   6.109316656777  1.739391598296  14.463691957623 -0.716937975457 -1.114691234053 -0.371422848231
Zn   7.384083821426  0.900335349320  11.963470773851  6.638790194038 -4.243382081727  3.799588335933
O    6.088180648907  1.673047967963  11.488549634280 -6.982592966559  4.110416967521  0.043448558102
O    7.582185449136  0.828587390493  13.909356211766  0.023817157024  0.774591364305 -1.517081477199