# total energy = -110410.13016349773 eV

CRYSTAL
PRIMVEC
10.355617489065997 0.0 0.0
-5.1778087445329986 8.96822363596838 0.0
0.0 0.0 6.096175970315838
PRIMCOORD
36 1
Zn   0.022554534891  2.023708232016  5.946908028705 -1.337531573255  0.432205783846  0.740666686533
Zn   1.645277724304  1.109894371243  3.074591116998  0.301690159621  0.517227280294 -0.907159500183
O   -0.123335404295  2.064865598165  2.139825770921  0.138672963225 -0.480851055658  1.236853344106
O    1.570911963992  1.234827647316  5.321218513330  1.733041030121 -1.632389283335 -0.757484272311
Zn  -1.640413690770  4.921412975559  6.031104376700  0.351391897722 -0.096840086349  0.320154279864
Zn  -0.102854064025  3.971235363974  3.053714192140  0.720508466417  0.058183550319 -0.833132812184
O   -1.720476076263  5.005721164223  2.219023462354 -0.201329718824 -0.077190687549  1.147775932422
O    0.003513661014  3.927826686583  5.415488806019 -0.319629517709  0.643536322637 -0.389733216504
Zn  -3.378871261241  8.082439325053  6.004366172343  0.070760872764  0.079975963604  0.723600732189
Zn  -1.797159423769  7.134964529632  3.004353105816  0.738191999740  0.230836212923 -1.468931142746
O   -3.344425370787  8.270786260383  2.141847187455 -0.467389273726 -1.215110553113  1.161308162580
O   -1.566074855063  6.843412474845  5.624820364628 -0.884088991517  0.663903316329 -0.546479749401
Zn   3.429661422778  2.270824332158  5.827580248378 -0.097019035129 -2.021454270128  0.445824917292
Zn   5.063747831261  1.004761035809  2.920948962559  0.351790161602  0.554517017883 -0.093941167535
O    3.351870024200  1.998124679009  2.289573177622  0.308626224620  0.435020370477  0.906998806235
O    5.257687835597  0.842890307714  5.280438091658 -0.271300748696  0.697450299046  0.338685505899
Zn   1.803245420168  5.180341728571  5.936427108244 -0.227448527398 -2.607019672677  0.468986443010
Zn   3.454015763988  4.032922741794  3.081630865767 -0.324491730897 -0.323860010850 -0.728630581304
O    1.723814727341  4.916409141189  2.391472453714 -0.227205301039  0.416443893026  0.653299058450
O    3.342181308477  4.001826893598  5.246267660630  0.577341471977  1.313696161398  0.018185669770
Zn   0.160187940253  7.827122611422  6.039261496596 -0.652415370294  1.050316981542  0.027141336301
Zn   1.789973660794  6.959528978188  3.208515140175 -0.285469326887 -0.509778794436 -0.749989249485
O   -0.049153973974  8.181410032520  2.286159966097 -0.154154603800 -1.838700514534  0.344856410596
O    1.780478595118  6.855534760678  5.289654591224 -0.073011102250  1.993000385663 -0.282079327369
Zn   6.890023109163  2.113910838155  5.824975810580 -0.217080811011 -4.563773160192  0.519372865882
Zn   8.648600608854  0.920155640923  2.909780429097 -0.394629111144  0.341424759207 -0.592946525504
O    6.957548984124  1.793690291911  2.408638960826 -0.035602322585  0.917083701275  0.675075016675
O    8.561858850080  0.948326027179  5.428655973656  0.465334962300 -0.119233880663  0.127071117320
Zn   5.314396232529  5.025905298271  6.162953134132 -0.232843473161  0.042644059923  0.288833358263
Zn   7.182447106943  3.929506367740  3.159852022470 -0.761829436653 -0.513448787088 -0.873421227390
O    5.205356758177  4.851790088057  2.382019846070  0.407183036550  0.742095705670  0.064879731393
O    6.962127202616  3.764897614381  5.354435191988 -0.010507327289  4.452186768772 -0.846161106123
Zn   3.545181442553  8.045424205900  6.082826543811 -0.352414939670  0.283417329454  0.097161988465
Zn   5.227499139493  7.017256367881  3.125934268508 -0.710926222045 -0.438822003611 -1.171386629862
O    3.378906470340  7.669523575541  2.312156708242  1.104259240086  1.084410580791  0.537267229664
O    5.152126813160  7.032134283527  5.616428172215  0.969525978235 -0.511103941005 -0.602521056566