# total energy = -36808.30829024211 eV

CRYSTAL
PRIMVEC
9.588534908089704 0.0 0.0
-1.5980923475265867 2.7679703145927954 0.0
0.0 0.0 4.618317838481406
PRIMCOORD
12 1
Zn  -0.000000000000  1.845314501915  4.617592945242 -0.000000257110 -0.000000000000 -2.353193426616
Zn   1.598089470966  0.922656771531  2.308436902562 -0.000000000000 -0.000000000000 -2.353193683726
O   -0.000000000000  1.845314501915  1.755679918741 -0.000000257110 -0.000000000000  2.353193683726
O    1.598089470966  0.922656771531  4.064835961421  0.000000257110  0.000000000000  2.353193940837
Zn   3.196177983079  1.845314501915  4.617592945242 -0.000000000000 -0.000000000000 -2.353193426616
Zn   4.794267454045  0.922656771531  2.308436902562  0.000000000000  0.000000000000 -2.353193940837
O    3.196177983079  1.845314501915  1.755679918741 -0.000000257110 -0.000000257110  2.353193683726
O    4.794267454045  0.922656771531  4.064835961421  0.000000514221  0.000000257110  2.353193683726
Zn   6.392356925011  1.845314501915  4.617592945242  0.000000000000  0.000000000000 -2.353193683726
Zn   7.990445437124  0.922656771531  2.308436902562 -0.000000257110 -0.000000000000 -2.353193426616
O    6.392356925011  1.845314501915  1.755679918741 -0.000000257110 -0.000000257110  2.353193426616
O    7.990445437124  0.922656771531  4.064835961421  0.000000514221  0.000000257110  2.353193426616