# total energy = -49076.21023483654 eV

CRYSTAL
PRIMVEC
6.0088151385125865 0.0 0.0
-1.5022037846281466 2.6018950695727505 0.0
0.0 0.0 10.225969849544597
PRIMCOORD
16 1
Zn   0.000299839875  1.662301453416  5.251797567695  0.907532310141 -0.872869725762 -1.869603374761
Zn   1.447081918955  0.843771642025  2.511526696060  2.437329949356 -1.197302321287  1.960325006917
O    0.121322784699  1.740404032586  2.032912552647 -4.085423273690  0.330698116818 -3.304862322065
O    1.478745370327  0.690115423066  4.387148898353 -0.701196139242  1.055509581486  0.761828922433
Zn   0.053875036532  1.669918227485  10.246721292625 -2.104384431264 -0.140072157565  1.211900530816
Zn   1.490457752795  0.784424377546  7.661233893670  0.771641794758  4.630972540857  1.995763550230
O   -0.009166447494  1.837829759479  7.024160685358  1.125344600001 -3.621425799254  0.213255523727
O    1.532698521456  0.851407043421  9.640136211445 -2.503195184590 -2.089284599509 -2.530584889457
Zn   2.874018684277  1.595746014297  5.107198435794 -0.011439095075  1.755815604814  0.264600196748
Zn   4.523720854110  0.888959133629  2.666023548257  0.396058644502 -0.478117201666 -0.408452133070
O    2.983023998823  1.680301460045  2.018855530512  1.033081591500  1.347118702722 -1.401954162505
O    4.478847022655  1.032426805640  4.510556741904 -0.057828738083 -2.089133932863  0.018137847251
Zn   2.911184407671  1.642087198408  10.259239457204  1.038442855812  3.464582078658  3.043352591318
Zn   4.553706043414  0.914166714017  7.692635961584 -0.628486884503 -0.938209684621  0.956109447719
O    3.080328948531  1.768862381964  6.993992828073 -1.412910404406 -0.000637633584  0.118219837577
O    4.333731132653  0.909869209430  9.610640139693  3.795432404783 -1.157643055024 -1.028037087097