# total energy = -110419.94610450257 eV

CRYSTAL
PRIMVEC
9.780305553333779 0.0 0.0
-1.630054185657481 2.8233297056086286 0.0
0.0 0.0 14.446088340301637
PRIMCOORD
36 1
Zn   0.111621649250  1.899156358866  4.998276988651  0.118390558826 -0.173492384897 -6.598019954100
Zn   1.628410116294  0.982410176160  2.245393845912  0.227832907321  0.508199108653 -1.818445620940
O   -0.045823665609  1.946543895333  1.943217613414 -0.379352901711 -0.479307108209  1.709682557901
O    1.733068187990  1.039677777297  3.992353979910 -0.926287736372 -0.466947815313  4.721415465431
Zn   0.006063789443  1.817986668987  9.670105960512  0.715150801650  1.617286880476 -0.234430872253
Zn   1.765508483479  0.999991253423  7.040483030631 -1.483990351072 -0.192923497038  1.278773124269
O    0.043424556657  1.992504485220  6.689276170333  0.435305248707 -0.257071749581  3.145794854345
O    1.506503497724  0.934036784893  9.044025568698  1.908354013166 -0.391109270916 -0.450618224915
Zn  -0.083418182125  1.770278338498  14.655228438193  2.213896456654  1.596733224695 -2.411489077033
Zn   1.524629338006  0.828683333473  11.913975056788  2.195927530881 -0.596326754830  1.421632357660
O    0.016035788985  1.701928673138  11.529958205450 -1.908535018829  1.557538813883 -0.250289693662
O    1.481054164644  1.024118289192  13.835922461685  0.432968373044 -0.852594006232  0.374215323374
Zn   3.192779769855  2.016103384489  4.721584320302  0.318851501892 -1.662683563444 -1.843092730065
Zn   5.101680247144  1.096018205468  2.243188387010 -6.193304919474 -3.616176892151  1.122166716494
O    3.353214924122  1.768813248726  1.584029045754  0.722566377388  0.391265851099  6.807197451103
O    4.738399599640  0.935080343496  4.379466297955  1.567442703261  2.527111329086 -1.518375256310
Zn   3.180322594672  1.899386196046  9.427332369853 -1.151214011569 -3.785659127447  2.769373781568
Zn   4.731069260628  0.812534092943  7.427816383582  0.389919621484  1.985700509567 -5.016611789798
O    3.199772688326  2.037032260343  6.553320142836  1.367044238002 -0.887465878409  2.180552333976
O    4.734510950152  0.776316643449  9.144471262792  0.926397008256  3.939549678952  2.418883569725
Zn   3.172292963813  1.864561462063  14.385095420779 -0.327762174118  0.321983876874 -5.708943022450
Zn   4.908882061802  1.053727186225  11.871771082264 -1.972254925585 -1.066753015610  1.978814323970
O    3.128574019959  1.935707316780  11.563339366334  0.839339712326 -0.131459219085 -1.433964396863
O    4.945143522671  0.959144785310  13.927751706586  0.732329370312  0.502174242616 -0.947656431856
Zn   6.551410049162  1.885783747083  4.861389876065 -0.609950259151 -0.353854243220 -6.143890630707
Zn   7.844233431157  1.059279465687  2.480160300414  2.710375191547 -0.937100510717 -3.791166944639
O    6.480588900589  1.957981962677  1.927531959368  1.828042777710  4.038151999408 -2.473713373081
O    8.262131216993  1.016828049433  4.078324821785  0.939144794840 -0.566143289268  6.794051914860
Zn   6.368073331412  1.828845742243  9.676821118305  1.646768434875  0.945283046528 -1.047657946652
Zn   8.232457769944  0.992080942291  7.203524636327 -0.770943226029 -0.029626564617 -2.338846670976
O    6.658488746482  2.027180558559  6.494277416241 -0.031116518899 -0.210209280702  6.762887059221
O    8.345174813415  1.054986889580  8.955775915629 -3.723281850761 -1.937564316182  2.617882583533
Zn   6.728630163819  1.785699924294  14.412086130015 -2.987958945039  0.721172068143  0.077766357547
Zn   8.113036327015  1.024398983962  12.113690852248  0.008126485762  0.216930144365 -0.128370038637
O    6.469242768117  2.006121604641  11.558265343813  0.977793103340 -0.144944655166 -0.660286545512
O    8.251745510525  0.944115389766  14.023003080401 -0.756013601302 -2.129667631311 -1.365220297419