# total energy = -110428.79536857869 eV

CRYSTAL
PRIMVEC
9.396764262845632 0.0 0.0
-1.5661305093956932 2.712610923576963 0.0
0.0 0.0 15.0864956272344
PRIMCOORD
36 1
Zn   0.016326877907  1.786782508787  5.061985226191  0.559670279950  0.021464854742 -0.886804333565
Zn   1.496307852541  0.902719892115  2.462296158438  0.130427949607  0.030331046883  0.262548199315
O    0.002997567800  1.843193164009  1.884125469138 -1.331207430809 -0.824173031887  0.210160943962
O    1.629028690665  0.859136759788  4.353269989371 -0.886452349543 -0.025009120450  0.614484142466
Zn   0.022262813892  1.753650457672  10.030258401742 -0.726750590672  0.444078624024  0.178380052006
Zn   1.559562171176  0.909050492199  7.500618452862  0.359960613228 -0.224535981737  0.273385142029
O    0.021659541626  1.795149387686  6.915516710243 -0.416599444768  0.161399715398  0.469153564715
O    1.591539359962  0.952093310581  9.425056040688 -2.042485893987 -1.864586124052 -0.862734179990
Zn   0.002198842838  1.837523156453  15.082717188324 -0.443919986959 -0.412249395329 -0.157503722778
Zn   1.573024915335  0.918978173643  12.596239396733 -0.656481569943  0.012552125633 -0.451483915350
O   -0.075090482901  1.829471069156  11.963723460996  0.651775679827 -0.092679784324 -0.268383575050
O    1.528674067368  0.901535899818  14.482232942606  0.406430988875  0.359254074079  0.181616556666
Zn   3.092770177300  1.793992646005  4.999823751240 -0.079565872650  0.640389035257  0.874634273862
Zn   4.718774989226  0.918602303072  2.550814617470 -1.124866117703 -0.783110200409 -0.143915956791
O    3.080465114498  1.767562367163  1.918195317326  0.926459743174  0.686932430234  0.127795911301
O    4.678070085792  0.964843780010  4.482196414086 -0.130171096401 -0.967162363099 -0.662020754594
Zn   3.063812168872  1.685670506289  9.997164877362  2.626625362723  1.670387874066  0.823760626940
Zn   4.764447961926  0.852250810936  7.529745603048 -0.552865341213  0.624280816841  1.082879488859
O    3.157511064042  1.807525865897  6.998080439762  0.054884310743 -0.860634617149 -1.003578182724
O    4.742271598265  0.900404529401  9.516792891481 -0.490595279529 -0.576833421992 -0.668194487505
Zn   3.155795214888  1.755982734562  15.090250574234 -0.224515412912 -0.066548377344 -0.001627251191
Zn   4.763764817164  0.934612510023  12.585425600419 -1.793570712075 -1.104762147864 -0.460961001602
O    3.075116476280  1.763874137190  11.924751320892  1.049105220622  0.656649462980  0.617486676737
O    4.734637666978  0.863552299315  14.490999183987 -0.570229543523 -0.206395049162  0.000641747349
Zn   6.235475699570  1.785674630280  4.982993206769  0.906454246586  0.134397218667  0.983879161633
Zn   7.764819756229  0.788917559481  2.538051932248  0.803899369240  2.002772891669  0.244678261013
O    6.225489758188  1.812154711973  1.922029197145  0.688891867953 -1.094222424675 -0.568407916933
O    7.867242607342  0.888517622608  4.467478262221 -0.439471978490  0.167947029598 -0.584440030695
Zn   6.259305893740  1.802843458265  10.143566464577  0.186032683455  0.169187329763 -1.746891048630
Zn   7.791785650634  0.923343910319  7.510737828297  0.638062186896 -0.519946221887  0.355849162162
O    6.268572982656  1.784682331974  6.953458025307 -0.128766759854  0.842958025804 -0.926808384762
O    7.800781173063  0.897913447195  9.416118778198  0.456776788317  0.130762707239  0.413320259796
Zn   6.270855456696  1.739186958119  15.072270805493  0.076909408864  1.026939483158  0.118163016197
Zn   7.825954164847  0.889909283396  12.562976730595 -0.205426514601  0.184988301351 -0.245123318970
O    6.214866716189  1.808513465821  11.953860617225  1.122703048613  0.363217686712  1.069055181381
O    7.803325816826  0.920316272874  14.438673302190  0.598871889850 -0.708042472740  0.737005692741