# total energy = -73604.16146082863 eV

CRYSTAL
PRIMVEC
5.753120944853822 0.0 0.0
-1.4382802362134555 2.4911761596939876 0.0
0.0 0.0 14.409140149820095
PRIMCOORD
24 1
Zn  -0.084880395796  1.711797988734  4.768500759498  1.756519315749  0.178736149794  1.550940334730
Zn   1.456579763315  0.823374012761  2.402612615869  0.181657180096 -1.131176119081 -0.024017960181
O   -0.045199970015  1.568986541584  1.971142352495  1.079185584947  1.386401302372 -2.293388024423
O    1.452630245786  0.867064363841  4.192986155156 -1.203458827806  0.433709107865  0.412075588755
Zn  -0.014749276166  1.718076369621  9.612400196164 -0.031071010373 -4.095513310936  1.755727415975
Zn   1.494311031720  0.750040706014  7.205713795354 -2.674411886079  3.442001365144  3.538206646123
O   -0.023374355087  1.731722772502  6.611420428935  0.949466231371 -4.827674531101 -2.484630277104
O    1.375822629300  0.760457306796  9.096754869622  0.413495094811  4.533675826586 -3.420545766373
Zn  -0.025717601248  1.661489822632  14.518727323514  0.834157139683  0.987320583215  1.276648364616
Zn   1.400046720350  0.879065374132  11.996506172577  0.842435577642 -0.617920421841  0.700505798043
O    0.000288231359  1.679435532795  11.390197413065  0.231474874949  1.191427350563 -0.722532181716
O    1.392258720527  0.834856666855  13.797673142069  0.063863631423 -0.625924523092  0.436559432829
Zn   2.913305655902  1.642335957070  4.722272131458  1.093731343971 -3.823189006071  3.540535808477
Zn   4.192870517425  0.959525647106  2.473448492815  1.684821532993 -2.575951747627  0.020421243969
O    2.871223302126  1.709324146728  1.910586727366 -3.391406168695  2.799460316541 -3.420729600249
O    4.426409257188  0.695042020405  4.162489436339 -1.213719072082  2.680739370958  0.782146808054
Zn   2.805843109773  1.712933654809  9.550201479693  0.539450353358 -3.760631237944  3.465724934013
Zn   4.372909834897  0.820722399318  7.208011016547 -1.430507291552  0.592683758761  1.225580599406
O    2.781422261986  1.661709016540  6.647856094503  3.361992748530  0.726028110684 -2.459763338659
O    4.322055122305  0.794145281801  9.083157943581 -0.991569074078  3.535215681815 -2.311216567964
Zn   2.790753248847  1.719852933369  14.451428465325  0.814443977525 -2.104326324333  0.984328847576
Zn   4.387266172903  0.894835253954  12.076986006163  0.147052702648 -1.965336858309  0.831876571179
O    2.930553512494  1.631249693009  11.581968494768 -1.272805850942  1.384763766769 -3.117894785501
O    4.344677544485  0.831175244763  13.876095659604 -1.784797850978  1.655481389268 -0.266559634467