# total energy = -49078.48099543183 eV

CRYSTAL
PRIMVEC
6.392356429000733 0.0 0.0
-1.5980891072501833 2.7679734343908944 0.0
0.0 0.0 9.647146159598607
PRIMCOORD
16 1
Zn   0.109818765743  1.915953505332  4.724216683823 -1.522465624329 -0.063781099012  0.657710814365
Zn   1.627862785790  1.112033501458  2.416667423651 -0.563860920992 -1.148418451102 -1.038538757960
O   -0.022920433212  1.774757858057  1.846690405717  0.512936623338  1.160817596097  0.824350438006
O    1.617252113353  0.999310048954  4.237983370523  0.656391067112 -0.768422002269  0.714458917789
Zn   0.023999462977  1.843135616306  9.680342945006 -0.150284065101 -0.106409989426 -1.798265032227
Zn   1.619302142060  0.879424600306  7.274974011343 -0.247610089948  1.411385226011 -2.952631987603
O   -0.025877537296  1.946168256465  6.637025149792  0.313046208064 -1.525366600026 -0.238058184593
O    1.656463466924  0.916140377927  8.999000211072 -0.646539628239  0.043137968840  3.992643730563
Zn   3.223460791739  1.820121854691  4.872612042144  0.802368791528 -0.140375033517 -0.874314685739
Zn   4.792609144493  1.023919981970  2.439081582234  0.234436785790 -1.068456885675 -0.599380968276
O    3.231478085173  1.786079360528  1.882368703889 -0.252218278144  1.138051763155  0.780524699070
O    4.866603227101  0.843886294739  4.243570290042 -0.043534947168  0.720623137618  1.463967113873
Zn   3.245509307534  1.864966152747  9.720394893447 -1.154603496866  0.648904014706 -1.522841262501
Zn   4.804730330754  0.936064074445  7.211115009853  0.239260689542  0.548202902740 -0.179229544491
O    3.219080109879  1.906776638442  6.702649080892 -0.279144413110 -0.606752321039  0.579686575170
O    4.656333054726  0.912109997199  9.099351257708  2.101821041413 -0.243139712881  0.189917620332