# total energy = -73617.79490864507 eV

CRYSTAL
PRIMVEC
6.136662235341968 0.0 0.0
-1.534165558835492 2.6572545245121315 0.0
0.0 0.0 15.665321564633562
PRIMCOORD
24 1
Zn   0.056337627652  1.746623555751  5.318137657404 -0.722687990567  0.817540357062  0.726129412148
Zn   1.528483623272  0.855182543467  2.562419159993 -0.342871261845  0.565273227959  1.296840266183
O   -0.099537888790  1.754810476840  2.004610677124  1.883226364861  0.328588526674 -1.467670273756
O    1.500539104451  0.896303089774  4.645519588106  0.931856488709 -0.810922080415 -1.558732577081
Zn  -0.061147543512  1.788800221629  10.549572868750  0.399471783948  0.204954202950 -2.598015926516
Zn   1.592162539955  0.853141489608  7.781168049500 -0.591458885215 -0.341913525918  0.124593859424
O    0.008836179953  1.719001211698  7.283236821059 -0.276646586389 -0.091844432907 -0.908121349876
O    1.595640186444  0.952504483523  9.637782684493 -2.247204583888 -1.468720569397  1.698765653878
Zn  -0.052836661846  1.804602126885  15.659504622501  1.652663203093 -0.119645514279  1.517205918592
Zn   1.547237263063  0.910491052862  12.983593417461 -1.260070148542 -0.137385868982  1.726850842150
O    0.028555730380  1.844046750735  12.383045536787 -0.911017954697 -1.228208266837  0.485674188078
O    1.503808104423  0.836547341257  14.977728812149  0.258938370476  1.406807376832 -0.540865488538
Zn   3.034295961581  1.772959655401  5.207059161615  0.856233145647  0.141072316695  0.096916962334
Zn   4.581845580752  0.884912830999  2.567138866919 -0.883277037138 -0.269277033398  2.003884893786
O    3.051903886533  1.792282163781  2.006082862394 -0.514542534373 -0.518868415442 -1.552814926045
O    4.682177553635  0.921102569199  4.648515506609 -1.182597153866 -0.258337503667 -1.125643105078
Zn   2.925590513078  1.842993085829  10.414151461205  1.575469687330 -0.747660858462  0.669750519138
Zn   4.572792162956  0.800503655618  7.781304897068  0.330763679949  1.133629208608  1.118974949030
O    3.072404020397  1.758817103613  7.172708170206  0.505800269404 -0.598497023009 -0.923970143982
O    4.562424272110  0.868812070292  9.811360630484  0.266929101991  1.945439605165 -0.356556472642
Zn   3.012958173323  1.875490394363  15.535210210921 -0.152683675681 -1.575490256155  1.453346658044
Zn   4.560511474491  0.906068360389  13.002070293785  0.568715677981  0.155414187239  0.544759938497
O    2.997596880415  1.758479587190  12.400652848073  1.701677685319  1.237070088103 -0.564686759328
O    4.646560366021  0.942866241817  15.052134000754 -1.846687389394  0.230981737362 -1.866617552659