# total energy = -73616.54530761126 eV

CRYSTAL
PRIMVEC
9.396764262845632 0.0 0.0
-1.5661305093956932 2.712610923576963 0.0
0.0 0.0 9.454197286020143
PRIMCOORD
24 1
Zn  -0.009448446466  1.797621676364  4.728039259113  0.217194967991  0.361252335456 -0.687268216307
Zn   1.560972625492  0.932455012949  2.384417655580  0.223010546231 -0.507781818610 -3.436489177077
O    0.070845964483  1.830068703363  1.796409493774 -1.568644436878 -0.233366435544  1.624611696272
O    1.552775828025  0.913713166626  4.081967551250  0.191781413014 -0.265493140876  4.668748988275
Zn   0.002054132668  1.825177687565  9.474044191820  0.306024525331 -0.184693395819 -1.176581543799
Zn   1.562902720871  0.877358025370  7.118019799136  0.283317313541 -0.093895916119 -2.077973545371
O    0.013894995315  1.771990122484  6.572263248162 -0.344575903241  0.153904949683  0.209559048712
O    1.565646576036  0.880230616205  8.883701873771  0.002486770978  0.425205441269  1.760744923794
Zn   3.145720004245  1.789012360946  4.787828990764 -0.365430892314 -0.536797489116 -2.342734950287
Zn   4.671510204660  0.916901488741  2.312220436396 -0.190731888703 -1.083055609425  0.898930684515
O    3.139601771034  1.759470813457  1.788993567418 -0.123760564889  0.910436114052  0.609799592506
O    4.701045174415  0.865053902244  4.265647981649  0.091389861868  0.350754778359 -0.911142138980
Zn   3.073625209791  1.857865271729  9.412229457469  0.120207814541 -0.564890647808 -0.320664643841
Zn   4.713902766956  0.856561106703  7.161206388012 -0.024179168349  1.175600410833 -2.303328166355
O    3.128675213549  1.856360849771  6.545027666622  0.168451480039 -1.203450600276  2.277416588695
O    4.699688281655  0.928729195918  8.926957998702 -0.603700935807  0.366576575882  1.518197335971
Zn   6.262718798521  1.813636581697  4.723588951558 -0.076892696693 -0.203800291852 -0.599020242502
Zn   7.736972445336  0.900380097814  2.420826358393  1.283778547903  0.007857548371 -3.545776230940
O    6.222923501868  1.759248110144  1.818110381162  0.346729716360  0.886816674861  0.910518389353
O    7.829285317778  0.890526650808  4.133418594295  0.170405775551  0.129286894024  3.244862030252
Zn   6.208522960635  1.844010682500  9.462877077170  1.062521494028 -0.264248469835 -0.881370049924
Zn   7.802248947641  0.878212191241  7.145915033527  0.465632438936  0.230833384710 -1.022077012859
O    6.310972122687  1.819251148344  6.553426494520 -0.673314582340 -0.299111857371  0.803650486454
O    7.874487512588  0.901569728169  8.961283438878 -0.961701854205  0.442060822263  0.777386153441