# total energy = -36802.109624754245 eV

CRYSTAL
PRIMVEC
2.9404842854302067 0.0 0.0
-1.4702421427151033 2.546532903289695 0.0
0.0 0.0 13.596317096406464
PRIMCOORD
12 1
Zn   0.033975237579  1.697266054601  4.558022931262 -0.234899841470 -1.635651499026 -2.906228203527
Zn   1.477651280969  0.814327132264  2.240570808616 -4.113113540516 -1.587630233952 -1.236427312312
O   -0.134045798781  1.638464602249  1.754719588957  4.066257756505  1.725218705863 -0.467803478445
O    1.489251491475  0.769179230594  3.960635025979  0.098641144114  1.720486847605  2.429437948202
Zn   0.028497409404  1.715295339949  8.948289469749 -1.720389402795 -1.601717308173  1.874094063542
Zn   1.504079177533  0.827754853753  6.758728712275  0.329754521958 -0.939066890415  0.538199511670
O    0.040337857476  1.630888444487  6.261344031104 -0.267057914260  0.777140613089  2.257625522111
O    1.421523610977  0.807535201661  8.576876311559  1.696805959049  1.599533413148 -1.227950385190
Zn  -0.012391494827  1.682884440010  13.571888729157 -1.064015819185  0.884182836782 -0.165658490674
Zn   1.392252266109  0.878496144631  11.281097095382  1.591185298293 -1.128412954514  0.306565999657
O   -0.025907724894  1.684569337505  10.798266635230 -1.668641323689  1.090697699351 -1.145182460663
O    1.411953216773  0.863680808607  13.081039568359  1.285472904886 -0.904781229759 -0.256672714371