# total energy = -12266.41236840716 eV

CRYSTAL
PRIMVEC
2.876560207838307 0.0 0.0
-1.4382801039191535 2.49117305399317 0.0
0.0 0.0 4.5259481888505055
PRIMCOORD
4 1
Zn   0.023103380965  1.614661570871  4.465379049458 -2.310839901351  0.596276104098  2.045660177950
Zn   1.421206280806  0.859185098022  2.305180424075  2.098640586802 -0.399796771388 -2.786717929274
O    0.051925651280  1.677553244975  1.751807044244 -2.067057669790  0.606856707827 -1.522382063477
O    1.391666308719  0.794360087802  3.983604979137  2.279256984338 -0.803336040537  2.263439814800