# total energy = -12260.287566316003 eV

CRYSTAL
PRIMVEC
3.004407833844898 0.0 0.0
-1.502203916922449 2.601892294305528 0.0
0.0 0.0 4.82357377283015
PRIMCOORD
4 1
Zn  -0.014740225714  2.006629270627  4.853877732446  0.050026725540 -10.485060250299  3.292586847132
Zn   1.739495052047  0.862578408051  2.443363212749 -37.981153766431 -13.836790954781  19.913420498348
O   -0.186504024220  1.270528620921  1.865860145098  38.417003060567  14.230647192315 -19.122403898608
O    1.521608485799  0.889720829303  4.464202431107 -0.485876019676  10.091204012765 -4.083603446872