# total energy = -110423.39209429026 eV

CRYSTAL
PRIMVEC
10.355617489065997 0.0 0.0
-5.1778087445329986 8.96822363596838 0.0
0.0 0.0 5.209455511579583
PRIMCOORD
36 1
Zn   0.050635862836  2.035196754058  5.229743201802  0.056679712080 -0.192890586918 -0.039266915920
Zn   1.648019891815  0.965758673660  2.592290659185  1.021130589786 -0.350230016203 -0.067563705983
O    0.125076183595  1.960967687897  2.011330162431 -1.036558751415  0.726592467828 -0.291875487524
O    1.783193838024  1.000639500048  4.583621017560 -0.565709287055  0.252328064249  0.108989063007
Zn  -1.740224238815  5.035588836185  5.175013763373 -0.391512419892 -0.275920249746  0.421142069833
Zn   0.069281152125  3.978200552297  2.673541869566 -0.317441508918 -0.073494469645 -1.601436029487
O   -1.766595854312  5.029013019080  2.068609153887  0.707698973357  0.017559349040 -0.575793153653
O   -0.016681864213  4.061373765284  4.511748889939  0.264236128540 -0.161396887185  1.650751587893
Zn  -3.372070727236  8.077517300061  5.170842520648 -0.478637078726 -0.411352337436  0.378809884724
Zn  -1.684865178842  7.060545955670  2.628441084278 -0.690059405899 -0.450013501452 -0.637913062913
O   -3.463103853897  7.913952392944  2.036026239019  0.423065769218  0.524732587532 -0.470823239108
O   -1.760869197841  6.947123983998  4.561045771434  0.547953248623  0.578258584475  0.563365469413
Zn   3.540046091840  2.134162283716  5.148879291516 -0.230587330137 -1.186604989474  0.333979872893
Zn   5.256690589632  0.895513413546  2.496935097784 -0.406155109506  2.074990294373  0.387552663913
O    3.479856136309  2.011690537920  1.916530697689 -0.100071963023 -0.107544874361  0.287591001216
O    5.069161748085  1.063992061161  4.475542544512  0.840697254795 -0.603019593469  0.289596718792
Zn   1.723340440060  5.048460868724  5.194374625830  0.157026268921 -0.119901339044 -0.539590221370
Zn   3.394092983388  3.957715069780  2.523341922381  0.976358941997 -0.378279980362  0.047433768002
O    1.843380686870  4.968511359461  1.889811133444 -0.926592412097  0.480058641663  0.813824341663
O    3.512465975782  3.922323711449  4.573061394407 -0.700902776371  1.434287070310 -0.499951781043
Zn  -0.070267006910  7.986342301440  5.187669363506  0.199324515468  0.409534567501 -0.493367700068
Zn   1.689120302068  6.965280488141  2.647240672268  0.532676524970  0.151707942032 -0.719937681515
O    0.159482722702  8.118172418761  1.906661794222 -0.487159771485 -1.998821877441  0.056168576772
O    1.730336695236  7.064072043425  4.565173520565 -0.246677036610 -0.494887993367  0.437031230259
Zn   6.922227008431  1.998149532491  5.062829287990 -1.079566879546  0.629374429314  0.645343036828
Zn   8.518192317814  0.989668758880  2.645372518873  0.187160369302 -0.015815626876 -0.406171821676
O    6.939812918051  1.996059768882  1.879455515955  0.001932184026  0.004993596560  0.620841966363
O    8.496215626379  1.058043794475  4.642556907814  1.429003710424 -0.595122707220 -0.536821657486
Zn   5.125009593203  4.959022507156  5.110225913676  0.310513414340  0.409408326336  0.567715261741
Zn   6.868933894147  4.035643162509  2.638542989139 -0.052411423722  0.073143514063 -0.584072620053
O    5.196509954157  4.992267145981  2.008380882570 -0.414964994488 -0.053166299610 -0.298935993915
O    6.846941669285  4.069956501059  4.612733765007  0.477096987932 -0.428173779869 -0.033400944058
Zn   3.470119784746  7.982654666052  5.242178227283  0.146174156698  0.012449795728 -0.179118987055
Zn   5.056640770979  6.977390347233  2.637910260910  0.919252941012 -0.518337225529 -0.945865144283
O    3.516472564188  7.955463921211  2.023111748449 -0.965695805856  0.537455948636 -0.294748181086
O    5.142216487223  6.998081906538  4.503075024730 -0.107277222522  0.098098898457  1.606518329106