# total energy = -110427.79357182165 eV

CRYSTAL
PRIMVEC
9.780305553333779 0.0 0.0
-4.8901527766668895 8.469989116825886 0.0
0.0 0.0 5.548132613072973
PRIMCOORD
36 1
Zn  -0.000000000000  1.882220781770  5.547269012093  0.000000000000  0.000000514221  0.138366744838
Zn   1.630051251566  0.941109901870  2.773201727526  0.000001799772  0.000001028441  0.138370344383
O   -0.000000000000  1.882220781770  2.109156145615 -0.000000000000  0.000001542662 -0.138371887044
O    1.630051251566  0.941109901870  4.883223430182 -0.000001028441 -0.000000514221 -0.138365459286
Zn  -1.630051251566  4.705551465409  5.547269012093  0.000000771331  0.000000514221  0.138368287500
Zn  -0.000000000000  3.764441563539  2.773201727526  0.000000000000  0.000001799772  0.138370087272
O   -1.630051251566  4.705551465409  2.109156145615 -0.000000514221 -0.000000257110 -0.138371115713
O   -0.000000000000  3.764441563539  4.883223430182  0.000000000000 -0.000000257110 -0.138364687956
Zn  -3.260101525101  7.528883127079  5.547269012093  0.000000514221 -0.000000257110  0.138366744838
Zn  -1.630051251566  6.587772247178  2.773201727526  0.000001542662 -0.000001028441  0.138370087272
O   -3.260101525101  7.528883127079  2.109156145615  0.000001285552 -0.000000771331 -0.138371887044
O   -1.630051251566  6.587772247178  4.883223430182 -0.000000257110  0.000000000000 -0.138364687956
Zn   3.260101525101  1.882220781770  5.547269012093 -0.000000257110 -0.000000257110  0.138368030390
Zn   4.890152776667  0.941109901870  2.773201727526  0.000000000000 -0.000000000000  0.138368801721
O    3.260101525101  1.882220781770  2.109156145615  0.000001028441  0.000000514221 -0.138370858603
O    4.890152776667  0.941109901870  4.883223430182  0.000000000000 -0.000002056883 -0.138368030390
Zn   1.630051251566  4.705551465409  5.547269012093 -0.000000771331  0.000000514221  0.138368287500
Zn   3.260101525101  3.764441563539  2.773201727526 -0.000000000000  0.000000000000  0.138368801721
O    1.630051251566  4.705551465409  2.109156145615  0.000000514221 -0.000000257110 -0.138371115713
O    3.260101525101  3.764441563539  4.883223430182 -0.000001799772  0.000001028441 -0.138368030390
Zn  -0.000000000000  7.528883127079  5.547269012093  0.000000000000 -0.000000771331  0.138368287500
Zn   1.630051251566  6.587772247178  2.773201727526 -0.000001542662 -0.000001028441  0.138370087272
O   -0.000000000000  7.528883127079  2.109156145615  0.000000000000  0.000000771331 -0.138371115713
O    1.630051251566  6.587772247178  4.883223430182  0.000000257110  0.000000000000 -0.138364687956
Zn   6.520204028233  1.882220781770  5.547269012093  0.000000257110 -0.000000257110  0.138368030390
Zn   8.150254301768  0.941109901870  2.773201727526 -0.000001799772  0.000001028441  0.138370344383
O    6.520204028233  1.882220781770  2.109156145615 -0.000001028441  0.000000514221 -0.138370858603
O    8.150254301768  0.941109901870  4.883223430182  0.000001028441 -0.000000514221 -0.138365459286
Zn   4.890152776667  4.705551465409  5.547269012093  0.000000000000  0.000000257110  0.138368030390
Zn   6.520204028233  3.764441563539  2.773201727526  0.000000000000  0.000000000000  0.138368801721
O    4.890152776667  4.705551465409  2.109156145615  0.000000000000 -0.000001285552 -0.138370858603
O    6.520204028233  3.764441563539  4.883223430182  0.000001799772  0.000001028441 -0.138368030390
Zn   3.260101525101  7.528883127079  5.547269012093 -0.000000514221 -0.000000257110  0.138366744838
Zn   4.890152776667  6.587772247178  2.773201727526  0.000000000000 -0.000002056883  0.138370344383
O    3.260101525101  7.528883127079  2.109156145615 -0.000001285552 -0.000000771331 -0.138371887044
O    4.890152776667  6.587772247178  4.883223430182  0.000000000000  0.000001028441 -0.138365459286