# total energy = -12269.26632569442 eV

CRYSTAL
PRIMVEC
3.387949124333044 0.0 0.0
-1.693974562166522 2.934048640400525 0.0
0.0 0.0 5.548135977549912
PRIMCOORD
4 1
Zn  -0.069038949666  2.037419773568  5.582435913280  0.388245576215  0.020745717188 -0.275291872134
Zn   1.699852653897  0.912167356696  2.760411843445  0.084839976565  0.398200887656  0.184537072747
O    0.016264866156  1.985395443199  2.057629228889 -0.010498585538 -0.270263822791  0.186628665168
O    1.804360381741  1.007191876146  4.850351943133 -0.462586967241 -0.148683039162 -0.095873865781