# total energy = -110420.68237597727 eV

CRYSTAL
PRIMVEC
9.97207619857785 0.0 0.0
-1.6620160237883748 2.8786890966244614 0.0
0.0 0.0 15.049548264531536
PRIMCOORD
36 1
Zn   0.120438747496  2.059847017693  5.091897671383 -2.413423832162 -0.005453052695 -1.441143688220
Zn   1.510756580385  1.029964892962  2.539706315991  4.391948649917 -2.015152496280 -0.032080425474
O    0.091156742946  1.753010221893  2.000941963588 -4.182135833322  2.503514258492 -1.667494868789
O    1.508673413668  1.152976436118  4.369947276419  1.846035100522 -1.299346577545  1.571335610557
Zn   0.071575574123  1.660647854934  9.981658366597 -1.877006352093  2.010967511664  0.261829061760
Zn   1.608738212282  0.768756329017  7.357418760671 -0.227544172436  5.606134120112  3.776944630392
O   -0.218017507514  2.088250482329  6.919160969858  0.059732639974 -6.156616305804 -1.295936780532
O    1.502751994821  0.776340092966  9.517108199679  2.864977424407 -1.046123512285 -1.593528858825
Zn   0.031316308094  1.724473131435  15.110475655690  3.410958122685  1.933858842306  0.897881160205
Zn   1.563279505723  1.020148381153  12.808548510616 -0.454630688509 -0.136740522089 -9.626281198302
O   -0.023333661097  1.768417079620  11.872585393939  0.596723990269  0.526112241488  1.561177953298
O    1.664622724507  0.990713803837  14.395774960122  0.938242851851 -0.439412586007  8.372705656345
Zn   3.218195411258  1.806514399529  5.158000570088  1.025317374173  1.024831435676 -2.696077801088
Zn   5.003729559673  0.968885926246  2.573906548522 -1.601187403811 -0.192894186462 -0.685490555581
O    3.251597877693  2.018083962573  1.953192671126  0.036845708073 -1.144458952233 -0.533186888947
O    5.232756239310  0.749661797512  4.366242650111 -1.185865283094 -0.065812527619  2.378867691454
Zn   3.470819014805  1.807055883266  10.072242712370 -1.783552665717  0.824542499412  0.554468938254
Zn   4.926983464041  1.196466654835  7.482367878231  0.274554479747 -0.590050434903  0.462978803363
O    3.071209999714  1.763039138926  6.950458331007  1.939066611759  1.265432184185  1.292011477336
O    4.953404479929  0.935014772230  9.485847735211  1.299024418318 -0.568635716673 -1.116462209910
Zn   3.251928950623  1.959176914053  15.047214798701  0.174779479139 -0.053506970779  0.954215830241
Zn   4.816916672999  0.760780662473  12.797674958729  0.452361432859 -0.122330517311 -8.785058924241
O    3.427798480876  1.962715006688  12.030520145149 -0.934343516797 -1.209977345651 -0.511096999027
O    4.872257707071  0.993512965626  14.377536032755  0.826240713050  1.455249274384  8.887247933607
Zn   6.590910137629  2.071138399572  5.024533305038  0.466966327256 -0.129154482211 -2.517143419240
Zn   8.317849363508  0.779760515102  2.317720919357 -0.052913303059  1.116793625108  1.594845006533
O    6.545506277489  1.799114121782  1.982464703599  1.361116045443  0.271220530278 -1.226745052028
O    8.281859143300  1.025524327431  4.373486366262  0.505210458339  0.208451417470 -0.126682109411
Zn   6.705425471863  1.984667535231  10.115351000569 -1.179405129291  0.058001001995  0.210526811942
Zn   8.480072107484  0.865819532696  7.543697144060 -1.491525483107 -0.649446774584 -0.409664922431
O    6.724214857836  1.777908501745  6.793141848521 -0.615664021706  0.278622479169  3.090812070351
O    8.166760442608  1.056270232767  9.425402992541  0.960721235460 -1.310764589573 -0.013918666964
Zn   6.581491511659  1.900319725913  15.092062216989  0.354728161184  0.138345147572 -0.482388061128
Zn   8.481692569866  0.775507424603  12.503925515732 -1.160961577874 -0.146623585530  0.210982154312
O    6.696052717444  1.713733205369  12.056858392805  0.363196860777  0.573297383815  0.378074806330
O    8.464142712964  1.139588923821  14.747173972831 -4.988588822222 -2.512873073999 -1.696524423252