# total energy = -49075.94389130789 eV

CRYSTAL
PRIMVEC
6.775898248666088 0.0 0.0
-3.387949124333044 5.86809728080105 0.0
0.0 0.0 5.7657066823654555
PRIMCOORD
16 1
Zn  -0.014862255219  1.934602293543  5.739492087221  0.089866483245  0.062782225434 -0.125680921840
Zn   1.648982597795  0.938746495167  2.873543934579  0.177651401370  0.099767544409 -0.074148044068
O   -0.013177766914  2.014108650823  2.221348143579  0.064762746199 -0.676210415831 -0.110512184520
O    1.692596344463  0.957172195274  5.030822572267  0.029473069758  0.092797540849  0.254352807988
Zn  -1.652428819645  4.908491182876  5.771445868182 -0.043873561454 -0.157512978749 -0.078702239098
Zn   0.029156012574  3.874961390237  2.870060445289 -0.206078032142  0.329358314961 -0.051005801624
O   -1.682014424168  4.885201743005  2.173041409784 -0.111481233301  0.086810984248  0.080898732529
O    0.029061827589  3.857990475484  5.075292114884  0.015090575785  0.289282272875  0.020943177911
Zn   3.382197064310  1.959997682589  5.830209845744  0.024572290023  0.032207437970 -0.234895727705
Zn   5.080881553349  0.950380712460  2.920371489786 -0.098322327322  0.229634222196 -0.240295044343
O    3.390713013229  1.965345221487  2.133863166111 -0.119887712197 -0.028785813883  0.280364401561
O    5.076083539799  0.962806354668  5.043055778966  0.030705399504 -0.033529756326  0.100040852675
Zn   1.700581062959  4.891989160281  5.757499714407  0.016759735957 -0.106034351254 -0.049299874676
Zn   3.345059721188  3.913677517651  2.934818382442  0.288550279805 -0.065886575390 -0.284703138145
O    1.671214319949  4.915915534587  2.116092695364  0.203607973335 -0.110151715856  0.433330641479
O    3.450084111273  3.917598052377  5.039007857352 -0.361397088564 -0.044528421430  0.079312361878