# total energy = -73616.05317762498 eV

CRYSTAL
PRIMVEC
6.136662235341968 0.0 0.0
-1.534165558835492 2.6572545245121315 0.0
0.0 0.0 14.483032218372578
PRIMCOORD
24 1
Zn  -0.041065930013  1.741763319261  4.888094482274  0.338835915434  0.179085305603 -1.971368923436
Zn   1.582949568942  0.939380617667  2.448036071590 -1.888608712219 -1.097285636982 -1.257494674506
O   -0.020682392732  1.780126663225  1.866572596802 -0.297540142009 -0.073827684614 -0.305194573230
O    1.582839722688  0.918647290639  4.215024140970 -1.692735902744 -0.850865967798  2.196409355613
Zn  -0.068444648576  1.734622085418  9.709362553805  0.553513002099  0.585045268379 -2.157739192736
Zn   1.550198816258  0.857092272755  7.300888929979 -0.189716817175  0.509841529353 -1.307504430765
O   -0.040843782840  1.768912526656  6.684834317503  1.340438462489  0.123366157664  0.534763489406
O    1.498552666885  0.878051428953  9.083245656261  0.108108203064 -0.145536008893  1.546679502571
Zn   0.064491410764  1.767187510902  14.446279748245 -2.316287811839  1.292019704866  1.413920333728
Zn   1.532344811150  0.918736885907  12.107987448408  0.149562356444 -0.673593804144 -0.588969028914
O   -0.020732099696  1.728838281261  11.460875802025  0.374760911465  1.013036499924  2.604601550154
O    1.540249445776  0.988227835394  13.983045821749  0.908649711575 -2.138659293287 -1.362744325075
Zn   3.085356059710  1.713076877976  4.847521939905 -1.260787229214  1.834982699363  0.502954829535
Zn   4.519694692965  0.866438409339  2.384896567517  1.389104560236  0.397145964029  0.066986493323
O    3.033195044376  1.761971961668  1.836327443309  0.824246051217  0.855699127520 -0.860879900390
O    4.501621609016  0.912165134319  4.240006492930  2.650497541355 -1.274251839359 -0.138806403479
Zn   3.053662040264  1.769833639658  9.686326137439  0.177891799516 -1.117888400834 -1.615873287958
Zn   4.613486211238  0.897272682407  7.214385311778 -0.714748681115 -0.491869775366  0.274941430773
O    3.067724201776  1.771515698777  6.693558196537 -0.433518589120 -0.058536562783  0.247803436905
O    4.625776718362  0.816979980053  9.067501435630 -0.987089698151  0.718876330130  0.106870216892
Zn   3.079602938865  1.765221937988  14.464533250064  1.034717841552  0.774928693039  0.338813546836
Zn   4.639779967917  0.802299242988  12.115731302483 -0.569802226177  1.135104250491 -1.571192914332
O    3.073338020389  1.790938848418  11.468703728373  0.214509193629 -1.646111518017  1.412655350973
O    4.613295974708  0.911026783475  13.874519563784  0.286000259690  0.149295218825  1.890368375222