# total energy = -36806.87031799531 eV

CRYSTAL
PRIMVEC
3.5157962211624265 0.0 0.0
-1.7578981105812133 3.044767422432191 0.0
0.0 0.0 15.917788486090211
PRIMCOORD
12 1
Zn  -0.132953349899  2.066775574954  5.199376024902  0.537600701744  0.060962141506  1.230431499740
Zn   1.703850126853  0.900870044730  2.668735437598  0.023137614459  0.232013263951  0.147678766268
O   -0.076763543113  1.979341941890  1.998900316268  0.096842400342  0.024095607497  0.400533649554
O    1.753161278332  1.063739656255  4.752515160976 -0.426439313676 -0.354940534305 -1.315498504714
Zn  -0.009513041415  2.039386819232  10.670994565974  0.021635575992 -0.054104752264 -0.447143121882
Zn   1.779751245153  1.001995594598  8.003788851312  0.005493933235 -0.022302520152 -0.894626914934
O    0.055368868369  1.958703866492  7.261743142975 -0.220766487392  0.184127238903  0.304765456113
O    1.735869537778  1.025074335733  9.961925268293  0.086715339210 -0.069829876309  0.716253804906
Zn  -0.004014336125  2.073248507377  15.935756314258 -0.056200201341 -0.124331864012 -0.176482063653
Zn   1.661931640088  0.933464991496  13.357579700986  0.200424176290 -0.029005643204 -0.707233860796
O    0.050789543791  1.956687205779  12.663119942923 -0.244934599998  0.207918942006  0.287999549508
O    1.744661840968  1.024735764557  15.302203858351 -0.023509138866 -0.054602003616  0.453321482779