# total energy = -73608.88007737894 eV

CRYSTAL
PRIMVEC
9.204993617601557 0.0 0.0
-1.5341686712647988 2.65725153256113 0.0
0.0 0.0 8.867161146841962
PRIMCOORD
24 1
Zn  -0.000000000000  1.771501942207  4.432889278400  0.000015940840  0.000009255971 -3.646582243915
Zn   1.534165909767  0.885750510854  2.216099451939  0.000019797494  0.000011312854 -3.646583786577
O   -0.000000000000  1.771501942207  1.685452741370  0.000001542662  0.000001028441  3.646584043688
O    1.534165909767  0.885750510854  3.902242567831  0.000002828213  0.000001799772  3.646583015246
Zn  -0.000000000000  1.771501942207  8.866470772321  0.000015426619  0.000008998861 -3.646582758136
Zn   1.534165909767  0.885750510854  6.649680025360  0.000019026163  0.000011055744 -3.646582501026
O   -0.000000000000  1.771501942207  6.119033314791  0.000000257110  0.000000257110  3.646581472584
O    1.534165909767  0.885750510854  8.335824061751  0.000002313993  0.000001285552  3.646583786577
Zn   3.068330899034  1.771501942207  4.432889278400  0.000005913537  0.000003342434 -3.646583015246
Zn   4.602496808801  0.885750510854  2.216099451939 -0.000005399317 -0.000003085324 -3.646583015246
O    3.068330899034  1.771501942207  1.685452741370  0.000001799772  0.000001028441  3.646583015246
O    4.602496808801  0.885750510854  3.902242567831 -0.000000771331 -0.000000257110  3.646584043688
Zn   3.068330899034  1.771501942207  8.866470772321  0.000005399317  0.000003085324 -3.646583272357
Zn   4.602496808801  0.885750510854  6.649680025360 -0.000005399317 -0.000003085324 -3.646581986805
O    3.068330899034  1.771501942207  6.119033314791  0.000003085324  0.000001799772  3.646582243915
O    4.602496808801  0.885750510854  8.335824061751  0.000002056883  0.000001285552  3.646582501026
Zn   6.136662718567  1.771501942207  4.432889278400 -0.000020054605 -0.000011569964 -3.646582243915
Zn   7.670827707835  0.885750510854  2.216099451939 -0.000015169509 -0.000008741751 -3.646584300798
O    6.136662718567  1.771501942207  1.685452741370 -0.000004627986 -0.000002571103  3.646581986805
O    7.670827707835  0.885750510854  3.902242567831 -0.000001799772 -0.000001028441  3.646584815019
Zn   6.136662718567  1.771501942207  8.866470772321 -0.000020054605 -0.000011569964 -3.646583272357
Zn   7.670827707835  0.885750510854  6.649680025360 -0.000015426619 -0.000008998861 -3.646583786577
O    6.136662718567  1.771501942207  6.119033314791 -0.000004113765 -0.000002313993  3.646583272357
O    7.670827707835  0.885750510854  8.335824061751 -0.000003599544 -0.000002056883  3.646581472584