# total energy = -24536.25598891651 eV

CRYSTAL
PRIMVEC
3.068331382259589 0.0 0.0
-1.5341656911297945 2.6572516853213606 0.0
0.0 0.0 10.640595828916236
PRIMCOORD
8 1
Zn   0.000544628820  1.702470724609  5.095689613781  1.845832754704  0.889940308091  2.600095177643
Zn   1.478871598123  0.916321574668  2.409635808607 -3.013961539750 -1.675561704958  3.526635396345
O   -0.215488912976  1.753407173386  1.875322718363  1.831320162910  1.900926096133  9.918051527706
O    1.625680515605  0.846363619152  4.625489000936 -1.877397159773 -0.715171884696 -2.687990396094
Zn  -0.024783833074  1.723922349802  10.977656940588  1.240464715607 -0.030983335755 -15.202980300982
Zn   1.797771256343  0.874054696211  7.865269535842 -0.593054254727  1.910814558892  1.634448736968
O    0.195177786558  1.882399824697  7.248646308437  0.200636292301 -2.029959736496 -1.851131541209
O    1.423173099040  0.967520979445  9.860836479079  0.366159028729 -0.250004301211  2.062871399622