# total energy = -98132.1234364058 eV

CRYSTAL
PRIMVEC
5.880968041683205 0.0 0.0
-2.9404840208416023 5.093065348298698 0.0
0.0 0.0 8.875374658499
PRIMCOORD
32 1
Zn   0.009596563650  1.684869703392  4.553849386202 -0.308050554622  0.776635134208 -10.652749912471
Zn   1.413829412578  0.830763776569  2.200609429163 -0.407714997794 -0.740410347548 -1.533460175668
O   -0.061766631148  1.666837479183  1.646610477700  1.829363553404  1.723949866453  3.684430425111
O    1.466911618219  0.934096501739  3.921678255143  0.438848743084 -2.027860687875  1.141188509012
Zn  -0.058111021413  1.676112941978  8.865479929769  3.113164469904 -0.014457570186 -3.028927159921
Zn   1.500383735925  0.855906091141  6.632339925883 -0.588485661519  1.230599649887 -1.348626140506
O   -0.003597388151  1.699138108055  6.091304392275  1.321166501633  1.342438266528  10.141472679113
O    1.514979122411  0.805172744136  8.324601418007 -1.026147069164  1.106860682265  2.639614833004
Zn  -1.517975475628  4.200715486300  4.461425268653  1.938919801768  1.068192062050 -3.965780330514
Zn  -0.059820618823  3.470364534268  2.214801969338  4.119951646484 -2.745545825911 -1.460885903844
O   -1.421572295101  4.165460259084  1.653068368707 -4.708051385419  2.183258934274  1.601154750801
O    0.030369318967  3.392439355329  3.893257888984 -0.546347851809  0.019354236157  3.232531790822
Zn  -1.457384449991  4.229108211909  8.840166479027 -0.730396672065 -0.266752467204 -2.318411800161
Zn  -0.019419544570  3.410437469924  6.673981884393 -0.992395683745  0.325840788726 -3.585981085294
O   -1.539241644163  4.307929650378  6.132784036066  0.822493844413 -1.670371419006  2.786665992990
O   -0.007434719798  3.342325274259  8.332100828454  1.390892248264  0.901416427052  3.382414763830
Zn   2.952451202710  1.685567774299  4.516258238480  1.035563734492  0.273625283064 -9.092944156930
Zn   4.395817189180  0.896841745389  2.238088250396 -0.786417410405 -1.257510872456 -4.315154683585
O    2.912215383659  1.664266908052  1.728046594561 -0.686430036676  1.073675196651  2.420937109820
O    4.452160979697  0.883934196731  3.859992193257 -0.534981261843 -0.591085046815  5.677337479729
Zn   2.929029071290  1.732562001823  8.911247387360 -0.006270149279 -2.450956796111 -1.425420363948
Zn   4.479458080959  0.883191430467  6.623398502073 -2.241597779224 -0.957026560217  0.116720370213
O    2.920965676008  1.704899692446  6.084560686221  1.425673617609 -0.291494192925  8.153166613602
O    4.420603117088  0.855411501729  8.387866519812 -2.403347421763 -1.005969051554 -0.655434873846
Zn   1.487003945533  4.247779697344  4.525825985387 -1.628923179164  1.628014294196 -8.181642095333
Zn   2.853325133980  3.447619302270  2.219722575299  4.212539385315 -2.750600100505 -0.466655223773
O    1.517173311587  4.234401671243  1.716902160122 -4.146510370809  2.159036314281 -0.371164709474
O    2.883550957327  3.452935697380  3.948697774713  1.256899978345 -2.208302507506  0.444575618266
Zn   1.516042401433  4.253417193309  8.850922769575 -0.907161299955 -0.761288476548 -1.242028460549
Zn   2.925939210681  3.373747874602  6.640633267016 -0.634179821122  0.712871518697 -2.142368366707
O    1.422235668297  4.248166665041  6.093563272100  0.155860787858  0.535823555239  8.741842279645
O    2.943841465497  3.310392205889  8.330227152036  0.222070550916  2.678039198419  1.623581455236