# total energy = -73614.92018703106 eV

CRYSTAL
PRIMVEC
6.903745345495471 0.0 0.0
-1.7259363363738678 2.98941148328903 0.0
0.0 0.0 16.29341202623299
PRIMCOORD
24 1
Zn   0.000740081501  2.061333402374  5.403843845104  0.179451944914 -0.230987908010  0.377833636853
Zn   1.691050330394  1.022409476567  2.698073429709  0.278986033156  0.178346627665  0.238260787522
O   -0.025982245608  2.087858972741  2.076684570524  0.083662668427 -0.510463222097  0.056893113643
O    1.737915024923  0.980434014491  4.796496513577 -0.063788812321  0.341770829692 -0.408482214977
Zn   0.030212860755  2.050813475217  10.839950272956 -0.260233435139 -0.264756519820  0.312100813432
Zn   1.660974854171  0.970658311082  8.138331770012  0.475221882396 -0.022521835252 -0.207551017143
O    0.052688694102  1.903427486959  7.469289118206 -0.504776199015  0.390254636225  0.075942674075
O    1.740067612722  1.009759053596  10.191985446064 -0.177133581194 -0.081414238712 -0.039922033006
Zn   0.067188630451  1.923287491195  16.356547467792 -0.230446947905  0.314471370547 -0.337161098835
Zn   1.737416574509  1.002766249935  13.596190518700 -0.030343388179 -0.039723543842 -0.224435194493
O   -0.017545178421  1.971838770711  12.939028522258  0.186236314826  0.100732736535  0.051693828830
O    1.734730327195  1.014325190767  15.680846153600 -0.025489145410 -0.081368215966 -0.045301037930
Zn   3.514463408799  2.038571063596  5.379726991489 -0.470141382550 -0.044839782023  0.650585773284
Zn   5.198246856842  1.015362133318  2.763422902401 -0.224681249066 -0.037062709180 -0.319235367594
O    3.482697205341  1.972271635545  2.050891487539 -0.118688806793  0.294670019550  0.248386563102
O    5.149322775077  1.065631755051  4.788945887293  0.343504781664 -0.255209499561 -0.267139675340
Zn   3.395658926272  1.985785717058  10.824776531062  0.404018779889  0.183980943133  0.200870776910
Zn   5.151986240031  0.973696649409  8.240159252360 -0.036674986824 -0.059344660507 -0.412278963015
O    3.430839031804  1.996202778410  7.501203752189  0.152807345743 -0.009193236463  0.030329761332
O    5.197131901969  1.023268992862  10.268245597900 -0.081416552705 -0.041300658521 -0.415972609817
Zn   3.436870834112  2.046078196284  16.294312965001  0.007099844270 -0.137452460554  0.049763958797
Zn   5.229614714194  0.927010761884  13.627589442905 -0.138153857496  0.092483866263 -0.627123428496
O    3.424990178747  1.969260221825  12.828754307480 -0.038807459786  0.049640802956  0.837095139266
O    5.134050309624  1.027743310221  15.635363588889  0.289786466205 -0.130712827837  0.174846070711