# total energy = -110414.48700143417 eV

CRYSTAL
PRIMVEC
8.82145232711341 0.0 0.0
-1.470244995003011 2.546532750529464 0.0
0.0 0.0 14.729346558175477
PRIMCOORD
36 1
Zn  -0.031091208727  1.735346398192  4.993038170977 -0.985606685847  0.548888873063 -0.465013831515
Zn   1.484899191609  0.858711044604  2.398357051500 -1.827873084901 -0.647757302696  2.634420433287
O   -0.054923244334  1.700530772293  1.878287447410  4.345234790800  2.385062507411 -3.009193943158
O    1.397077222966  0.911171339448  4.371361314692  0.887352235649 -0.558360045779 -2.404509303281
Zn   0.070319325080  1.619203156853  9.831361300314  0.264741093201  0.762683814234 -1.174120483853
Zn   1.544661884689  0.873463159331  7.294661822694 -1.296276166149 -1.759095561116  1.554089936103
O    0.031011815656  1.659925627231  6.761491479752 -1.380023166760  0.146359019015  1.539975865299
O    1.600514910098  0.858278793440  9.215552474118 -3.447926472379 -2.624381818104 -1.682542250041
Zn   0.001228828309  1.634725384368  14.663391205561  1.016070658764  0.434540859737  1.580840721834
Zn   1.407542111862  0.812133776317  12.185214124824  0.733016626187  4.734968007304  3.143848529252
O    0.105355487288  1.846364375729  11.642182280327 -1.845208747966 -5.493820363607 -1.957645403202
O    1.484533101337  0.800205408480  14.067612369019 -0.770107617502 -0.286372812538 -0.683592824338
Zn   2.958581906584  1.663298950601  4.781356836645 -0.210615772111  0.419488336280  2.339298928022
Zn   4.376198999148  0.651599222578  2.427984781286  1.084757165497  6.243122357217  2.078736134569
O    2.873031461915  1.692614400974  1.810338446570  2.376057218588 -4.181450120109 -2.278138554463
O    4.464883705829  0.874048903766  4.299100387955 -1.028867039198 -0.986747484320 -1.649514373051
Zn   2.932288685778  1.667362993688  9.859443511652  1.086706575914  2.914467817828  1.734422740960
Zn   4.439596130588  0.832420470234  7.383911984468 -0.466800748212  2.380241174763  1.687046308559
O    2.927776512912  1.773752355189  6.841128904926  2.084386905097 -1.665514348024 -3.350035061947
O    4.344928714939  0.872732743078  9.281663084293  3.645114401121 -0.216742453835 -1.034367914411
Zn   2.924389075219  1.616517024620  14.709462122485  1.278307754596  1.169792288792 -0.422975266387
Zn   4.348708707261  0.932903869402  12.217496229615 -0.460259861770 -2.561608848642  2.650490599376
O    2.922983817863  1.697842875769  11.710097759648 -2.179745264694  1.659317218074 -0.645390859347
O    4.462697749942  0.845549437732  14.103691226892  0.420699325869 -0.215267926172  0.163833778761
Zn   5.886017029291  1.697430031800  4.898814474380  0.008259154685  1.985213285518  0.686942971757
Zn   7.476184375810  0.820580316920  2.348712564239 -4.047819347294 -2.870745951460  3.872983560996
O    5.941535721657  1.638324536918  1.869504809473 -2.073690087504 -0.786158500317 -0.004760140393
O    7.324271027430  0.925148930661  4.336453063543  1.368084506341 -1.460541376021 -2.376155691839
Zn   5.952255550525  1.803110148533  9.899657866376 -1.054798928572 -2.480237033132 -0.711744347071
Zn   7.363395932791  0.722024405086  7.465041117230 -0.269233838865  3.443840218125 -2.436987992635
O    5.826056735678  1.760966542186  6.712374515340  1.345679656283 -2.912094175390 -0.589095784300
O    7.383277722046  0.834676115594  9.164528311712 -0.498199060018  2.136230629241  2.410200440129
Zn   6.015399506282  1.714732428394  14.759825558111 -5.628075400269  1.896467546141  1.988443362420
Zn   7.456118218201  0.853300847892  12.268828260707 -0.707010174821 -0.546781082692  0.327922096735
O    5.811386660458  1.586472922284  11.665929629991  4.375291500976  2.078411147129  0.405680226752
O    7.286769269297  0.890574130410  14.176844002459  3.858378409488 -3.085417638808 -3.923392609576