# total energy = -98155.08978778866 eV

CRYSTAL
PRIMVEC
6.903745345495471 0.0 0.0
-3.4518726727477356 5.978816062832716 0.0
0.0 0.0 10.418918459316055
PRIMCOORD
32 1
Zn  -0.007135020815  2.029737031051  5.250076725024  0.168740986255 -0.234791855137 -0.497825992949
Zn   1.762984595396  0.977584838787  2.608822500257 -0.119397402824  0.125856013966  0.230563933099
O    0.055397723776  1.955544550947  2.044664309237 -0.389176572670  0.231088438144 -0.471468586002
O    1.758258291332  1.018497124079  4.630881876110 -0.191628946596 -0.300140555746 -0.120817423100
Zn   0.025469987703  1.976101143088  10.429625477972 -0.121209002112  0.090000180609 -0.042024166951
Zn   1.721328776730  0.935405025850  7.841808313303  0.124848141526  0.251899975572 -0.817128723446
O    0.024211434927  2.068335871278  7.183708097870 -0.138676305659 -0.489385318381  0.594046957657
O    1.781646109439  0.904958818502  9.764439258316 -0.470390008225  0.442270110061  0.657355745018
Zn  -1.751310362017  4.930978021035  5.155734973754  0.186116501419  0.413224871868  0.321890288718
Zn  -0.056302804791  3.959740485718  2.615218820320  0.534377052600  0.048835276335 -0.304431469812
O   -1.720530013394  4.947148663758  1.950896949580  0.021453027667  0.077463738705  0.599828083115
O   -0.011222038059  3.979568732725  4.577907366950 -0.147299014331  0.050865419391  0.180634138148
Zn  -1.772038857417  4.962794621834  10.418000951560  0.251509167892 -0.185202731355 -0.446617331286
Zn  -0.035506652686  4.031199082666  7.853113886681  0.415945613234 -0.048968973700 -1.156524368038
O   -1.706770848920  4.950617105419  7.201653693521 -0.332355964136  0.177957105536 -0.213934552072
O   -0.026368855347  4.032905688515  9.715925259024  0.256350298034 -0.421339530556  1.666743849556
Zn   3.445597168229  2.019975135133  5.209198958459 -0.068816604553 -0.311094483655 -0.015610967064
Zn   5.162372234529  1.062001075374  2.604277764696 -0.048263462992 -0.394326492302 -0.138435393292
O    3.370983559658  1.970248838158  2.002685395290  0.690553057706  0.213593109572 -0.071826595024
O    5.207190658937  0.955318188925  4.593545040532 -0.128880145504  0.498690912053  0.066709071292
Zn   3.443474266535  1.924228471685  10.377967513050  0.059290924451  0.271968978408  0.226370720953
Zn   5.211461315808  1.037794473069  7.796832483501 -0.134175846685 -0.241036293385 -0.091872457931
O    3.452928945786  1.953820685734  7.198297092534  0.146630527509  0.251183152011  0.232456522136
O    5.163340139627  0.994756524585  9.857658460592  0.427497322627  0.048037977245 -0.290003981533
Zn   1.728131727394  4.997271926090  5.150272730437 -0.161832174950  0.028057677468  0.416498400413
Zn   3.512720213099  4.054027697400  2.605710291855 -0.699327461464 -0.297313370710 -0.229184793363
O    1.719134766459  5.008469801040  1.983089804501  0.042608578699 -0.099954720719  0.192484609728
O    3.412322496412  4.000090806139  4.616904553283  0.406044552070 -0.109837012830 -0.212807380446
Zn   1.723882472134  4.995656449679  10.414226673979 -0.031315008063 -0.140577636446 -0.044965766077
Zn   3.503789528120  3.993951995778  7.803183238845 -0.395149502424 -0.127519003490 -0.010371573042
O    1.730427222721  4.998742423848  7.204583643045  0.223236546199  0.081888350135 -0.003371230465
O    3.497889587348  3.935306750192  9.839460878236 -0.377308874698  0.098606948442 -0.206359053718