# total energy = -24537.654185603224 eV

CRYSTAL
PRIMVEC
3.13225493067428 0.0 0.0
-1.56612746533714 2.7126110763371933 0.0
0.0 0.0 10.258814597278223
PRIMCOORD
8 1
Zn  -0.024166912918  1.843464834311  5.170624328046  1.213893907097  0.244377441943 -0.935461175341
Zn   1.444561519223  0.979239991232  2.493158404933  8.835559761204 -5.033626579188  2.780414612764
O    0.135128609964  1.725386340836  2.121165858082 -8.922915047992  5.130850017019 -4.249984160425
O    1.738154351610  0.892237225375  4.439090574144 -1.271343664574 -0.276672811642  0.738916536611
Zn   0.082777353955  1.787044152696  10.123573539362 -2.365798516975  0.847231970589  2.294040827515
Zn   1.537149408846  1.016096608550  7.609155267312  0.701203852551  0.222143827356  0.240323840699
O    0.024933375699  1.943509683248  7.097965624567 -0.647539787369 -0.416579133053 -0.346301370573
O    1.288078448043  0.738737000566  9.516840411241  2.456939753167 -0.717724475914 -0.521949111250