# total energy = -73619.19662838966 eV

CRYSTAL
PRIMVEC
9.97207619857785 0.0 0.0
-1.6620160237883748 2.8786890966244614 0.0
0.0 0.0 10.033025528303558
PRIMCOORD
24 1
Zn  -0.019279014915  1.922548480968  4.975957327460  0.174512341521 -0.392928326403  0.012734159737
Zn   1.649282679690  0.863318535985  2.503072896868  0.696600035231  0.793205636972 -0.116951769497
O    0.027063217595  1.876056667315  1.918484859917 -0.193080848552 -0.181344276841  0.684620751382
O    1.711773692396  0.910864398092  4.465052961540 -0.541804198302  0.236383882215 -0.210664365961
Zn  -0.028968881357  2.003311328892  10.068170116450  0.320256352659 -0.100352213268 -1.019228744777
Zn   1.569567896974  0.920652988089  7.543780909500  0.664565632503 -0.033920049786 -0.793719343383
O   -0.026625443450  1.810438411513  6.904476090448 -0.065323503798  0.689148721159  0.271545517717
O    1.627166609097  1.002490825828  9.422452255194 -0.077562469067 -0.133552354169  0.935932458551
Zn   3.327946087485  1.865739557280  5.023766452379  0.049733105559  0.245771236967  0.128377237726
Zn   5.077258663523  0.908874968891  2.562805633297 -0.757579403128  0.182753241373 -0.899825685526
O    3.320252630697  1.964596737467  1.930091359404 -0.107559529649 -0.849304279737  0.475537870975
O    4.974032716753  0.931059846810  4.457054359221  0.234980574109  0.079939968160  0.567909894251
Zn   3.374253417728  1.906328899031  10.015670126888 -0.478538605475  0.208378912361  0.072031511946
Zn   4.987436184372  0.980620068309  7.542744810783 -0.204856243920  0.036505294015 -0.114041280719
O    3.318627182277  1.970070410092  6.984028328322 -0.169552683523 -0.462070432616 -0.012154633085
O    4.934724786794  0.935065629819  9.499369870537  0.885844797866  0.204951374737 -0.191927194563
Zn   6.619529996319  1.915016571815  5.014998005777 -0.054633628184  0.198468595226 -0.002985307881
Zn   8.284300307553  1.029325682878  2.501299861720  0.010495500215 -0.540646173439 -0.699549090557
O    6.634247783580  1.869145021301  1.869516979744  0.278312404128  0.676046636559  1.039941037624
O    8.267546222332  1.001393897446  4.382099248474  0.130266741439 -0.312335555150  0.791876119527
Zn   6.726245172550  1.970694662062  10.042346427926 -0.763078735679 -0.176564338954 -0.915350006414
Zn   8.262584117216  1.016082765686  7.556669817987  0.103086581480 -0.299291320372 -1.027577116742
O    6.649800233620  1.957283216783  6.970330684455 -0.277592495242  0.048266805426 -0.050164279559
O    8.317009714692  1.000602114596  9.425837775064  0.142508277810 -0.117510213104  1.073632002118