# total energy = -73606.1203714817 eV

CRYSTAL
PRIMVEC
8.82145232711341 0.0 0.0
-2.9404811685536947 5.093065501058928 0.0
0.0 0.0 4.626525351834881
PRIMCOORD
24 1
Zn  -0.004211361341  1.738895268463  4.647719773196 -0.038236931994 -0.558084937740 -1.223833020587
Zn   1.428613915036  0.854252682598  2.336615706663  0.387004761830 -0.869185849153  0.052347146143
O    0.027021872768  1.687455615654  1.766321163748 -2.001591983987  0.237758908185  0.848614709870
O    1.446602620621  0.762673657410  4.093731684908  0.296350492576  2.877888733152  0.103634226453
Zn  -1.453749761297  4.251975307478  4.662272523100  0.236291836721 -2.487038886545 -2.353650311648
Zn   0.020793045280  3.401610238920  2.293308550754 -2.176359121831 -0.355891328254 -1.660387825431
O   -1.490791921763  4.271823575214  1.717350635445  0.361416628948 -0.797775258620  3.410643419658
O    0.012908431190  3.389022908595  4.009189532241  1.232431303779  1.221399471445  2.580973112101
Zn   2.890994585289  1.698400391556  4.652061692031  0.351935686041  0.379073937018 -2.096424552987
Zn   4.363433475486  0.847386064107  2.279662646149  1.650728447964  0.576886900938 -0.016131101234
O    2.905664660509  1.665002373045  1.767467070406  0.107659802673  0.917953505475  0.660131250881
O    4.473250853361  0.859560550463  4.072327312982 -3.098265184195  1.043315610523 -1.060929466950
Zn   1.536948406774  4.333649605994  4.627759473015 -1.393242236553 -2.453656711540  0.636354717286
Zn   2.886133965057  3.372236566961  2.355084299255  1.943185261913 -0.568389404990 -2.301455117702
O    1.477976115822  4.221613632859  1.833382726484  0.218419327316  1.249536596001 -1.886321201736
O    2.999463163103  3.469815061878  4.048034797563 -1.948757613794 -2.399921426800  1.941245878798
Zn   5.807641071800  1.720009421176  4.681448596169  2.583885143542 -0.188983024333 -2.629168183749
Zn   7.304641531711  0.769232407215  2.273177996543  0.247972101273  2.194896261403  0.641024097738
O    5.899203336229  1.784938838885  1.726970429208 -0.264499923724 -3.397784047197  3.149607800333
O    7.356771904238  0.860109244798  4.080385709682 -0.603987613810 -0.506703240834  0.245813403059
Zn   4.414818435291  4.181581882198  4.654543166571  2.543296680597  1.788737295242 -1.963295145289
Zn   5.828741103621  3.384930636860  2.275872068084  2.063829135550  1.556166616126  1.433395925954
O    4.444855480465  4.229915501644  1.733155149434 -2.611938707245 -0.751215151472  1.521777597123
O    5.924018963771  3.352075137668  4.055256920583 -0.087527550699  1.291014660640 -0.033967358084