# total energy = -12269.96059190826 eV

CRYSTAL
PRIMVEC
3.13225493067428 0.0 0.0
-1.56612746533714 2.7126110763371933 0.0
0.0 0.0 5.229985570590528
PRIMCOORD
4 1
Zn   0.017611103348  1.851931319388  5.260076830484 -0.746125138544 -0.681992826841  0.594983610539
Zn   1.594282991683  0.878580280652  2.660454333359 -0.422922044551 -0.106630075856  0.290962488791
O   -0.014212919973  1.771684200967  2.003377724640  0.345045900899  0.146225578761 -0.075859627443
O    1.480098830764  0.874127780268  4.655227753704  0.824001025086  0.642397066826 -0.810086214777