# total energy = -110405.85317219706 eV

CRYSTAL
PRIMVEC
8.82145232711341 0.0 0.0
-4.410726163556705 7.639598251588392 0.0
0.0 0.0 4.626525351834881
PRIMCOORD
36 1
Zn   0.077331497535  1.698882924998  4.641637381816 -2.595188998591 -1.362636081632  0.820341831067
Zn   1.439913313321  0.900078363147  2.277945991526  5.091559446949 -3.767678888819  1.085767094819
O    0.103877894023  1.640224677749  1.785034110570 -6.346228221970  3.686754188149 -0.496525528970
O    1.406330926457  0.845522973375  4.054631479613  4.026912164828 -1.742330168733  0.546811678819
Zn  -1.456604383270  4.171693034139  4.651724712553 -0.150744035457  1.839743096866  0.431735786188
Zn  -0.031029458561  3.446992200417  2.358287368595  1.891519458107 -2.507744751634 -1.462984181134
O   -1.437484767496  4.256023471951  1.845870374399 -3.262798817237 -4.065782102420 -2.364969079095
O   -0.038713825683  3.299733932430  4.083268560303  1.214100109570  2.859543654986  1.000811932833
Zn  -2.829628152175  6.747647092470  4.653178487896 -3.924597685628  2.197318754801 -0.305676397963
Zn  -1.476706708833  5.840210755937  2.296592777455 -0.613758062933  2.968666158247 -0.331184569536
O   -2.900717590044  6.745784883884  1.762229774159 -0.379968423808  1.494285048130  1.242131561786
O   -1.507193648075  5.989461790005  4.009494754491  0.738176573121 -4.683480638058  0.218997825528
Zn   2.968117896549  1.825710709395  4.654983357042  0.480836143259 -7.908045608624  1.363256745935
Zn   4.432886533948  0.900628821772  2.233285624829 -0.807557277708 -2.554031036295  0.386038284151
O    2.959427883862  1.808508877358  1.825057039778 -0.503089555341 -5.619616985089 -1.801534189897
O    4.483812778232  0.800976403414  4.056281091199 -2.520810583679  0.655347970560 -0.457324176180
Zn   1.523427766793  4.234253009753  4.558004720884 -2.424807134298  0.156335156391  1.044644099526
Zn   3.013487508013  3.354512504946  2.302695458175 -1.275078706136  5.785188315367 -0.898860236289
O    1.417348038269  4.322559276128  1.742753771711  1.219671433010 -5.467897987314 -1.839252273273
O    2.833741595396  3.275222644994  4.003445002485  1.996148701484  5.759413263285 -0.360107166108
Zn  -0.134146061248  6.766367978599  4.577968549646  3.807395490682  0.232001179766 -0.138250530975
Zn   1.476082150008  5.849570316856  2.314656465385  0.171026954075  5.856791224416 -2.444828571726
O   -0.086980402091  6.724871866852  1.707669091516  2.529547449331  1.891924406855  1.276420050655
O    1.530387892679  5.903996913424  3.987314094760 -2.003766108820  1.326033085697  3.326935756926
Zn   5.888855772650  1.662768781316  4.593573698812 -0.039156101374  0.787816090525 -0.614525794337
Zn   7.293524737489  0.789318854164  2.273062435518  2.213426716107  0.955372826663  0.387499442078
O    5.916982091249  1.663458618888  1.706925443085 -0.335806898800  0.967082916012  0.482242022468
O    7.340361356474  0.907840359050  4.042313203584  1.892207742424 -2.030325861586  0.709414156276
Zn   4.367832733761  4.306476886391  4.612957958156  0.409531739288 -2.019332595799 -2.225175886223
Zn   5.778522339814  3.306094199558  2.321873295534  0.144498054547  1.931284910931 -2.718971674967
O    4.346037571497  4.352414599384  1.710686910357  1.432589370892 -1.774600598731  1.105743280831
O    5.933710211297  3.357952871353  4.016471641137 -2.053558092641  1.343158432523  2.553773154648
Zn   2.932203117690  6.712835877297  4.664775169125 -0.348170048351  2.286203847969 -2.717991570442
Zn   4.386803266991  5.995882925154  2.310329543019  3.216165176538 -0.381820132305  0.224441879361
O    3.068725678195  6.800170901771  1.714398977496 -4.321393722516  0.385948809761  1.283534550213
O    4.401396595576  5.956178450375  4.029206289716  1.431166522403  0.519110356249  1.687621207225