# total energy = -49078.3105631876 eV

CRYSTAL
PRIMVEC
6.136662235341968 0.0 0.0
-3.068331117670984 5.314502912362029 0.0
0.0 0.0 5.2217718093237755
PRIMCOORD
16 1
Zn   0.047428421418  1.749764913150  5.234439721176 -2.368530056973  0.827608797042  0.736949128472
Zn   1.496534932342  0.828612023320  2.662813726831  0.916684408954 -0.430225005971  1.295362910306
O    0.148785830561  1.792245957474  1.972689601174 -2.476353896027  0.251979679770 -0.905835382055
O    1.505029913875  1.035376425014  4.591707196964  1.670266775107 -2.630583061819 -0.981137080112
Zn  -1.501084653723  4.347179003206  5.213402629367 -0.224763267256  1.013787519157  0.385639248941
Zn   0.050276446362  3.547735149157  2.619575418387 -0.859683308979  0.193641349041  0.112212197930
O   -1.593172020893  4.417831009188  1.990841848066  1.241311636988 -0.607649893153 -0.964176540998
O    0.031860322993  3.542300521081  4.514430050433  0.067667835661  0.099917953944  0.592334602952
Zn   2.998260253603  1.812485896859  5.394850231009  0.639521287940  0.020893555620 -1.171956900543
Zn   4.606672675158  0.855869235971  2.465726841482  0.270657715796  1.222369034447  1.288692440265
O    2.996624219451  1.765133570052  2.014727578485  1.095347539419 -0.404200042662  0.373412367857
O    4.530361439262  0.838086416146  4.626753061324  0.231147059296  3.069120958531 -1.336816292355
Zn   1.541743723030  4.535948870228  5.250292560729  0.199625848759 -2.729897320740  0.824903482296
Zn   3.012821939421  3.547897157040  2.618797289616  2.480018746474 -1.662564521367  1.907403476328
O    1.629661228211  4.384130301190  2.053032010492 -2.785185551790  1.564536328247 -2.232147175334
O    3.062134316146  3.538653502715  4.575117957943 -0.097732773367  0.201264927024  0.075159258942