# total energy = -12268.20282195429 eV

CRYSTAL
PRIMVEC
3.004407833844898 0.0 0.0
-1.502203916922449 2.601892294305528 0.0
0.0 0.0 4.534159166195871
PRIMCOORD
4 1
Zn  -0.000000000000  1.734595764193  4.533451027269  0.000000000000 -0.000000000000 -2.078773672675
Zn   1.502203916922  0.867297731876  2.266371744612  0.000000000000  0.000000000000 -2.078773672675
O   -0.000000000000  1.734595764193  1.723687360230  0.000000000000  0.000000000000  2.078773672675
O    1.502203916922  0.867297731876  3.990766342446 -0.000000000000 -0.000000000000  2.078773672675