# total energy = -12269.702124170444 eV

CRYSTAL
PRIMVEC
3.387949124333044 0.0 0.0
-1.693974562166522 2.934048640400525 0.0
0.0 0.0 4.895413699255908
PRIMCOORD
4 1
Zn  -0.135823896779  1.918884581170  4.811149645020  0.472815586948 -0.309824615803  0.333736646534
Zn   1.734304369748  1.057948097157  2.424888673481  0.005507045861 -0.234639902940 -1.143490931893
O    0.058287970710  1.982571587604  1.908577423549 -0.248058747449  0.035754789002 -0.359321436982
O    1.677515227731  0.844981276407  4.279258572246 -0.230263885360  0.508709729741  1.169075722341