# total energy = -110414.27687444768 eV

CRYSTAL
PRIMVEC
9.396764262845632 0.0 0.0
-1.5661305093956932 2.712610923576963 0.0
0.0 0.0 14.18130532579448
PRIMCOORD
36 1
Zn  -0.133561848526  1.856784643839  4.653918522284  0.113797283029  0.146360047456 -0.525057317861
Zn   1.371179599940  0.957346101804  2.496148941371  1.159907425578 -0.344050626866 -4.412535472929
O    0.094367005110  1.941055765425  1.609320856977 -1.083741322638  0.921952599332  5.579907325205
O    1.661323490084  1.050326144509  4.176961320536 -11.125566270749 -6.917578509361 -2.831366421221
Zn   0.107078947804  1.931254940299  9.598785297733  0.841007329836 -0.303290928450 -6.626580796456
Zn   1.639310630122  0.791315613721  7.086330151336  0.626900770962 -0.884171523928 -0.378573343233
O    0.220305258790  1.691405351519  6.408421266475 -1.535353793146  0.607587672456  1.048430306042
O    1.575162679205  0.935908323815  8.872532879768  1.239515721430  1.136841030677  1.307338080390
Zn   0.221745782751  1.603039120067  14.153476808430  0.544922432216 -1.217267194444 -4.188553306813
Zn   1.519680424292  0.976716591656  11.863586842629  0.162738745925  0.843402312431 -2.293885275774
O   -0.133109864165  1.873540953873  11.209830460952 -0.164074948237 -0.545763954281  7.179344321984
O    1.864054920349  0.670813388167  13.572766173750 -0.518743974049  0.771927958540  1.205915002656
Zn   2.862742086528  1.748008640409  4.738872788631  12.079608294417  7.040637677308  3.291475102125
Zn   4.713902766956  0.882354284928  2.426759475348 -0.231949757703  0.235624121230 -4.924335668670
O    3.180628043805  1.831392707448  1.621907822707 -0.084231396446 -0.931506304459  8.144672974308
O    4.836440331649  0.919218730808  4.104145794263 -5.636589351278 -1.973907116477  2.845359650176
Zn   3.259584355524  1.868806864037  9.533906278556 -0.185964549222 -0.512491051161 -4.362718806517
Zn   4.587413862890  0.921514360317  7.013861365665  2.242575312646 -2.690468168210  2.963449132823
O    3.238836300031  1.754753637797  6.463832105980 -3.203871189662  2.100477125790  0.894852143571
O    4.934706993928  1.005372024275  9.133187844302 -3.365333897088 -2.037783089195 -2.701503085868
Zn   3.139648754855  1.998737802852  14.192806025576  0.403325096256  0.019777439737 -6.342279521735
Zn   4.712278066415  0.788352813949  11.864561287083 -2.561966746202  1.943778158302 -0.043533147396
O    3.258101546123  1.939522213497  11.231152658741 -1.684356420431 -4.720246641934  3.083283623185
O    4.830266657528  1.066291246991  13.609048020246 -1.322891197634  0.381061656872  2.319762657762
Zn   6.265072687969  1.538025727162  4.650708587612 -5.229696592275  5.923870791673  3.952673875039
Zn   7.984595037515  0.801141810110  2.358117991761  0.638637856894  0.130438234020  0.501727384886
O    6.556460709701  1.777281440440  1.906205046127 -1.903015888783 -0.226247565111 -0.704668671172
O    7.680883159452  0.970728973468  4.384917351731  10.279735808493 -4.218385302573 -2.557754250783
Zn   6.280769982670  2.013646709032  9.519800795721  2.834338873586  0.562405162382 -0.504860531199
Zn   7.811013309669  0.846759341901  7.032803363066  0.776544631376 -0.347455024561  0.095775392530
O    6.164637252498  1.636469048609  6.684175891503  2.069640600025  1.703343245946 -1.253350313320
O    8.030701201047  0.993055685356  8.886860126239 -0.841254155739  0.894107294985  0.038481701015
Zn   6.503705395776  1.663715906265  14.031126239346 -7.793190830865  4.880390630548  2.818625833726
Zn   7.845239144144  0.822473404663  11.956674948122 -0.772432923201  0.018804020080 -2.373837842339
O    6.072691793539  1.741076647412  11.338933544835  4.326251307719  2.136297992144  0.615378115035
O    7.829327603217  0.872779921821  13.784212163193  8.904777972071 -4.528471656678 -0.861058592060