# total energy = -24533.04366423447 eV

CRYSTAL
PRIMVEC
5.753120944853822 0.0 0.0
-1.4382802362134555 2.4911761596939876 0.0
0.0 0.0 4.525945728590832
PRIMCOORD
8 1
Zn   0.002909928574  1.653094293237  4.492567271493 -0.687519413086  1.379417414855  0.421539305271
Zn   1.461519392958  0.853114196174  2.159861403537  1.901780987934 -2.262504447470  1.436395632012
O    0.062794164489  1.617774157820  1.724307574917 -3.180689866450  1.632395711093 -0.044755192729
O    1.393786174138  0.840639704029  3.972772218813  1.944564658759 -0.649324390073 -1.053107399802
Zn   2.871168647477  1.670882367886  4.485653746054 -0.317737185782 -0.675378406848 -0.067514083692
Zn   4.343631051785  0.769154299729  2.291785644611  0.224004020493  2.171528018990 -2.413556758196
O    2.918446644778  1.674619595252  1.722284202280  1.191106733999 -1.767281953582 -0.752903594919
O    4.332751900078  0.841148279921  3.963469997558 -1.075510450088  0.171148053034  2.473902092053