# total energy = -12262.932618407905 eV

CRYSTAL
PRIMVEC
2.876560207838307 0.0 0.0
-1.4382801039191535 2.49117305399317 0.0
0.0 0.0 4.156482795755754
PRIMCOORD
4 1
Zn  -0.052645941956  1.671622353139  4.177663771534  1.103581240182 -2.245566019843 -9.307989425568
Zn   1.505595352311  0.797413268807  2.113150181936 -1.714591308056  1.425789060141 -6.455924595457
O   -0.037042328764  1.687849029271  1.554876006479  2.311010622601 -1.264150489259  9.785946447507
O    1.434411705752  0.778031581439  3.687992105162 -1.700000554726  2.083927448962  5.977967573517