# total energy = -98150.79337164163 eV

CRYSTAL
PRIMVEC
6.520203525830115 0.0 0.0
-3.2601017629150575 5.646659258457025 0.0
0.0 0.0 11.514992396385223
PRIMCOORD
32 1
Zn   0.075368988616  1.839021448399  5.623744655186  0.915831316925  0.428436289502  0.348211700222
Zn   1.674388917454  0.927020368611  2.700181241195 -0.711981402783  0.632023179791  0.373281241596
O    0.082138263917  1.963996797460  2.022016828535 -0.463083190151 -0.251376756079  1.194078672143
O    1.688128942344  0.798787525868  4.900033360796 -0.103238019456  0.807737769150  1.261139984568
Zn  -0.110816075084  1.915103747281  11.556507836275  0.535474399430 -0.190266776141 -0.520592597222
Zn   1.581736173331  1.016883769665  8.488705131906 -0.729566462854 -2.650246344576  2.456082804483
O    0.051008856223  1.727788732310  7.988819384151 -3.092179125902  1.367516292542 -1.169082664319
O    1.583697450552  0.844410041959  10.787721070870 -0.881130165999  0.682665170317  0.463159037695
Zn  -1.437136315698  4.732337638233  5.905673039480 -1.138716393323  0.395978426083  0.044033226961
Zn   0.126092911945  3.716047207090  3.035231679676 -0.217701475314  0.358848096890 -1.071486416530
O   -1.412926800007  4.808625323526  2.142388261886 -1.229620573803 -1.842957232928  0.218992426211
O    0.051111875439  3.872632502844  5.246135544252  1.218280980421 -1.272263862395 -1.034026471912
Zn  -1.659387885202  4.657651966947  11.635994333418  0.749252114209  0.834122944011 -0.323617812933
Zn   0.016507199266  3.700510866128  8.650577660700  0.559063242493 -0.622560491716  0.634120685750
O   -1.536377073463  4.643044102968  8.223103337241 -1.247827326619  0.173947213046 -1.469564919676
O   -0.059214532361  3.815053237528  10.822194038931  0.185764260285 -1.045607748991 -0.228954679630
Zn   3.376006204831  1.779147071442  5.715322869767 -1.092383571694  0.471437218543 -0.288397299167
Zn   4.781546266263  0.953821665203  2.960866150382  0.801029246781 -0.299768517119 -0.847579583737
O    3.252940623383  1.855019419770  2.371800318902  0.491415204327  1.900739948264 -0.174210236899
O    4.993961456728  1.037133565755  4.982123375206 -0.287439306129 -0.798256826242  0.307555874374
Zn   3.250678112759  1.894714418836  11.312965194178 -3.700463310205  0.927809315223  1.242965370541
Zn   4.731250068285  0.791634862600  8.326283601976  0.466978411441  1.446139341663  0.692086977852
O    3.052713649369  1.771165038286  7.970343735440  3.923127271730  2.066988507114 -1.402113313791
O    4.516854039990  0.886802449223  10.883486560156  4.998892775251 -2.277193159830 -1.130094970202
Zn   1.955601383400  4.648954015443  5.503679019380 -6.610798079701  4.003437221634  2.337173139929
Zn   3.336943665508  3.853221204927  2.834722380849 -0.262500376796 -0.313798769960 -0.521017343464
O    1.552200303379  4.789201637223  2.150561337006  1.213719072082 -0.445316610197  1.039585196946
O    3.222055071301  3.771715400752  5.064116238584  6.487459432840 -4.222518093794 -1.755370546856
Zn   1.668711776244  4.695671925726  11.291665645320 -1.292521327093  0.484607180266  0.713129914565
Zn   3.375725184059  3.751242613702  8.810184418768 -0.706065808629  0.011104594554 -0.409065855395
O    1.559043256980  4.672826436612  7.949459523547  1.105486941845 -1.503667517786  0.030850409722
O    3.242308127493  3.716935910830  10.975724619334  0.115440989280  0.742259999162 -1.011272208934