# total energy = -73614.11834115534 eV

CRYSTAL
PRIMVEC
10.163846843821924 0.0 0.0
-3.3879455599916932 5.868096975280588 0.0
0.0 0.0 5.765706382175925
PRIMCOORD
24 1
Zn   0.000000000000  1.956033341478  5.764808914500  0.000001028441 -0.000001799772 -0.080047440272
Zn   1.693974812765  0.978016162547  2.881954707027  0.000002828213 -0.000001285552 -0.080051554037
O    0.000000000000  1.956033341478  2.191868128949 -0.000003085324  0.000000514221  0.080051554037
O    1.693974812765  0.978016162547  5.074722336422 -0.000000257110  0.000001799772  0.080047440272
Zn  -1.693974812765  4.890082845503  5.764808914500 -0.000001542662  0.000001542662 -0.080046411831
Zn   0.000000000000  3.912066682956  2.881954707027 -0.000000257110  0.000002571103 -0.080051296927
O   -1.693974812765  4.890082845503  2.191868128949  0.000000514221 -0.000001799772  0.080050782706
O    0.000000000000  3.912066682956  5.074722336422  0.000002828213 -0.000000000000  0.080047697382
Zn   3.387948609146  1.956033341478  5.764808914500  0.000001028441 -0.000003085324 -0.080046668941
Zn   5.081923421911  0.978016162547  2.881954707027  0.000002571103 -0.000002056883 -0.080051296927
O    3.387948609146  1.956033341478  2.191868128949 -0.000003599544  0.000000257110  0.080050782706
O    5.081923421911  0.978016162547  5.074722336422 -0.000000771331  0.000001799772  0.080047697382
Zn   1.693974812765  4.890082845503  5.764808914500 -0.000004113765  0.000000771331 -0.080047183162
Zn   3.387948609146  3.912066682956  2.881954707027 -0.000002313993  0.000002571103 -0.080051296927
O    1.693974812765  4.890082845503  2.191868128949  0.000000771331 -0.000002056883  0.080050268485
O    3.387948609146  3.912066682956  5.074722336422  0.000003085324 -0.000000257110  0.080047697382
Zn   6.775898234676  1.956033341478  5.764808914500  0.000001028441 -0.000004113765 -0.080046926051
Zn   8.469872031057  0.978016162547  2.881954707027  0.000003342434 -0.000001028441 -0.080051554037
O    6.775898234676  1.956033341478  2.191868128949 -0.000002571103  0.000000257110  0.080050525596
O    8.469872031057  0.978016162547  5.074722336422 -0.000000257110  0.000002313993  0.080047183162
Zn   5.081923421911  4.890082845503  5.764808914500 -0.000003856655  0.000002056883 -0.080047440272
Zn   6.775898234676  3.912066682956  2.881954707027 -0.000000771331  0.000002571103 -0.080052068258
O    5.081923421911  4.890082845503  2.191868128949  0.000000000000 -0.000001799772  0.080052068258
O    6.775898234676  3.912066682956  5.074722336422  0.000003599544  0.000000000000  0.080047183162