# total energy = -49072.433872997906 eV

CRYSTAL
PRIMVEC
6.903745345495471 0.0 0.0
-3.4518726727477356 5.978816062832716 0.0
0.0 0.0 5.874493566916933
PRIMCOORD
16 1
Zn  -0.133340318352  1.982989700194  6.074733939165  0.283611961964  0.353634671010 -0.832538630243
Zn   1.873994059053  0.950150045159  2.824240066273 -0.940664573919  0.100122356645  0.618231525323
O    0.049044897309  1.933480871197  2.391126698278 -0.479119417679  0.128326329883 -1.110724278985
O    1.733582924719  0.945944283494  5.108344904204  0.128064591581 -0.423887493789  0.620985176809
Zn  -1.819674700300  4.972927248878  5.966415555443  0.618042035020  0.008638906622 -1.080602005678
Zn   0.040891574056  4.061420227916  2.770958340445  0.545374432152 -0.785354516358  1.003585896034
O   -1.660856109751  4.904801089809  2.397187496316 -0.696631145579  0.463613865844 -0.955045782341
O   -0.064744704599  3.835705725718  5.005796670842 -0.013879843306  0.468658884467  1.433059368550
Zn   3.296293319514  1.928477726945  5.727820045179  0.511389076346 -0.074282512764  0.230475230040
Zn   5.148300330391  1.226726510441  2.956435053272  0.436894447571 -0.531595890311  0.170043507116
O    3.297631265362  2.050627074092  2.114875399401  1.257728387783 -0.066857938165  0.553722547007
O    5.307966700869  1.003947480764  5.219610496814 -1.173731733055 -0.072241828185 -0.213112056171
Zn   1.881908512717  4.785711482599  5.809206918308 -3.490166611995  1.873264111442  1.087166032049
Zn   3.539516410283  4.028577730558  2.960329456021 -0.993534425335  0.017764780183 -0.223431950040
O    1.714240701384  4.876499185765  2.243300251067  0.575665884047  0.355553742409 -0.247718333391
O    3.299846677244  4.023714732337  5.180005780891  3.430956934404 -1.815357211823 -1.054095988968