# total energy = -73618.09006494752 eV

CRYSTAL
PRIMVEC
9.396764262845632 0.0 0.0
-3.1322516220271233 5.425221847153926 0.0
0.0 0.0 5.028828743490046
PRIMCOORD
24 1
Zn   0.064419517404  1.798884601481  4.968777781792 -1.316714893620  0.259653394265  0.523548080306
Zn   1.508299063416  0.932164652933  2.537100979705  0.643173025760 -1.364047617267 -1.441774894046
O    0.030446455888  1.756062607058  1.839155374406 -0.242973876727  0.939131167994  0.002660063331
O    1.505115439684  0.892343985016  4.343345126956  1.720012993293 -0.685513181289  1.458890470681
Zn  -1.494169148994  4.497097802854  4.958756132706 -0.663782217370 -0.126117238047  0.853715007211
Zn   0.072457509554  3.551683712311  2.604119642104  0.024819373037  0.145053155719 -2.157483110862
O   -1.500331546998  4.422401044376  1.987535920174 -0.099564427259  0.731866571743 -1.196428660432
O    0.134353056077  3.642089041607  4.392447918612 -2.436824213364 -1.349266602303  0.480534552859
Zn   3.149850821815  1.796271361339  4.928046567418  0.412431172323 -1.204764176881  0.906844282935
Zn   4.712986582440  0.980252594048  2.410341448828  1.240693286678 -1.194948476342  1.143921848783
O    3.128837777570  1.691569794893  1.935725920735 -0.720459358347  1.074516718716 -1.129537297926
O    4.857516334214  0.898315628705  4.468148251513 -1.932156772013 -0.752460336734 -0.830408471274
Zn   1.445980662502  4.486859088513  5.139269853548  2.985989737127  1.764893398745 -0.266992094019
Zn   3.088130994784  3.505889521352  2.670356493716  0.471030727133  0.562966177092 -3.151080271114
O    1.649906421505  4.497631539064  1.904280588806 -0.294377170900  0.078029895621  1.368073450597
O    3.140351632822  3.551148096748  4.405951068857 -0.034540714089  1.053637047054  2.776306761243
Zn   6.250744501821  1.932560150855  5.040687459990  1.160852563100 -1.258559882545  0.039069198087
Zn   7.836782995984  0.971010876395  2.472297134643  0.473859711942 -0.672668464116  1.111588683868
O    6.340469505384  1.797993788229  1.885826283470 -1.213673049335  0.938906967798  0.194895018942
O    7.872657022910  0.883260133003  4.447844662970 -0.246065628279  0.716178985804 -0.517738929823
Zn   4.663547386624  4.558978314554  5.116629289733  0.072507166031 -0.414234544080 -1.044331710492
Zn   6.215023642152  3.658405583073  2.477131769856  0.231161200363 -0.171762546690 -0.314127871164
O    4.659067949100  4.577333014189  1.931630810869 -0.331079154307 -0.934416021906  0.610090127163
O    6.277114641371  3.592348209658  4.352995603854  0.095681033044  1.863925607650  0.579765765148