# total energy = -110426.74245715248 eV

CRYSTAL
PRIMVEC
9.97207619857785 0.0 0.0
-4.986038099288925 8.636067289873383 0.0
0.0 0.0 5.229984999334735
PRIMCOORD
36 1
Zn  -0.075205409859  1.883847850449  5.257066166667  0.314278537809  0.251171582047 -1.071168371069
Zn   1.654200907672  0.935577197328  2.626909130725 -0.293676802399  0.633321586887 -0.421698713667
O   -0.047022328107  1.936217205813  1.869293605237  0.149438429271  0.002601185068  2.092158835733
O    1.583567694749  1.039049454379  4.555293270684  0.839184160584 -0.768452341286  0.373130574951
Zn  -1.697595394457  4.753081424422  5.321434921321  1.099231962075 -0.105491591377 -1.066665598103
Zn   0.155090715078  3.920388131650  2.604539769396 -1.514873928025 -0.917490192685  0.421285280279
O   -1.686329939976  4.844513396671  1.922238349398  0.061542182379  0.113064261518  1.919887724837
O   -0.013914037920  3.752669776481  4.695335125571  0.573399456610  1.099133488824 -0.908564093840
Zn  -3.276465244110  7.664414112482  5.206404030748 -0.240673510729  0.233290330891  0.005666968478
Zn  -1.651127513787  6.753925661662  2.683805808683  0.083289601358 -0.272633608575 -0.618488378529
O   -3.436036413024  7.740485098555  1.964368376922  0.805252797944 -0.504302601813  0.152889878155
O   -1.618445031254  6.605132312703  4.654101587697 -0.289092525462  1.314434582226 -0.399942038717
Zn   3.280308482276  1.932241339033  5.282137960646 -0.176336796324 -0.254932591751 -0.945785697196
Zn   5.044933181318  0.882322321597  2.651620932752 -0.640542787226  0.653806851325 -0.287663506325
O    3.326314655819  1.890690689136  1.925946964536 -0.035933223561  0.413649103890  1.005221631865
O    4.989140412194  1.002533705755  4.605740009757 -0.406728208400 -0.031785777052  0.126645856857
Zn   1.820097364519  4.805722020259  5.138530091310 -2.059836726561  0.449728109001  0.757765036776
Zn   3.321012502904  3.872021567671  2.588454810488  0.198825978565 -0.590852876200 -0.861985731860
O    1.701908317413  4.837286633050  2.036617066188  0.413029725138  0.186545618536 -0.690758231738
O    3.247458468863  3.859394924789  4.473155273451  1.750320128917 -0.544126932898  1.109947291610
Zn   0.075538477204  7.723369026968  5.164912216101 -1.025004728029  0.071017725969  0.679431750982
Zn   1.734821154907  6.720359653178  2.615340525127 -1.127883821483  0.004395815075  0.216422351491
O    0.045748893976  7.761981903217  1.956412654530 -0.405131296227 -1.305018431118  0.246315539506
O    1.615770520417  6.770184134697  4.686600584029  0.844104480704 -0.812419748006 -0.729055070436
Zn   6.640342716553  1.904547886222  5.117132010203  0.367361276567  0.043878703661  0.607545506364
Zn   8.241407416200  1.005170322702  2.552369855556  0.742639493988 -0.112344609743  0.176866700685
O    6.592542566503  1.819001433344  2.033933580483  0.205651743238  1.226762535529 -0.816569251398
O    8.316373496231  0.968684490307  4.578485328299 -0.635075336353 -0.481823961094 -0.083106795924
Zn   5.048222969256  4.735242377310  5.179314885755 -0.096803576684  0.576804368527  0.123932314580
Zn   6.525307837149  3.937266867824  2.664899749418  1.415618804476 -0.723880468213 -1.256731828198
O    5.015672118128  4.836638448097  2.032535495400 -0.875993358993  0.092240639904 -0.944024234420
O    6.815442402524  3.838247142795  4.481548769988 -1.600103940939 -0.378490039490  1.583875909116
Zn   3.284001142093  7.682229226611  5.216309294036  0.129461471929  0.393181065844  0.232412556272
Zn   4.953796382524  6.777786845590  2.602718868282  0.010175397871  0.006554770399  0.232611816767
O    3.266114229015  7.610483129985  2.040437368580  0.803503419353  0.863892719075 -0.482791467214
O    4.924770660332  6.772524580980  4.681411115575  0.617381518618 -0.825429530002 -0.479015030890