# total energy = -49076.270121922265 eV

CRYSTAL
PRIMVEC
6.0088151385125865 0.0 0.0
-3.0044075692562933 5.203784130330363 0.0
0.0 0.0 4.92004187067466
PRIMCOORD
16 1
Zn   0.032682546420  1.758302490239  5.027711425616 -0.572680576166 -1.633380443604 -3.010711408244
Zn   1.508121866658  0.910851650705  2.522241014334 -0.742354872868 -0.291678798132 -1.993464212673
O    0.027834033485  1.797686067301  1.826644350099 -0.927935299278 -2.247503860296  1.911026674902
O    1.503444004073  0.807941678235  4.247395274980 -1.334471703382 -0.649111759842  2.974160605703
Zn  -1.400127234818  4.253850545083  4.920606098416 -1.035196323850  0.910364380274  1.114224578829
Zn   0.082505838904  3.424850373313  2.440475461455 -1.565298403224  1.936617893108  1.141315521508
O   -1.512289580838  4.393259262467  1.928672829387  0.648863134166 -1.128430180905 -1.065087712093
O    0.067513244252  3.436411934521  4.326613691121  0.356823096040 -0.221512621530 -0.929517041943
Zn   2.886556677945  1.807756841474  4.800027805913  1.072811820210 -2.723905621933  2.229791530618
Zn   4.466897892871  0.857850295894  2.404002554446  0.735975708815  0.361415600507  0.610792038326
O    2.965739642077  1.754185250106  1.904287855792  0.641723694908 -0.010741297677 -2.064046136657
O    4.447696123214  0.852090846584  4.312876337952  0.679116790844  1.007939030796 -0.016933799641
Zn   1.557150793781  4.332195279503  4.911956409024 -0.701642996971  1.075966820899  0.970119645955
Zn   3.011392816855  3.447549874262  2.514015547290  0.884798615989  0.670696427991 -0.020900240488
O    1.538556515335  4.310166362324  1.894578812292  0.279191207188  0.751157301651 -1.004838023273
O    3.003074213177  3.456905599433  4.376585401339  1.580276107580  2.192107642914 -0.845931763721