# total energy = -36807.71667285134 eV

CRYSTAL
PRIMVEC
3.387949124333044 0.0 0.0
-1.693974562166522 2.934048640400525 0.0
0.0 0.0 16.644404544700613
PRIMCOORD
12 1
Zn   0.037277265420  1.898339718885  5.609042832933  0.281534253499  0.246999967167  0.004217123405
Zn   1.806508341485  1.017241549633  2.844838180443 -0.280582431109 -0.160024175207 -0.410185313711
O   -0.004713653617  1.973889629178  2.081016241695  0.283222696945  0.056408460697  0.103546037614
O    1.809979295363  0.986960399155  4.922351960333 -0.398533074184 -0.199039380128 -0.064695897516
Zn   0.002549092921  1.922555762841  10.975959444591  0.014958935303 -0.342444715831  0.426598722072
Zn   1.725735568822  1.102333279840  8.288147962932 -0.298465739147 -0.556269224688  0.227352882360
O   -0.007964729596  1.930432744555  7.687185754975  0.328240142196  0.325189528295 -0.604764344075
O    1.642354752923  0.842365102093  10.288381606911  0.131417310103  0.551176383546  0.367488289063
Zn  -0.036500408686  1.884906839402  16.571437606820  0.096519984006  0.183727432361  0.331937902762
Zn   1.714931737860  0.839716742262  13.909247490414  0.039829730402  0.229750693169 -1.006788462131
O    0.086500439453  1.899513643257  13.147329917868 -0.197199755816 -0.156137695668  0.037784932058
O    1.674716781754  0.963791909068  15.885406029120 -0.000942052198 -0.179337016603  0.587508385208