# total energy = -24533.521263477818 eV

CRYSTAL
PRIMVEC
6.0088151385125865 0.0 0.0
-1.5022037846281466 2.6018950695727505 0.0
0.0 0.0 4.92004187067466
PRIMCOORD
8 1
Zn  -0.105684843301  1.853342116640  4.928237894524 -1.811056784675 -0.874520631102  1.160871075043
Zn   1.500553163110  0.761633542607  2.613682562230  1.695938468842  0.589431827483 -1.009131765552
O    0.083971989798  1.670418761786  1.947045983436 -0.530162757409  0.420379994856 -1.222746729502
O    1.391312303010  0.987471254299  4.432065993276 -1.647136102627 -2.102720927519 -0.804902870804
Zn   2.823382999986  1.892511179002  4.823089638415  1.029526784269 -24.775620574029  5.997424396691
Zn   4.584706121595  0.807460372143  2.446533548877 -1.963073773307  0.072305334433  0.568481707594
O    2.948244375920  1.730800143350  1.682981992478  0.669757718227 -1.603558989367  3.757942635368
O    4.408918234718  0.629566996441  4.482362179511  2.556206446680  28.274303965247 -8.447938448837