# total energy = -24539.76001187834 eV

CRYSTAL
PRIMVEC
6.520203525830115 0.0 0.0
-1.6300508814575287 2.8233328893302754 0.0
0.0 0.0 4.920041257334992
PRIMCOORD
8 1
Zn   0.037700468807  1.887767793999  4.866183072171 -0.205940735233 -0.912646234329 -0.136069721274
Zn   1.641203689588  0.960409678846  2.439290293577  0.057753404760 -0.069287630652 -1.248000361862
O   -0.006340897929  1.861994733502  1.843037893771  0.272541820192  0.115393680982  0.535802729303
O    1.624524356949  0.835108971629  4.276986836620  0.093311247260  1.133013943621  1.127198879601
Zn   3.282120490222  1.874512872251  4.929436870616 -0.804932952711  0.451872409037 -0.672680548301
Zn   4.878505604814  1.007317327051  2.490886620138  0.669785743251 -0.722044186335 -0.779777536491
O    3.327506974945  1.843204158961  1.871658327148 -1.084531936860  0.674380304601  0.698118271648
O    4.811622661087  0.966605828257  4.356482462048  1.002013409340 -0.670682286924  0.475408544486