# total energy = -49079.17565539439 eV

CRYSTAL
PRIMVEC
6.648050622659499 0.0 0.0
-3.3240253113297493 5.7573780404886925 0.0
0.0 0.0 4.803043725555298
PRIMCOORD
16 1
Zn  -0.057836710807  1.939398579065  4.781545259452  0.261698449720 -0.011912692277 -1.130713834733
Zn   1.654056268680  0.961962288218  2.375956119303 -0.094441504210  0.243026070121 -0.697892014569
O   -0.009587818608  1.946121087855  1.826676227122 -0.067979967584 -0.205422657946  1.057983496948
O    1.712313801091  0.935765644739  4.256728199147 -0.588714746811  0.612638347506  0.580124691149
Zn  -1.714866652530  4.854849324837  4.788861439162  0.491689541034 -0.399315975097 -0.913472072665
Zn  -0.070416817000  3.876451725870  2.356947348158  0.574110109524 -0.118532483721 -1.133921028816
O   -1.701696864247  4.806415616831  1.851638992405  0.205004596572  0.176297201335  0.709768197182
O   -0.026412705124  3.849948607258  4.184735129344  0.061019477106 -0.105985500294  1.748544525073
Zn   3.329910165741  1.926450170867  4.765979513724  0.038417680546  0.065847494622 -0.468655027812
Zn   4.988144734237  0.934537749789  2.446063137144 -0.007039166235  0.142211058285 -2.483793125914
O    3.313629754571  1.894667170450  1.855562671883  0.248290403844  0.208835283172  0.650159741490
O    4.954242335282  0.871390576145  4.221450983323  0.219417943784  0.768385492604  2.190860400770
Zn   1.684897905128  4.793380119170  4.833063662947 -0.473184540251 -0.401448448059 -1.933720516956
Zn   3.339856979083  3.858488028283  2.375173643745 -0.234656615111 -0.496174830499 -0.317276186985
O    1.717922761401  4.784975653573  1.822404854597 -0.588212867474  0.059053097408  1.986735121479
O    3.334339097066  3.873485365682  4.287816478274 -0.045418794454 -0.537501714272  0.155267120138