# total energy = -49079.13734543945 eV

CRYSTAL
PRIMVEC
6.392356429000733 0.0 0.0
-1.5980891072501833 2.7679734343908944 0.0
0.0 0.0 10.057663289469033
PRIMCOORD
16 1
Zn  -0.061626790625  1.971042193801  4.981373512134 -0.187329547890 -1.434011962272  0.103510042170
Zn   1.568916310215  0.976505317393  2.422933850658  2.306455913350 -1.340892005086  0.867910067764
O    0.140147300821  1.825699185675  1.888290582885 -2.799950625914  1.342461920677 -0.027051090581
O    1.601293595528  0.959028614916  4.380539950481 -1.178714530982  0.087342431271 -0.085394820627
Zn  -0.049181511893  1.916683512436  10.081115566736 -0.282934990501 -1.023086427960 -0.613479098240
Zn   1.598261700874  0.978965735383  7.539555561646  2.311773468908 -1.496144469936  0.694526954752
O    0.161408278304  1.765120102269  6.946711806294 -2.601696203581  1.943534674832 -1.153173706398
O    1.548025450170  0.916318085436  9.507650239898 -0.075970441989  0.448171306037 -0.644138989218
Zn   3.150690845387  1.722891556463  5.046062880725  1.022120464503  0.844887638727 -0.086206260784
Zn   4.824458421165  0.912595816287  2.483564712152 -0.039412697470  0.706996547974 -0.709630900273
O    3.212125865319  1.895769000672  1.938381727099  0.390038663560 -0.871015703273 -1.185348491359
O    4.739275797099  0.823076617620  4.325086897696  0.658262830213  0.555351340859  1.896834185452
Zn   3.183639607365  1.742994238961  9.968268741752  0.703444311846  0.514828955265  0.580269958478
Zn   4.821163800661  0.964139943117  7.520806141004  0.446665925136  0.577054279754 -1.038667056007
O    3.273908629441  1.937667700885  6.987461800058 -0.551052970594 -1.062550547493 -0.646464552027
O    4.832911673306  0.847469849753  9.344898288273 -0.121699568595  0.207072020624  2.046503242677