# total energy = -98156.2591303424 eV

CRYSTAL
PRIMVEC
6.392356429000733 0.0 0.0
-3.1961782145003665 5.535940476425361 0.0
0.0 0.0 11.289208286723888
PRIMCOORD
32 1
Zn   0.099701583223  1.837854890660  5.658826497181 -1.657783555039  0.306853191880  0.934745894442
Zn   1.526134825578  0.867087352398  2.824321417077  0.540999957234  0.615945300392  0.124193795772
O   -0.072550049291  1.858771320132  2.169184787560  0.703717105892 -0.224371431135 -0.388987853698
O    1.582243094898  0.957574993064  5.010824376674  0.653919979864 -0.212120895902 -1.314885039500
Zn  -0.044744577296  1.987156685123  11.433433910946 -0.206120198234 -1.518166482733 -0.452970270087
Zn   1.605470361219  0.933465581557  8.574392409925 -0.324569121102 -0.219726733274 -0.573474018602
O   -0.077444676609  1.848968002312  7.781632821141  0.672990880452 -0.452890822999 -0.093007342867
O    1.708506836791  0.989388472540  10.746540693925 -2.323688218068 -1.024835549441 -0.878274184607
Zn  -1.513291303041  4.696920043400  5.590921773307 -0.155782626322 -1.111360884128  0.786472174903
Zn  -0.170530170928  3.657525444987  2.802697353749  2.461750544292 -0.063306473368  1.154863949617
O   -1.644583911737  4.519067428183  2.226810602296  0.335889945432  1.997562551112 -1.458587851839
O    0.105300008984  3.652546438565  4.964306559705 -1.237054404374  0.039719944297 -0.667853302115
Zn  -1.524836537988  4.692359097088  11.349634592812 -0.794702276122 -0.381928889969 -0.335436659944
Zn   0.020215827207  3.613849669686  8.554443783217 -0.437890492936  0.426464253377 -0.605558814952
O   -1.656250601455  4.588892415928  7.688592073317  1.139224443307  0.723966857280  0.468240051762
O   -0.020400566308  3.673867504198  10.581071990818 -0.039243775992  0.519160492761  0.192352455026
Zn   3.155876964158  1.882339299050  5.609877667061  0.481018691584  0.756059109828  0.504672583557
Zn   4.797510164167  0.897933668346  2.885252080087 -0.733573012911  0.225261804159  0.485911758010
O    3.182392458626  1.791748102209  2.129270274781 -0.371323346539  0.125926719303  0.204335852640
O    4.722836574070  0.922640765180  5.026256164329  0.700855725183  0.428989590902 -0.533036993633
Zn   3.153228610890  1.929899070117  11.258262889251  1.910667234680 -0.172435404387  0.819297963183
Zn   4.740630976662  0.879076856116  8.457031942067  0.080295551727  0.102262028696  0.102805302794
O    3.147102176488  1.875992967587  7.798254865564 -0.050513949589 -0.783622621269 -0.333648457696
O    4.794718622114  0.936321047174  10.483173691344  0.249301618717 -0.036114486334  0.946933694757
Zn   1.576731605185  4.620514124711  5.591811589322  0.861270450960  0.110747697569  0.553657498097
Zn   3.222700740560  3.688680511751  2.746909341486 -1.876279758340 -1.007954457415  0.946770429706
O    1.650640669453  4.699039748792  2.155363234489 -0.716907636440 -1.250106095351 -0.581863528217
O    3.251287358510  3.806191839221  4.938189309043 -0.143260582595 -0.707113276057 -0.170068703927
Zn   1.587870925498  4.579636923055  11.234534462187  0.519201887522  0.875161864231  0.131546893703
Zn   3.206165632185  3.703012814100  8.372220713910  0.430011347298 -0.251489627508  0.599958180935
O    1.617098057563  4.527004177925  7.879041466113 -1.130997170301  0.763296508117 -0.639294002420
O    3.208796086856  3.664491195788  10.594629539568  0.458573989427  1.400165960256  0.070189059421