# total energy = -73618.48284970879 eV

CRYSTAL
PRIMVEC
10.163846843821924 0.0 0.0
-3.3879455599916932 5.868096975280588 0.0
0.0 0.0 4.89541683232683
PRIMCOORD
24 1
Zn   0.000000000000  1.956033341478  4.894648445505  0.000003085324 -0.000002571103 -1.034626310279
Zn   1.693974812765  0.978016162547  2.446943078496  0.000001028441 -0.000004370875 -1.034625538948
O    0.000000000000  1.956033341478  1.861020684797 -0.000003085324  0.000000000000  1.034626824500
O    1.693974812765  0.978016162547  4.308726051807  0.000000257110  0.000001542662  1.034626310279
Zn  -1.693974812765  4.890082845503  4.894648445505 -0.000002313993  0.000002828213 -1.034625796059
Zn   0.000000000000  3.912066682956  2.446943078496 -0.000005656427  0.000002056883 -1.034626053169
O   -1.693974812765  4.890082845503  1.861020684797 -0.000000257110 -0.000002056883  1.034626824500
O    0.000000000000  3.912066682956  4.308726051807  0.000003085324 -0.000000257110  1.034626567389
Zn   3.387948609146  1.956033341478  4.894648445505  0.000002571103 -0.000002313993 -1.034629138493
Zn   5.081923421911  0.978016162547  2.446943078496  0.000008484640  0.000002828213 -1.034625281838
O    3.387948609146  1.956033341478  1.861020684797 -0.000002828213 -0.000000000000  1.034626567389
O    5.081923421911  0.978016162547  4.308726051807 -0.000000000000  0.000002313993  1.034626824500
Zn   1.693974812765  4.890082845503  4.894648445505 -0.000001028441  0.000003342434 -1.034629909824
Zn   3.387948609146  3.912066682956  2.446943078496  0.000003856655  0.000004113765 -1.034624767617
O    1.693974812765  4.890082845503  1.861020684797  0.000000257110 -0.000001799772  1.034626053169
O    3.387948609146  3.912066682956  4.308726051807  0.000003342434 -0.000000000000  1.034627081610
Zn   6.775898234676  1.956033341478  4.894648445505 -0.000002571103 -0.000003599544 -1.034623482066
Zn   8.469872031057  0.978016162547  2.446943078496 -0.000000514221 -0.000001028441 -1.034629909824
O    6.775898234676  1.956033341478  1.861020684797 -0.000002828213  0.000000514221  1.034627595831
O    8.469872031057  0.978016162547  4.308726051807 -0.000001028441  0.000001799772  1.034626310279
Zn   5.081923421911  4.890082845503  4.894648445505 -0.000005656427 -0.000001028441 -1.034625281838
Zn   6.775898234676  3.912066682956  2.446943078496 -0.000001285552  0.000000000000 -1.034629138493
O    5.081923421911  4.890082845503  1.861020684797  0.000000771331 -0.000001799772  1.034627338720
O    6.775898234676  3.912066682956  4.308726051807  0.000002828213 -0.000000771331  1.034626567389