# total energy = -24538.288770313346 eV

CRYSTAL
PRIMVEC
6.775898248666088 0.0 0.0
-1.693974562166522 2.9340520283496487 0.0
0.0 0.0 5.656919635983122
PRIMCOORD
8 1
Zn   0.042362915851  1.950213963108  5.668495580551 -0.387065696975  0.144562075016 -0.013976773895
Zn   1.688278742099  0.930801076880  2.801671304265  0.227081373867  0.477257167659  0.017464989554
O    0.001366021087  1.972728240218  2.152536186504  0.184044192271 -0.026929477401  0.120992258115
O    1.689312066582  1.031918484035  5.055715867253  0.071364567786 -0.341176904862 -0.274656809653
Zn   3.384815271393  1.943534960204  5.674427879468  0.092994744461  0.316785877612  0.048735003312
Zn   5.120458897430  1.004898912179  2.859304384409 -0.354554097500  0.041219154551  0.029972635103
O    3.396187939014  2.051927649308  2.171475499699 -0.117915161852 -0.492843966354 -0.042376922304
O    5.052457337786  1.043201709799  4.970504881237  0.284049563722 -0.118873926221  0.113845362658