# total energy = -73608.5717264125 eV

CRYSTAL
PRIMVEC
9.013222972357486 0.0 0.0
-3.004404653044838 5.203784283090595 0.0
0.0 0.0 4.630633434278382
PRIMCOORD
24 1
Zn   0.002918481598  1.698997036901  4.735356269350 -0.811725550153  0.931188258997 -4.615561862729
Zn   1.549016105319  0.840606523327  2.300239397751 -0.430246089017  1.131087930243 -2.709769439642
O   -0.073732670525  1.646260669290  1.753006972918  4.044871577520  3.132680685560  3.392316339214
O    1.398278063007  0.906716711185  3.988739635178  1.433896005519 -0.259311951766  3.551696195969
Zn  -1.515381461153  4.320633544689  4.596980763666 -0.551480287940  2.331377873403  1.230583194827
Zn  -0.178090470066  3.470589275588  2.284089504829  2.253241277001 -0.845244507846  0.619894257738
O   -1.648370664787  4.347541620551  1.836913769535  3.874872550488  2.309842313324 -2.933189048387
O   -0.040739767835  3.516129485978  4.217668288098  1.498440979280 -1.625803659698 -1.730359369524
Zn   3.015508943747  1.637261867474  4.658843019537 -2.469510904964  1.494996986595 -0.510134635113
Zn   4.499227853920  0.922215849408  2.337355849951  1.321381188747 -1.595652075815 -1.891987655993
O    3.032507882273  1.721086643762  1.816905315858 -1.177354931630  1.284948399841 -0.198394804565
O    4.453607425845  0.890957090818  4.076945739153  0.701434994726 -2.088117318673  1.155514952937
Zn   1.550508695043  4.274146945887  4.545697327598 -0.645678822901  0.971364059885  0.459815318033
Zn   2.936214213325  3.500162561483  2.343576776447  1.022662453049 -0.330915632146 -2.133733059630
O    1.467616787333  4.306808161972  1.763401021650 -1.872314860155  0.584489138765  0.429106576096
O    3.059064442438  3.491431452389  4.088511506871 -0.780194055203 -2.919725723793  1.345249510724
Zn   5.916545449133  1.723960059245  4.598805941318  1.436817807152  1.135191153778 -0.129415963403
Zn   7.595661118802  0.863696597938  2.323007700302 -3.775717185743 -1.697475217201 -2.405692267846
O    6.008698443447  1.719907714197  1.766564662913  0.563805128054  0.044048139359  0.235743677527
O    7.485551080360  0.926585459905  3.993418399223 -0.313340856487  0.877575872989  4.365758621785
Zn   4.444432866182  4.413438195024  4.506505130148  3.108694349948 -0.009423864417  1.367643305038
Zn   6.053364371209  3.491207023137  2.318644399061 -5.241462988782 -2.900665621838 -4.025391871529
O    4.488099227516  4.350716979004  1.757605519279 -0.273111319543 -1.109379334921 -0.720341344712
O    6.121964011252  3.476897630346  3.961618847254 -2.917980973188 -0.847076161738  5.850649373184