# total energy = -36809.351926950876 eV

CRYSTAL
PRIMVEC
3.13225493067428 0.0 0.0
-1.56612746533714 2.7126110763371933 0.0
0.0 0.0 15.991680564733576
PRIMCOORD
12 1
Zn  -0.007626414305  1.767953685344  5.336727493795  0.171565343077  0.732940778643  0.279146727103
Zn   1.651399033893  0.898373312784  2.700503971354 -1.229724703481 -0.686826757894  0.062980971708
O   -0.010340199977  1.751734556088  2.087717760579  1.285698133523  0.821566447503 -1.413812861616
O    1.570424605877  0.985975592235  4.626378432891 -0.169010180756 -0.800689604054  0.655544145731
Zn  -0.007432214500  1.765478264272  10.785942719238  0.732674155246  0.018355105468 -1.496230344782
Zn   1.584159856973  0.975640717091  7.961031533322 -0.246577277808 -0.858308025898  1.419277227165
O    0.000565685240  1.789854411819  7.366419918558  0.301539750087  0.782022880882 -0.933413034563
O    1.657790400079  0.844494142820  10.067143774207 -0.836546722961  0.080542891851 -0.656476427737
Zn   0.138938371636  1.825171525839  15.975307328534 -2.395571377362  1.012895346360  1.663213982026
Zn   1.598465804918  0.861494456456  13.328737341607 -0.462421131087  0.829178455522  0.625774627778
O   -0.050736891818  1.854278944459  12.652888815862  0.488139104679 -0.812662460145  1.079017434800
O    1.511077771705  0.935847924001  15.362281813483  2.360235163954 -1.119015315349 -1.285022190502