# total energy = -36806.53325507324 eV

CRYSTAL
PRIMVEC
3.4518726727477356 0.0 0.0
-1.7259363363738678 2.989408031416358 0.0
0.0 0.0 15.628374237101408
PRIMCOORD
12 1
Zn  -0.125045123132  2.009069288611  4.982582136744  0.234947921099 -0.898607239738  1.404355572858
Zn   1.713687021007  0.967577859909  2.616028629649 -0.083387303278  1.177939857600  0.384315387923
O   -0.070335012393  2.123861659530  2.265931073497  0.090162931439 -1.528427498340 -2.102027243886
O    1.786625090583  0.835783290140  4.554899254837 -0.212400889036  1.138977874514 -0.139332965406
Zn   0.025752350888  1.854945590083  10.598644352270  0.422930529192 -0.853385134675 -6.286735465921
Zn   1.833314429980  0.954350629014  7.793825902403 -0.342316932004 -0.144410894150 -0.245296868433
O   -0.047390069550  1.962003004718  7.082797778091  0.192269408394  0.041664983839  0.201660619801
O    1.653483945284  0.845476148605  9.810288757092  0.130909260119  0.335381381226  0.384969990788
Zn  -0.089797360896  1.993249010964  15.601038857406 -0.009278082868 -0.254366691945  0.118158902432
Zn   1.794470506793  1.101846386823  12.885990498641 -0.141331483893 -0.078017297216  0.000247854345
O   -0.121389244784  2.216418447441  12.235354957862 -0.253678150519  0.372336618294  5.423393734254
O    1.826263634858  0.815067911856  14.848045626636 -0.028827208644  0.690914554810  0.856289967027