# total energy = -24539.8199478085 eV

CRYSTAL
PRIMVEC
6.392356429000733 0.0 0.0
-1.5980891072501833 2.7679734343908944 0.0
0.0 0.0 4.926199166088696
PRIMCOORD
8 1
Zn  -0.069794943670  1.879457624772  4.902005375476  0.860561854929 -0.121962335338 -0.257775974737
Zn   1.576050819226  0.980309408704  2.472433701902  0.701294869603 -0.777806014587 -0.915665737882
O    0.022035731082  1.756025696777  1.863288159184 -0.625445012353  1.080779926017  0.046060027583
O    1.664687872706  0.918564998721  4.309937652194 -0.641017927090  0.149740533893  1.109134823011
Zn   3.253627600199  1.867630486907  4.863572610918 -0.745679052146 -0.068671080114  0.472776506180
Zn   4.783774907908  0.944680970911  2.437617093376 -0.278725066185  0.198331812538 -0.551589816934
O    3.173251388932  1.895392490878  1.880015038252  0.203404341965 -0.456615837260 -0.138463675427
O    4.772866990898  0.923096540193  4.326144193449  0.525605734166 -0.003797262259  0.235523591097