# total energy = -49074.51331062535 eV

CRYSTAL
PRIMVEC
6.520203525830115 0.0 0.0
-3.2601017629150575 5.646659258457025 0.0
0.0 0.0 5.1294049925493965
PRIMCOORD
16 1
Zn   0.039871696581  2.090821928262  5.206237114837  0.740094101859 -2.000904213891 -0.328946167124
Zn   1.437063289419  0.789513840393  2.614715717420  3.301301858408 -1.332382424954 -0.549235457769
O    0.088492854273  1.795327608512  2.177028799178 -0.711408046778  3.275030069195 -2.783447486053
O    1.622903434353  0.929328520659  4.404142541740  0.213290490730  0.529111433326  2.929361190000
Zn  -1.506335235718  4.495744881075  5.096339084409 -6.469205628837  4.202771507295  2.009951154584
Zn  -0.098568524781  3.777878949145  2.687132357879  1.267983746963  0.249911998608 -1.756656098437
O   -1.693665247157  4.504253094656  1.853267441083  3.102153463506  2.141157377118  0.927613911383
O   -0.140376721809  3.878477865305  4.520003298293  6.867402659838 -3.401115425563 -1.656590306062
Zn   3.427879640042  1.808943097514  5.223142046518 -0.995358623028  0.558076967320 -0.491235484216
Zn   5.016199262873  1.103377529536  2.462256406457 -3.446225173417 -1.596966937972  0.988702551164
O    3.245141155925  2.085156523418  2.060957440052  0.555486837996 -2.563346143048 -0.447465023998
O    4.910197706072  0.707865895782  4.433133974698 -0.010403968942  3.188572354522 -0.371103517218
Zn   1.601378286453  4.761287993908  5.266326006490  0.242449885903 -0.754947364821 -5.068054164738
Zn   3.336276648687  3.896575994231  2.538868145865 -2.862513536248 -0.941978664745  1.498539709641
O    1.689425810825  4.607385761905  1.772474295154 -1.240302993218  0.156638032343  7.445395135135
O    3.292643446692  3.878059920259  4.896100374029 -0.554745846065 -1.709628050514 -2.346829946292