# total energy = -36808.88456231717 eV

CRYSTAL
PRIMVEC
9.780305553333779 0.0 0.0
-1.630054185657481 2.8233297056086286 0.0
0.0 0.0 5.443454002735641
PRIMCOORD
12 1
Zn  -0.003945375260  1.963763101290  5.541511346213  0.221569442910 -0.631714904522 -0.026965729956
Zn   1.636765431328  0.985107584432  2.729176660108  0.912691485745 -0.681021206956  0.283463095091
O    0.078205279266  1.812616303208  2.163166905003 -1.250261389982  0.669539688679 -1.137963060096
O    1.684545158048  0.886852678782  4.734566697894 -0.475494162221  0.456801728018  0.590145308610
Zn   3.281182973721  1.841547425065  5.353777403087 -0.445275472546  0.418470436538  0.549724995811
Zn   4.919504451663  1.063390128111  2.645642092346  0.147662825428 -1.323405418266  0.562865904069
O    3.338939590136  1.840858891554  2.113737240736 -1.140518222418  0.866375633397 -0.744862726892
O    4.850390944440  0.945915944018  4.778458753156  0.946798968952 -0.213155764925 -0.186047595854
Zn   6.505588339614  1.848031767647  5.422776480735  0.002717656041  0.272278025008  0.189856942298
Zn   8.092411618664  0.889149094526  2.867303915438  0.477589097077  0.421147726260 -2.127151292647
O    6.515207270126  1.915321247884  2.057786068727  0.633949707389 -0.044078221266 -0.543768006897
O    8.148609254374  0.996908501112  4.666270824215 -0.031429679264 -0.211237721966  2.590701909353