# total energy = -12268.92735783943 eV

CRYSTAL
PRIMVEC
3.3240255759183532 0.0 0.0
-1.6620127879591766 2.878689249384692 0.0
0.0 0.0 5.870388720299456
PRIMCOORD
4 1
Zn  -0.045162205890  1.916645778372  5.877264467203  0.310154745449  0.144345588129 -0.326550927419
Zn   1.610221145461  0.939156557715  3.093878022703  0.895432441554 -0.270356896726 -0.176374077320
O    0.132213117282  1.926484561674  2.495477963657 -1.026748450193  0.319753959102 -0.615005562187
O    1.669763750797  0.997505837870  5.150979504578 -0.178838993921 -0.193742907616  1.117930566925