# total energy = -110385.98134156504 eV

CRYSTAL
PRIMVEC
9.013222972357486 0.0 0.0
-4.506611486178743 7.805676424635892 0.0
0.0 0.0 4.437687370109125
PRIMCOORD
36 1
Zn  -0.292288906448  1.833903353062  4.475500544445  2.391354511067 -0.285608680679 -2.954145853144
Zn   1.546328362228  0.894767881490  2.417601475396 -3.367590811443  0.012036619450 -31.316098210938
O   -0.080176223628  1.881850093986  1.706508656926  3.476865009790  1.105740195507  2.882461183014
O    1.653154883541  0.970367190493  3.767163969560 -4.497008810183 -2.229323589843  30.814145854525
Zn  -1.601117942033  4.287984947117  4.418550495094  1.712973312837  0.641024869069 -3.171206352440
Zn   0.002036988392  3.634267602121  2.294112208774  1.397718012937 -1.708074075763 -1.910999421209
O   -1.363286928783  4.444382392133  1.632753453343 -2.418767098752 -5.520698418945  2.370634247800
O    0.069092663339  3.561406510257  4.012909493901 -6.593440562259 -3.403377996345  0.400560131917
Zn  -3.125255749303  6.816214721276  4.503635319953  11.669056341395  7.127889348638 -1.293475977696
Zn  -1.436104757177  5.981975138656  2.085463307543 -1.350596633969  7.610256069609  2.677410563696
O   -2.940063760857  7.103743744672  1.664441241347  0.781723090253 -1.799668340332  4.892513381953
O   -1.291639918054  5.982601557653  3.974620421392 -9.673658144924 -1.839313465528 -4.325215410255
Zn   2.842738077879  1.836191810375  4.446429295070  4.144182236897  2.313405090975 -0.653146592033
Zn   4.328824761727  0.856498638072  2.073750624290  7.350536083772 -1.605920033400  0.684689142726
O    3.079356812638  1.693306989238  1.666445782136 -7.124436357092  6.472683045862  1.058490261381
O    4.302817106840  0.880324191677  3.801421427433  2.648203088894 -1.007509913678  4.453543025690
Zn   1.464372928385  4.227270074530  4.380339837625  2.965651025570  2.786206022634  3.194858701751
Zn   2.748609385089  3.589680089399  2.097507677401  28.645659707685 -18.375108393904  6.268215038520
O    1.643358411493  4.278786051751  1.756569899959 -27.726472586913  17.381160535181 -8.678431676598
O    2.905921672237  3.554059832213  3.862595073069  5.380321328545 -0.629454647733  0.498764702713
Zn   0.028907208717  6.570761225359  4.539666580108  7.571051888606  5.828057346816  0.406681671433
Zn   1.498314022132  6.029506370001  2.342354583412  0.021311359883  3.602774759812 -21.451777339986
O    0.085445353778  7.012332538609  1.765301910375  0.792823571042 -2.767224339326  1.089294134136
O    1.566050195414  5.888071776441  3.768159930698  0.561302159126 -0.363019454659  20.324204107765
Zn   6.007642995037  1.721004623432  4.448149919335 -2.504641430118 -6.070330597932 -2.355259050896
Zn   7.590590279557  0.907893838105  2.223399869267 -0.630157844447  0.327130196961 -2.951525641912
O    6.057290531136  1.620599122165  1.714299686863 -1.495393450703  2.374812033327  3.057241947705
O    7.522433188763  0.743001430437  3.878669254918 -1.331681028011 -2.052942056324  4.068627799399
Zn   4.608450991221  4.283854187028  4.209918718986 -2.199651773810 -1.283943355616 -1.546853823366
Zn   6.014904948786  3.526675858178  2.274468790628 -0.766195684042 -0.797789142577 -3.439735709038
O    4.427471783192  4.301584999260  1.501659730499  1.291718371575  1.056761194505  4.545910678090
O    6.097806771041  3.325346595322  4.026022832003 -1.325329631872  1.732667963052 -1.391137274395
Zn   3.021814594538  6.704485907988  4.302944193284 -0.650974524082  1.644554972164  0.264401707584
Zn   4.471101190312  6.236968229767  2.386153439124  0.129902673231 -0.764341661552 -6.385784644107
O    3.073432421179  7.084207583880  1.582125278585 -0.663039939887 -3.038813051576  1.361523308184
O    4.670748585761  6.073296212490  4.029543396896 -8.613317203487 -6.474699304961 -1.489378097747