# total energy = -36808.905982574324 eV

CRYSTAL
PRIMVEC
9.97207619857785 0.0 0.0
-1.6620160237883748 2.8786890966244614 0.0
0.0 0.0 5.443457234517691
PRIMCOORD
12 1
Zn   0.015084759666  1.997253292602  5.429157277249 -0.104824132996 -0.829919447453  0.281767452556
Zn   1.663405134003  0.999925010622  2.761831321691 -0.160739713217 -0.322893276062  0.016989078359
O    0.043315707384  1.932181506575  2.046568201027 -0.132413612578  0.105369978197  0.350324375689
O    1.672293245519  0.940189282570  4.874646019320  0.086603753333  0.740016454543 -0.735513681577
Zn   3.374557566052  1.910683704707  5.499288894738 -0.365636066346  0.007058449509 -0.261102982228
Zn   4.964321908951  0.983301559599  2.736801410433  0.238860883000 -0.147387974500  0.147832004016
O    3.305371301386  1.867137642363  2.055113273121  0.409198267208  0.529799203422  0.296304984050
O    4.957666545296  0.945819516791  4.792610734473  0.402938402341 -0.022952495031 -0.025333336558
Zn   6.676047735382  1.896734764520  5.529370659799  0.185899500312  0.119821891956 -0.724403430596
Zn   8.352788526885  0.986373956276  2.680494082178  0.187702100738 -0.065816641384  0.477075133555
O    6.717188532947  1.932827697113  2.063305333718 -0.571702785634 -0.195219749271  0.172226373700
O    8.349499736155  0.928552866853  4.792403315288 -0.175886596160  0.082123091854  0.003833771924