# total energy = -36799.30805917702 eV

CRYSTAL
PRIMVEC
8.629681152692129 0.0 0.0
-1.438283068675739 2.4911732067534005 0.0
0.0 0.0 4.5259484663843725
PRIMCOORD
12 1
Zn   0.029856970852  1.624458946896  4.521005385020  0.615598458576 -0.897549745007  0.884945168870
Zn   1.518916220462  0.832811694481  2.158328993598 -2.053102750271 -1.049536137511  2.144075322096
O    0.030949488486  1.643426123101  1.802956997794 -1.702436932082 -1.284516968731 -0.435839266834
O    1.466464155448  0.760419888196  4.012327103538  0.074213350089  1.065835131782 -1.209294203541
Zn   2.899358851212  1.706714478739  4.423410594928 -0.387982038141 -3.110228527205  1.993004756538
Zn   4.362926022697  0.881956002709  2.239762979796 -2.782743518007 -2.025041473259 -2.175273087855
O    2.870898162770  1.656645931659  1.709081600279  2.760770870391  2.253473447616 -1.475894975659
O    4.278493222299  0.768502447563  3.909737453995  1.017555470840  3.470399456671  2.168999853252
Zn   5.723439267793  1.697039743199  4.503095344756 -0.590145051500 -1.442315339931 -0.133657512288
Zn   7.160113763902  0.799051518844  2.293858999070  0.725106884421  1.858973405851 -1.633327221769
O    5.715995304830  1.672522819044  1.735532435980  3.299645039531  0.386185351252 -1.481456528907
O    7.193657334542  0.846351664210  4.003007047894 -0.976479783845  0.774321141362  1.353717438986