# total energy = -12268.895933453055 eV

CRYSTAL
PRIMVEC
3.13225493067428 0.0 0.0
-1.56612746533714 2.7126110763371933 0.0
0.0 0.0 4.928255453118674
PRIMCOORD
4 1
Zn   0.045912279548  1.817401967484  4.969215637622  0.435827182649  0.541201017501 -2.659389444528
Zn   1.673841640472  0.937256185817  2.428274683721 -0.348960148352 -1.471983042199 -4.410437195639
O    0.094641709181  1.648982499214  1.805888424810  0.376067546092  1.313322580109  0.159136630396
O    1.689467520644  1.010174767378  4.077067681512 -0.462934580389 -0.382540298300  6.910689752661