# total energy = -110427.16187301485 eV

CRYSTAL
PRIMVEC
9.780305553333779 0.0 0.0
-1.630054185657481 2.8233297056086286 0.0
0.0 0.0 16.644397839218918
PRIMCOORD
36 1
Zn   0.013141796572  1.888172097699  5.530484051702 -0.097008493606  0.041974030439  0.228871890108
Zn   1.616885982260  0.975177640203  2.841690273224 -0.391053735088 -0.301796346182 -0.352403112595
O   -0.032006049923  1.891619655406  2.102876211420 -0.055891668961 -0.028887372458  0.058763076972
O    1.653007584761  0.975517994837  4.822931758568 -0.136931040833 -0.222528978609  0.520195618894
Zn   0.040719324141  1.931310091403  11.114475177056 -0.579250516074 -0.485556174443 -0.233494990702
Zn   1.659908568359  0.906308640619  8.321898664229 -0.222568316488  0.204986341740 -0.059474244106
O   -0.041394165224  1.866839295226  7.684303918688  0.857031473178  0.146823874466 -0.760710235447
O    1.695526485123  0.962557133917  10.335078715388 -0.237722398520  0.016254257075  0.634405306870
Zn   0.001303714730  1.856901526753  16.694039736116  0.051676345328  0.251849067730 -0.230473944488
Zn   1.712792636547  0.994394962585  13.874245610965 -1.048192478999 -0.738594634495  0.590725606593
O   -0.000622027433  1.832047814281  13.222103638944  0.410299984912  0.481780509451 -0.435012914278
O    1.642996463996  0.956700686952  15.986476684646 -0.196022961899 -0.212054304330 -0.087981093297
Zn   3.310608001009  1.840807055935  5.549233875478 -0.016989592579  0.204770369074  0.061413884331
Zn   4.878511278967  0.948773749301  2.759606124776 -0.476415131374 -0.265363814387  0.261125865046
O    3.161242196568  1.857922590653  2.111098514298  0.848307205932  0.373110520346 -0.219118153156
O    4.935452217898  0.919949232774  4.856948639313 -0.155828649068 -0.022354456436 -0.011565593350
Zn   3.260765607848  1.891430895509  11.104426891130  0.386093562869  0.083006780011 -0.233742073716
Zn   4.912907635567  0.945512995430  8.297896816371  0.120093143340 -0.020453639869  0.233867800661
O    3.277297258325  1.866974263443  7.614416789295  0.003171712860  0.020559055098 -0.108391538632
O    4.975253171348  0.948774727332  10.385211583624 -1.149524796792 -0.392690242250  0.075026590019
Zn   3.268718952324  1.860907539908  16.685498595276 -0.279211261793  0.071708838499 -0.098446511604
Zn   4.891722515708  0.965733777161  13.862785048917  0.065079248998 -0.069776654474  0.360762026083
O    3.242719966072  1.881382609584  13.236602941926  0.632468494858  0.354434541203 -0.801362718861
O    4.837206114523  0.923506329904  15.926455927496  0.439213582623  0.138149229511  0.263343698633
Zn   6.502835183601  1.921823195016  5.559288029587  0.167395013750 -0.133662654494  0.137972851834
Zn   8.146077133266  0.951191440834  2.765693386952 -0.179950996038 -0.000589296845  0.130097048630
O    6.437168256054  1.871880064708  2.116146129994  0.566525869419  0.248313029552 -0.360598503922
O    8.147814115532  0.962748827906  4.861034850974  0.054173657829  0.072136670065 -0.000110300326
Zn   6.472659028846  1.856608117587  11.148210385001  0.784640263900  0.713011386709 -0.392055179769
Zn   8.110470952869  1.026616179231  8.267638507050  0.726219143649 -0.964777922027  1.105424464039
O    6.577482387706  1.864087117243  7.698305404118 -1.422745902439  0.718709979756 -1.107996595641
O    8.085152675883  0.999052344090  10.366132163551  0.715068526349 -0.123646150798  0.530627612860
Zn   6.488286001059  1.885226269666  16.653347796831 -0.207454857885  0.201978408151 -0.116841469172
Zn   8.158818915341  0.945917900080  13.859874429985 -0.010117290940 -0.128078218428  0.196944959493
O    6.524848695340  1.841293137121  13.176507854454 -0.156814152910  0.259119890359  0.131589059795
O    8.099042665830  1.014028925984  15.955739140353  0.192237269604 -0.491866175821  0.088621297984