# total energy = -49070.44447647911 eV

CRYSTAL
PRIMVEC
6.392356429000733 0.0 0.0
-3.1961782145003665 5.535940476425361 0.0
0.0 0.0 4.618311318685875
PRIMCOORD
16 1
Zn  -0.046370153536  1.891772499432  4.385019713867  4.008236957016 -0.843352947250  3.091127544709
Zn   1.507313171309  0.873248305524  2.253466728605 -1.009932149967  3.060815266879 -2.097245249116
O    0.089085157666  2.141868330832  1.687185771158 -0.439527771429 -4.077557754899 -0.986307568569
O    1.522747515907  0.834582219956  4.024921016859  1.410509765385  1.267546402315  2.511249936574
Zn  -1.774007395412  4.604537708288  4.544051314050  1.442498659586 -0.594095808617 -0.058133413808
Zn   0.105043675491  3.738873933667  2.438703793969  1.165753857056  3.500727161120 -14.334846033022
O   -1.462295640393  4.743962672833  1.785528978640 -0.874751773276 -2.846778899121 -0.914709030396
O   -0.041297818710  3.543698032527  3.908155677384 -1.491393071294  3.098044840654  15.664219238835
Zn   3.270555838494  1.949312017356  4.485419342412 -1.977208670046 -1.230401674944  1.029397200670
Zn   4.597532324878  1.000473457824  2.374053418753  2.246451764883 -2.528103260686 -7.388351097737
O    3.199721497669  1.928145007513  1.911149010240 -3.253476768505 -6.483708450438 -3.476695059871
O    4.883358232537  1.153447661055  3.952335170372 -2.421375997130 -2.671516823919  6.657148384831
Zn   1.565327002080  4.868597642307  4.756811309255  0.027350109878 -0.358110704503 -8.167923717306
Zn   3.407172640859  3.492556624153  2.127796836624  0.776872447029  9.075164978570 -0.146131990606
O    1.541153667008  4.680735875393  1.723367787017  1.551433472317  0.173939499736  6.810420328915
O    3.124165123149  3.678732087440  3.924616634425 -1.161441088614  1.457388175104  1.806780268787