# total energy = -24537.25843493718 eV

CRYSTAL
PRIMVEC
2.9404842854302067 0.0 0.0
-1.4702421427151033 2.546532903289695 0.0
0.0 0.0 9.630724119873866
PRIMCOORD
8 1
Zn  -0.000000000000  1.697689484338  4.814611060250  0.000000000000  0.000000000000  0.521876863251
Zn   1.470242142715  0.848844595145  2.406929883258  0.000000000000  0.000000000000  0.521867093059
O   -0.000000000000  1.697689484338  1.830588788296  0.000000000000  0.000000000000 -0.521869921272
O    1.470242142715  0.848844595145  4.238269671241  0.000000000000  0.000000000000 -0.521874549258
Zn  -0.000000000000  1.697689484338  9.629973414236  0.000000000000  0.000000000000  0.521878148802
Zn   1.470242142715  0.848844595145  7.222292237243  0.000000000000  0.000000000000  0.521867864390
O   -0.000000000000  1.697689484338  6.645950848233  0.000000000000 -0.000000000000 -0.521873520817
O    1.470242142715  0.848844595145  9.053632025226  0.000000000000  0.000000000000 -0.521871978155