# total energy = -110422.54900003829 eV

CRYSTAL
PRIMVEC
10.54738813431007 0.0 0.0
-5.273694067155035 9.134301809015879 0.0
0.0 0.0 5.193038190091966
PRIMCOORD
36 1
Zn   0.000000000000  2.029845901187  5.192227095944 -0.000000000000 -0.000002571103 -0.215110574658
Zn   1.757898373965  1.014922423224  2.595709055637 -0.000003085324 -0.000001799772 -0.215111603099
O    0.000000000000  2.029845901187  1.974164129748  0.000000000000 -0.000002828213  0.215109803327
O    1.757898373965  1.014922423224  4.570682170055 -0.000000771331 -0.000000514221  0.215110060437
Zn  -1.757898373965  5.074614225598  5.192227095944  0.000000514221  0.000000257110 -0.215110317548
Zn   0.000000000000  4.059691802374  2.595709055637  0.000000000000  0.000001542662 -0.215111088879
O   -1.757898373965  5.074614225598  1.974164129748  0.000001542662  0.000000771331  0.215111088879
O    0.000000000000  4.059691802374  4.570682170055  0.000000000000 -0.000001028441  0.215111345989
Zn  -3.515795693190  8.119383604747  5.192227095944 -0.000002313993  0.000001285552 -0.215110574658
Zn  -1.757898373965  7.104460126784  2.595709055637  0.000001285552 -0.000000771331 -0.215111088879
O   -3.515795693190  8.119383604747  1.974164129748 -0.000002571103  0.000001285552  0.215109803327
O   -1.757898373965  7.104460126784  4.570682170055 -0.000000771331  0.000000514221  0.215111345989
Zn   3.515795693190  2.029845901187  5.192227095944 -0.000000771331 -0.000000514221 -0.215109031996
Zn   5.273694067155  1.014922423224  2.595709055637  0.000000000000 -0.000001542662 -0.215111860210
O    3.515795693190  2.029845901187  1.974164129748 -0.000000000000 -0.000000000000  0.215110831768
O    5.273694067155  1.014922423224  4.570682170055 -0.000000000000  0.000002313993  0.215111860210
Zn   1.757898373965  5.074614225598  5.192227095944 -0.000000514221  0.000000257110 -0.215110317548
Zn   3.515795693190  4.059691802374  2.595709055637 -0.000001285552  0.000000771331 -0.215111860210
O    1.757898373965  5.074614225598  1.974164129748 -0.000001542662  0.000000771331  0.215111088879
O    3.515795693190  4.059691802374  4.570682170055  0.000002056883 -0.000001285552  0.215111860210
Zn  -0.000000000000  8.119383604747  5.192227095944  0.000000000000 -0.000000771331 -0.215110317548
Zn   1.757898373965  7.104460126784  2.595709055637 -0.000001285552 -0.000000771331 -0.215111088879
O   -0.000000000000  8.119383604747  1.974164129748  0.000000000000 -0.000001799772  0.215111088879
O    1.757898373965  7.104460126784  4.570682170055  0.000000771331  0.000000514221  0.215111345989
Zn   7.031592441120  2.029845901187  5.192227095944  0.000000771331 -0.000000514221 -0.215109031996
Zn   8.789489760345  1.014922423224  2.595709055637  0.000003085324 -0.000001799772 -0.215111603099
O    7.031592441120  2.029845901187  1.974164129748  0.000000000000 -0.000000000000  0.215110831768
O    8.789489760345  1.014922423224  4.570682170055  0.000000771331 -0.000000514221  0.215110060437
Zn   5.273694067155  5.074614225598  5.192227095944  0.000000000000  0.000000771331 -0.215109031996
Zn   7.031592441120  4.059691802374  2.595709055637  0.000001285552  0.000000771331 -0.215111860210
O    5.273694067155  5.074614225598  1.974164129748  0.000000000000  0.000000000000  0.215110831768
O    7.031592441120  4.059691802374  4.570682170055 -0.000002056883 -0.000001285552  0.215111860210
Zn   3.515795693190  8.119383604747  5.192227095944  0.000002313993  0.000001285552 -0.215110574658
Zn   5.273694067155  7.104460126784  2.595709055637 -0.000000000000  0.000003599544 -0.215111603099
O    3.515795693190  8.119383604747  1.974164129748  0.000002571103  0.000001285552  0.215109803327
O    5.273694067155  7.104460126784  4.570682170055 -0.000000000000  0.000001028441  0.215110060437