# total energy = -49074.56361277322 eV

CRYSTAL
PRIMVEC
7.031592442324853 0.0 0.0
-3.5157962211624265 6.089534844864382 0.0
0.0 0.0 5.193034934837732
PRIMCOORD
16 1
Zn   0.015869600983  1.937570063827  5.052409414424 -0.521452631229  0.634437959880 -0.511935949988
Zn   1.749455277536  1.123692771316  2.706573842848 -0.835858952866 -0.455768658768 -2.732809866401
O   -0.099793766260  1.854602898281  1.706761557704  0.576218671227  0.170417602626  2.028156364739
O    2.043653589526  0.910350037660  4.443110678749 -0.543785490398  0.282217395609  2.095230275569
Zn  -1.722249343217  5.008197573784  5.199974413419  0.315266869865 -0.007994331059 -0.327568827160
Zn  -0.332286338773  4.064517084788  2.671781523444  0.202619384170  0.591510307278 -2.550284938989
O   -1.850867013217  5.078193560751  1.916731236465  0.043359340822 -0.005659769389  0.188918489644
O   -0.094718362835  3.976029416016  4.415446987762  0.096771437895 -0.613336144904  2.315555047438
Zn   3.450388348264  2.126181983703  5.257802229665  0.466513555989 -0.535971393671 -1.837555345186
Zn   5.254340576705  1.089852529528  2.608862131111  0.183324026275 -0.651837129193 -0.746644758493
O    3.508315309963  2.247314523548  1.882029624603  0.000584411749 -3.091243244351  0.435289564978
O    5.237735471153  1.122280124394  4.524800203948  0.263096358509 -0.227873530751  0.025505086250
Zn   2.006945161181  5.109164912823  5.246853337073 -0.962679644738  0.677263796796 -0.186532763020
Zn   3.290260706212  3.822898208444  2.566207085037 -0.178937467172  3.848632128735  1.230236095900
O    1.547500207840  5.154908234297  1.862975415402  0.369142279727 -0.115883476134  0.915151003029
O    3.441996845843  4.127443508714  4.528979782496  0.525818107287 -0.498911769814 -0.340709735418