# total energy = -49079.90468374295 eV

CRYSTAL
PRIMVEC
6.392356429000733 0.0 0.0
-3.1961782145003665 5.535940476425361 0.0
0.0 0.0 5.13145773102391
PRIMCOORD
16 1
Zn  -0.000066480507  1.834868381737  5.150599003115 -0.071829937458  0.100892916262  0.140372719525
Zn   1.561375886572  0.948256215862  2.597611382437  0.284214114324 -0.016571788316 -0.352820916859
O   -0.080098782998  1.822155902506  2.022028267915  1.297721383236  0.594630083854 -0.939270778895
O    1.630826921466  0.957945749737  4.515298494833 -0.550626424580 -0.703147606541  0.417799635723
Zn  -1.556690928545  4.588025612397  5.150154734343 -0.261490190364  0.102686003607 -0.210602145265
Zn  -0.023796186043  3.732320489856  2.528021633409  0.757785348491 -0.565195580643  0.593125731395
O   -1.576748225312  4.597926733269  1.993692869572 -0.880733701891  0.608005219610 -0.509748198308
O    0.024170138894  3.667449578343  4.517116481001  0.033382432115  0.339527285074  0.211604875498
Zn   3.174910844661  1.865494800624  5.170304720279  0.362162505975 -0.047588291302  0.035285305565
Zn   4.803332961638  0.938477828233  2.642530471064 -0.373993951392 -0.467532484172 -1.070274398500
O    3.256300244422  1.808691042924  1.976102383150 -1.070818186819  0.378944096309 -0.200351156961
O    4.765588653867  0.944623439704  4.452937861689  0.155242694658  0.216558105738  2.161575792874
Zn   1.679153775305  4.698716934792  5.165560952573 -1.042602386506 -0.207612466509  0.241041692702
Zn   3.195537700386  3.666049013050  2.570284697939 -0.131251988170  0.045278926442  0.026059416091
O    1.598196498838  4.650305062613  2.012009527683  0.196332522720 -0.495949344752 -0.582645143578
O    3.109090028983  3.683828713221  4.522011108319  1.296505765662  0.117074925339  0.038848083215