# total energy = -12266.351686885082 eV

CRYSTAL
PRIMVEC
2.9404842854302067 0.0 0.0
-1.4702421427151033 2.546532903289695 0.0
0.0 0.0 4.343268778153256
PRIMCOORD
4 1
Zn   0.017035695708  1.595731132225  4.330894044086 -0.558959112815  0.994309355828 -2.165158882239
Zn   1.500783776794  0.789272735910  2.180681965174  0.175294213992  4.554436199062 -0.617746101046
O    0.043065156651  1.780649367483  1.672985299663 -0.088815416273 -4.267375102208  2.321880989656
O    1.474434685209  0.810967334919  3.922087923433  0.472480315096 -1.281370452682  0.461023736519