# total energy = -98146.42444300705 eV

CRYSTAL
PRIMVEC
6.903745345495471 0.0 0.0
-3.4518726727477356 5.978816062832716 0.0
0.0 0.0 11.970666396877727
PRIMCOORD
32 1
Zn  -0.011780551058  2.002657089934  5.935966586597  0.033560866675  0.084957218869 -0.178955722004
Zn   1.710857175790  1.000427261012  2.906967646748  0.043879474992 -0.008611652928  0.174227720401
O   -0.058183385023  2.104402417712  2.304517832169  0.338157144199 -0.626384750558 -0.104122736054
O    1.747588552901  1.028586947902  5.252996318930 -0.284128239478 -0.195291997270  0.248876101144
Zn  -0.027499688835  2.068360034387  11.962585562951 -0.092135738895 -0.176495433389 -0.480189767925
Zn   1.774523515366  0.973681461169  8.948096224694 -0.132333394160  0.260436809399 -0.330835927948
O    0.035563953773  1.987100190172  8.247731970630 -0.300637549987 -0.061067813846  0.503754185508
O    1.713411561568  1.023500958706  11.207834983804  0.031555149098 -0.017047699511  0.689355437853
Zn  -1.786718291145  4.995706847020  5.969182576578  0.250470956435 -0.025277029399 -0.342882831810
Zn  -0.036223951828  4.034701352680  2.911753323021  0.122162110054 -0.015142254958  0.238787863670
O   -1.643545658672  5.011227847306  2.288716539823 -0.741096317871  0.366116091306  0.035041307875
O    0.038562250376  4.042668965183  5.255897963099 -0.282929848295 -0.223000004708  0.421165209761
Zn  -1.752286551609  5.006864680247  11.921000162488 -0.062471893282  0.013529659055 -0.356904857120
Zn   0.012078102482  3.972723669215  9.023736420198 -0.081877551502 -0.161657082825 -0.407808585949
O   -1.785715176946  5.013088406676  8.268706929738  0.192086602959 -0.153168071517  0.289272759794
O   -0.012708414432  4.089171213081  11.284085470396 -0.004764768378 -0.508428193945  0.256809497059
Zn   3.397984798079  1.982174367868  6.003356116038  0.228209059713 -0.005425799001 -0.090023063427
Zn   5.156254135404  1.027526532617  2.910091591516  0.179535762877 -0.026468478604  0.039700146803
O    3.507294559632  2.031763280310  2.333920193221 -0.485818684076 -0.105314185258 -0.206875331232
O    5.197042153280  0.971645546667  5.336231324688  0.018641783471  0.106096057730  0.197216467986
Zn   3.456462973028  1.931128765158  12.025513892150  0.090815734532  0.217820003169 -0.756566645592
Zn   5.220279469738  0.946267378777  8.971956949357 -0.069640900227  0.266805946150 -0.296664681382
O    3.449256843636  2.007821091452  8.214326818027  0.083552882322 -0.243455187239  0.362595736858
O    5.182137657453  1.002706877725  11.264674899982  0.033974042953  0.117586831978  0.471667846497
Zn   1.687974711843  5.006356564590  6.014367589864 -0.072636235409 -0.088944228541 -0.464159196824
Zn   3.421348453077  3.946340316003  3.018296063440  0.146395271570  0.171688756029  0.136357684828
O    1.666451595353  5.010843308690  2.268226223637  0.489082956649 -0.019219767462 -0.007551072874
O    3.459105036372  3.938713748520  5.258198291048  0.005549211953  0.310069127714  0.097202354785
Zn   1.722998792729  4.917121513752  12.106454092955  0.087175566676  0.248972774623 -0.590926409750
Zn   3.426168648077  4.040108366034  8.974452653300  0.107080276020 -0.365556876368 -0.235527447751
O    1.693460427894  4.861861864883  8.314754220818  0.087622424406  0.715565777700  0.138021702794
O    3.435678557291  3.964409488695  11.266953826321  0.040963072676  0.146310939386  0.549942254029