# total energy = -12269.311300533618 eV

CRYSTAL
PRIMVEC
3.068331382259589 0.0 0.0
-1.5341656911297945 2.6572516853213606 0.0
0.0 0.0 5.024727086570744
PRIMCOORD
4 1
Zn  -0.070766154002  1.781395571756  5.028891425923 -0.369109883827 -0.501391855924  0.516284456765
Zn   1.453178004794  0.940139190189  2.494349983406  4.258786074987 -2.430903734114  1.710852152729
O    0.111255241256  1.740554853726  1.942539426622 -4.456001514532  2.450184693831 -1.611485957524
O    1.433641632050  0.858153682489  4.449865690277  0.566325066262  0.482110896207 -0.615650651970