# total energy = -73615.93750937925 eV

CRYSTAL
PRIMVEC
6.775898248666088 0.0 0.0
-1.693974562166522 2.9340520283496487 0.0
0.0 0.0 16.31804340555361
PRIMCOORD
24 1
Zn  -0.055048074962  1.810959767840  5.495427620253  0.805820497522  0.531939132583 -0.330831557072
Zn   1.806935561870  0.971666519218  2.775119946978 -0.648466155838 -0.319574238991 -0.034946177058
O    0.036187362187  1.839618429483  2.017889602046 -0.101757835366  0.315564089390  0.936471361773
O    1.781864060760  0.971331112255  4.790686093514 -0.645270017498 -0.408637509608  0.061568150521
Zn  -0.021895637601  1.895342061500  10.889113773123 -0.109772992361 -0.514745651523  0.361677595919
Zn   1.710790308850  0.919169569947  8.198420163144  0.160546109149  0.157078205205 -0.249447914487
O    0.100233152433  1.940260846170  7.544335929302 -0.690632504793 -0.218562280652 -0.091319156531
O    1.650016599868  0.778460589325  10.261656109039  0.160557936223  1.173843061822 -0.367338650859
Zn   0.049759486379  1.946752156692  16.419449465974 -0.231259159393  0.152631996508 -0.937011807658
Zn   1.712991120601  1.109028883695  13.578875697093 -0.530628898412 -0.464618910070  0.581851444032
O    0.026495117332  2.074039438063  12.961723496656 -0.206102714732 -0.441760003194 -0.419838263420
O    1.646631361103  1.017371985675  15.687471538634  0.320438386763 -0.204246378250 -0.118575935364
Zn   3.399584019216  2.016041814593  5.425541683306 -0.325830504313 -0.803706793613 -0.192965920240
Zn   5.026858671792  1.002339655410  2.711222548903  0.596393346402 -0.122970207777  0.021130611331
O    3.393809598728  1.944320964401  2.125238802820  0.068145032407  0.208921415128 -0.410267074792
O    5.091002712563  0.904588514505  4.792399040592  0.153213065822  0.905509623284 -0.241440985022
Zn   3.345744764501  1.811621773099  10.899508678626 -0.150910900052  0.336235501697 -0.080551890712
Zn   5.108129472976  0.926080308570  8.127963017974 -0.101771462213  0.435636149684  0.226232395603
O    3.267666088982  2.096551004815  7.369347001850  0.432297572229 -0.729612228491  1.006056983282
O    4.973463238413  0.983688317891  10.181401692592  0.404390818517 -0.429149256408  0.053629612400
Zn   3.361236500667  2.014001591631  16.290496668813  0.031999178614 -0.316558334983 -0.346079484370
Zn   5.028635989903  0.987486886449  13.484991561319  0.621461602225  0.187168596832  0.856061910176
O    3.396557225468  1.969777336531  12.966016705786 -0.110229877393  0.172492997098 -0.862579399580
O    5.002227604068  0.919651336312  15.539241310957  0.097369476490  0.397120510107  0.578514923460