# total energy = -36803.96422682587 eV

CRYSTAL
PRIMVEC
3.068331382259589 0.0 0.0
-1.5341656911297945 2.6572516853213606 0.0
0.0 0.0 14.77860582932778
PRIMCOORD
12 1
Zn  -0.127532432405  1.786130927578  5.116476331563  0.920315063728 -0.026139891620  0.109525395126
Zn   1.556165933974  0.988943762323  2.274512017529 -0.269056175637 -1.809225645004  3.582535035726
O    0.011290538987  1.673387852435  1.695563603834 -0.160987824672  1.650651314869  4.931405945253
O    1.497199048303  0.880836935898  4.477480672717 -0.812693570493  0.065071792799 -2.327563898974
Zn  -0.056877658833  1.775308002294  9.792176427738 -0.814014860408  0.515068582080  2.617869470907
Zn   1.451253854185  1.044208706181  7.583646728752  12.023466971338 -6.246743498909 -0.798929426829
O    0.249455341378  1.707962424117  6.987966704030 -12.428897801084  6.904046022092 -6.113421515584
O    1.423858564271  0.913524790613  9.235536317358  1.341331149506 -1.128645125129  5.580491479843
Zn   0.124522706153  1.712383582806  14.816637489978 -0.867881014298  0.865534111333 -5.255948583993
Zn   1.583213888775  1.245573169305  12.528179906316  1.413054643294 -0.500876349740 -5.279710719410
O    0.099633936145  1.794114725835  11.802930997650 -1.530702410417  1.626972226085 -2.156156935851
O    1.566163478117  0.866835219302  14.144198246398  1.186065829141 -1.915713795965  5.109903496674