# total energy = -36807.162343219876 eV

CRYSTAL
PRIMVEC
9.97207619857785 0.0 0.0
-1.6620160237883748 2.8786890966244614 0.0
0.0 0.0 5.870391732807405
PRIMCOORD
12 1
Zn  -0.040298157126  1.894505008282  5.867494844672 -0.053255259780  0.193997446829 -0.165477742122
Zn   1.688484905642  0.920801572024  2.890855029587 -0.015632307221  0.158646063912 -0.175241763488
O    0.047464091082  1.906386737073  2.162346000107 -0.270840007010 -0.071977004559  0.172021199668
O    1.566208304503  0.966874558477  5.120034881584  0.567679780518 -0.034460752781  0.148445469230
Zn   3.218743875449  1.912221398856  5.865462535542  0.439756856721  0.185682499205 -0.045892648767
Zn   4.946233559935  1.000451536245  3.003844636162  0.266060840454 -0.083698406761 -0.471859907903
O    3.334592476271  1.906414658886  2.165553019813 -0.256701767836  0.046178298328  0.406855478007
O    5.017531910339  1.006675109001  5.158492193444 -0.657290953219 -0.294220333607 -0.225198297911
Zn   6.610331753233  2.015779415763  5.830324927849  0.054737500752 -0.302451463268  0.076029320251
Zn   8.323430734557  0.973092147987  2.910130055671 -0.198967903460 -0.121753047541 -0.303577606452
O    6.626054725776  1.898036120464  2.134363357086  0.217639511727  0.284378150706  0.490678840381
O    8.298169471130  1.003457120011  5.087571784728 -0.093186291647  0.039678806647  0.093217401995