# total energy = -110358.90124732042 eV

CRYSTAL
PRIMVEC
8.629681152692129 0.0 0.0
-4.314840576346064 7.473519620260201 0.0
0.0 0.0 4.3412128819486915
PRIMCOORD
36 1
Zn  -0.006838159345  1.579160887557  4.280105246738  7.513773109489  3.349767152998  4.982777871967
Zn   1.277352459700  0.447091698967  2.292104584891 -4.144159611189  13.197781830591 -2.695290015079
O   -0.008424294741  1.798712920603  1.770708742295  4.301690587660 -0.283778055228 -2.790223885545
O    1.510632589524  0.889610529892  3.737391502790 -1.990383516865  0.757766836548  9.222053387726
Zn  -1.486934622110  4.264247344652  4.268726149170  1.552598953380 -7.414162402373  2.035464725475
Zn  -0.037937804283  3.516595932690  2.100271950676  5.193826617851 -4.410002679205  0.607364243591
O   -1.364639958623  4.298828202967  1.760690545445 -4.040751384704 -4.480710330133 -5.679404646671
O    0.007324873362  3.241205547745  3.780371629771 -1.411647221423  1.895481013858  2.867079301242
Zn  -2.826290477924  6.524997709011  4.284331201599 -10.252236831742  6.952754285931  0.925756032238
Zn  -1.516908956626  5.806944377467  2.025218750722  4.373624397686  8.574500487730 -0.359508613292
O   -2.835592411238  6.666382953145  1.590546025902 -2.842454046494 -12.304250205604 -5.897665079812
O   -1.650297938203  5.758150434293  3.715758618077  10.517695262725  0.460582278106 -3.115537855233
Zn   2.905341809155  1.465114473316  4.350485474347  0.883337200952  4.346011778175 -0.847189033167
Zn   4.423438209908  0.873565363725  1.955562553362 -12.760631815365 -4.321598896548  8.210606600887
O    2.812203386410  1.447689421132  1.714864349620 -2.720417149164  1.937885189856  2.993175199132
O    4.484437111136  1.019017776585  3.932399859670 -13.160972632182 -7.515882956743 -9.186333308616
Zn   1.314357395451  4.218450489743  4.512512915798  1.629123725210 -3.672968190108 -33.247392120730
Zn   2.780796524823  3.290556968321  2.172852746978 -3.595718367186 -4.208372655532 -1.523541116782
O    1.339013257472  4.310209889440  1.520403977493  3.190801758073 -3.262309022084  29.623978858732
O    2.961554689216  3.345784338794  3.891433900270 -7.016028106289 -2.751132833080  2.087848638393
Zn  -0.169806236042  6.753899138618  4.391117465087 -2.078171520314 -1.421293229153 -11.633001761764
Zn   1.412167927571  5.781275390878  2.159261862131 -2.123409051996  2.421888417990  1.321909293336
O    0.142171408086  6.763641185672  1.559714764048 -1.608853662107 -4.738349007961  8.915827287907
O    1.387475820889  5.876140612822  3.815711037060 -4.046984252987 -0.217596831415  2.473084738358
Zn   5.757062231500  1.527157565963  4.421311856472  16.929960726731  6.321426846656 -3.870112667206
Zn   7.250648611843  1.046705245596  2.288844291352 -4.605656944910 -2.867030964502 -11.551392890542
O    5.603730056779  1.673762041257  1.634091396998  14.075999708039  9.688134741273  5.144896210699
O    7.334582616670  0.856365546219  3.796986354895 -7.556550609666 -6.420106814427  9.307845443791
Zn   4.418325123825  4.035125858176  4.149417355362 -12.550947553929  7.726908562698  10.435916441584
Zn   6.051995392383  3.242085775223  2.253174367275 -0.733595124398 -1.129848658519 -10.616667307815
O    4.077834150200  4.238612876788  1.776372402035  4.541651388593 -14.982284261816 -8.732307343571
O    5.603770616280  3.368984373605  3.704936134943  15.264646667643 -9.375706369299  5.989482259025
Zn   2.769692714084  6.605022468276  4.393078991613  3.956816693562  1.304789860047 -0.848030298121
Zn   4.191710559723  5.623403140903  2.252034386395  4.132387044034  13.194880597784 -6.537566891020
O    2.844458545655  6.476537734498  1.765505907528  1.741093725222  7.941065000973 -0.655164650904
O    4.317514914535  5.683054085934  3.770395718359 -0.559458163939  5.705760510957  12.641263208896