# total energy = -73585.98328019804 eV

CRYSTAL
PRIMVEC
5.753120944853822 0.0 0.0
-1.4382802362134555 2.4911761596939876 0.0
0.0 0.0 12.746545727966788
PRIMCOORD
24 1
Zn  -0.027475179696  1.723044764869  4.168240831348  2.057658230852 -4.476296517336  0.619359982501
Zn   1.399658384686  0.755163284903  2.142003716124  1.765428188203  1.578207912197 -4.535491539639
O    0.051228665453  1.647318735121  1.600138540876 -1.095863816933 -1.423770487049  8.772910204694
O    1.388927088188  0.757283309971  3.755771400519  1.328544796375  7.035868795164  3.947317495823
Zn   0.019763121070  1.660487628963  8.450064378886  1.961835787135  0.152104406139 -2.017461346919
Zn   1.523256133817  0.786531601543  6.312122366148 -4.739555369565 -0.521275996442 -0.061362976489
O   -0.012067746494  1.657726130910  5.862418736564  0.336463558547 -2.871362501998  2.240724118370
O    1.476843981219  0.821391487284  8.020740029624 -0.786979453556  0.578570973509  0.677124443005
Zn  -0.008369065038  1.668150210750  12.806956949760 -2.097842516381 -0.003647109834 -10.265199819661
Zn   1.417218060434  0.816971364462  10.648592508293 -0.039502428970 -0.177288361604 -2.570377595974
O    0.006381937064  1.665971503848  10.117708314992  0.143593540455  0.479938571146  2.477618107452
O    1.447731463302  0.871592645337  12.309061727269 -1.588693385109 -1.583429308497  2.035672727720
Zn   2.871237109617  1.678058235641  4.275943857932 -0.137440890590 -2.500850852728 -5.461962595666
Zn   4.335458168170  0.799823036862  2.165910810211 -0.386803187342  0.311115309590 -4.965912977891
O    2.879124638432  1.631692683322  1.605860594968  0.151852180919 -0.647809753201  7.941896752846
O    4.380823828069  0.798591293667  3.791882590065 -2.836496800469  0.399045237934  3.625891805446
Zn   2.878450372657  1.667379867855  8.484423743105  0.471578372107  1.380795526150 -3.794808655156
Zn   4.306354855247  0.777923781985  6.399227493814  0.358345960442  0.924284332789 -4.264925612226
O    2.834846318392  1.632964123051  5.888713375843  3.883480089652  1.317097216660  3.456021076462
O    4.355397910053  0.896055490906  8.021071409391 -1.533330592068 -1.433096649546  3.593592321982
Zn   2.847350151454  1.664517114873  12.775292922704  2.392535932970  0.786946543436 -6.652043973724
Zn   4.415584760130  0.720647435794  10.607170037490 -1.060342741209  1.495340743088 -6.885344589028
O    2.850746794059  1.615354970463  10.110503681633  1.565894127827 -2.641828295716  4.113573510872
O    4.289020701840  0.808434883604  12.172548221617 -0.114360354621  1.841340009040  7.973189135201