# total energy = -24539.39831938851 eV

CRYSTAL
PRIMVEC
3.13225493067428 0.0 0.0
-1.56612746533714 2.7126110763371933 0.0
0.0 0.0 9.655354362334517
PRIMCOORD
8 1
Zn  -0.078619911985  1.835968095360  4.784717051891  0.285981747747 -0.429269326926  0.645570836568
Zn   1.518605833205  0.949886377374  2.429055554875  0.559039588344 -0.444009975570 -0.453855243795
O   -0.008401960626  1.812785650167  1.880034537077 -0.606399822796  0.431739128622  0.346299313690
O    1.514651674581  0.896109318921  4.279470549652 -0.221071677337  0.410456822205  0.198526959268
Zn   0.026375779095  1.875314542122  9.691035444377 -0.361191143201 -0.404646386171 -1.092339091610
Zn   1.535880845599  0.941094137784  7.250404014955  0.715281413690 -0.835363501287 -1.553924871280
O    0.015078362011  1.756990166636  6.682354548453 -0.768283162698  0.911579226517 -0.334715979728
O    1.543897225643  0.922819622842  9.039641685778  0.396643056250  0.359514012608  2.244437819776