# total energy = -36805.717693163424 eV

CRYSTAL
PRIMVEC
10.163846843821924 0.0 0.0
-1.6939778619192687 2.934048487640294 0.0
0.0 0.0 5.983283851561621
PRIMCOORD
12 1
Zn  -0.007389116655  1.897114537709  5.968421258322  0.158320819363  0.105245022583 -0.747704824326
Zn   1.774530413695  0.978376979110  2.845186991069 -0.356132497731 -0.094158682862  0.211251091703
O   -0.012190517904  1.958941218060  2.254514015356  0.272241515343 -0.006643987679 -0.196832088064
O    1.765755964715  0.942590074373  5.201362851711 -0.238952928493  0.068590861696  0.843635254377
Zn   3.372638806645  1.984436211483  6.095504917334  0.011184812972 -0.121376895148 -0.766992726022
Zn   5.068721601246  1.082313493319  3.068156381206  0.214824153766 -0.075011934731 -0.053812674945
O    3.422663228041  1.978578786547  2.267497313314 -0.167068483648  0.103285327754 -0.074580760730
O    5.081905126987  1.060401255909  5.224368719042 -0.105872628865 -0.323825300958  0.440172861212
Zn   6.784757043585  1.870045164410  6.000694521205  0.053583332543  0.238476503077 -0.603855716218
Zn   8.482302415747  0.983485328533  2.938843790581 -0.075511500075 -0.000308532379  0.122505609436
O    6.752704336179  1.989391086820  2.244305447586  0.103226963712 -0.199171534830  0.001258554997
O    8.467273135419  0.889814299636  5.128853968328  0.130156184003  0.304899153477  0.824955418579