# total energy = -73609.62961984557 eV

CRYSTAL
PRIMVEC
9.013222972357486 0.0 0.0
-3.004404653044838 5.203784283090595 0.0
0.0 0.0 5.209453600340208
PRIMCOORD
24 1
Zn   0.043335576051  1.650143565746  5.421403143824  0.796958419146 -0.496222395908 -4.999998606721
Zn   1.442121984833  0.787607870927  2.620879397059  1.498268972478  5.243538897475  0.519042479126
O   -0.014708678569  1.926477264889  1.886036736056 -0.551283598548 -7.172358377584 -0.619396235055
O    1.673754604644  0.845096911012  4.375137405326 -1.928384449455  2.458821286460  2.273409267308
Zn  -1.372177571923  4.409762602696  5.149171362456 -3.194747630095  0.537162328655  2.486216133534
Zn  -0.052825598519  3.308056529694  2.655188230303 -0.021110813837  8.517867055507  3.948719261266
O   -1.698943858885  4.507812047479  1.925319967059  1.911515441613 -5.017717364157 -3.322094369673
O    0.036508059650  3.628072813973  4.594302935121  0.433396718831 -4.612677599203 -1.895620624760
Zn   3.205848383832  1.805194435250  5.217307722838 -4.985002133312  1.972898472707  3.725524109828
Zn   4.568266437921  0.887053463948  2.491551364595 -5.250999724628 -2.785334418663  2.052282311253
O    3.086013077803  1.710444731398  1.809927278633 -2.195989494467  0.625162448115  0.750100064031
O    4.305829325957  0.988022291651  4.365492355423  7.100389600555 -4.443275582325 -2.002557947444
Zn   1.547645194104  4.362173686724  4.977402766983  3.026338573258  1.312477458500  1.269267498771
Zn   2.907874837655  3.451018864548  2.734622665681  2.487954456381 -2.031062225532 -6.240408814941
O    1.589474660597  4.308810900117  2.141353401872 -4.092051577640  0.633836064630 -3.325653804890
O    3.215796278027  3.362405362895  4.309270574488 -0.387828029062  1.906128980491  6.952939148248
Zn   6.156518004161  1.666752231717  5.244546583983 -3.584051215261  2.614777205135  1.264037360720
Zn   7.463995056299  0.822899145476  2.575441937411  0.353068771204  0.096274700764  0.743726556405
O    5.899023743675  1.708354564991  2.076984568693  6.420514334278  4.256662600886 -3.110878502084
O    7.428022382094  0.769435410770  4.532947222382  3.083011086249  0.864395883963 -1.852516080261
Zn   4.472696530778  4.325489869227  5.316385576362 -1.410167551554 -0.456963707517 -0.469529459997
Zn   6.078104766946  3.523046233287  2.763656960842 -1.654131560108 -1.065009550557  0.587333293082
O    4.575087645067  4.347243282871  1.846784150012 -0.528856637003 -0.405452169902  2.774744044741
O    5.961757578207  3.625866376989  4.690867902080  2.673188555194 -2.553929991941 -1.508687082488