# total energy = -73617.77637048165 eV

CRYSTAL
PRIMVEC
6.264509332171351 0.0 0.0
-1.5661273330428378 2.7126139794515134 0.0
0.0 0.0 14.483031886214926
PRIMCOORD
24 1
Zn   0.027763678909  1.769746438572  4.815223868487 -0.075340007494 -0.013561283624 -0.918103143679
Zn   1.525225725162  0.903592826072  2.379116560644  1.463443637269 -0.515337776581 -0.072626979438
O    0.034003130204  1.766445668605  1.861893612143 -0.904419218434  0.958514457616  0.050332172596
O    1.561371317558  0.850637049335  4.257730148194  0.508226619457  0.246494745396  0.013382849065
Zn  -0.046040384886  1.821708664130  9.646178546357  0.610699735723  0.426792069030 -0.264162337879
Zn   1.606490819572  0.925103271766  7.236555078167 -1.389348043705 -0.562009726716  0.566575491710
O    0.001596196978  1.850319931151  6.618030002157 -0.329840139693 -0.475832776508  1.716536861819
O    1.582515289456  0.952201033334  9.159664222602 -0.450923157750 -0.422039127726 -0.692017815177
Zn   0.013493126651  1.819143347558  14.481313531305  0.578838111127  0.168421141021 -0.104061800909
Zn   1.572488942270  0.895861168655  12.104853122618  0.081619155634 -0.449594154526 -2.208510766862
O   -0.008356228998  1.731781006215  11.503577999505  0.628202006272  1.004318403324  0.145826029330
O    1.521173840526  0.861678873484  13.876631141566  1.144092312922  0.741533405408  2.281571748514
Zn   3.126176212681  1.854916828099  4.754557733663 -0.141036064140 -1.406670337034  0.403416884639
Zn   4.751978635171  0.863268179501  2.462088107396 -0.625733233017  1.067882244119 -2.227237653848
O    3.132135640408  1.866721669485  1.841067877319  0.120771400354 -1.577937946365  0.291069189573
O    4.702521586895  0.872622344836  4.221978593436 -0.307593669590  1.209975031658  2.101808185897
Zn   3.155603745269  1.841201311368  9.614744491430  0.247468422163 -0.550605341534  0.310756126479
Zn   4.716475154982  0.826024418620  7.198625353514  0.023269254941  2.012354364709 -0.193816184056
O    3.049590080291  1.839229243830  6.666790436995  1.708939766198 -1.033507880404 -0.864914475471
O    4.726380597138  0.889096751478  9.060179429251 -0.485953924102  0.603881684359 -0.039126019467
Zn   3.207684370052  1.826228507613  14.472292011416 -0.436529608033 -0.819118500183 -0.685336546502
Zn   4.713639838058  0.989395931042  12.099339101504 -1.451275634448 -0.595551310117 -1.826323995247
O    3.059352065183  1.840636879077  11.487916099724  0.854856319904  0.208918329804  0.645105981117
O    4.809287619443  0.889769559780  13.886259692410 -1.372433784448 -0.227319715130  1.569856454908