# total energy = -73609.90106754954 eV

CRYSTAL
PRIMVEC
8.82145232711341 0.0 0.0
-2.9404811685536947 5.093065501058928 0.0
0.0 0.0 4.909782186058492
PRIMCOORD
24 1
Zn   0.116017976716  1.750820989864  4.929049120086 -4.435076848565 -0.926758505361  1.787161723225
Zn   1.568329841283  0.879060370833  2.425816468304 -3.462918574913 -1.135080596342  1.496968765610
O   -0.029291632452  1.704839169609  1.856905129115  1.382947796606 -1.557240308806 -0.611389819811
O    1.436815219264  0.940230085559  4.316939128851  2.258250557290 -2.743473516763 -2.659376074791
Zn  -1.459152018702  4.340043394640  4.899506958388 -1.077723141469 -1.369225047703 -0.628109189448
Zn  -0.046511107395  3.368920583032  2.370114289730  0.900134732126  0.800446120584  2.243217317106
O   -1.448459536336  4.272161436838  1.814154606847 -0.852832861716  0.588229836755 -0.131244017750
O    0.000420783276  3.366522912289  4.355139546008 -2.080752136557  1.726232234729 -2.623094723862
Zn   2.877691835180  1.784517173464  4.886668216671  2.301352530685 -3.568148170877  2.539423313684
Zn   4.437035262977  0.817726577093  2.376531896298  0.234814737955 -0.605485024291  2.009390139875
O    2.961486810835  1.691911331224  1.944961748389  1.661743825238 -1.279480948969 -3.492552852839
O    4.473750147563  0.915507965412  4.373811032003 -3.850076831601 -2.256400905675 -1.641930132946
Zn   1.414586041545  4.241658618981  4.873459856102  0.614009516822  2.056656529061  1.318311291572
Zn   2.922963528523  3.298004045629  2.444104221124  1.062177480425  3.166197072150  1.368862522157
O    1.505432886191  4.203190029673  1.889338080740 -0.878917731729 -0.049649544706 -1.313716987334
O    2.835774940157  3.340651356904  4.291648025029  1.114112221621  3.497583216174 -1.407317226589
Zn   5.856647768058  1.771208248338  4.820219744872  3.517756862909 -4.928467431450  3.632154498526
Zn   7.348717036118  0.877130237063  2.482764235947 -1.029735814956 -0.678432106073 -0.521630294458
O    5.831260510406  1.757270353661  1.892948701178  1.598667979824 -1.250309469611 -1.796619011983
O    7.377832239524  0.797348140072  4.264689666717  0.444750453280  0.487216335754  1.613704819552
Zn   4.315022227260  4.211959435432  4.980726069964  0.379080621887  0.282953759554 -0.615076524634
Zn   5.878182697479  3.423063128835  2.405325998839  1.383887534811  0.531727787903  2.275063257972
O    4.429083605849  4.206865046713  1.881672238668 -2.015974735071  1.385533555055 -0.346960601424
O    5.826945055928  3.303118723688  4.348100909196  0.830321567987  7.825375643128 -2.495240448519