# total energy = -24537.178004345093 eV

CRYSTAL
PRIMVEC
6.775898248666088 0.0 0.0
-1.693974562166522 2.9340520283496487 0.0
0.0 0.0 5.983280775130124
PRIMCOORD
8 1
Zn  -0.041389896862  2.015324924559  5.993662128837  0.342992360804  0.137596699441 -0.208386882781
Zn   1.667713890914  1.078139596348  2.972565556405  0.128946994186 -0.355346511494 -0.326012538417
O    0.009493033446  1.894101394531  2.280200207818 -0.186864949549  0.377998958787  0.122022756262
O    1.699265183519  1.100248674744  5.358637819179 -0.249667229587 -0.351508882916  0.006326713549
Zn   3.417181704557  2.089799499800  5.881529143899 -0.278965978551 -0.601220849698 -0.299980890240
Zn   4.995595354862  0.965379840823  2.918550128336  0.999310408587 -0.278195933154  0.106350082722
O    3.467016403407  1.897078724221  2.308810082993 -1.040150325421  0.569583425298  0.077838091325
O    5.036372032933  0.995491932640  5.194833866966  0.284398976641  0.501092836626  0.521842667579