# total energy = -73601.27124029066 eV

CRYSTAL
PRIMVEC
9.013222972357486 0.0 0.0
-3.004404653044838 5.203784283090595 0.0
0.0 0.0 4.437687370109125
PRIMCOORD
24 1
Zn  -0.007521534570  1.723906881230  4.498786205994  1.033188806502 -0.443400109900 -8.558486885911
Zn   1.388676276574  0.807718174023  2.238422207995 -0.253605131189  0.766597033245 -6.950696889182
O   -0.047656515144  1.732796623047  1.654049896582  0.642898946163 -1.025628220546  6.241110983214
O    1.557028860541  0.766142880419  3.807751413926 -0.416280370865  1.933832874164  8.398039764234
Zn  -1.470333372737  4.316680345094  4.470571212801 -3.086150403209  0.200544246808 -9.927779553627
Zn  -0.058316453953  3.379407005388  2.099462645463  0.749542648866  3.321633113766  1.687158151546
O   -1.534055957829  4.360494523285  1.574185530469 -0.169416929276 -0.924857174573  10.971688831870
O   -0.049897202375  3.539286258439  3.986727883811  0.337539050999 -4.142175490879 -3.233016186657
Zn   2.980856706707  1.766195120771  4.485318648229 -2.306838750611  2.145484029518 -4.809677837413
Zn   4.539671988041  0.915065659624  2.108503809427 -0.816667981760 -0.028157950491  1.881947241038
O    2.919553270661  1.641007762941  1.692136171574  0.099238668488  0.749564760353  4.978757695064
O    4.412886585778  0.935667183372  4.039803148606  2.007826137822 -2.401344275290 -2.391817823857
Zn   1.385462161262  4.284067800413  4.452110329509  3.489681444829  1.712569135420 -3.432117530371
Zn   2.990388190001  3.471467163506  2.202345881726  0.598349955908 -1.906108411665 -5.140833353484
O    1.558017611101  4.355495789824  1.697703639404 -1.985551128474 -0.069151876405  3.379493476418
O    3.035493061721  3.534235248285  3.831709461909 -1.873062022733 -0.799324091165  6.199120240605
Zn   5.932120298429  1.713816578112  4.568908179397  0.695614017168 -0.406480354056 -9.551862159960
Zn   7.537091393283  0.829900617080  2.202690186844  0.595574450045  0.918137082240 -0.706047553797
O    6.117375379436  1.663913967803  1.689391645179 -0.529714614128  2.187751679938  8.622454132792
O    7.563912942204  0.754257143285  3.907112282651 -0.471264440411  6.037686843755  1.882437293301
Zn   4.497145799413  4.384854561012  4.361226396990  0.165808385989 -4.126217424888  0.460844530629
Zn   5.987902234083  3.516753201008  2.187485781011 -0.241774457102 -0.915122978004 -0.873983784762
O    4.462228573618  4.400652938238  1.695365609365  0.624430712155 -2.979544238612  0.419055619618
O    5.961901789775  3.403325395190  3.955465519931  1.110633261933  0.193711797267  0.454211598693