# total energy = -49074.78780586826 eV

CRYSTAL
PRIMVEC
6.520203525830115 0.0 0.0
-1.6300508814575287 2.8233328893302754 0.0
0.0 0.0 10.258816505302319
PRIMCOORD
16 1
Zn   0.037086265635  1.761477319887  5.253749185909  0.091270305571  0.632854160332 -2.341258365741
Zn   1.472754231499  0.999827569261  2.398582054884  1.322888626531 -0.745376176193  0.260428838979
O   -0.158439641637  1.745652133909  2.011043978021  1.126657405275  1.830855307458 -2.042926323959
O    1.517048582131  0.806176220504  4.322798438613  0.178143510515  0.051093219131  2.170213671054
Zn  -0.011060221241  1.823736787294  10.104436342381 -0.327213757814 -5.832537236964  2.473101964749
Zn   1.550377254474  1.059498515869  7.451070814521  4.327205444102 -2.926257354264  2.253360576187
O    0.060929997908  1.741052782342  7.127351185728 -3.558853890059  2.723660081581 -0.435880147374
O    1.843466271143  0.536589929463  9.637917736168  0.345215336598  7.342229620788 -2.762425889496
Zn   3.415173719431  2.033345682161  5.094986142177 -2.222426348502  0.305233911109  0.231678506319
Zn   4.946761703404  0.898368638257  2.601644665411 -2.836801219083 -1.406664937717 -0.106999029160
O    3.136465663658  1.804203561571  1.863819738469  0.769519606209  0.426404346673  0.446176644204
O    4.729846268466  0.983639207947  4.579953309611  1.980808214472 -1.147837896008 -0.521485284239
Zn   3.400749725191  1.998585825144  10.124499008630 -1.525523437319 -2.674893967921  2.193709697294
Zn   4.591273686972  0.882280036057  7.772013488632  5.571552011261 -4.963169353708  2.691160309182
O    3.622782867877  1.971345718854  7.123836144007 -6.376110097131  4.821188409156 -3.074944764302
O    4.792518464756  0.862266923355  9.735667323387  1.133668032265  1.563217609436 -1.433910660807