# total energy = -110313.46548333672 eV

CRYSTAL
PRIMVEC
8.629681152692129 0.0 0.0
-4.314840576346064 7.473519620260201 0.0
0.0 0.0 4.156485927194164
PRIMCOORD
36 1
Zn   0.024837085326  1.528958580420  4.199907030882  2.325154261091  7.568710127846 -9.979399848907
Zn   1.414921658827  0.824368414441  2.074136961305  1.399145746522  1.432958067086  1.786608678935
O   -0.008990401825  1.556340558717  1.576875747988  0.988817222365  5.793092400705  10.120398374941
O    1.333082940584  0.612086024798  3.803087539470  3.996887079221  6.037394509326 -4.091329611872
Zn  -1.375974181849  4.214971002302  4.125501919984 -2.028186703756 -4.516266629971 -10.330099605658
Zn  -0.012672686773  3.417459881544  2.278316943314 -10.024441719638 -3.332068964387 -72.566592966599
O   -1.282030609853  4.347980277909  1.491277940634  3.923131385495 -29.936022593674 -3.317598281575
O    0.179349800428  3.440664231196  3.458097050092  1.704931930590 -5.311588284844  66.756674238365
Zn  -2.977471273134  6.622559706315  4.383724417243 -5.201817092256 -11.779691938866 -42.756612020540
Zn  -1.492226342593  5.569536671148  2.019752710680 -6.218137662247  30.013517442727  12.690292089300
O   -2.863759690521  6.714963743194  1.513620185139  5.299430052215  0.106262150994  44.511847841590
O   -1.493117788656  5.879006529932  3.726390385257 -0.160746912305  2.539295272747 -0.988450325944
Zn   2.771647336865  1.663233830251  4.152397184264 -0.665690747246 -0.334931181063 -2.053882308750
Zn   4.439784551947  0.831879688917  2.122052402937  1.297426991924 -4.373206850533 -6.639728646692
O    2.928408083908  1.547362238446  1.727178904624 -0.318506459848 -3.556738129268 -0.237706971901
O    4.364065140609  1.042065066040  3.696205486521 -6.361228037813 -3.286937362156  5.388034380918
Zn   1.379138685928  4.016126752150  4.195404063257 -2.648859491531  3.924411794869 -25.933719742754
Zn   2.954140067169  3.160100352400  2.047858719227 -2.735951240244  1.417816326348  4.048837504146
O    1.633033398089  4.083176785802  1.357054468890  3.999221898002  1.658410904210  36.192129021855
O    2.840151471791  3.405945297982  3.830824197663  1.308891026700 -5.390293866376 -5.446968179140
Zn   0.011295389661  6.654766539345  4.361919801875 -5.006553120010  10.555840663446 -36.523507966790
Zn   1.304154523424  5.673321531530  2.044356794615  8.069288229619 -2.661420873136  3.145119682655
O    0.033053404751  6.453569838110  1.518031678144 -5.377419067296  1.114263659597  36.474249743985
O    1.274178462972  5.785552260857  3.813942815392  3.721620146788 -1.867113518459 -4.172843352277
Zn   5.828943160661  1.553662768655  4.075921812857  3.524069435390  0.929004878193 -10.950121904333
Zn   7.185194206236  0.850034812126  1.940334618000 -4.382989640951 -2.954682699484  3.404875406826
O    5.700402333956  1.859378716139  1.392374027912 -2.395390628810 -8.946001754608  5.355776549326
O    7.273746816416  0.778451606964  3.876346628711 -1.773952680734  0.629682704583 -6.381181341007
Zn   4.246804170138  4.093503925237  4.353847598124  6.258312691804 -3.465581466457 -37.668679885930
Zn   5.967006840519  3.066194751001  2.208270684365  4.652085154466  10.662989845031 -7.360435088053
O    4.185608512180  4.059300183989  1.500096611804  4.959972701147  2.932883087110  43.894921151121
O    5.634754623491  3.323147822163  3.621356810011  0.216175011367  4.094852537424  13.471933675583
Zn   2.813119858549  6.628085291157  4.203163872549 -3.499139247808 -4.135614035612 -58.560736809455
Zn   4.479702005087  5.836011732493  2.236119528413 -2.265319034101 -1.333973680700 -4.033007479092
O    2.857752569470  6.628948259272  1.288657342010  2.142505663616 -0.763812785632  63.532486191523
O    4.124059900263  5.571921052050  3.799413884203  1.277262601161  6.534559985873 -0.781582450910