# total energy = -49076.73132753135 eV

CRYSTAL
PRIMVEC
5.880968041683205 0.0 0.0
-2.9404840208416023 5.093065348298698 0.0
0.0 0.0 5.19303592403927
PRIMCOORD
16 1
Zn  -0.000000000000  1.697689037530  5.192227290934  0.000000000000  0.000000000000  1.597362630749
Zn   1.470242010421  0.848844812813  2.595708740817 -0.000000000000 -0.000000000000  1.597362373638
O   -0.000000000000  1.697689037530  1.974163930912 -0.000000000000 -0.000000257110 -1.597362373638
O    1.470242010421  0.848844812813  4.570682481028 -0.000000000000 -0.000000000000 -1.597362630749
Zn  -1.470242010421  4.244222887873  5.192227290934  0.000000000000 -0.000000000000  1.597362630749
Zn   0.000000000000  3.395378663156  2.595708740817  0.000000000000  0.000000000000  1.597362373638
O   -1.470242010421  4.244222887873  1.974163930912 -0.000000257110  0.000000257110 -1.597362373638
O    0.000000000000  3.395378663156  4.570682481028  0.000000000000  0.000000000000 -1.597363144969
Zn   2.940484020842  1.697689037530  5.192227290934  0.000000000000  0.000000000000  1.597362630749
Zn   4.410726031262  0.848844812813  2.595708740817  0.000000000000 -0.000000000000  1.597362373638
O    2.940484020842  1.697689037530  1.974163930912  0.000000000000  0.000000000000 -1.597362373638
O    4.410726031262  0.848844812813  4.570682481028  0.000000000000 -0.000000000000 -1.597362630749
Zn   1.470242010421  4.244222887873  5.192227290934 -0.000000000000 -0.000000000000  1.597362630749
Zn   2.940484020842  3.395378663156  2.595708740817 -0.000000000000  0.000000000000  1.597362373638
O    1.470242010421  4.244222887873  1.974163930912  0.000000257110  0.000000257110 -1.597362373638
O    2.940484020842  3.395378663156  4.570682481028  0.000000000000  0.000000000000 -1.597362630749