# total energy = -110423.05547763487 eV

CRYSTAL
PRIMVEC
9.013222972357486 0.0 0.0
-1.5022068331339051 2.6018921415452976 0.0
0.0 0.0 14.76013505853937
PRIMCOORD
36 1
Zn   0.000646248087  1.737919738985  4.980937753033  0.600107819139  0.211154161113 -0.911875931822
Zn   1.474040511345  0.863064771007  2.458299782406 -0.221077590875  0.307604982444  0.230556219789
O    0.004573309336  1.763786787593  1.917736241250  0.034078429741 -0.381248576072 -1.857655458370
O    1.538047914283  0.882030394786  4.271357353377 -1.124529303189 -0.596241137095  1.363672493316
Zn   0.013613571977  1.768483578084  9.873052897640 -0.403026334069  0.404137050635 -0.078056892204
Zn   1.534977109217  0.865934581202  7.329940489709 -0.334031809177  0.440616376507  1.196839008497
O   -0.022299614956  1.738648908723  6.819116077751  0.813846453150 -0.205941763675 -0.319324070653
O    1.448600689506  0.895185193714  9.284287541350  0.878408396192 -0.219899511406 -1.511665962611
Zn   0.048905747848  1.714585406032  14.726161517190 -1.372517345301  1.309065604604  1.747372102032
Zn   1.525209479482  0.811216205859  12.244052404980 -1.359710937565 -0.031777035301  1.179947374948
O   -0.051741307795  1.692170421822  11.689723869701  1.680079133212  0.193488882623  0.074378157801
O    1.441932707151  0.871357837464  14.159332542970  2.082105565262 -1.020479072244 -1.197831968538
Zn   2.990449479917  1.768099614785  4.908202846291  0.461845718200 -1.540131159930  0.423922717902
Zn   4.565374094669  0.850708543634  2.433916310299 -0.622354803463 -0.490637188510  1.024356810032
O    2.981018944721  1.664570130436  1.908822163730  1.184906518725  0.851121792562 -1.077373471439
O    4.485319549551  0.819645371983  4.379068071864  0.858197982683  2.419361280692 -1.450430255729
Zn   2.995057940823  1.728699211884  9.761090641877  0.039932831639  0.295421295894  1.520199968224
Zn   4.504689867041  0.874553025008  7.377204028331 -0.364594512455 -0.182650911467  0.011606988111
O    3.012010911911  1.749488210670  6.768121064818 -0.098398174865 -0.110057613481  0.128152009089
O    4.519582415358  0.893820591756  9.224529873044  0.056616462942 -0.214519992262  0.333047847997
Zn   2.984281731437  1.731828602900  14.750261072773 -0.066801373895 -0.639237438151  0.814324164118
Zn   4.533804379886  0.888970576474  12.295817147155 -0.326592579290 -0.349456628372  0.377967591328
O    2.956126225516  1.707899397231  11.788643090500  1.357261447583  1.035561420499 -1.915379038334
O    4.505676814957  0.844769731018  14.177556378498  0.103429309531  0.643021073563 -0.377107814431
Zn   6.058610968301  1.745221350915  4.932111321547 -1.317502422518  0.074112305734  0.283663898247
Zn   7.523301162135  0.919034181699  2.420691208231 -0.435720996088 -0.030721083233  1.020964753632
O    6.004972377070  1.792370421605  1.855062795312 -0.012414828725 -0.223315993287  0.276589507899
O    7.512392458371  0.891974683691  4.325485362615  0.548189790114 -0.521612039625 -0.733331329214
Zn   6.034941343453  1.743264580207  9.842841475559 -0.467530170179  0.709859214234 -0.503611232172
Zn   7.522545854050  0.912160697860  7.430952580882 -0.928374443698 -0.923482919933 -0.387915189459
O    5.974593309042  1.725640124007  6.807036556323  0.932883387312  0.958547624847 -0.376297916935
O    7.531060645792  0.941478909544  9.248748403170 -0.036986347416 -1.072808477776  0.141610705697
Zn   6.036621408215  1.697048378094  14.793738156425 -0.259077467157  0.237561704573 -0.628829098333
Zn   7.519765274763  0.896194674687  12.272459379822 -1.795997319239 -0.182584834116  1.587863947229
O    5.969965920368  1.793023880271  11.650890398525  0.460884382728 -0.585344544787  0.656211604111
O    7.547693647465  0.864944027997  14.194925760488 -0.545534868989 -0.568487106910 -1.066561725535