# total energy = -24538.480775470583 eV

CRYSTAL
PRIMVEC
6.0088151385125865 0.0 0.0
-1.5022037846281466 2.6018950695727505 0.0
0.0 0.0 5.209456451821119
PRIMCOORD
8 1
Zn  -0.038482254792  1.891932530105  5.112799252385  0.033121465144 -3.296170193608  2.237225104078
Zn   1.524167205722  0.870438162728  2.626225963832 -0.159286268600 -0.008714239945 -0.137669718771
O    0.049903810607  1.753583767711  1.999732476334 -1.108300242925 -0.606129856964 -1.547367786888
O    1.509017180114  0.880794355619  4.496589251115 -0.529874793855  2.813032655909 -0.265032656299
Zn   3.022010393205  1.757312838386  5.164414373543 -0.169905953097 -1.674221131769  1.892371521695
Zn   4.432987144637  0.810716549066  2.574462424939  2.274485531091  0.587703017717  1.390066152818
O    3.057151746779  1.725165677395  1.997031513929 -1.114782508215  0.078285977496 -1.933528969770
O    4.488870928069  0.804398880830  4.626014322146  0.774542770455  2.106213514053 -1.636063903973