# total energy = -36809.36389370116 eV

CRYSTAL
PRIMVEC
3.068331382259589 0.0 0.0
-1.5341656911297945 2.6572516853213606 0.0
0.0 0.0 15.369750553433914
PRIMCOORD
12 1
Zn  -0.050876616316  1.747100218230  5.116492900553  0.475251964303  0.305812409320  1.257608060155
Zn   1.561421678798  0.902307891579  2.553021081932 -0.112593749639 -0.548650017580  1.070081308653
O    0.021141723723  1.735621283696  1.903699874319  0.078501693051  0.543792432377  0.115914329372
O    1.514094508226  0.882059665954  4.550230502958 -0.416244118311 -0.277993073115 -1.629229654660
Zn   0.122461094297  1.713535127573  10.314809300909 -0.934985778367  0.224342634779 -1.922731364934
Zn   1.505858799963  0.874287889396  7.709986193916  0.430088223283  1.086560280144  0.059537493244
O    0.027808594151  1.841100391125  7.074315072123 -0.446768512152 -1.191409352841 -0.950828401826
O    1.553583933116  0.831298418899  9.588131163485  1.020521238336 -0.177390948620  0.547104270359
Zn  -0.034144698455  1.722718950234  15.386947630332  0.402477403544  0.007723079676 -0.189461506631
Zn   1.555346075828  0.875696867167  12.780507819534  0.251634380616 -0.171294605914  0.618920323860
O    0.041825652404  1.747672155200  12.114175475904 -0.372952140391  0.175622800976  1.630886216427
O    1.536921052711  0.834012971672  14.727693313535 -0.374930347164  0.022884617908 -0.607801074019