# total energy = -12269.396093382653 eV

CRYSTAL
PRIMVEC
3.068331382259589 0.0 0.0
-1.5341656911297945 2.6572516853213606 0.0
0.0 0.0 5.221772259608072
PRIMCOORD
4 1
Zn  -0.020689758511  1.829074679938  5.184428825687  1.060607821945 -1.400730574511  1.477272315622
Zn   1.372497765264  0.998006692726  2.627384547646  3.027692516183 -1.684814848125  1.212716084738
O    0.018472275421  1.804980300926  1.971255633195 -2.903704922885  1.590654108380 -1.235522541110
O    1.657637493784  0.830210695424  4.608298674367 -1.184595415243  1.494891057145 -1.454465859251