# total energy = -24536.790841047565 eV

CRYSTAL
PRIMVEC
7.031592442324853 0.0 0.0
-1.7578981105812133 3.0447709382284116 0.0
0.0 0.0 5.757496018145359
PRIMCOORD
8 1
Zn  -0.000000000000  2.029845651447  5.756600193268 -0.000006941979 -0.000004113765 -0.037544533913
Zn   1.757898110581  1.014923177303  2.877850777877 -0.000007456199 -0.000004370875 -0.037522422425
O   -0.000000000000  2.029845651447  2.188746983778  0.000002828213  0.000001542662  0.037532449728
O    1.757898110581  1.014923177303  5.067496399169 -0.000002571103 -0.000001542662  0.037536049272
Zn   3.515796221162  2.029845651447  5.756600193268  0.000004113765  0.000002313993 -0.037546333685
Zn   5.273694331744  1.014923177303  2.877850777877  0.000011055744  0.000006427758 -0.037524222198
O    3.515796221162  2.029845651447  2.188746983778 -0.000000257110 -0.000000257110  0.037531678397
O    5.273694331744  1.014923177303  5.067496399169 -0.000000514221 -0.000000257110  0.037537334824