# total energy = -36808.15534512162 eV

CRYSTAL
PRIMVEC
3.387949124333044 0.0 0.0
-1.693974562166522 2.934048640400525 0.0
0.0 0.0 15.991682266406608
PRIMCOORD
12 1
Zn   0.062861024438  2.087286996729  5.268488219724  0.038777377879 -0.552602831580  0.403222252130
Zn   1.711049486958  0.978886577597  2.743067576697  0.035822666126  0.645643084567 -1.250032818911
O    0.035379675116  2.085146490472  2.105888531396  0.114287592402 -0.683668414771 -0.162409387610
O    1.892227519870  0.980615109240  4.635035579665 -0.281912205664  0.490868844905  1.202959262462
Zn  -0.042590247237  1.989849241118  10.601417603357  0.167392956867  0.034034720987  0.188338962991
Zn   1.758403529459  0.930978266620  7.993836822501 -0.356743648952  0.169965345580 -0.412917882151
O   -0.080494283245  1.982650526819  7.376449837189  0.546342709603 -0.041115281983 -0.421766076570
O    1.736283609626  1.000042625904  9.967727468064 -0.369747774521 -0.046998223126  0.579916946014
Zn   0.053389335071  2.057224368969  16.031236233638  0.597442356492  0.288303711012  0.069462208557
Zn   1.669359417804  0.899573672212  13.216507773448 -0.057811254582  0.849983308082  1.236968272418
O   -0.226594507308  2.042165612701  12.705270993715  0.577511421896 -0.715174198689 -1.061066249638
O    1.945773378190  1.058293329173  15.380224192062 -1.011362454655 -0.439239807875 -0.372675489691