# total energy = -49058.75337288917 eV

CRYSTAL
PRIMVEC
5.753120944853822 0.0 0.0
-2.876560472426911 4.982346566267031 0.0
0.0 0.0 4.341213015051577
PRIMCOORD
16 1
Zn   0.049900269827  1.695126594860  4.377252865899 -1.539398909750 -1.736142037644 -7.975092779982
Zn   1.361497933459  0.888331926038  2.147080270046  1.503118073041 -4.680688677135 -6.754753117260
O    0.017343358400  1.664457282415  1.594157596342 -2.963820143009  0.304316541501  6.427363238879
O    1.426027814537  0.834406772797  3.717026432203 -0.392927555072 -0.685104118776  6.953570611185
Zn  -1.535362426222  4.172983704255  4.268004551028  3.591205052697  0.837621186973 -2.291298488884
Zn   0.048981496412  3.299871084365  2.176569617385 -1.547248487701  1.828360308950 -2.972797149697
O   -1.492746758135  4.014339668264  1.567642612531  2.060722985821  1.908191005226  4.198361808263
O    0.025015145180  3.306353125733  3.843428252483 -1.533095336129  1.958081462298  2.545673151249
Zn   2.817546108399  1.658528691282  4.304842359750 -1.715012968975  1.994157896306  0.490012410442
Zn   4.331034018164  0.915937126267  2.201180318163 -0.330486257918 -2.118963100410 -4.588843215787
O    2.811704389391  1.659847881914  1.678760691708  1.443259963232 -1.748056272583 -0.175256675886
O    4.198772068890  0.881894759012  3.837379996433  3.804273143003 -0.497557826890  3.441422866933
Zn   1.470267013355  4.188108083907  4.284834155728 -2.095561947877  1.577510886130  1.489597155736
Zn   2.885449619599  3.250543250071  2.290609131378  2.072912071688 -0.711941550684 -9.026366983230
O    1.530098895869  4.058412026574  1.714896619675 -1.805458721762  4.041033434721 -1.012970422572
O    2.839584588802  3.365412364105  3.816663583223 -0.552481475511 -2.270818880873  9.251377590611