# total energy = -73614.34104769248 eV

CRYSTAL
PRIMVEC
10.54738813431007 0.0 0.0
-3.5157925289739786 6.089534539343919 0.0
0.0 0.0 5.305926885293486
PRIMCOORD
24 1
Zn   0.000000000000  2.029845901187  5.305102079541  0.000015169509 -0.000006427758 -0.067010918803
Zn   1.757898373965  1.014922423224  2.652136527417  0.000008741751 -0.000010541523 -0.067010147472
O    0.000000000000  2.029845901187  2.017080397328 -0.000001285552 -0.000000257110  0.067010147472
O    1.757898373965  1.014922423224  4.670044894713  0.000001285552  0.000001028441  0.067010404582
Zn  -1.757898373965  5.074614225598  5.305102079541 -0.000008484640  0.000010284413 -0.067010661693
Zn  -0.000000000000  4.059691802374  2.652136527417 -0.000014912398  0.000006684868 -0.067010147472
O   -1.757898373965  5.074614225598  2.017080397328 -0.000001285552 -0.000000771331  0.067010404582
O   -0.000000000000  4.059691802374  4.670044894713  0.000001542662  0.000000257110  0.067010661693
Zn   3.515795693190  2.029845901187  5.305102079541  0.000013369736 -0.000005656427 -0.067010661693
Zn   5.273694067155  1.014922423224  2.652136527417  0.000008227530 -0.000010027302 -0.067010661693
O    3.515795693190  2.029845901187  2.017080397328 -0.000002571103 -0.000000257110  0.067010404582
O    5.273694067155  1.014922423224  4.670044894713  0.000001285552  0.000001285552  0.067011175913
Zn   1.757898373965  5.074614225598  5.305102079541 -0.000008741751  0.000008484640 -0.067010661693
Zn   3.515795693190  4.059691802374  2.652136527417 -0.000014912398  0.000006170648 -0.067009633251
O    1.757898373965  5.074614225598  2.017080397328 -0.000001542662 -0.000001799772  0.067010404582
O    3.515795693190  4.059691802374  4.670044894713  0.000001799772  0.000000514221  0.067010147472
Zn   7.031592441120  2.029845901187  5.305102079541  0.000015169509 -0.000005913537 -0.067010918803
Zn   8.789489760345  1.014922423224  2.652136527417  0.000009255971 -0.000010284413 -0.067009890362
O    7.031592441120  2.029845901187  2.017080397328 -0.000001799772 -0.000000000000  0.067010404582
O    8.789489760345  1.014922423224  4.670044894713  0.000001799772  0.000000771331  0.067010661693
Zn   5.273694067155  5.074614225598  5.305102079541 -0.000008998861  0.000009770192 -0.067011175913
Zn   7.031592441120  4.059691802374  2.652136527417 -0.000014141067  0.000007199089 -0.067010147472
O    5.273694067155  5.074614225598  2.017080397328 -0.000001285552 -0.000001799772  0.067011175913
O    7.031592441120  4.059691802374  4.670044894713  0.000002056883  0.000001285552  0.067010404582