# total energy = -98158.56144893196 eV

CRYSTAL
PRIMVEC
6.136662235341968 0.0 0.0
-3.068331117670984 5.314502912362029 0.0
0.0 0.0 10.049453306556126
PRIMCOORD
32 1
Zn  -0.000000000000  1.771501584454  5.023941774178  0.000000000000  0.000000257110  0.305799296694
Zn   1.534165558835  0.885751099060  2.511578754372  0.000000257110  0.000000257110  0.305804181790
O   -0.000000000000  1.771501584454  1.910179104980  0.000000000000  0.000001799772 -0.305803410459
O    1.534165558835  0.885751099060  4.422542124786 -0.000001028441 -0.000000514221 -0.305801610687
Zn  -0.000000000000  1.771501584454  10.048666586458  0.000000000000  0.000004627986  0.305803924680
Zn   1.534165558835  0.885751099060  7.536304180318 -0.000001285552 -0.000000771331  0.305805724452
O   -0.000000000000  1.771501584454  6.934904530926  0.000000000000 -0.000001542662 -0.305802124907
O    1.534165558835  0.885751099060  9.447266937066  0.000000257110  0.000000000000 -0.305803410459
Zn  -1.534165558835  4.428754267967  5.023941774178  0.000000257110 -0.000000257110  0.305799296694
Zn  -0.000000000000  3.543003782573  2.511578754372 -0.000000000000 -0.000000000000  0.305801096466
O   -1.534165558835  4.428754267967  1.910179104980  0.000001542662 -0.000000771331 -0.305803410459
O   -0.000000000000  3.543003782573  4.422542124786  0.000000000000  0.000000000000 -0.305802124907
Zn  -1.534165558835  4.428754267967  10.048666586458  0.000003856655 -0.000002313993  0.305803924680
Zn  -0.000000000000  3.543003782573  7.536304180318  0.000000000000 -0.000000000000  0.305802382018
O   -1.534165558835  4.428754267967  6.934904530926 -0.000001285552  0.000000771331 -0.305802124907
O   -0.000000000000  3.543003782573  9.447266937066  0.000000000000  0.000000000000 -0.305800325135
Zn   3.068331117671  1.771501584454  5.023941774178  0.000000000000  0.000000000000  0.305795182929
Zn   4.602496676506  0.885751099060  2.511578754372 -0.000000257110  0.000000257110  0.305804181790
O    3.068331117671  1.771501584454  1.910179104980  0.000000000000  0.000000000000 -0.305803410459
O    4.602496676506  0.885751099060  4.422542124786  0.000001028441 -0.000000514221 -0.305801610687
Zn   3.068331117671  1.771501584454  10.048666586458  0.000000000000  0.000000000000  0.305801353576
Zn   4.602496676506  0.885751099060  7.536304180318  0.000001285552 -0.000000771331  0.305805724452
O    3.068331117671  1.771501584454  6.934904530926  0.000000000000  0.000000000000 -0.305802382018
O    4.602496676506  0.885751099060  9.447266937066 -0.000000257110  0.000000000000 -0.305803410459
Zn   1.534165558835  4.428754267967  5.023941774178 -0.000000257110 -0.000000257110  0.305799296694
Zn   3.068331117671  3.543003782573  2.511578754372  0.000000000000 -0.000000257110  0.305804181790
O    1.534165558835  4.428754267967  1.910179104980 -0.000001542662 -0.000000771331 -0.305803410459
O    3.068331117671  3.543003782573  4.422542124786  0.000000000000  0.000001028441 -0.305801610687
Zn   1.534165558835  4.428754267967  10.048666586458 -0.000003856655 -0.000002313993  0.305803924680
Zn   3.068331117671  3.543003782573  7.536304180318 -0.000000000000  0.000001542662  0.305805724452
O    1.534165558835  4.428754267967  6.934904530926  0.000001285552  0.000000771331 -0.305802124907
O    3.068331117671  3.543003782573  9.447266937066  0.000000000000 -0.000000257110 -0.305803410459