# total energy = -110395.36176396294 eV

CRYSTAL
PRIMVEC
8.82145232711341 0.0 0.0
-1.470244995003011 2.546532750529464 0.0
0.0 0.0 14.162832889728254
PRIMCOORD
36 1
Zn  -0.294953197864  1.510372017349  4.738165241761  11.405103805533  7.535642655868 -0.009579416158
Zn   1.495970114279  0.868721628705  2.395244843119 -0.964005305527 -2.863873906931 -0.159205793071
O   -0.038794100899  1.544171411940  1.814671543953  1.331412861951  2.632518588279 -1.145139266130
O    1.489776572600  0.960396807724  4.154028958000 -0.715193224852 -1.052708878812  2.139759211219
Zn   0.213614114537  1.664428978644  9.248045411619 -4.502987396364 -0.354765956401  2.455374979783
Zn   1.523199291177  0.780089850739  6.937160117104  1.600244837392  1.031741532532  0.258183237478
O    0.141824253353  1.685268777622  6.311678568431 -0.749108903763 -0.555719008611  6.029352869968
O    1.449913311679  0.715889967138  8.858340112164  4.236116658414  0.205324956026 -3.208593791949
Zn   0.070030863589  1.820142608687  14.153060484840 -0.980517444250 -5.475143613133  3.065236278765
Zn   1.378208136439  0.855133945686  11.770776119480  0.630409041226 -0.048095055735  0.582563125387
O    0.000034403664  1.730411677760  11.089071044400 -1.593001268456 -0.478074778464 -0.282714646960
O    1.462585327947  0.799186530737  13.611807927277 -0.155837390819  4.376313000262 -2.764200464898
Zn   3.026522085971  1.838069564106  4.652149906555 -1.662948644179 -0.124941472571 -4.936475646467
Zn   4.145518020794  0.920479735944  2.267822492835  3.742750758119  1.577124706435  0.896839863425
O    2.796223958648  1.827358556690  1.731492305670 -0.075557265711 -0.096879167117 -1.484114792465
O    4.521697387396  1.037038467687  4.072155294661 -1.894606067453 -2.248701737259 -1.602321003195
Zn   2.988334900993  1.772903731475  9.377114727053  0.571214790254 -12.145424421580  3.335261503183
Zn   4.386833259929  0.763577856273  6.962411524390 -3.324506064438  2.899082593621  4.453741257743
O    3.070419397042  1.820794514014  6.307064948864 -0.945895740411 -5.572967660662  4.048357479186
O    4.454552903008  0.679485597674  8.967294752002  0.202298510495  13.171328007275 -4.025782422099
Zn   2.902937949595  1.833112790043  14.027223349539 -0.169542399110 -16.912889887292  1.485621201807
Zn   4.557081996971  0.673651089105  11.808458717386 -0.795433754971  2.286587456561  1.366051020851
O    2.985416764563  1.594204925249  11.270463040021  0.741896188064 -2.344135687289 -0.524253848123
O    4.455442987548  0.740409193881  13.896682615857 -1.252354010845  17.400880896428 -3.954313981745
Zn   5.851300203657  1.868374781430  4.719292626652  2.063156020742 -4.978012332258  2.438501601066
Zn   7.311317606832  0.782458410689  2.374063653937  1.407962316372 -2.404438083724 -0.309586017430
O    6.049921377819  1.673819414646  1.828743524706 -5.953526152646  0.634610738012 -2.498650245532
O    7.353655285131  0.818565497209  4.126771552454 -10.796495919343  0.210592889293 -5.460818454760
Zn   6.119314450405  1.852338263245  9.446147002239 -8.449390350792  5.610615295811  6.766316396617
Zn   7.196262050566  0.829832256121  7.275745100323  3.272914565514 -1.524919999407 -13.448991722075
O    5.805151657953  1.567890532957  6.506450942942  2.722098136411  3.906719519796 -0.554647115703
O    7.102351515527  0.891495090033  8.787862000942  7.677819775592 -5.679242152951  7.964695753018
Zn   6.031436906613  1.532380658759  14.010640783455 -21.926204237285  13.955553809345  6.702319839161
Zn   7.300635710210  0.925670278493  11.910775214347  2.953759416339  1.149634325787  1.118553288111
O    5.920600650994  1.825332269091  11.426344277658 -2.178129069247 -0.818603251109 -3.376947312957
O    7.233388014829  0.884024202057  13.782398054524  24.526083442262 -12.904734434246 -5.360393479273