# total energy = -73614.14105300081 eV

CRYSTAL
PRIMVEC
9.396764262845632 0.0 0.0
-3.1322516220271233 5.425221847153926 0.0
0.0 0.0 5.330558843970019
PRIMCOORD
24 1
Zn  -0.163177630454  1.948455717282  5.323693568000  0.546152190858 -0.491612665050  0.176403387896
Zn   1.511228974514  0.915192217321  2.519755492552  0.498565185108  1.478547839900  1.195769429582
O    0.074303034056  2.000276992838  1.955890437166 -1.306839029267 -0.870145641963  0.656881890706
O    1.339446727025  0.931039860251  4.722171919507  0.988554969842  0.572521939101 -0.585817884879
Zn  -1.758970905598  4.564219829660  5.365938601096  3.757416587661  3.283767963289  2.420402577473
Zn   0.027265651185  3.662057165666  2.745805933012 -0.467952859539  1.083410421661  0.469521232467
O   -1.612893506750  4.601856689562  2.120723777483  0.212945191576 -2.133381846938 -0.304553340102
O   -0.099108612357  3.771869632194  4.971202146972  1.386125937224  0.154414799440 -1.965698612524
Zn   3.221012517578  1.815820389712  5.246953952971 -3.266659328633  0.553546940661  1.619034716405
Zn   4.627225134042  0.640375389367  2.731475867511 -0.989311131282  5.234464703088  2.266446462837
O    3.119186360996  1.846519618558  1.948614522598  0.290222782412 -0.557181452089 -0.160523226330
O    4.603456018840  0.921309510856  4.650487763652  2.269094441983 -0.869382538545 -1.484991538643
Zn   1.831243298896  4.623317019786  5.421641679970 -1.070731540642 -1.371825461441 -4.408597314217
Zn   3.208573081046  3.606895340413  2.727470026906 -0.476425415786 -0.382626173146 -1.874821685737
O    1.832898069083  4.782849645382  1.748919186866  0.105566410479 -4.496758127624  2.942560462299
O    3.137053368565  3.570266753317  4.510591556336  0.170258708451  0.496096154742  1.857140466407
Zn   6.198835836356  1.847598367096  5.219317129597  0.212496791184 -1.473076789484  1.702179307545
Zn   7.806443663208  1.028048295794  2.771254249989  0.188887379295 -0.771069981415 -0.696785411769
O    6.239820763365  1.893390678701  2.063618701381  0.140557581842 -0.662133626023 -0.229137485065
O    7.763847191128  0.659924417739  4.857079384676 -0.905978592501  8.775321128128 -3.824785146914
Zn   4.784762826585  4.572878008252  5.349610783513  0.246217580475 -7.423108298712  2.260008934742
Zn   6.249885637567  3.575748825588  2.925619594916 -0.345038958921  0.811241154317 -2.530763324016
O    4.617880991659  4.453745830927  1.874309609189  1.821474637574  1.055711927305  1.646463759151
O    6.417391417640  3.591310806883  4.752905916382 -4.005599776503 -1.996742112093 -1.146337657313