# total energy = -110365.94875492086 eV

CRYSTAL
PRIMVEC
8.629681152692129 0.0 0.0
-1.438283068675739 2.4911732067534005 0.0
0.0 0.0 13.023647275527228
PRIMCOORD
36 1
Zn   0.060597621054  1.822095041687  4.145085255423 -6.849765920592  4.767316341728 -0.682436085026
Zn   1.379646974148  0.795141410313  2.072695804552 -1.197048810515  12.714280481794  3.607614347293
O   -0.106234826862  1.839765176815  1.723567383062  0.516217350972 -13.139710894590 -2.798514407688
O    1.358119371544  1.033091060609  3.937962552141  6.197594290878 -4.354986985091 -3.864866588316
Zn   0.211849179649  1.848822027185  8.704268349863 -3.669311824302 -8.380203764494  2.619794455844
Zn   1.703519770776  0.845892565172  6.570656489022 -16.841138368480 -6.853343096421 -1.814128481622
O    0.134512566063  1.707862226332  5.824729287354 -0.848477670071 -2.211194998563  6.840370338310
O    1.546417288360  0.841584628341  8.171505491252 -15.589714582759 -4.290429927145 -1.190224845614
Zn  -0.159332392027  1.856468787654  12.970918197748  3.035793805134 -6.735426134797  2.946784527683
Zn   1.335333561428  0.744448937286  10.812640982237  1.154918971224  2.047083026440 -8.553481462277
O   -0.286890298049  1.518202545831  10.509759885012  24.899212217441  10.157177234332 -7.450501860234
O    1.398205103466  0.803278336672  12.374375091674  2.380899120062  10.327725191888  7.543890497699
Zn   2.904544426617  1.597445455984  4.232516870022  1.778343867823 -0.022334658941  0.619797841369
Zn   4.278563985684  0.976862647122  2.116295542640  1.147074021259 -0.807336934167 -1.822405634029
O    2.809560115073  1.742869390896  1.857904766598 -2.192838864653  0.663875034194 -1.233285938470
O    4.370012716860  0.765677089954  3.786665256236  0.220035522763 -0.512685426560  2.455286276724
Zn   2.678302664741  1.639528096125  8.625739114342  14.886754666748  10.684534661081  1.124558613765
Zn   4.298341488950  0.750698552377  6.455148206793  6.085621976873 -3.391398455386  1.479025036647
O    2.914136317218  1.424272781324  6.006038025404  10.141017850963  11.023189313742 -7.615552027901
O    4.321732239715  0.924848969911  8.263564340885 -3.122171044278 -1.233963938374 -0.541520348513
Zn   3.066709942966  1.821625587032  13.134002775140 -0.793419038534 -13.768659292110  3.824212819350
Zn   4.201988509976  0.878775965205  10.938039742034  0.299190790238  2.104172315254 -6.546848316322
O    2.838953672047  1.752551893150  10.263307409876 -0.576407390199 -0.748364826508  4.948953981439
O    4.393429356667  0.690728309143  12.531012434277 -2.789132709363  10.617878040294  0.317180799058
Zn   5.609648292113  1.816354577784  4.325196193729  1.697739012386 -0.793534738176 -5.685054645868
Zn   7.173886735021  0.757676512557  2.114848345111 -0.525739431530  13.799031990865  4.960834277817
O    5.692406934368  1.829037620174  1.708670827456  1.920852659854 -13.543207226317 -5.973029255676
O    7.231513156855  0.977053363076  3.989510226571 -3.087226924103  1.405650894630 -2.291647387583
Zn   5.801894288056  1.586881863285  8.692960878649 -4.013656071149  5.650055246975  2.687923290301
Zn   7.128170999115  0.872392590056  6.467866630876  2.765429966429  4.174234319087 -4.071654759151
O    5.654192980287  1.770385129252  5.932422530331  0.223248116164 -3.240193164022  5.895322033501
O    7.038314444113  0.826590557338  8.109433057689  9.293004522123 -2.865089781616  2.694766024255
Zn   5.822068756655  1.630785366149  12.783686046555 -6.446891538720  5.752720167536  3.620329995087
Zn   7.114503310105  0.915901716492  10.772254937410 -1.009888184103 -24.989875999776  7.262447518363
O    5.960217870356  1.626206457329  10.481077413765 -25.440745678580  12.612469167483 -4.453209039389
O    7.154610616231  0.887950179238  12.550033977473  6.350625836817 -6.619452927162  1.139269180502