# total energy = -49079.759998093796 eV

CRYSTAL
PRIMVEC
6.392356429000733 0.0 0.0
-1.5980891072501833 2.7679734343908944 0.0
0.0 0.0 10.673438984274675
PRIMCOORD
16 1
Zn  -0.030746595188  1.839949665862  5.290311623698  0.423942515396  0.301942899062  0.390088800072
Zn   1.561110603780  0.937311223184  2.607473509936  0.434418989448  0.074188410388  0.839994058080
O    0.002798573645  1.862951282001  1.992829262218 -0.243819255447  0.072702312761 -0.218438867700
O    1.581708693901  0.929401321339  4.716985010995  0.284044421515 -0.013079201781 -0.778520524156
Zn  -0.051748682235  1.892371463230  10.661506372529  1.061322074403  0.018309596942  0.367006207220
Zn   1.617839570909  0.883034363981  8.078385183645 -0.455882815748  0.188516111999 -0.423427266323
O   -0.009156411349  1.874041381169  7.287485131346  0.036106773025 -0.394551206718  0.612563014184
O    1.658304465576  0.943534182168  10.066613227705 -0.547332070099  0.275026277177 -0.398107042390
Zn   3.227503317945  1.878829895370  5.341532936528 -0.367420669050 -1.399474076396  0.373475102774
Zn   4.822986900715  0.993104988568  2.657234169322 -0.710339496304 -0.596022336216  0.202321136203
O    3.147339972147  1.850993100829  1.992818395212  0.659517785667  0.354279503682 -0.035364238432
O    4.827243570861  0.831955600700  4.696296149413 -0.424474219530  1.273919138610 -0.785512382092
Zn   3.253173103657  1.840971164420  10.643197385245 -0.151808729276  0.380430965267  0.468931678512
Zn   4.796966174635  0.925022557185  7.963123965638  0.028827465755  0.214132269905  0.091760614944
O    3.138261547547  1.845473301053  7.362778140780  0.543168682750  0.028984817268 -0.088514854313
O    4.857092039970  0.979709166435  10.020240517227 -0.570270681173 -0.779304967730 -0.618255436583