# total energy = -49077.54116865588 eV

CRYSTAL
PRIMVEC
6.648050622659499 0.0 0.0
-1.6620126556648747 2.8786923442696573 0.0
0.0 0.0 11.313838695059369
PRIMCOORD
16 1
Zn  -0.045999191868  1.952523825409  5.643550782533  0.330306280696  0.046128676037  0.073894019076
Zn   1.619090181625  0.972427649508  2.773750205971  0.529727469644 -0.228937453239  0.242825781185
O    0.070528504251  1.915675675223  2.148505033740 -1.101955017433  0.073467215951 -0.035839635406
O    1.662330432485  1.009128212970  4.970093282381 -0.328613723485 -0.289821176098  0.062838789703
Zn  -0.026994409553  1.880173090483  11.309451646453  0.254661083257  0.199355882927  0.008502381044
Zn   1.633816278559  0.978354386638  8.484043427924  0.429448532816 -0.266999293108  0.132673808218
O    0.027394622201  1.856899594863  7.827990524303 -0.356560072186  0.468456281538 -0.176563310512
O    1.667580398061  0.959163458906  10.668362175174 -0.166034385957 -0.199798369781 -0.186057880266
Zn   3.298598512113  1.934493647316  5.664517404586 -0.121517020271 -0.191869858963  0.350678159484
Zn   4.942696000960  0.968947395007  2.885394244102  0.005425541891 -0.074042371728 -0.404507289490
O    3.274642926500  1.918887348479  2.110954849408  0.565078595449  0.200469941927  0.411019122466
O    4.950401091632  0.950251082241  5.082717243175  0.195215635506  0.288013433465 -0.656951824712
Zn   3.343759384798  1.882315092394  11.271969272238 -0.205247308711  0.080497126215  0.175188798762
Zn   5.004585363427  0.958868950263  8.480530597975 -0.183167446093 -0.158068594142 -0.038227676023
O    3.321860041242  1.893002498574  7.816472776599  0.025042544791  0.066208477506  0.059821857254
O    4.982622198585  0.940565537289  10.620135221542  0.128189290084 -0.013060175618 -0.019295357895