# total energy = -24537.530617348522 eV

CRYSTAL
PRIMVEC
3.4518726727477356 0.0 0.0
-1.7259363363738678 2.989408031416358 0.0
0.0 0.0 11.305632059618821
PRIMCOORD
8 1
Zn  -0.001658279632  1.928882286423  5.610249607133  0.246906636123  0.151626180951  0.457184308168
Zn   1.750863689693  0.981376720918  2.802309973995 -0.144522994247 -0.111820618918 -0.004507400952
O   -0.086169787904  1.981549233727  2.125441236465  0.335822068308  0.130427178276  0.242960764101
O    1.844157452419  0.937878637807  5.000047922093 -0.485303435002 -0.103489216235 -0.336981378724
Zn  -0.027441697374  2.030407039537  11.332027149198  0.041773227282  0.006393819341 -0.816590334444
Zn   1.829674085059  1.001968176973  8.451389351637 -1.019818298732 -0.549601068639  0.600589129651
O   -0.101528895362  1.940916550122  7.899639952501  1.145834749535  0.630941002470 -1.004684528414
O    1.756296592092  1.061356955933  10.552564268400 -0.120692210376 -0.154477277247  0.862029440614