# total energy = -73619.29063705412 eV

CRYSTAL
PRIMVEC
6.392356429000733 0.0 0.0
-1.5980891072501833 2.7679734343908944 0.0
0.0 0.0 16.010155280233796
PRIMCOORD
24 1
Zn  -0.032826667970  1.848092249481  5.369303250563  0.672479488033 -0.266650651519  0.230542850053
Zn   1.723540380641  0.933302576468  2.679041054044 -1.919486889855 -0.831966559790  0.289150375283
O    0.000065202036  1.843552397946  1.964745722719  0.070766272080 -0.281783907616  0.774393389361
O    1.617601136014  0.857419552535  4.694678244001  0.025672722176  0.823132249328 -0.382497360878
Zn   0.010281466080  1.898482555976  10.668865253250 -0.412880344045 -0.794719245403  0.159401968242
Zn   1.649501551537  0.913670371403  8.006852797497 -0.131612971054  0.422141971852  0.070534358575
O   -0.056757732733  1.861697101669  7.364323812565  1.292670965297  0.139671579692 -0.307636607013
O    1.634292857121  0.926747854185  10.024208252862 -1.010422459339 -0.069759685193 -0.628670975489
Zn  -0.044486326096  1.767352313134  16.016268290687  1.129944046447  0.964625712720  0.077831663567
Zn   1.588705128012  0.939455219531  13.284994013790  0.664386683723 -0.494837085524  1.136505758824
O    0.096507322716  1.851559463609  12.708416248607 -1.643277133892  0.065467485575 -0.711001555368
O    1.601529473480  0.922075680871  15.373139702722  0.338514013318 -0.043156995003 -0.138350803998
Zn   3.200590858143  1.830503041531  5.327952375295  0.005746158455  0.066401053133  0.321740393404
Zn   4.700247264922  0.941681677275  2.654615860128  2.287946541692 -0.406588854609  0.906758665200
O    3.230721230171  1.773182781433  2.001171287358 -0.455711323167  1.492026334003 -0.246336108331
O    4.840610627390  0.936684772254  4.711596893761 -0.717042876466 -0.547779956270 -0.868864461258
Zn   3.150343101198  1.832096655989  10.683303668716  0.770301221570  0.506971149784  0.046881495043
Zn   4.822832205689  0.944008495015  7.989291076680 -0.417706304679 -0.499822711664  0.662441644182
O    3.265255296543  1.861843486632  7.321989792878 -0.824948219491 -0.132595132462 -0.173311893455
O    4.724530548524  0.900790412434  9.986073372114  0.805956765990  0.342104044662  0.083039690131
Zn   3.170583219359  1.921827441654  16.104436145205 -0.270087445115 -0.702653954734 -1.236071985856
Zn   4.791086485191  0.964086886559  13.405093606379 -0.015745949980 -0.302582332418 -0.840272765663
O    3.167345490827  1.791817139659  12.625710023422  0.884079221325  0.757751152819  0.615528267459
O    4.831396684833  0.929362327965  15.332874888811 -1.129541925912 -0.205395147142  0.158263997983