# total energy = -24538.448792298444 eV

CRYSTAL
PRIMVEC
3.3240255759183532 0.0 0.0
-1.6620127879591766 2.878689249384692 0.0
0.0 0.0 10.88690507468258
PRIMCOORD
8 1
Zn   0.015110023060  1.939645043734  5.540162069850 -0.731540298751  0.486691316489 -2.078324758063
Zn   1.770664214752  0.918684881401  2.576844126510 -0.334018696551 -0.090465550281  0.654744532648
O    0.078375537042  1.807052987536  1.984180670803  0.067673234977  0.521442089706 -0.189240905980
O    1.599948244418  1.221172870822  4.839517643309  0.929372031724 -0.829453820670 -0.503924649648
Zn   0.003604573335  1.973032553826  10.735979023018 -0.203685877761 -0.072472199028  1.628047204317
Zn   1.627244810045  1.031259987983  8.263922475971  0.084971874157  0.071869789557 -1.130763199914
O    0.026402735150  2.049565583491  7.374387969261 -0.118587762439 -0.026018021330  3.408637959192
O    1.636343000449  1.013497060110  10.407757424796  0.305815751754 -0.061593861552 -1.789176182552