# total energy = -12268.63589384965 eV

CRYSTAL
PRIMVEC
3.387949124333044 0.0 0.0
-1.693974562166522 2.934048640400525 0.0
0.0 0.0 5.983280775130124
PRIMCOORD
4 1
Zn  -0.024791656512  1.988298915599  5.995298847059  0.054164658968 -0.089501900817 -0.311319712291
Zn   1.721346141937  0.947173341024  2.990867257575 -0.077763272223  0.166729355141 -0.226451967813
O   -0.032388793629  1.992778800726  2.249063261390  0.098384548018 -0.181064283707  0.255332655403
O    1.711975752249  0.965551609844  5.246702351675 -0.074785934763  0.103837086492  0.282439024701