# total energy = -36807.12315011947 eV

CRYSTAL
PRIMVEC
3.387949124333044 0.0 0.0
-1.693974562166522 2.934048640400525 0.0
0.0 0.0 15.665321127259604
PRIMCOORD
12 1
Zn  -0.042500466585  2.236546483351  5.270298062146 -0.065718682354 -0.986501686858 -0.148847846875
Zn   1.648190156495  0.912039292220  2.836035272234 -0.303337722527 -0.266980266944 -7.732139986301
O    0.004241034714  1.939869876841  1.940704328710  0.039622242377  0.079646605289  1.694090359890
O    1.751551741150  1.038623574147  4.482369848993  0.293058194978  1.023241465481  6.715093850997
Zn   0.083580027307  1.959525741276  10.361127989304 -0.164899758132 -0.315454303285  0.531309983639
Zn   1.790691700999  1.014823909138  7.774089699168 -1.554990593540 -0.854435944537  0.421750907062
O   -0.118761168604  1.934201160366  7.258536672251  1.678622603271  1.015527898887 -1.144600105797
O    1.689140297561  0.899961253591  9.710625495276  0.119591778223  0.297161932734  0.805671630649
Zn   0.002719845557  1.987066040913  15.667863444283  0.262032178910  0.177294275141  0.130058224972
Zn   1.956474554294  0.728041808047  12.999829115637 -0.411231495587  1.633799533419  1.645432232562
O    0.047410282456  1.909309898150  12.560645543905  0.211671724180 -1.271801578047 -1.858956950790
O    1.739015313005  1.068981631070  15.136052665902 -0.104420469800 -0.531497931280 -1.058862300008