# total energy = -12268.803788768384 eV

CRYSTAL
PRIMVEC
3.068331382259589 0.0 0.0
-1.5341656911297945 2.6572516853213606 0.0
0.0 0.0 4.8276788452020325
PRIMCOORD
4 1
Zn   0.166937171349  1.780450525690  4.867502718212 -3.421613288406  1.777293315071  0.239200782838
Zn   1.597057893138  0.683109979628  2.413511111143 -2.085093701356  0.613683243831  1.832622683771
O   -0.161118694549  1.677890935572  1.869486752074  2.039232677157 -0.349471026550  0.312186431167
O    1.546315976570  0.944855829190  4.430008063237  3.467474312604 -2.041505789462 -2.384009640666