# total energy = -36803.99417186536 eV

CRYSTAL
PRIMVEC
3.5157962211624265 0.0 0.0
-1.7578981105812133 3.044767422432191 0.0
0.0 0.0 17.94984487020145
PRIMCOORD
12 1
Zn  -0.000000000000  2.029846003027  5.982348765470  0.000000000000  0.000000000000 -0.225688350174
Zn   1.757898110581  1.014922825724  2.990707836576  0.000000000000 -0.000000000000 -0.225756227297
O   -0.000000000000  2.029846003027  2.274580577982  0.000000000000 -0.000000000000  0.225756227297
O    1.757898110581  1.014922825724  5.266221506876  0.000000000000 -0.000000000000  0.225694777932
Zn  -0.000000000000  2.029846003027  11.965630974836  0.000000000000  0.000000000000 -0.225732316038
Zn   1.757898110581  1.014922825724  8.973990045943  0.000000000000  0.000000000000 -0.225699148807
O   -0.000000000000  2.029846003027  8.257862787349  0.000000000000  0.000000000000  0.225712004323
O    1.757898110581  1.014922825724  11.249503716242  0.000000000000 -0.000000000000  0.225724345618
Zn  -0.000000000000  2.029846003027  17.948913184203  0.000000000000  0.000000000000 -0.225722545846
Zn   1.757898110581  1.014922825724  14.957272255309  0.000000000000  0.000000000000 -0.225687835953
O   -0.000000000000  2.029846003027  14.241144645136  0.000000000000 -0.000000000000  0.225675237548
O    1.757898110581  1.014922825724  17.232785925609  0.000000000000  0.000000000000  0.225724345618