# total energy = -98150.44695072465 eV

CRYSTAL
PRIMVEC
6.136662235341968 0.0 0.0
-3.068331117670984 5.314502912362029 0.0
0.0 0.0 10.640591843024382
PRIMCOORD
32 1
Zn  -0.218700209742  1.822847037377  5.221345311298  3.052986514863 -0.559115950108  1.747550022371
Zn   1.410266961970  1.128056593756  2.589234532963  5.596947054296 -4.416828958098  3.374063820762
O    0.103081197564  1.859873202640  1.987255582656 -6.348009225130  2.132200682146 -2.513909999904
O    1.486236999445  0.808885108899  4.851424857087 -0.946859132765  1.231021825026 -1.472384905623
Zn  -0.008942957876  1.975234475003  10.696039040986 -0.432611246815 -2.388296440967 -0.693909889993
Zn   1.446454245506  0.807835125990  7.963519581489  0.895342452943  0.965224008426  0.275981699112
O   -0.058689810286  1.676436708767  7.542496072513  2.301016487502  3.788346444471 -3.078842813804
O    1.412059481009  0.662024349281  9.834034983778 -0.277510477051  2.553550754224  0.942836641870
Zn  -1.390780604708  4.293406500369  5.372557578107 -0.652801807099  1.236548154161 -0.281763595901
Zn  -0.094247472277  3.558304936191  2.798243725703  0.200405150127  1.464031134342 -2.490332726805
O   -1.693694843972  4.331045718190  2.039559582220  5.675189065928  3.156982752641 -2.620060050801
O    0.106521410414  3.570186741611  4.567404787180  0.335416348229 -0.584415862325  1.477119077874
Zn  -1.512883614203  4.374454625844  10.675265825653 -5.701765016644  1.828004982494  3.730203260471
Zn   0.020540635834  3.835912807728  7.973194643170 -12.815566776840 -6.012599561769  5.770877555171
O   -1.550209248584  4.498952774610  7.183415418475 -1.242753511641 -2.534446686405  1.178298526491
O   -0.182747346704  3.678610517317  10.054217197449  5.731908372997 -3.031415730671 -3.508164848345
Zn   3.075387665575  1.699899009492  5.343671081633 -2.912884532501  1.919786680483  0.170722021240
Zn   4.533678918867  1.039983217355  2.735784777472  0.633737591379 -1.295667843141 -1.419825386359
O    3.039336615941  1.743708027523  1.975951850819 -0.418029235236  0.930759398990 -0.837306226835
O    4.476680986359  0.987760221732  4.596666847383  1.488017469954 -2.565662964107 -0.722477931439
Zn   2.837320149819  1.757815600336  10.517081083212  0.769464070380 -3.631469556644  1.472771599538
Zn   4.621317205916  1.005050881246  8.000367169882 -3.342555465741 -2.147912436454  1.701299733154
O    3.035382764463  1.668020276511  7.190156541940 -0.140722389554  0.498622777819  1.404174567195
O    4.643807459342  0.761054122438  9.926181876571 -0.441667443480  2.569605750805  0.102707857984
Zn   1.511452544570  4.433165300782  5.404986156023  1.565915982203  0.250065236356  0.381658667026
Zn   3.077807965161  3.726450095106  2.703920158815 -5.329077956989 -2.602053844031  2.245997450954
O    1.459370078512  4.476433065205  1.953222267565 -0.170539730026  0.212243537523  0.521130214893
O    3.172277584611  3.651155090477  4.683954731018 -1.976772610950 -1.041773205737 -0.175958329939
Zn   1.490187782592  4.424955060377  10.614337360983  0.486872322151 -0.644147216748  1.282924170322
Zn   3.012480741001  3.408010100387  7.977543082030  0.303875083088  0.766537126542  0.310565350624
O    1.334719126857  4.309085058714  7.450063211260  14.197371203870  4.981352709485 -6.112169645455
O    3.046092467396  3.395045787748  10.064540290662 -0.084338354338  2.970922044161 -2.163775371628