# total energy = -24529.084031820705 eV

CRYSTAL
PRIMVEC
5.880968041683205 0.0 0.0
-1.4702420104208012 2.5465356146333695 0.0
0.0 0.0 4.437684388765479
PRIMCOORD
8 1
Zn   0.189947622488  1.674229267915  4.516888678254  0.719579783955 -4.134875100563 -16.036049349807
Zn   1.381779312944  0.805720262260  1.982484912594  1.999849290264  9.249185468056  5.387760558432
O   -0.034327210459  1.859784983469  1.528794692534  2.065669788303 -3.088343297096  12.393100074659
O    1.471598161651  0.713231454062  3.948287283144  2.885773792327  3.048268797672 -3.733067469393
Zn   3.091374370274  1.756195259996  4.464354578835 -3.525116645708  1.773884803610  0.636101206515
Zn   4.596240580040  0.975987225197  2.081227542207 -1.479212470068 -5.004364854110 -2.352389185547
O    3.072442946051  1.710647750610  1.983027725944 -5.264250676101  0.736644452747 -2.953065732706
O    4.419960327281  1.032996153199  3.716391891808  2.597706879916 -2.580400270317  6.657610154958