# total energy = -110423.73975250885 eV

CRYSTAL
PRIMVEC
9.013222972357486 0.0 0.0
-1.5022068331339051 2.6018921415452976 0.0
0.0 0.0 15.917784403885994
PRIMCOORD
36 1
Zn   0.011129527726  1.711049518660  5.262290014726 -1.795200020148 -0.690910441045  1.618194222782
Zn   1.505597607616  0.720516143088  2.727345389453  0.723242577519  2.447014780744  0.749565788795
O   -0.077321735913  1.706381570482  1.981329937254  3.877908509101  0.346092596996 -1.742634073126
O    1.518183672175  0.865447867161  4.789222895122  0.089067127272 -0.296098781577 -2.716549695789
Zn  -0.077771495739  1.678729903725  10.598185613534  3.467670487775  2.557680974343  1.874062953194
Zn   1.561397569716  0.885998015538  7.942091554323 -2.518839575995 -0.736443392480  2.149878816152
O   -0.052858947444  1.758634829342  7.257946469895  1.160082774813 -0.214561129912 -0.786464975814
O    1.546736661229  0.930562093880  10.002553082662 -0.985523639215 -1.163615470557 -1.358019151685
Zn   0.028839609545  1.840033246005  15.931160026777 -0.329619024821 -2.425902938466  0.354332982628
Zn   1.517039894180  0.896537177160  13.207802988489 -0.077449854748  0.482777069036  0.715753982451
O   -0.027194696352  1.770343005983  12.637113650871  1.552499965908  0.294938185610 -1.771904539956
O    1.565962767151  0.834805613022  15.194152389616 -1.537419931646  1.486432899075 -1.019030769834
Zn   2.962905070513  1.708745738868  5.436073065534  1.592130950036  0.567142419957  0.201729525365
Zn   4.431526832208  0.825770758315  2.740562379620  1.914540087372 -0.652546496555  1.365791082321
O    3.116941952433  1.731693404555  2.056486697009 -3.479336868370 -0.140381461275 -1.786084688111
O    4.590929285763  0.861847084584  4.698411969708 -5.584088453166 -3.068082747074 -1.809946325220
Zn   3.001736739045  1.786279285521  10.672974633792  0.384076018219 -1.310780530413  1.041081578986
Zn   4.534388436735  0.852725702936  7.892451228802 -0.864741183118 -0.422348174326  2.582434784249
O    2.988585545406  1.701071880829  7.350461795772  1.264692220695  0.709118736523 -1.513318410612
O    4.474419859011  0.831200323833  10.063605049788  0.623150559891  1.919850186731 -2.448176919373
Zn   2.990904647677  1.679357224044  15.839780366994  1.031248394946  1.300428754865  1.522042677859
Zn   4.520936201449  0.876716198521  13.274310659480  0.523327222544 -0.029280237021  0.469940322283
O    3.047520306455  1.736766046444  12.589569801014 -0.339127992753  0.176563824733 -0.067730313467
O    4.536143311248  0.887870061950  15.209263959252 -0.666309868888 -1.080350294679 -0.663790959121
Zn   5.898986789461  1.701600055695  5.223462852806  3.860018259084  3.231428530455  3.096799141173
Zn   7.579106532168  0.899743180571  2.596521161976 -4.090975570967 -2.418421542487  1.750288504348
O    5.915666659893  1.680172920723  1.919679492123  1.039393135540  0.541805483854  1.235976855039
O    7.409620986074  0.877460690739  4.656585207183  1.863296201596  0.193146925903 -1.407842502965
Zn   6.042710741656  1.668076274172  10.632456591242 -0.263711623495  0.212421972082  0.148036920938
Zn   7.476070071115  0.973481259030  7.962940941702  0.328496481181 -1.206681705619  1.072803078459
O    5.952956165975  1.717094687307  7.344587878361  0.755668302148  1.864428258318 -1.702677844448
O    7.608231860881  0.870017571208  9.954315214636 -3.352900813531 -2.193897130714 -2.248662656491
Zn   5.940521523562  1.688265893630  15.996940330674  1.745742536848  1.086731772725 -0.710649828456
Zn   7.574683743656  0.902793255225  13.228071022987 -1.713787581208 -1.214206810351  1.507983114442
O    6.019120433170  1.727003824643  12.537622991735  0.145323121551  0.255212584885 -0.058101017908
O    7.558053445949  0.903923513386  15.198546335816 -0.342543189082 -0.408706929393  0.354887826690