# total energy = -98128.52692208627 eV

CRYSTAL
PRIMVEC
5.880968041683205 0.0 0.0
-2.9404840208416023 5.093065348298698 0.0
0.0 0.0 10.38607184807854
PRIMCOORD
32 1
Zn   0.019538340125  1.602170942693  5.286175167303 -0.379546248669  0.703493162806 -1.433482315020
Zn   1.265550801052  0.856190141897  2.647887629767  3.764116625389 -2.548731478459 -0.103475075167
O    0.049555389106  1.952480213645  2.133017111073  0.215622995518 -29.565948546161 -15.597589614631
O    1.541460533406  0.813908922162  4.523890558804 -2.422480800158  0.339093539971 -0.332270603512
Zn  -0.022214768681  1.654534494040  10.472086886656  19.855812875137  11.009260362366  6.913366271052
Zn   1.511248824382  1.007667411941  7.806611633864 -1.854104507794 -0.694497129955  0.557841197161
O   -0.256583695175  1.717312651691  7.107298666866  14.030609967050  7.238413360232 -3.556292557090
O    1.625439580847  0.764871646340  9.750767337246 -0.861173263261  14.389493545163 -5.626018774851
Zn  -1.581637542776  4.153161978715  5.231966756282  5.343543754705  2.482990684618  3.357191984707
Zn  -0.011566687944  3.165065252224  2.719996531313 -1.464494704241  30.175456318458  14.809579920038
O   -1.378170750954  4.150147394497  1.906335197906  0.697762173860  2.937886710973 -0.330047113498
O    0.020819803061  3.617262294498  4.616609900950 -4.018123362892 -4.708566891603 -1.406706846699
Zn  -1.336973393628  4.445513133423  10.289042344456 -5.064624570232 -4.785701786214  8.574830103156
Zn  -0.116949518574  3.549300063518  7.403172521430  6.688530755797 -2.747104685758  2.306218343418
O   -1.543339502695  4.225170903805  7.227474484507 -7.607207512591  3.801575541567 -1.049450005556
O   -0.164312482794  3.495359824639  9.958116156072  10.740023438177 -7.237303157887 -3.322296715492
Zn   2.968004598889  1.755692437228  5.018011257957 -3.603863364891  4.610767012443  2.980463407993
Zn   4.387525024241  0.828721316368  2.566425636647  4.231190424757 -1.511931557567  3.769034888626
O    3.174027847519  1.649335130194  1.874823206848 -6.698577598510  4.403781637996  0.961064220621
O    4.173966491259  0.778374937060  4.572553216962  6.480717486131  2.018909392219 -3.382019585274
Zn   3.040776873631  1.616904531928  10.534602165036 -0.894610716984  2.050089674477 -1.922180377526
Zn   4.446354111853  0.911547694074  7.553871739401 -0.132470948179 -10.020864800920  9.290354228984
O    3.102559971490  1.495950074118  7.149439919562 -12.177456510315  7.038197443297 -3.750583623900
O    4.668743506446  1.036677639193  10.026569447884 -18.804896569448 -10.647785626487 -8.837691719946
Zn   1.465823051034  4.285399073713  5.078731664891 -0.668210942565  0.236265354359  4.672667092382
Zn   3.030262290869  3.574456492413  2.613528662080 -2.166973823961 -1.861945086884  0.490461325054
O    1.379793310037  4.253209007040  2.064122158561  1.409262523241 -1.854721058332 -1.481006328743
O    2.890299368155  3.613130326352  4.679049902939 -0.350010186883 -5.765470011002 -4.901265417114
Zn   1.486813990265  4.347041028339  10.346184182336 -1.016010237840 -1.562835286396  0.902314770496
Zn   2.918583883951  3.255454554831  8.167213775082 -0.815191911435 -0.252418052859 -4.685311263509
O    1.459620394041  4.352531500103  7.083151412086  1.667919357921 -4.754931852021  0.010588831259
O    3.124441289282  3.628887204026  9.804045379123 -4.125084596835 -2.914916218219  2.121712381020