# total energy = -73612.51521077474 eV

CRYSTAL
PRIMVEC
9.97207619857785 0.0 0.0
-1.6620160237883748 2.8786890966244614 0.0
0.0 0.0 11.313838995248897
PRIMCOORD
24 1
Zn   0.120816689184  1.822444791256  5.697243582149  0.034699094044  0.139141675331 -1.207830988732
Zn   1.472519651410  0.760835508892  2.485503095814  0.715956328270  3.505987895298  1.113479216022
O   -0.256707168750  1.913407078716  2.306185221611  1.726690919533 -2.196526597917 -1.341317522660
O    1.778021186206  1.227372113390  4.889796594689 -0.446924835224 -0.911106657756  1.229934248389
Zn  -0.162496976071  2.218960468309  11.311482593643  0.089217793917 -1.231168377906 -0.614782390432
Zn   1.612108774037  0.949829288631  8.285673462446  2.307244470690 -0.212473908366  0.944987883885
O    0.138798336985  1.931973090183  8.088767837452 -1.955383089531  0.875206344315 -1.335206524666
O    1.606361866524  1.168537861026  10.845551294171 -0.029778773924  0.149193660250  0.393098019212
Zn   3.350369298025  2.046104499483  5.758824144298 -0.303205824935 -0.144624552822 -0.712683313946
Zn   5.006683288643  1.199434344712  2.809735181334  1.144265862386 -0.715819288472  0.890768717530
O    3.321430332897  1.526668025168  2.238727117750 -0.710730046874  0.918422474691 -1.267390079243
O    5.325041821282  0.940004799160  4.934926222733 -2.762502251260 -1.057797863300 -1.158828590691
Zn   3.527061524565  1.904902892134  11.539338551535 -0.846669413218 -0.226657656066 -0.679363873858
Zn   5.119637992952  1.132162718676  8.378628170731 -2.562597952028 -1.602251069189  1.219422036004
O    3.222276982046  2.065238919293  7.744835915401  0.671792489269 -0.240776354855  0.138115805170
O    5.153207990267  0.897860810729  10.683295642344 -1.402277093062 -0.457902931502 -0.034302887047
Zn   6.698157822729  1.637586431517  5.751119718227  2.513341786106  1.688723696261  0.842589586721
Zn   8.448365891210  0.817442996641  3.019471876773 -1.359201602029 -0.887714246974 -0.064568627910
O    6.770606950727  1.821174348748  2.047790777568 -0.809440353663  0.106010954215  1.427404227147
O    8.491669632103  0.728766309045  4.991618473130  0.099604536468  0.603596549019  0.900452263366
Zn   6.434387432408  1.994188873586  11.453279533941  1.671622003584  0.670978735118 -0.687762125224
Zn   8.471630744982  1.003863980720  8.557801449829 -1.076501096136 -0.557970009429  1.031870344801
O    6.591348908982  1.946378751459  7.862727794636  2.773121421536  1.249879066942 -1.100457092731
O    8.248745867075  0.943871970310  10.605240213107  0.517656397412  0.535647948893  0.072370897563