# total energy = -98139.18530522224 eV

CRYSTAL
PRIMVEC
5.753120944853822 0.0 0.0
-2.876560472426911 4.982346566267031 0.0
0.0 0.0 9.606095350920379
PRIMCOORD
32 1
Zn   0.058990200920  1.662464976632  4.719728101376 -0.885726012900 -4.023522422420  2.336731681516
Zn   1.499467554022  0.796453433924  2.324384553821  0.961749419614 -0.052650022096  0.929055271815
O   -0.027813463208  1.607080256608  1.901448470057  3.155884120260  2.744803548428 -0.898907287477
O    1.516073362318  0.773751043364  4.225098350334 -2.783236912704 -0.301236874134 -3.843447756320
Zn  -0.000110459922  1.721264749249  9.722241657803 -0.460224894767 -0.358509225493 -0.426787955265
Zn   1.440332374454  0.791018460568  7.224510967417 -0.435234800481  0.966182515684  1.287959161643
O    0.011205928976  1.635204388347  6.615913041081  0.417884739238  1.732192051857 -1.159243566742
O    1.444251400442  0.860890689755  9.069657094659 -3.228140603733  1.508424829966 -1.970335082855
Zn  -1.446097576953  4.170557613152  4.858756296193  2.710607619273  0.053765366647  1.674406508307
Zn  -0.022586177517  3.424859362828  2.418873236907  2.964588902854 -2.615398897879  1.817604613096
O   -1.452088301793  4.011594278949  1.868551549182 -1.203649603661  3.522746088593 -3.750649958361
O   -0.058860755699  3.223839563894  4.220077026373  1.077409466883  4.124785834648 -1.249717858774
Zn  -1.356211390623  4.230098387747  9.578468864143 -4.418820791717 -0.071644560920  3.725129959713
Zn  -0.010380356121  3.443763542941  7.158665922891  4.234886128441 -3.325983163204  1.903658407463
O   -1.393504846524  4.133336071263  6.630925810187 -3.479784497430  0.750755181117 -1.183024471211
O   -0.090459197176  3.373913175613  9.026774481761  4.184035878559 -3.100272958654 -2.823324010533
Zn   2.787994052041  1.645347140573  4.812395921683  2.761530888485  3.125339671814  1.604608770788
Zn   4.368756081575  0.797523514420  2.413424456061 -3.941736916411  0.783772516583  2.120253022866
O    2.916427299326  1.784323557301  1.749663880169 -0.000606266125 -2.752915378902 -0.497830878045
O    4.241636271802  0.806125005545  4.250467887764  1.205086078997  1.195092972340 -1.273075045442
Zn   2.875080194408  1.632826048148  9.513479884014 -1.505615899762  4.681430954618  2.497385519887
Zn   4.312907660003  0.908871718435  7.270871917239 -0.118796536016 -0.839623562115  0.452966670543
O    2.849392509389  1.671453652796  6.622071181740  0.341484151690  0.942395954788 -0.126870314163
O    4.250230859181  0.868402539773  9.091299760342  5.033304162852 -2.821903990257 -1.475261455840
Zn   1.423088545046  4.160914807137  4.836187378039 -0.269348767176 -1.836351040465 -2.200275780547
Zn   2.846675310367  3.366455980244  2.448348776756 -0.006339569065 -1.234920131639  3.024557827209
O    1.475914276874  4.147885714133  1.860212975685 -2.084856902754 -0.080018901027 -2.236830696853
O    2.990497580867  3.376592404037  4.262319316911 -4.229100117887 -2.358905903620 -1.532024985883
Zn   1.420978300284  4.092682217419  9.657049017193 -0.029746892245  0.770278081641  0.365274312131
Zn   2.819996362609  3.413440568376  7.226143703141  2.583248795509 -2.446498246119  0.524615602338
O    1.522741804805  4.178682745863  6.538568083098 -3.229343622902  2.172097518341  1.167532289113
O    2.884219602341  3.418873240485  8.970484220500  0.678608997970 -0.853708322342  1.215866714552