# total energy = -36808.84400211684 eV

CRYSTAL
PRIMVEC
3.387949124333044 0.0 0.0
-1.693974562166522 2.934048640400525 0.0
0.0 0.0 15.0125988489656
PRIMCOORD
12 1
Zn   0.001722433335  1.860085707733  5.061243306250  0.794290642506  0.516932117651 -0.462952321001
Zn   1.737653018662  0.962194491056  2.508304385256  0.042466910915  0.477578298444 -0.274197610628
O    0.060950898721  2.047251601927  1.895185538250 -0.029665388275 -0.612138010831  1.376879736035
O    1.856340668771  0.954468273078  4.436214462893 -0.915536411393 -0.396530184822  0.213597480448
Zn  -0.037900648059  1.972271205882  9.918210558843  0.083288315807 -0.189905536147  0.265385411653
Zn   1.651638072319  0.944782126532  7.480065856823  0.526482994564  0.078164107206 -1.208375291271
O    0.111297516683  1.988788474247  6.968432348248 -0.554993957520 -0.131833828816 -0.216777420837
O    1.671460285056  0.955967101771  9.303847318124  0.089393400263  0.157337115293  2.011481732296
Zn   0.073737696306  1.963617706228  15.061907060521 -0.176467922585 -0.286607040036 -1.689409409474
Zn   1.568712935577  0.935315857883  12.495240847265  0.901171658031 -0.376368365162 -0.407198977389
O    0.078946329290  1.923308903932  11.912049110055 -0.990832453023  0.427381880095 -0.612268365761
O    1.667689836475  0.898681625207  14.389017676270  0.230401953599  0.335989447124  1.003835035930