# total energy = -73608.8375957828 eV

CRYSTAL
PRIMVEC
9.013222972357486 0.0 0.0
-1.5022068331339051 2.6018921415452976 0.0
0.0 0.0 9.068311791164534
PRIMCOORD
24 1
Zn  -0.039035367371  1.757251299616  4.556435681448  0.686746539475 -0.902736945635 -1.098213033892
Zn   1.426181198684  0.883495944841  2.308986730646  1.277961427001 -0.259609171291 -2.600093377871
O    0.015874989621  1.739089655327  1.708230182514 -0.827030555941  0.702135106116  2.457025113792
O    1.571120133336  0.843838665085  4.007033773845 -0.837328338322  0.728538535811  3.001609703053
Zn  -0.029458817963  1.784017867877  9.069889105185  1.111299177652 -0.255327770307 -2.456223443826
Zn   1.451630935069  0.861108000300  6.813441352567  1.520892366305 -0.523804419291 -2.266210692677
O   -0.041602333274  1.654333813106  6.340551793455  2.277604793447  2.529653635892 -0.713289580071
O    1.568863222304  0.898095563412  8.532622600992 -1.369848283109  0.079359670176  2.062112152859
Zn   3.043514830166  1.747125844929  4.543384534584 -0.204618416877  0.081693974736 -1.276555033571
Zn   4.503181954838  0.856021838577  2.224792412216  0.171186876692  0.637686805834 -0.714777734581
O    3.015437739285  1.752318362683  1.763755241313 -0.894974528081 -1.193085969212  1.147008201018
O    4.520161064273  0.866380735739  4.003548360522 -0.630874925119 -0.422714556526  0.596822720630
Zn   2.997673578129  1.794252382562  9.063364433075  0.749721083425 -1.145941707426 -0.529448762061
Zn   4.483536734047  0.885477051250  6.774155417598  1.204479041541 -1.235595046219 -0.259041728823
O    3.041482348386  1.704181442755  6.304626889332 -2.304161460889  0.723839073452  0.996487851536
O    4.510754864779  0.859451369918  8.564077847844 -0.644743712681  1.359663115046  0.359306010363
Zn   5.991792341118  1.651696544064  4.567987028009  1.400253634874  0.404494433974 -1.901865577228
Zn   7.492913080884  0.854595045380  2.197622952888  0.207443802141  1.451526059896  0.283791167854
O    6.010180217304  1.777383234447  1.765246028392 -0.157772145948 -1.377792477657 -0.437010147213
O    7.541351943782  0.795580967969  4.012787815391 -0.088510483438  0.201736724454  0.529948584515
Zn   6.010039611025  1.695158305237  9.005069610857 -0.210068641359  1.314117822316  0.131881137114
Zn   7.542816592515  0.910020958726  6.817331459602 -2.782767943487 -2.127823379014 -2.135939066142
O    6.010139657800  1.720591817820  6.303988753145  0.012475249649  0.633098672243  1.921081230925
O    7.518923439737  0.911394573907  8.525812209714  0.332635443050 -1.403112958700  2.901593532969