# total energy = -24538.034617892838 eV

CRYSTAL
PRIMVEC
5.880968041683205 0.0 0.0
-1.4702420104208012 2.5465356146333695 0.0
0.0 0.0 5.098616982130046
PRIMCOORD
8 1
Zn  -0.044839440834  1.701333473425  5.091317524597  0.791519507519 -0.273019274049  1.916384853891
Zn   1.480858922026  0.832723903217  2.497473638746  0.591057021791 -0.585358428744  1.520304869233
O   -0.013588564757  1.625895943967  2.002316124927  0.329783318313  1.197881847939 -2.547307344418
O    1.405788953071  0.805684976452  4.432880814069  0.937740458294  1.243099325016 -0.671716898836
Zn   2.930122343249  1.702888989472  5.125693547091 -1.005908630629 -0.521968137413  0.665725457139
Zn   4.423519489140  0.819241783982  2.571101594337 -1.031015710110 -0.245194024307  1.674307777946
O    2.958264539619  1.685651872142  1.928569961878  0.033285501526 -0.326375835294 -1.288689869162
O    4.390359062740  0.850093342329  4.485146153249 -0.646461466703 -0.489065473148 -1.269008588683