# total energy = -36806.58679238254 eV

CRYSTAL
PRIMVEC
9.588534908089704 0.0 0.0
-1.5980923475265867 2.7679703145927954 0.0
0.0 0.0 4.618317838481406
PRIMCOORD
12 1
Zn   0.093376029495  1.984476744450  4.637921598101 -0.151387839688 -6.502497558120  1.678618489506
Zn   1.597812362307  0.950980344796  2.252241376026  1.608879887360 -1.020926444195 -1.492227651380
O    0.030848234506  1.697044110071  1.906764545581  3.519096150546  3.892835048504 -1.837338086969
O    1.500926929035  0.716077540057  4.030329700848 -0.328788558500  5.813433683366  0.255491806689
Zn   3.146504577987  1.639557966737  4.454248417669  0.616105480119  0.120821279755  0.944376475553
Zn   4.792026613437  0.851517513341  2.342294019323  1.051836760620  2.637398799189 -2.125301898143
O    3.189253143168  1.905817198332  1.819572162248  0.176304143314 -2.287982537136 -0.745072014689
O    4.781839753950  0.710496053887  4.151549876863  0.267919490929  0.813061495355  1.101639028854
Zn   6.530757837874  1.758541137558  4.397161157387 -0.632187987503 -0.913460502700  0.106831136124
Zn   8.130669130473  1.039206372192  2.241776449028 -5.511831198362 -1.884110567238  0.436633737711
O    6.495048216170  2.026961624921  1.619781613489 -0.845907338241 -1.905764912283  2.240819506297
O    8.121047994546  0.800750056416  4.153480048940  0.229961009407  1.237192215503 -0.564470272441