# total energy = -73616.03812455953 eV

CRYSTAL
PRIMVEC
10.355617489065997 0.0 0.0
-3.451869044482836 5.978815757312254 0.0
0.0 0.0 5.320302041182547
PRIMCOORD
24 1
Zn   0.000000000000  1.992939621333  5.319467378413  0.000005142206 -0.000007199089 -0.068917134687
Zn   1.725936593365  0.996469292885  2.659318428945  0.000004627986 -0.000004885096 -0.068919191569
O    0.000000000000  1.992939621333  2.022543225048 -0.000000771331  0.000002571103  0.068920477121
O    1.725936593365  0.996469292885  4.682691138955  0.000002313993  0.000001799772  0.068918934459
Zn  -1.725936593365  4.982348535550  5.319467378413 -0.000007970420  0.000005399317 -0.068917391797
Zn   0.000000000000  3.985879242665  2.659318428945 -0.000006941979  0.000003085324 -0.068920734231
O   -1.725936593365  4.982348535550  2.022543225048  0.000000257110 -0.000001542662  0.068918934459
O    0.000000000000  3.985879242665  4.682691138955  0.000005656427  0.000002571103  0.068917906018
Zn   3.451872151168  1.992939621333  5.319467378413  0.000004885096 -0.000004627986 -0.068917391797
Zn   5.177808744533  0.996469292885  2.659318428945  0.000006427758 -0.000004113765 -0.068920477121
O    3.451872151168  1.992939621333  2.022543225048 -0.000002828213 -0.000000257110  0.068918677349
O    5.177808744533  0.996469292885  4.682691138955 -0.000001542662  0.000002056883  0.068918420238
Zn   1.725936593365  4.982348535550  5.319467378413 -0.000005142206  0.000004627986 -0.068916877576
Zn   3.451872151168  3.985879242665  2.659318428945 -0.000005913537  0.000004113765 -0.068919962900
O    1.725936593365  4.982348535550  2.022543225048 -0.000001542662 -0.000003856655  0.068918420238
O    3.451872151168  3.985879242665  4.682691138955  0.000001542662 -0.000001799772  0.068918677349
Zn   6.903745337898  1.992939621333  5.319467378413  0.000008998861 -0.000003856655 -0.068917391797
Zn   8.629680895701  0.996469292885  2.659318428945  0.000005913537 -0.000004113765 -0.068918677349
O    6.903745337898  1.992939621333  2.022543225048 -0.000005399317 -0.000000771331  0.068917906018
O    8.629680895701  0.996469292885  4.682691138955  0.000001028441  0.000001285552  0.068919962900
Zn   5.177808744533  4.982348535550  5.319467378413 -0.000004113765  0.000006684868 -0.068917648907
Zn   6.903745337898  3.985879242665  2.659318428945 -0.000006427758  0.000003856655 -0.068918934459
O    5.177808744533  4.982348535550  2.022543225048 -0.000001285552 -0.000002313993  0.068916363356
O    6.903745337898  3.985879242665  4.682691138955  0.000003085324  0.000001028441  0.068916877576