# total energy = -73582.60530989025 eV

CRYSTAL
PRIMVEC
5.753120944853822 0.0 0.0
-1.4382802362134555 2.4911761596939876 0.0
0.0 0.0 13.300743868584558
PRIMCOORD
24 1
Zn  -0.079406876529  1.685594824079  4.395370594378  5.566379208811  0.945628859903  3.710841053894
Zn   1.386920399602  0.733151844168  2.525628149160  0.439903409601  0.337462946346 -17.168507678035
O   -0.034295504576  1.595544098489  1.754712243798  9.463392814173  5.368786331322 -1.414910979776
O    1.526868518459  0.848910390699  3.994352175477 -2.225650511866  0.625521117006  13.203237711499
Zn   0.085975214712  1.624278636361  9.001212214778 -5.734768211043  2.969189120630 -2.546125151184
Zn   1.536866867349  0.685123639896  6.604525888795  0.892102348740  0.529796118098 -0.689905396819
O    0.018167780632  1.521762623620  6.210742019482  10.356918525623  3.210788485608 -4.518748515853
O    1.427025981021  1.011068432963  8.311326141364 -11.169709026705 -12.063394403661 -6.225957929623
Zn   0.021685814090  1.702327776347  13.358463205088 -0.050904500159 -4.135736677233 -0.512498507360
Zn   1.686207531459  1.051348333946  11.164867801579 -8.802877954701 -5.688841109494  3.460959137193
O    0.103036094874  1.513493662886  10.640276371967 -0.142040851256  1.990766611236  3.883171300162
O    1.380586213442  0.737219875988  12.842401927902  0.933619494147  4.637719115552 -0.454518588411
Zn   2.835561431326  1.789337977517  4.350556083466  3.977344381202  0.404269205337 -7.596415307071
Zn   4.456821405126  0.851025813271  2.219758871630 -9.524850664368  0.127378621258  0.100097931165
O    2.878887034537  1.804428989067  1.757346022567 -2.170160192109 -7.704341218921 -1.289689771181
O    4.370877832580  0.928369045317  3.894280088514 -5.423697124427 -0.279107389225  1.021981882042
Zn   2.614933270275  1.674417085395  8.776628207766  17.877174928843  8.432216153005  5.253310375039
Zn   4.420674546230  0.951455744357  6.587780854973 -13.351197756453 -3.373622362349 -6.137886333495
O    2.710512169780  1.752905763821  5.895434747042  1.479602763528  0.159526409635  11.078305795101
O    4.491110005958  0.779285545713  8.134726614905 -1.346991433116  0.250341887057  11.072190426231
Zn   3.003576150711  1.769992533028  13.235459753351 -6.097252619134 -0.065245342262  4.411014922519
Zn   4.298603100086  0.910262823079  11.094171150160  6.393693871651 -3.193772924886 -0.874766428564
O    2.973906155374  1.587488578542  10.568892797908  3.679944878536  7.507672395908 -7.582481727709
O    4.195191901726  0.844147381869  12.788415216267  4.980023963371 -0.993001692760 -0.182697962655