# total energy = -12269.913337163267 eV

CRYSTAL
PRIMVEC
3.3240255759183532 0.0 0.0
-1.6620127879591766 2.878689249384692 0.0
0.0 0.0 5.016516354383125
PRIMCOORD
4 1
Zn   0.002827416155  1.997565192187  5.046787922900 -0.325994540695 -0.181205951491 -0.522077666408
Zn   1.641995505941  0.956712398794  2.518018845893 -0.423309509798  0.123017258965  0.004564736553
O   -0.116668311676  1.949431639835  1.936562010012  0.465325192108 -0.045541436075  0.614827641848
O    1.594723541018  1.004751881223  4.483590624314  0.283978858385  0.103730128601 -0.097314711993