# total energy = -98144.79179575808 eV

CRYSTAL
PRIMVEC
6.903745345495471 0.0 0.0
-3.4518726727477356 5.978816062832716 0.0
0.0 0.0 11.748987133833866
PRIMCOORD
32 1
Zn   0.008626920184  2.146095516603  6.081329087093 -0.305785412737  0.096212480068 -0.355896470461
Zn   1.779003355721  1.002167004839  3.088757759560  0.251644407918  0.465972338774 -0.722290498018
O    0.163945311843  2.162402163109  2.108513598065 -0.365683374644 -2.780142332939 -0.550845739679
O    1.872700297176  1.009630643932  4.981418165278 -0.856059081963 -0.121802669832  1.698006407115
Zn   0.140480862163  2.003214222183  11.543636609281 -0.482234566269 -0.197393359884  0.599599769155
Zn   1.833424889905  0.871271302714  8.843380905668 -0.045284582869  0.494027188028 -0.855001587233
O   -0.068819295102  1.804815769193  8.050331799217  1.016854588118  0.527739492679  0.255056261813
O    1.878079005174  0.972652112738  10.872596703946 -0.315854109827  0.305417744985  0.173269213142
Zn  -1.704689369699  4.996576028559  5.948357428743  0.224735499342 -0.203605402232 -0.639566025135
Zn   0.003456014920  3.779095704259  2.771744677040  0.175428168467  3.068978005195  0.840564328761
O   -1.746231966941  5.267797258577  2.270877952224  0.140034619459 -1.939217278404 -0.562070147640
O    0.029763426934  4.154727798133  5.222586701432 -0.550472929721 -1.348022188373 -0.036857278038
Zn  -1.570458468197  5.033584245858  11.613006823262 -0.887706019444  0.386406209014  0.707085251033
Zn  -0.196564818226  4.069194535549  8.965731151805  1.373909854773  0.336950268375 -0.793802647126
O   -1.681307764962  4.757255625034  7.946157733826 -0.897564914516  1.120021902237  0.993158787163
O   -0.065595246026  3.994890214770  11.096905603592  0.811846392001 -0.588037261128 -0.582406288094
Zn   3.502292105755  1.870539424882  5.895088820032 -2.639743902383  1.856170132074  0.739668841396
Zn   5.215141012077  0.980310437450  2.951559628309 -0.539538027976 -0.105213398015 -0.589384776295
O    3.572649555320  2.023750103088  2.216304535643  0.483953605843 -0.073382369547  0.171195618443
O    4.938650843612  1.050461465029  5.400280131757  4.156364123675 -1.974796461060 -1.822096073208
Zn   3.560563858718  2.027185406772  11.539682834322  0.335820011426 -0.189754612392  0.426285561707
Zn   5.227716874599  1.060981392186  8.768322695898 -0.890176078251 -1.133829754654 -0.602603846088
O    3.469003626448  2.161585450034  8.010304574078 -0.470823239108 -0.797756746677  1.046415589605
O    5.242051121060  0.892609398828  11.082031484245  0.089982182887  0.860108826552 -0.094032441697
Zn   1.789225731454  4.882751217550  5.490284259826 -0.302424723795  0.552383773590  0.554848175971
Zn   3.603705363382  3.912431189989  2.916117180454 -0.258970252155  0.281427038497 -0.144503968084
O    1.836222977894  4.823215388814  2.308440540275 -0.171406963122  0.910742332438 -0.225169501556
O    3.399697617299  3.848500436966  5.223450359975  0.504417787234  0.895095884150 -0.400623895275
Zn   1.834319615302  4.966398376905  11.747932241545 -0.021131125552  0.267124505831  0.202249145314
Zn   3.403562333944  3.954936859707  8.911736959458 -0.263930938595  0.060832815017 -0.982796470092
O    1.397855169316  5.115918312848  8.142102595720  0.621996905903 -0.361498904249  1.328835331032
O    3.500806419757  4.103081569578  10.945094314568  0.077801581661 -0.671158455229  0.223709372071