# total energy = -36793.805822527735 eV

CRYSTAL
PRIMVEC
8.629681152692129 0.0 0.0
-1.438283068675739 2.4911732067534005 0.0
0.0 0.0 4.248849404571428
PRIMCOORD
12 1
Zn  -0.000000000000  1.660783000804  4.248185782091  0.000000257110  0.000000257110 -4.657189308462
Zn   1.438280479771  0.830391068918  2.123761942773 -0.000000257110 -0.000000000000 -4.657369799904
O   -0.000000000000  1.660783000804  1.615225188062 -0.000000257110 -0.000000257110  4.657247929614
O    1.438280479771  0.830391068918  3.739649027380  0.000000000000  0.000000000000  4.657311178752
Zn   2.876560096575  1.660783000804  4.248185782091  0.000000000000  0.000000000000 -4.657189565572
Zn   4.314840576346  0.830391068918  2.123761942773  0.000000257110  0.000000000000 -4.657370057014
O    2.876560096575  1.660783000804  1.615225188062  0.000000514221  0.000000257110  4.657248700945
O    4.314840576346  0.830391068918  3.739649027380 -0.000000257110 -0.000000257110  4.657311178752
Zn   5.753121056117  1.660783000804  4.248185782091 -0.000000257110 -0.000000257110 -4.657190079793
Zn   7.191400672921  0.830391068918  2.123761942773 -0.000000000000 -0.000000000000 -4.657369542793
O    5.753121056117  1.660783000804  1.615225188062  0.000000514221  0.000000257110  4.657247929614
O    7.191400672921  0.830391068918  3.739649027380 -0.000000514221 -0.000000257110  4.657311692972