# total energy = -110424.90292025535 eV

CRYSTAL
PRIMVEC
9.97207619857785 0.0 0.0
-1.6620160237883748 2.8786890966244614 0.0
0.0 0.0 16.65056509821321
PRIMCOORD
36 1
Zn   0.086643381259  1.812983285359  5.473390415643 -1.696487913587  1.126158868373  1.017506619880
Zn   1.654437245877  0.971075794179  2.828921455940 -0.164788686475 -0.072233343544 -0.589578380363
O    0.019939166359  1.932206436766  2.090359576445 -0.222107831911 -0.010473645838  0.352643253631
O    1.581760754542  0.946718000857  4.948345645674  1.717137471517 -0.834222702814 -1.098702057713
Zn   0.017363379077  1.844883957118  11.186009942082 -0.060261515894  0.418513631071 -0.315180480798
Zn   1.654271709413  1.005255085350  8.312306883557  0.011291256643 -0.182288643032  0.165156611337
O    0.001744116127  1.938982462543  7.673516623636 -0.419178518349 -0.240836775780 -0.202062226115
O    1.673494880701  0.963289597084  10.548870060772 -0.433190773467 -0.475974444292 -0.629696588540
Zn  -0.000949341654  1.907325109443  16.610227052782  0.269725176679  0.364432018735  0.484443143884
Zn   1.576757763913  1.044455316887  13.987556054442  0.556022398784 -0.163249624123 -0.449209774603
O    0.063458304097  2.019266650810  13.180657531173 -0.703973444877 -0.315267641196  0.778501497992
O    1.656297038088  0.978003395515  16.055045671333  0.192412618840  0.039359218524 -0.469430215415
Zn   3.293642145362  1.869900904677  5.573435270105 -0.085893871750  0.241209585738  0.776034010288
Zn   4.946930608061  0.948322507917  2.785473119943 -0.068476190495  0.433920452545  0.007604551820
O    3.236813277521  2.066314906315  1.987702038019  0.248919295677 -0.811506492163  0.971035730012
O    4.918007598255  0.936543491511  4.993669729204  0.406930554219  0.155646614964 -1.052724819652
Zn   3.291377486857  1.880025553642  11.039698642889  0.089354319495  0.035429030232  0.398864489382
Zn   5.016942560636  1.012183683893  8.408014882080 -1.003746332871 -0.645452051602 -0.652633656952
O    3.279578526299  1.894823117513  7.629396169703  0.242280964425  0.139507286200  0.189800892249
O    4.914913263010  0.882348248995  10.343934920023  0.424212481228  0.475303129256  0.847491652009
Zn   3.400409176389  2.019167927256  16.660753568465 -0.742280567987 -0.233148663107 -0.079912714466
Zn   5.016830873383  0.850222208314  13.916768274339 -0.302801133297  0.971576690117 -0.248455725777
O    3.296616815692  1.973180700658  13.229371123403  0.349136268919 -0.706278695971 -0.005077414523
O    4.958616884158  1.038992613545  15.983757293005  0.458661664045 -0.104591448160 -0.188619213236
Zn   6.595788477305  2.004659553594  5.460034813990 -0.057296519729 -0.256200916940  0.356519191646
Zn   8.283891452429  0.948311538633  2.757641055273  0.274427210140  0.073325805277 -0.340885084653
O    6.614875031149  1.848605535955  2.088730139194 -0.021284363300  0.466262616321 -0.029096146035
O    8.295343384736  1.067986425092  4.752784256551 -0.268866685334 -0.497773799555  0.648245812297
Zn   6.600182174078  1.913689288473  11.106601302105  0.169653727877  0.074059083899 -0.241561569761
Zn   8.255904820578  1.007643397600  8.309391048477  0.340665255333 -0.167082110495  0.241043749584
O    6.564885013166  1.827030949100  7.693208482505  0.903693910232  1.039817110451 -0.783696926150
O    8.276705574320  0.967138818496  10.415572321018 -0.071356854476 -0.141139165377  0.097909665264
Zn   6.629610768148  1.958494824041  16.648241604459  0.181456891159 -0.092943579508  0.116354759343
Zn   8.321078321781  0.895267073710  13.896508007126  0.120800968040  0.734591941094 -0.262221669213
O    6.686186345253  1.987720984963  13.152044652937 -0.137121045356 -0.704412589297  0.350850166286
O    8.344220519015  0.980558241437  15.984438385809 -0.497670955429 -0.134037521335 -0.161260875827