# total energy = -110426.16342216956 eV

CRYSTAL
PRIMVEC
9.204993617601557 0.0 0.0
-1.5341686712647988 2.65725153256113 0.0
0.0 0.0 15.96088822331681
PRIMCOORD
36 1
Zn  -0.155435522227  1.793550663419  5.376378111720  2.058097375272 -0.326076301775  0.577146068137
Zn   1.432234412942  0.844283855605  2.694942299428  2.758749211975  0.263472510901  1.582615811457
O    0.095958376466  1.800534492077  2.142160340706 -2.675398161251 -0.312002597291 -1.929036224106
O    1.598423208713  0.810154500769  4.723090509686 -0.494242132253  1.512857668926 -0.542483740868
Zn  -0.033861489522  1.915757079186  10.550951466365  0.773808463392 -1.318371969607  1.974814201672
Zn   1.489501439735  0.891886559599  7.990307262320  1.265742516337  0.033859114641  0.485834624915
O    0.032194465178  1.773474572339  7.338392124833 -1.482871149866 -0.041452096497 -0.375618374370
O    1.558555460856  0.943694104678  10.002380792223 -1.440092364138  1.032519291238 -1.378130320613
Zn  -0.034495713582  1.829458423022  16.013254511508 -0.499393594547 -1.575336761297  0.359665450585
Zn   1.530904580528  0.912008675647  13.318427274500 -0.047885510827  0.747371095136  0.431786694031
O   -0.048576592319  1.822514175837  12.800918851321  1.096546959043 -0.011743513689 -2.001964536835
O    1.445787845545  0.824811612106  15.279898192990  0.476707465803  1.613684507837  0.303432082013
Zn   3.103950542337  1.901724066416  5.338653286377 -0.850924331839 -2.576227626997  1.186695235195
Zn   4.711204101427  0.854517967509  2.700405463140 -1.898015093134 -0.937147047684  0.537953199987
O    3.210096085239  1.772519094002  1.923203919022 -0.884747451036 -0.430243517914  0.634939839217
O    4.624768290859  0.894229230475  4.734408049338 -0.253512571475  1.710810500858 -1.524143012032
Zn   3.072252226315  1.666064263313  10.642280651540  1.286307484972  1.607411273234  1.323895984749
Zn   4.669717195193  0.914792265717  7.963367007499 -3.254505723990 -1.479607905734  1.931408323883
O    3.051722329050  1.803375153107  7.346139047462  0.051005030293 -0.555238726541 -0.433973417270
O    4.639354523745  0.899936326518  10.022350105377  0.484236684301 -0.615057755581 -0.687923076282
Zn   2.997589602583  1.859278920346  15.982506150828  0.063764643951 -0.381893408745 -0.202328849512
Zn   4.553079800565  0.862921206183  13.369387960166  1.534353891126 -0.019620088224 -0.203676364679
O    3.133099075126  1.763468744277  12.701141323003 -1.299529640090  0.305977474143 -1.451415502460
O    4.600216731882  0.968792440276  15.241112952382 -1.349723744445 -0.686700002508  0.659597746975
Zn   6.158733531764  1.764066148362  5.321555931232 -0.095416723639 -0.781364678473  1.498589074822
Zn   7.613556078545  0.784020603389  2.774809426551  1.033083648382  0.994229394519 -0.284648887868
O    6.159033614556  1.738844465850  2.105515261114  1.356384958516  0.448220928328 -1.407735802184
O    7.660370835085  0.810586214970  4.710712554768 -0.372976565871  0.505758617533 -0.637689119827
Zn   6.214806670885  1.774448460664  10.656726968524 -0.917327698965 -0.374879696431  1.263170127624
Zn   7.655913777176  0.873014481684  8.032967805240  0.202332449057  0.463565529104  0.608676277535
O    6.058289561909  1.757394368988  7.423264006986  3.393797294635  1.588426504601 -2.026721432064
O    7.749342621396  0.897636919112  10.062105552312 -0.360744542581 -0.381014348574 -1.507063173731
Zn   6.109245645077  1.749706358319  15.955266733715  0.656630951037 -0.097093082900  0.759905223047
Zn   7.727723773385  0.796164751469  13.231188788488 -1.135563192406  2.500186736781  1.843298675428
O    6.149569960618  1.839577472506  12.667456569359 -0.244628895832 -3.613715575094 -1.642197013454
O    7.578047815665  0.798995287007  15.268314629021  1.065950317203  1.186434525334  0.273324721105