# total energy = -110420.44338220237 eV

CRYSTAL
PRIMVEC
9.013222972357486 0.0 0.0
-4.506611486178743 7.805676424635892 0.0
0.0 0.0 4.727101959751525
PRIMCOORD
36 1
Zn   0.000000000000  1.734595662352  4.726363776790 -0.000000000000  0.000020568825 -0.539922407899
Zn   1.502204129167  0.867297380515  2.362812796914  0.000020054605  0.000011569964 -0.539924464781
O    0.000000000000  1.734595662352  1.797035665816 -0.000000000000 -0.000001028441  0.539923179230
O    1.502204129167  0.867297380515  4.160585744369 -0.000001028441 -0.000000514221  0.539923179230
Zn  -1.502204129167  4.336488705220  4.726363776790  0.000003856655  0.000002313993 -0.539920865237
Zn   0.000000000000  3.469191324705  2.362812796914  0.000000000000  0.000012598405 -0.539921893678
O   -1.502204129167  4.336488705220  1.797035665816  0.000000514221  0.000000257110  0.539922665009
O    0.000000000000  3.469191324705  4.160585744369 -0.000000000000 -0.000001028441  0.539922665009
Zn  -3.004407357012  6.938382649410  4.726363776790  0.000017740612 -0.000010284413 -0.539922407899
Zn  -1.502204129167  6.071084367573  2.362812796914  0.000011055744 -0.000006427758 -0.539921893678
O   -3.004407357012  6.938382649410  1.797035665816 -0.000000771331  0.000000514221  0.539923179230
O   -1.502204129167  6.071084367573  4.160585744369 -0.000000771331  0.000000514221  0.539922665009
Zn   3.004407357012  1.734595662352  4.726363776790  0.000012855516  0.000007456199 -0.539922922119
Zn   4.506611486179  0.867297380515  2.362812796914  0.000000000000  0.000005913537 -0.539923693450
O    3.004407357012  1.734595662352  1.797035665816 -0.000000771331 -0.000000514221  0.539922407899
O    4.506611486179  0.867297380515  4.160585744369  0.000000000000 -0.000000257110  0.539921893678
Zn   1.502204129167  4.336488705220  4.726363776790 -0.000003856655  0.000002313993 -0.539920865237
Zn   3.004407357012  3.469191324705  2.362812796914  0.000005142206 -0.000003085324 -0.539923693450
O    1.502204129167  4.336488705220  1.797035665816 -0.000000514221  0.000000257110  0.539922665009
O    3.004407357012  3.469191324705  4.160585744369 -0.000000257110  0.000000257110  0.539921893678
Zn  -0.000000000000  6.938382649410  4.726363776790  0.000000000000 -0.000004370875 -0.539920865237
Zn   1.502204129167  6.071084367573  2.362812796914 -0.000011055744 -0.000006427758 -0.539921893678
O   -0.000000000000  6.938382649410  1.797035665816  0.000000000000 -0.000000514221  0.539922665009
O    1.502204129167  6.071084367573  4.160585744369  0.000000771331  0.000000514221  0.539922665009
Zn   6.008815615346  1.734595662352  4.726363776790 -0.000012855516  0.000007456199 -0.539922922119
Zn   7.511018843190  0.867297380515  2.362812796914 -0.000020054605  0.000011569964 -0.539924464781
O    6.008815615346  1.734595662352  1.797035665816  0.000000771331 -0.000000514221  0.539922407899
O    7.511018843190  0.867297380515  4.160585744369  0.000001028441 -0.000000514221  0.539923179230
Zn   4.506611486179  4.336488705220  4.726363776790  0.000000000000 -0.000014912398 -0.539922922119
Zn   6.008815615346  3.469191324705  2.362812796914 -0.000005142206 -0.000003085324 -0.539923693450
O    4.506611486179  4.336488705220  1.797035665816  0.000000000000  0.000000771331  0.539922407899
O    6.008815615346  3.469191324705  4.160585744369  0.000000257110  0.000000257110  0.539921893678
Zn   3.004407357012  6.938382649410  4.726363776790 -0.000017740612 -0.000010284413 -0.539922407899
Zn   4.506611486179  6.071084367573  2.362812796914  0.000000000000 -0.000023139928 -0.539924464781
O    3.004407357012  6.938382649410  1.797035665816  0.000000771331  0.000000514221  0.539923179230
O    4.506611486179  6.071084367573  4.160585744369  0.000000000000  0.000001028441  0.539923179230