# total energy = -36807.98981514425 eV

CRYSTAL
PRIMVEC
9.97207619857785 0.0 0.0
-1.6620160237883748 2.8786890966244614 0.0
0.0 0.0 5.656919497624449
PRIMCOORD
12 1
Zn   0.086151757902  2.034469080975  5.708596790901 -0.591475854496 -0.487523068361  0.003709073420
Zn   1.597333148734  0.976363986188  2.849366206563  0.245454219947 -0.042099757384 -0.157465670451
O   -0.009345829813  1.932790800431  2.103748085949  0.123129616173  0.232611045436  0.411787882312
O    1.607293258441  0.988068212022  5.018437374858  0.142346041201 -0.062307085569 -0.525963117505
Zn   3.348192393791  1.882897511587  5.637734220226  0.049189317240  0.030179351797  0.127314600789
Zn   4.884699866544  0.880773658163  2.849340279164  0.568399689403  0.236204933434  0.047011335753
O    3.377470409510  1.905547088257  2.062472665356 -0.630482060556 -0.149493193769  0.459810690048
O    4.880089775717  0.837705258269  4.949144408977  0.400878691598  0.453352850238 -0.241035522054
Zn   6.712064880196  1.987158559866  5.708781274310 -0.079501337960 -0.558747253915  0.033380632343
Zn   8.289557586125  0.948591753974  2.830705460372 -0.216083222984  0.156431829870  0.211820333943
O    6.654275701418  1.974962710675  2.209599680382 -0.068834602275 -0.522594201033 -0.397631645416
O    8.284989378019  0.896321122164  4.987040292947  0.056979502709  0.713984549256  0.027261406819