# total energy = -49079.93393625272 eV

CRYSTAL
PRIMVEC
6.264509332171351 0.0 0.0
-3.1322546660856756 5.425221694393695 0.0
0.0 0.0 5.2299819965472425
PRIMCOORD
16 1
Zn   0.012344842090  1.794070275407  5.209480136856  0.038395826169  0.431490760057  0.545835430949
Zn   1.574434698868  0.965070841306  2.665115216793  0.006270406390 -0.751307454076  0.002681146377
O    0.065772336380  1.842140987767  1.988316422073 -1.058594133949 -0.322432020155 -0.644075740080
O    1.556880917269  0.885740227378  4.568761783635  0.157911499739 -0.016572045426  0.333404717116
Zn  -1.613265886415  4.500249977323  5.254052120754  0.591309761232  0.068389544318  0.094235301737
Zn  -0.028308691221  3.613334527995  2.617940329267 -0.071797284448  0.567117223146  0.385234557303
O   -1.606365529385  4.563472031955  1.968704122707  0.448097772486 -0.015186992153  0.043496123510
O    0.026773259984  3.635331099613  4.610688891693 -0.765283456640 -0.236867763829 -0.410541154389
Zn   3.116763160958  1.798100860711  5.226993199145 -0.255468152539  0.459917647939  0.439830390271
Zn   4.744503196185  0.898994049772  2.632364362005 -0.225943917828  0.097589820031 -0.113875701675
O    3.098398751851  1.805496113978  1.999090751674  1.069138999344  0.083427155377 -0.523805447732
O    4.683662908002  0.919394424412  4.607834154790  0.126457652105  0.811377679895 -0.641918327417
Zn   1.541349945732  4.596440891668  5.216656758747 -0.229637821740 -0.612385608065  0.779437122433
Zn   3.161491131139  3.612508865665  2.596845220542 -0.696888770116  0.209775021378  0.551103107106
O    1.523378947811  4.524590101883  1.957037726978  0.457878763132  0.159128145755  0.161331581164
O    3.071393705022  3.673823377205  4.656276979005  0.408153113772 -0.933461371302 -1.002372849562