# total energy = -36807.04792914682 eV

CRYSTAL
PRIMVEC
3.3240255759183532 0.0 0.0
-1.6620127879591766 2.878689249384692 0.0
0.0 0.0 14.40913897166737
PRIMCOORD
12 1
Zn  -0.159597769587  1.876924669947  4.744190573038  5.460754691401  2.880893324307  2.297312042068
Zn   1.597300658047  1.112531748509  2.561056334634  0.755239699251 -0.664450189971 -2.898725981613
O    0.105270560379  1.881407450839  1.779759413532 -0.894600946792  0.486938142392  2.842750237578
O    1.769562965078  1.122960213948  4.333111321687 -5.123935035066 -3.124294004159 -0.268679251913
Zn   0.078757135178  1.842348820712  9.642488290216  0.238517640728 -0.158606983144 -2.196752340775
Zn   1.577773669801  0.752586314995  7.134568166425  0.675807009745  0.918402162976  1.173500076661
O    0.182611993064  1.889250489185  6.629226862598 -0.642073879158 -0.635360728804 -0.719710653106
O    1.758179507091  0.886040955830  9.058612560924 -0.251425092818  0.052195708167 -0.301437163070
Zn  -0.072760260636  2.003475642063  14.438466849324 -0.019240593397 -0.148159048338 -3.124639817534
Zn   1.496698691589  0.840259483975  12.008072309235 -0.737702461698  0.996692511348 -5.266461567709
O   -0.124761981551  1.956805658172  11.407657225885 -0.035392520567 -1.106167512852  1.819674094030
O    1.789106573452  0.907992155928  13.643114950879  0.574051231262  0.501916618079  6.643169811163