# total energy = -24539.277966975154 eV

CRYSTAL
PRIMVEC
6.392356429000733 0.0 0.0
-1.5980891072501833 2.7679734343908944 0.0
0.0 0.0 5.644604143361944
PRIMCOORD
8 1
Zn  -0.016868150145  1.854071020450  5.783444207293  0.014379408650 -0.266890021223 -0.560102996612
Zn   1.571135097132  0.931735809907  2.821869948386  0.426964590052 -0.360960772357  0.416242575649
O   -0.001376274339  1.791183657137  2.181727869345 -0.366651909205  0.489361921342 -0.755735665051
O    1.597212075948  0.862925928363  4.862563257838 -0.425703206841  0.096448250227  0.822616228923
Zn   3.196101506223  1.756010355122  5.535569080517 -0.699735495536  0.815658309548  0.457877220470
Zn   4.758038002454  0.889407543341  2.863929735982 -0.012156689967  0.503035819285  0.264692499351
O    3.184215558679  1.878886787343  2.226446877215 -0.035157007517 -0.694288613489 -0.606691385894
O    4.749249790835  0.931661658572  4.962113342214  1.098060310364 -0.582364636223 -0.038898733948