# total energy = -24539.1051706059 eV

CRYSTAL
PRIMVEC
6.903745345495471 0.0 0.0
-1.7259363363738678 2.98941148328903 0.0
0.0 0.0 4.987776514741495
PRIMCOORD
8 1
Zn  -0.000000000000  1.992939377985  4.987001224139 -0.000003599544 -0.000002056883 -0.717554011775
Zn   1.725936336374  0.996470034180  2.493111586019 -0.000004113765 -0.000002313993 -0.717553754664
O   -0.000000000000  1.992939377985  1.896133680002  0.000002056883  0.000001285552  0.717554268885
O    1.725936336374  0.996470034180  4.390023318122  0.000000000000  0.000000000000  0.717554783106
Zn   3.451872672748  1.992939377985  4.987001224139  0.000003599544  0.000002056883 -0.717554011775
Zn   5.177809009122  0.996470034180  2.493111586019  0.000004627986  0.000002571103 -0.717553497554
O    3.451872672748  1.992939377985  1.896133680002 -0.000000257110 -0.000000257110  0.717553240444
O    5.177809009122  0.996470034180  4.390023318122 -0.000002056883 -0.000001028441  0.717552983333