# total energy = -12264.804907606931 eV

CRYSTAL
PRIMVEC
2.876560207838307 0.0 0.0
-1.4382801039191535 2.49117305399317 0.0
0.0 0.0 4.5259481888505055
PRIMCOORD
4 1
Zn  -0.167373518661  1.705292490371  4.534727450605  0.911432673637  2.685998048254 -11.706039860598
Zn   1.316662302548  0.997533261218  2.277190630284  0.116140072229 -1.940684864089 -2.109195736610
O   -0.115536177780  1.548327517166  1.501577660669  0.373096379279  0.765005777499  12.886757280942
O    1.322823031545  0.906762828548  3.937898738683 -1.400669125145 -1.510318961664  0.928478316265