# total energy = -73617.4427884398 eV

CRYSTAL
PRIMVEC
9.780305553333779 0.0 0.0
-3.2600985910094087 5.646659411217257 0.0
0.0 0.0 4.815362780100546
PRIMCOORD
24 1
Zn   0.085151252270  1.937377792968  4.752126258484 -0.075147431867 -1.235241519534  0.100400035786
Zn   1.645290923679  0.966040878756  2.465423336007  0.397134394064 -0.250937097438 -4.119320440658
O    0.023087389289  1.715924290385  1.812181079611 -0.015598625769  1.472323970478  0.519409375547
O    1.692645207107  0.924007081548  4.167307019739  0.351720227596  0.286827126467  4.299907270508
Zn  -1.586188537220  4.740637333551  4.784393442566 -0.771083608262 -0.281269686984 -0.714796503634
Zn   0.029966856215  3.785783168287  2.460692602210 -0.509439923039 -0.384814439046 -2.280351245843
O   -1.627757769914  4.688655987565  1.813244198824  0.645546668198 -0.095467117261  1.284340591054
O    0.013046927608  3.725399561801  4.261166656074  0.554889570731  1.069188621635  1.538774903012
Zn   3.347575599940  1.950973395718  4.860117458313 -0.330821272659 -0.386619610576 -1.618309665314
Zn   4.961717228462  0.921343904346  2.414985322238 -0.137918858667  1.193577564137 -2.478237486203
O    3.323286211098  1.898000326749  1.844260481825 -0.238742612255 -0.231150401730  1.432426620062
O    4.902269597217  0.975926811609  4.177016907093 -0.034526058801 -0.871123432495  3.017094686062
Zn   1.643116761755  4.722879232758  4.806242645172  0.525796767131 -0.049107041939 -0.029774403049
Zn   3.196005314627  3.824169889553  2.367394355415  3.050954057814 -1.982029488474 -0.492896673968
O    1.743783490754  4.714038814568  2.067044105964 -3.244058560515  0.832905012444 -2.240502232167
O    3.391171311944  3.726792277312  4.182706110833 -0.868064333954  0.860822564790  2.017995622156
Zn   6.526205223720  1.853482331932  4.740385001668  0.416042800933  0.347343952905 -0.612592838980
Zn   8.128528331012  0.969583305427  2.406191849515 -0.129626536752 -0.090105338729 -0.829920218784
O    6.518700795269  1.983081160819  1.774080921297  0.124654537458 -1.153639333181  1.276978751372
O    8.229999001128  0.981834116163  4.267722394886 -0.419737990397 -0.173091292803  0.508446705888
Zn   4.903268166414  4.772150456074  4.957418784171  0.352452734886 -0.088405068208 -5.145809723652
Zn   6.503919819486  3.776289425687  2.404861727959  0.058435518429  0.439421070648 -0.223301080889
O    4.880470274169  4.706277164081  1.820189193798 -0.195263715135  0.183107025168  4.708862568466
O    6.490951134323  3.740804521078  4.300872740559  0.492402250831  0.587484216838  0.081175640339