# total energy = -24538.948542152484 eV

CRYSTAL
PRIMVEC
3.387949124333044 0.0 0.0
-1.693974562166522 2.934048640400525 0.0
0.0 0.0 10.878694474386032
PRIMCOORD
8 1
Zn  -0.000000000000  1.956033443318  5.438499233527  0.000000000000  0.000000000000  0.008961837179
Zn   1.693974562167  0.978016552262  2.718825445533  0.000000000000  0.000000000000  0.008947439001
O   -0.000000000000  1.956033443318  2.067800529751  0.000000000000  0.000000000000 -0.008922756411
O    1.693974562167  0.978016552262  4.787474317744  0.000000000000  0.000000000000 -0.008946667670
Zn  -0.000000000000  1.956033443318  10.877846470720  0.000000000000  0.000000000000  0.008887018077
Zn   1.693974562167  0.978016552262  8.158172682726  0.000000000000  0.000000000000  0.008929441279
O   -0.000000000000  1.956033443318  7.507147766944  0.000000000000  0.000000000000 -0.008941782574
O    1.693974562167  0.978016552262  10.226821554937  0.000000000000  0.000000000000 -0.008914271770