# total energy = -49051.70932902579 eV

CRYSTAL
PRIMVEC
6.136662235341968 0.0 0.0
-3.068331117670984 5.314502912362029 0.0
0.0 0.0 4.433578911816453
PRIMCOORD
16 1
Zn   0.025630383492  1.907772919718  4.709649549464  3.589160768573  6.548592552706 -62.417036482037
Zn   1.694836876814  0.845728401627  2.061562584665 -5.082555957899 -1.373608007262  3.829049064396
O   -0.059440937744  1.761860274416  1.493391120279 -4.738538498264 -9.036917762163  64.237765756805
O    1.440954568810  0.954976944738  4.037626122737  1.902454616963  0.533619862719 -2.824332140082
Zn  -1.663916690475  4.517230823078  4.571402208960 -1.139235499051  3.872805383547 -24.044899171635
Zn  -0.300880549399  3.494862281003  2.135857313350  7.408799852510 -4.858003778212  3.818708344592
O   -1.423940672763  4.398033523151  1.518906748187 -0.802823876788  3.017664956744  21.616195273385
O   -0.132224206520  3.520067393803  3.896878092372  1.318835539507  1.412175840233  0.099248181570
Zn   3.247634569528  1.744371400711  4.704267696684 -0.150861791981  1.589600727415 -15.947060641182
Zn   4.505254513059  0.689188284666  2.210879850176  0.386818613961  2.174091923063  1.248636967005
O    2.956103225045  1.842125361789  1.722475176189  1.683239790328  4.308248186273  15.035794060809
O    4.495610134690  0.799661705559  4.084084337855  2.991440732940 -2.394193523178 -2.543596985446
Zn   1.517311829672  4.246683181442  4.610814308500 -1.178450735798 -0.244097448809 -7.423464396500
Zn   3.150335948788  3.779797327250  2.209898597884  6.216866251734 -3.871030808145  0.505677370673
O    1.720584470554  4.290364556899  1.799025128245 -8.458437291486  1.920957817973  2.964195009850
O    3.216588581613  3.633094893518  3.902386360394 -3.946712001028 -3.599906180015  1.845119787797