# total energy = -49075.251589211744 eV

CRYSTAL
PRIMVEC
6.0088151385125865 0.0 0.0
-1.5022037846281466 2.6018950695727505 0.0
0.0 0.0 9.84008975016446
PRIMCOORD
16 1
Zn   0.027011426692  1.748242531934  5.019561669643 -0.037722197141 -0.617527557278 -1.833694833790
Zn   1.519522391620  0.871313647094  2.511002126499  0.236368969816  0.633673313800 -2.339730616243
O   -0.034528454430  1.744929271267  1.889189505994  1.362803460448  0.458224062287 -1.391859240163
O    1.425302367604  0.803145441992  4.258419047233  1.216391476708  1.212805044908  2.686673734165
Zn  -0.012297641062  1.779401242835  9.742674839139 -0.884515537531  0.330882464915  2.035134338718
Zn   1.512439801217  0.813559920390  7.292310069729 -1.486205870666  4.772191153322  4.024122517898
O    0.005901257348  1.864381511813  6.812621550170 -0.099640531912 -5.812138618703 -0.907130703828
O    1.465630530406  0.935964892695  9.321895541434  0.900448920932 -0.361074672227 -2.374468533945
Zn   3.156908893946  1.741224235852  4.959993881649 -2.377596795161  0.635434005244 -0.243666789029
Zn   4.538303647569  0.811757876730  2.427058979014 -0.740702424867  1.871932794225 -0.352900878167
O    3.052282803872  1.816970758607  1.775731058548 -0.601702931541 -2.780992339644  3.032234627028
O    4.501812714115  0.906872613320  4.204971838339  1.130470351264 -1.252035451163  1.957503992528
Zn   2.998953367755  1.736030216047  9.917838410123 -0.770577615160  0.741446245011 -2.699297336466
Zn   4.568861476956  0.907611697582  7.375564006118 -1.279199413173 -0.512438086435  1.149362045962
O    2.901938643818  1.729120679519  6.809489755719  2.705984261568  1.671366950150 -0.805990447441
O    4.451853021527  0.926340573488  9.284429377283  0.725395876417 -0.991749308410 -1.936292134337