# total energy = -98144.02269932708 eV

CRYSTAL
PRIMVEC
5.880968041683205 0.0 0.0
-2.9404840208416023 5.093065348298698 0.0
0.0 0.0 9.253050426135895
PRIMCOORD
32 1
Zn  -0.000000000000  1.697689037530  4.625802442096  0.000000000000 -0.000000000000 -0.676483981207
Zn   1.470242010421  0.848844812813  2.312540129610  0.000000514221  0.000000257110 -0.676483466987
O   -0.000000000000  1.697689037530  1.758800528838 -0.000000000000  0.000000771331  0.676485266759
O    1.470242010421  0.848844812813  4.072062841324  0.000000771331  0.000000514221  0.676482181435
Zn  -0.000000000000  1.697689037530  9.252326478970  0.000000000000  0.000000514221 -0.676485523869
Zn   1.470242010421  0.848844812813  6.939064166484  0.000000257110  0.000000000000 -0.676485266759
O   -0.000000000000  1.697689037530  6.385324565712  0.000000000000  0.000001542662  0.676485009648
O    1.470242010421  0.848844812813  8.698586878198  0.000001799772  0.000001028441  0.676485523869
Zn  -1.470242010421  4.244222887873  4.625802442096 -0.000000000000  0.000000000000 -0.676483981207
Zn   0.000000000000  3.395378663156  2.312540129610  0.000000000000  0.000000000000 -0.676483466987
O   -1.470242010421  4.244222887873  1.758800528838  0.000000771331 -0.000000514221  0.676485266759
O    0.000000000000  3.395378663156  4.072062841324  0.000000000000  0.000000000000  0.676480895883
Zn  -1.470242010421  4.244222887873  9.252326478970  0.000000257110 -0.000000257110 -0.676485523869
Zn   0.000000000000  3.395378663156  6.939064166484  0.000000000000  0.000000000000 -0.676485266759
O   -1.470242010421  4.244222887873  6.385324565712  0.000001285552 -0.000000771331  0.676485009648
O    0.000000000000  3.395378663156  8.698586878198  0.000000000000 -0.000000000000  0.676485523869
Zn   2.940484020842  1.697689037530  4.625802442096  0.000000000000  0.000000000000 -0.676484238318
Zn   4.410726031262  0.848844812813  2.312540129610 -0.000000514221  0.000000257110 -0.676483466987
O    2.940484020842  1.697689037530  1.758800528838  0.000000000000 -0.000000000000  0.676486295200
O    4.410726031262  0.848844812813  4.072062841324 -0.000000771331  0.000000514221  0.676482181435
Zn   2.940484020842  1.697689037530  9.252326478970  0.000000000000  0.000000000000 -0.676484752538
Zn   4.410726031262  0.848844812813  6.939064166484 -0.000000257110  0.000000000000 -0.676485266759
O    2.940484020842  1.697689037530  6.385324565712  0.000000000000  0.000000000000  0.676486295200
O    4.410726031262  0.848844812813  8.698586878198 -0.000001799772  0.000001028441  0.676485523869
Zn   1.470242010421  4.244222887873  4.625802442096  0.000000000000  0.000000000000 -0.676483981207
Zn   2.940484020842  3.395378663156  2.312540129610  0.000000000000 -0.000000514221 -0.676483466987
O    1.470242010421  4.244222887873  1.758800528838 -0.000000771331 -0.000000514221  0.676485266759
O    2.940484020842  3.395378663156  4.072062841324  0.000000000000 -0.000000771331  0.676482181435
Zn   1.470242010421  4.244222887873  9.252326478970 -0.000000257110 -0.000000257110 -0.676485523869
Zn   2.940484020842  3.395378663156  6.939064166484  0.000000000000 -0.000000257110 -0.676485266759
O    1.470242010421  4.244222887873  6.385324565712 -0.000001285552 -0.000000771331  0.676485009648
O    2.940484020842  3.395378663156  8.698586878198 -0.000000000000 -0.000002056883  0.676485523869