# total energy = -24534.744412325377 eV

CRYSTAL
PRIMVEC
2.876560207838307 0.0 0.0
-1.4382801039191535 2.49117305399317 0.0
0.0 0.0 9.421358894235556
PRIMCOORD
8 1
Zn   0.083324456572  1.614855163373  4.671846459624 -0.220452812807  0.384579183107  1.894410920723
Zn   1.442160583640  0.844217779949  2.388572192156  0.169071887231  0.172638264426 -1.501797040236
O    0.017104889964  1.678854025501  1.790974863346 -0.315716041587 -0.150113086741 -1.448166913616
O    1.513291013835  0.802091993985  4.120225480272  0.344056797513 -0.473600287633  1.078481102681
Zn   0.089603987506  1.623463845107  9.359998413130 -0.938591236330 -1.401717621014  2.185294733757
Zn   1.456013234632  0.827550990105  7.025970692667  0.137178895178  1.865468269546  1.594326157915
O    0.023574849183  1.711580363330  6.530094573583 -0.149306017458 -1.844655189456 -2.289721888425
O    1.486108382839  0.747220745052  8.856327966507  0.973758528259  1.447400467763 -1.512827329909