# total energy = -36807.26885565129 eV

CRYSTAL
PRIMVEC
3.3240255759183532 0.0 0.0
-1.6620127879591766 2.878689249384692 0.0
0.0 0.0 16.97076271746751
PRIMCOORD
12 1
Zn  -0.008223971677  2.050689768941  5.753386344053 -0.060269229204 -0.569819452568 -2.732351695818
Zn   1.721380549550  1.134936678098  2.589882284429 -0.972173443161 -0.648955950990  1.621160761609
O   -0.063141527827  2.042610392376  2.037742356920  0.921469746158  0.359294440399  0.021815810324
O    1.642090240670  0.947049456445  4.955368244694  0.062338453028  0.769776459414 -0.323003319277
Zn  -0.088080362113  1.850545202977  11.302583447820  0.480591374239  0.321038482241 -0.224510784926
Zn   1.491136931996  0.965019138709  8.471369261321  0.206970719160  0.235503279382 -0.720921128475
O    0.079209867461  2.103888803868  7.560607859686 -0.004274201895 -0.339189956339  3.143679093554
O    1.727306954749  0.958235134911  10.478913843092 -0.762248526469 -0.291082045088  0.474041488935
Zn  -0.051234868214  1.871065077662  17.062032149718  0.243380368137  0.285322002676 -0.854982046849
Zn   1.626462002022  1.002899069367  14.165062089276 -0.592575258208 -0.406278779568  0.222235358628
O   -0.158753799493  1.851008239739  13.389193966745  0.767915237836  0.416768109135  0.069090169929
O    1.652955483070  0.962322024356  16.383093610188 -0.291124982511 -0.132377102914 -0.696253450525