# total energy = -110414.36004903572 eV

CRYSTAL
PRIMVEC
10.355617489065997 0.0 0.0
-5.1778087445329986 8.96822363596838 0.0
0.0 0.0 5.098619337594111
PRIMCOORD
36 1
Zn  -0.022847598866  1.728152695508  4.952291355788  0.966705220957  0.978867567351  1.243020906370
Zn   1.980754166233  1.053608483505  2.638367979203 -0.985454476540  0.155230610473 -4.525348794778
O   -0.144334525439  1.975523543839  1.974548044672  1.082853263606  0.098450882480 -0.680656110307
O    1.814666630696  0.766376792334  4.280417857536 -0.489803122645  0.924817322474  5.338320301523
Zn  -1.672188867473  5.025821417769  5.127423487640  0.116507482871 -0.129803942870 -1.671912281131
Zn  -0.019804082886  4.058709264904  2.726215717925  0.331095095146 -0.506253297781 -7.012942782496
O   -1.637331859005  4.955030416614  1.869579363556 -0.777110531182 -0.699213818705  0.714934571874
O   -0.108859286607  4.001470660357  4.351071128979  0.502539339265 -0.088928287701  6.885194436603
Zn  -3.552551535520  7.658685386277  5.240114352718  2.955542990602 -0.346186699372 -8.957659650562
Zn  -1.701155600714  6.761162982938  2.284919363122  0.384064962475  1.869406171148  1.176857680279
O   -3.662886497619  7.905400724022  1.685811682280  0.077020994741  1.378952302293  10.452430637189
O   -1.762603763770  6.978019968776  4.266061865011 -0.169642415023 -0.637183383835  0.869679758070
Zn   3.301739515497  2.158833506822  5.177185336360  0.455931152488 -1.072037146827 -1.007046086668
Zn   5.011534807882  1.118325915003  2.649483699016  2.155853545678 -1.614303886589 -0.258651692474
O    3.566977946244  2.058081633147  1.971346087744 -1.266411260269  0.839653901132 -0.386931485390
O    5.217037894705  0.960630571879  4.552628725539 -0.880874084124  1.596661748027 -0.448321458461
Zn   1.717040082380  5.027510418982  5.202255250739 -0.564911473744  0.781627959436 -3.832387384741
Zn   3.695041725485  4.016049298658  2.539470796621 -3.660533306779 -1.538162209129  0.264717439052
O    1.671259968584  5.037119396450  1.815195802750  0.292703125632 -0.683736291894  3.828639744773
O    3.621612112993  4.124729433082  4.471241856569 -4.915449421924 -2.811331871168 -0.779309595716
Zn   0.053635885223  8.094756296495  4.865990746320 -0.672729399261 -0.856152670118  0.771854939210
Zn   1.529773237955  6.949814373422  2.371143341021  2.015019827357 -0.279446260622  0.914247260268
O    0.129111767730  7.988030267091  1.995970710572 -3.065676708736  1.218882361450 -0.895353508687
O    1.628796759070  7.153242194500  4.516117924958  1.380233482999 -1.486665841022 -0.408038442571
Zn   6.852387688523  2.108815874350  5.218108665553 -0.575238823812 -3.432285166298 -7.800667855969
Zn   8.583434779118  1.006096910465  2.667518006873 -0.336647906644 -0.071707038727 -2.834753849636
O    6.949991454481  1.929987822616  1.668646210730  0.070284190238 -0.852050217914  11.866378481721
O    8.678635006257  1.074469874937  4.463787883100 -0.584609209283 -0.960849276397  1.309359738806
Zn   4.999064573301  4.808228147527  5.117766874331  4.870957253049  2.529189294661  2.077994885527
Zn   6.724269024510  3.996890370741  2.619443088242  1.537465440172 -1.031987072884  0.209308109044
O    5.124177001557  4.918051542123  2.232063255896  2.679924074146  2.244423164488 -2.149196959593
O    6.929240868156  3.669048090025  4.603394033594 -0.421926256297  6.073916258401 -2.842219561886
Zn   3.538886262682  8.147023169085  5.057294210442 -1.024567383381 -0.604171704796  0.718543115161
Zn   5.125012699888  7.099010861272  2.757298103818 -0.376479179708  0.475381033682 -2.764177324969
O    3.263112026701  7.962738742497  1.958703949914  1.294340639689  0.019000966583  0.006181960441
O    5.259134515360  7.059435833476  4.537379043224 -2.400976864648 -1.482006230763  0.607910603013