# total energy = -12268.61521156523 eV

CRYSTAL
PRIMVEC
3.004407833844898 0.0 0.0
-1.502203916922449 2.601892294305528 0.0
0.0 0.0 4.630630701740631
PRIMCOORD
4 1
Zn  -0.000000000000  1.734595764193  4.629907240334  0.000000000000  0.000000000000 -1.221281200700
Zn   1.502203916922  0.867297731876  2.314592490345 -0.000000000000 -0.000000000000 -1.221281200700
O   -0.000000000000  1.734595764193  1.760361565776  0.000000000000 -0.000000000000  1.221281200700
O    1.502203916922  0.867297731876  4.075676315765 -0.000000000000 -0.000000000000  1.221281200700