# total energy = -49075.89486374124 eV

CRYSTAL
PRIMVEC
6.392356429000733 0.0 0.0
-3.1961782145003665 5.535940476425361 0.0
0.0 0.0 5.541974860894337
PRIMCOORD
16 1
Zn   0.170064168144  1.786572850444  5.484349685394 -1.155128516132  0.595622529674  0.004629271242
Zn   1.426065042625  0.806548540837  2.761283194152  0.923803279387  1.464248649669 -0.130550077007
O   -0.161582789634  1.937214482815  2.119751416823  1.490367972464 -2.222776789863 -1.133420692141
O    1.997090407014  0.850184044293  4.935675834495 -3.637902713863  1.930140255803 -2.189813190453
Zn  -1.667480693230  4.805735848420  5.419997833223 -0.867223840330 -3.936506007030  1.346056580007
Zn   0.076703163263  3.562714653668  2.795170993289 -0.004098595549  2.772984124628  0.789930051544
O   -1.670169318344  4.589307919096  2.258980136025  0.902989170855 -0.482609947330 -0.889968847336
O   -0.064009861102  3.872972147599  4.917928096105 -0.174486373379 -2.465178339027 -0.498441772156
Zn   3.219192615352  1.928122634266  5.600438713558  2.608214721426  0.297253978227  1.481418219470
Zn   4.734415688506  0.788646746658  2.712140036397  0.315325491017  2.176244450630  1.748372004051
O    3.305327061290  1.694067782089  2.029591704041 -2.292924968743  1.589220975478 -0.018503458121
O    4.795188460312  0.772148713950  4.761885561788  1.329563724558  2.431336964997  0.226166832472
Zn   1.562637098495  4.637660981596  5.520676168509 -0.301171568114 -0.169445468521  1.277173126771
Zn   3.242970902796  3.648009143971  2.904000222257 -0.807359302764 -0.855877047859 -0.740512677453
O    1.688715462051  4.694056267720  2.145979255251 -0.208363742853 -4.043664701696 -1.367645619031
O    2.929711558286  3.576634649028  4.801928560931  1.878395776241  0.919006629330  0.095109733922