# total energy = -36807.945326980654 eV

CRYSTAL
PRIMVEC
10.355617489065997 0.0 0.0
-1.7259397000501626 2.989407878656127 0.0
0.0 0.0 5.209455511579583
PRIMCOORD
12 1
Zn   0.025614619859  1.992447729502  5.161803102142 -0.109188837723 -0.068989639796 -0.363195832335
Zn   1.641871761712  1.041607358397  2.578447269726  0.421402779693 -0.186949281732 -0.484574270146
O    0.048730429218  1.951645561033  1.888073460829 -0.425611418458  0.267472633200  0.563948338500
O    1.791973330531  1.008116255875  4.491525404545 -0.588381531841 -0.424435910093  0.710878656637
Zn   3.312969147102  1.983665130309  5.227766314424  0.574056116358  0.049825665273 -0.055974972704
Zn   5.176526719088  1.023426000771  2.623187679526 -0.371742179244 -0.259468274838 -0.084767471455
O    3.379084586961  2.004243813384  2.006437133168  0.573176284856  0.149956763669 -0.050007699377
O    5.164081337989  0.887245488543  4.607778602039  0.265670546994  0.743809603037 -0.041361593666
Zn   6.825496221027  2.031579536869  5.229064908857  0.222699956970 -0.207917913564 -0.823534369862
Zn   8.631076832939  0.939574494839  2.524865233714  0.319024794245  0.612519562540  0.411685552406
O    6.997242065960  2.071804897444  1.921095453879 -0.473573548160 -0.773637227921  0.892083579687
O    8.711594865601  0.957932933523  4.631299316042 -0.407532963690  0.097814791558 -0.675179660573