# total energy = -36807.83850882934 eV

CRYSTAL
PRIMVEC
3.3240255759183532 0.0 0.0
-1.6620127879591766 2.878689249384692 0.0
0.0 0.0 17.29096610119573
PRIMCOORD
12 1
Zn  -0.000000000000  1.919127163464  5.762756772151  0.000000000000  0.000000000000 -0.050185876826
Zn   1.662012787959  0.959563415531  2.880928977818  0.000000000000  0.000000000000 -0.050181763061
O   -0.000000000000  1.919127163464  2.191088299204  0.000000000000  0.000000000000  0.050185876826
O    1.662012787959  0.959563415531  5.072916093537  0.000000000000  0.000000000000  0.050189476370
Zn  -0.000000000000  1.919127163464  11.526412693221  0.000000000000  0.000000000000 -0.050188962150
Zn   1.662012787959  0.959563415531  8.644584566485  0.000000000000  0.000000000000 -0.050190247701
O   -0.000000000000  1.919127163464  7.954743887871  0.000000000000 -0.000000000000  0.050193847246
O    1.662012787959  0.959563415531  10.836571682204  0.000000000000  0.000000000000  0.050192818804
Zn  -0.000000000000  1.919127163464  17.290068281888  0.000000000000  0.000000000000 -0.050205160099
Zn   1.662012787959  0.959563415531  14.408240487554  0.000000000000  0.000000000000 -0.050201560555
O   -0.000000000000  1.919127163464  13.718399808940  0.000000000000 -0.000000000000  0.050193847246
O    1.662012787959  0.959563415531  16.600227603274  0.000000000000 -0.000000000000  0.050197703900