# total energy = -24533.775129090336 eV

CRYSTAL
PRIMVEC
6.136662235341968 0.0 0.0
-1.534165558835492 2.6572545245121315 0.0
0.0 0.0 4.5321030240048685
PRIMCOORD
8 1
Zn   0.105818148921  1.769940417581  4.695581864956  1.006626482632 -0.057297033949 -13.075289333781
Zn   1.588433903981  0.858937567089  2.273375004714  0.258548848347  0.843842999513 -3.895555275649
O   -0.064330016547  1.762537761926  1.666651800833  0.173868023068  0.120130167225  12.620999059331
O    1.456702471439  0.801144323155  3.931166692612  1.081912754070  0.595565708295  3.852025984908
Zn   3.126896353714  1.803756494829  4.567831285205 -0.718552114022  0.228299048324 -12.383011837185
Zn   4.659220913879  0.872025840304  2.316532309217 -1.175372096872 -0.948019214512 -3.905740443712
O    3.110102150175  1.749008262696  1.558952151270 -0.568402003396 -0.506006728988  13.133959336818
O    4.652382831150  0.933455670279  3.978399968171 -0.058630150938 -0.276514945907  3.652612509270