# total energy = -110422.63548706808 eV

CRYSTAL
PRIMVEC
8.82145232711341 0.0 0.0
-1.470244995003011 2.546532750529464 0.0
0.0 0.0 15.579108239393985
PRIMCOORD
36 1
Zn  -0.000000000000  1.697689382498  5.192227446668 -0.000000771331 -0.000000514221  1.595354856290
Zn   1.470242348567  0.848844250176  2.595708818672  0.000000257110  0.000000257110  1.595353827849
O   -0.000000000000  1.697689382498  1.974164284173 -0.000000000000 -0.000000000000 -1.595353056518
O    1.470242348567  0.848844250176  4.570682912169  0.000000514221  0.000000257110 -1.595354856290
Zn  -0.000000000000  1.697689382498  10.385264702660 -0.000000257110 -0.000000257110  1.595355627621
Zn   1.470242348567  0.848844250176  7.788746074664 -0.000000257110 -0.000000257110  1.595353570738
O   -0.000000000000  1.697689382498  7.167201540164  0.000000514221  0.000000257110 -1.595354084959
O    1.470242348567  0.848844250176  9.763720168160  0.000000514221  0.000000257110 -1.595354084959
Zn  -0.000000000000  1.697689382498  15.578301958651 -0.000000000000 -0.000000000000  1.595353056518
Zn   1.470242348567  0.848844250176  12.981783330655 -0.000000514221 -0.000000257110  1.595354342069
O   -0.000000000000  1.697689382498  12.360238796156  0.000000257110  0.000000257110 -1.595355627621
O    1.470242348567  0.848844250176  14.956757424152  0.000000514221  0.000000257110 -1.595353570738
Zn   2.940483814989  1.697689382498  5.192227446668  0.000000257110  0.000000257110  1.595354342069
Zn   4.410726163557  0.848844250176  2.595708818672  0.000000000000  0.000000000000  1.595354084959
O    2.940483814989  1.697689382498  1.974164284173 -0.000000000000 -0.000000000000 -1.595353313628
O    4.410726163557  0.848844250176  4.570682912169 -0.000001285552 -0.000000771331 -1.595354342069
Zn   2.940483814989  1.697689382498  10.385264702660 -0.000000000000 -0.000000000000  1.595354599180
Zn   4.410726163557  0.848844250176  7.788746074664  0.000000257110  0.000000257110  1.595353827849
O    2.940483814989  1.697689382498  7.167201540164 -0.000000000000 -0.000000000000 -1.595354084959
O    4.410726163557  0.848844250176  9.763720168160 -0.000000257110 -0.000000257110 -1.595354342069
Zn   2.940483814989  1.697689382498  15.578301958651 -0.000000000000 -0.000000000000  1.595354084959
Zn   4.410726163557  0.848844250176  12.981783330655  0.000000257110  0.000000257110  1.595354599180
O    2.940483814989  1.697689382498  12.360238796156  0.000000257110  0.000000257110 -1.595354856290
O    4.410726163557  0.848844250176  14.956757424152 -0.000000257110 -0.000000257110 -1.595354342069
Zn   5.880968512124  1.697689382498  5.192227446668  0.000000514221  0.000000257110  1.595354342069
Zn   7.351209978546  0.848844250176  2.595708818672 -0.000000257110 -0.000000257110  1.595354856290
O    5.880968512124  1.697689382498  1.974164284173 -0.000000000000 -0.000000000000 -1.595354084959
O    7.351209978546  0.848844250176  4.570682912169  0.000000514221  0.000000257110 -1.595355627621
Zn   5.880968512124  1.697689382498  10.385264702660  0.000000514221  0.000000257110  1.595355113400
Zn   7.351209978546  0.848844250176  7.788746074664  0.000000000000  0.000000000000  1.595353570738
O    5.880968512124  1.697689382498  7.167201540164 -0.000000514221 -0.000000257110 -1.595353827849
O    7.351209978546  0.848844250176  9.763720168160  0.000000000000  0.000000000000 -1.595354342069
Zn   5.880968512124  1.697689382498  15.578301958651  0.000000257110  0.000000000000  1.595353570738
Zn   7.351209978546  0.848844250176  12.981783330655  0.000000257110  0.000000257110  1.595354342069
O    5.880968512124  1.697689382498  12.360238796156 -0.000000771331 -0.000000514221 -1.595355370511
O    7.351209978546  0.848844250176  14.956757424152  0.000000000000  0.000000000000 -1.595353313628