# total energy = -24536.560163207636 eV

CRYSTAL
PRIMVEC
3.4518726727477356 0.0 0.0
-1.7259363363738678 2.989408031416358 0.0
0.0 0.0 11.748990585706538
PRIMCOORD
8 1
Zn   0.041903317936  1.837412838404  5.906579758972  0.091687081393  0.125639784190 -0.793321850835
Zn   1.935839190607  1.113282440988  2.709179139659 -0.773053073283 -0.476102228119  1.101345665984
O    0.105753642326  2.042966333070  2.394068729357  0.694093723869  0.289036732524 -1.067707923324
O    1.786537413017  0.971248581309  5.197424620772  0.031084380110 -0.029130341707  0.735792646270
Zn   0.143170216162  1.862829322081  11.483240228688 -0.363656574022  0.182941446125  0.390853189041
Zn   1.587310855773  0.726395171077  8.907020665825  0.125636184645  0.201821056638 -1.578281959968
O    0.096458439593  1.893656270985  8.054689443279 -0.005935648758 -0.119683566606  1.343725874991
O    1.783998560666  0.875420108479  11.010869403160  0.200144183156 -0.174522625933 -0.132405899269