# total energy = -110421.07063126763 eV

CRYSTAL
PRIMVEC
9.97207619857785 0.0 0.0
-1.6620160237883748 2.8786890966244614 0.0
0.0 0.0 16.01015836474054
PRIMCOORD
36 1
Zn  -0.035449733678  1.788870805110  5.334980989630 -0.226996013242  0.962593255671  1.043971756050
Zn   1.534522032382  1.120652948328  2.838128673894  0.722631940518 -0.818620991721 -1.089743305858
O   -0.063057426634  1.828511802415  2.167401842740  0.710018622630  1.453504266668 -1.135412268650
O    1.515704724595  0.953992630444  4.724215255450  1.568033542767 -0.409517084000  0.628664804841
Zn  -0.013820300404  1.932517565543  10.624182171847  0.323781592204 -0.152420137607 -1.185484759826
Zn   1.530783501015  0.800056681789  7.889353238086  1.177396069281  0.242900600287  0.140327982330
O   -0.105026903731  1.720456379143  7.578832757338  3.031601107209  2.402130518637 -3.160324415420
O    1.828277458624  1.069683672461  9.763887169365 -1.318956381356 -1.025327144365  2.400950125175
Zn   0.062637602226  1.932673129932  16.078843033973 -1.301128609146 -0.276934292833  0.714250401323
Zn   1.749198894370  0.742257530934  13.179729130879 -0.197845616930  1.033066421991  0.579191894922
O    0.003584961393  1.797950380489  12.698456789383 -0.058020028158 -0.428139327086 -0.550472929721
O    1.580528205924  0.993195853603  15.374400613192 -0.436226989191 -1.440204207125 -0.455858390268
Zn   3.331710546250  1.837912478647  5.144104481905  0.124354489719  0.446194127706  0.909346223422
Zn   5.065840636276  0.712887772114  2.646919098825  0.255497720226  5.018611079616  0.553182358232
O    3.501901976316  1.992336061828  2.136523308791 -0.882810124804 -4.941752578595 -1.928022181019
O    5.032310527266  1.082897670632  4.545496703026 -0.370990645790 -0.744026604144  0.842769306832
Zn   3.251881084657  1.977448749271  10.746357057809  0.775996215072 -0.117427937803 -1.141509639797
Zn   4.771273483031  0.855608126668  7.837946188074  1.986632277353 -0.136599111415  1.016164761140
O    3.266083315579  1.804223813626  7.384527849817 -1.387837006377  0.314309648158 -1.824310564361
O    5.048797360845  0.831862618824  9.879708845581  0.112845460639  0.643968782188  1.318719839865
Zn   3.081701621083  1.862852641220  15.947051077725  1.910186438389  0.596113353268  0.963644579754
Zn   5.076634411553  0.769274876979  13.389422946390 -0.473366574355  0.303167001277  0.204711747922
O    3.325650515544  1.807181531426  12.751843296520 -0.021033166521 -0.476448555715 -0.267371588845
O    5.199242085622  0.705500458067  15.349134363727 -1.468959167771 -0.020112454479 -0.329241586877
Zn   6.723210669763  1.843861819308  5.274363730041 -0.878064125479  0.302470489431  1.467623993899
Zn   8.308364921836  0.991224374139  2.891412468646 -0.542485797750 -0.634519206740 -2.644251303335
O    6.868656392742  1.975894102592  1.954407270007 -0.785983665302 -0.311257491595  0.756327018778
O    8.354234477934  0.998130036906  4.731336315063 -0.303616687220 -0.733315902595  0.863304193561
Zn   6.642553525846  1.837520576053  10.854560067809 -0.607941456251 -0.099248438680 -2.679071496338
Zn   8.416508099379  0.969028526936  8.114955506757 -4.387712243238 -1.475224174844 -7.588223001068
O    6.549333560334  1.833055080331  7.320723514675  0.400462429996  0.001031269478 -0.723338993888
O    8.420796092144  0.780048708104  9.692327550564  0.120651844057 -0.640331956767  11.056253443286
Zn   6.639786274701  1.758242570274  15.965222194975  0.534797427967  0.115111888075  1.272996883906
Zn   8.268843589446  1.083095117741  13.465503904540 -0.402629612851 -0.771328120172 -0.169061602819
O    6.503859895661  1.872152599483  12.701865245028  1.172361335070  0.378603939360  0.662917555377
O    8.192288957677  0.688459177051  15.355810668742  1.125355655745  1.438978819359 -0.523620585415