# total energy = -49076.24433818366 eV

CRYSTAL
PRIMVEC
6.648050622659499 0.0 0.0
-3.3240253113297493 5.7573780404886925 0.0
0.0 0.0 5.870388253023282
PRIMCOORD
16 1
Zn   0.055645513322  2.007700651162  5.913548062471 -0.145852511692 -0.806811400681 -0.396418598944
Zn   1.662893522372  0.961225684209  2.878864528781  0.564455360043 -0.259303724235  0.212832577257
O    0.080162859213  1.879562799436  2.220382427462 -0.544954313896  0.521240000998 -0.071698811197
O    1.645914401082  0.956536814105  5.155621760718  0.088095250277 -0.069169102796  0.341127025461
Zn  -1.714877289411  4.715133892952  5.879907596710  0.216469659789  0.599201762385 -0.187503868684
Zn   0.020618264201  3.766118018516  2.913107972733 -0.100465341807  0.541004585219 -0.063380778249
O   -1.711803230803  4.773087609450  2.277898037424  0.585816342217  0.053040058445 -0.047154803309
O    0.005502591500  3.833809799566  5.163103476889 -0.159153856787  0.132401785504  0.173928701103
Zn   3.309341761919  1.929546168042  5.877800829468  0.063201829469 -0.356513020999 -0.143627736127
Zn   5.036367699039  0.965301604046  2.957890571337 -0.332501231465  0.152921502724  0.082826802789
O    3.351911224472  2.003860072317  2.195912947535 -0.122618223755 -0.585986806357  0.268906794543
O    4.989067483663  0.985405973934  5.137230593475  0.063475651956 -0.059738553511  0.223194637218
Zn   1.638896054040  4.769118723228  5.864791924009  0.111040546219  0.556958537445 -0.107554901664
Zn   3.307678419654  3.846525525992  2.913133900130 -0.127212013773  0.090411557115 -0.220672385017
O    1.644459142801  4.873249134546  2.238545566568 -0.078243811404 -0.599728067202  0.140397145005
O    3.296842097139  3.823408924367  5.265275372493 -0.081553078283  0.090070885946 -0.205201543074