# total energy = -12269.518262972224 eV

CRYSTAL
PRIMVEC
3.4518726727477356 0.0 0.0
-1.7259363363738678 2.989408031416358 0.0
0.0 0.0 5.098619598136097
PRIMCOORD
4 1
Zn  -0.000000000000  1.992939723173  5.097823251110  0.000000000000  0.000000000000 -0.410076041827
Zn   1.725936336374  0.996469688993  2.548514142417  0.000000000000  0.000000000000 -0.410076041827
O   -0.000000000000  1.992939723173  1.938270344531  0.000000000000  0.000000000000  0.410076041827
O    1.725936336374  0.996469688993  4.487579453224  0.000000000000  0.000000000000  0.410076041827