# total energy = -24539.244580784063 eV

CRYSTAL
PRIMVEC
3.2601020275036623 0.0 0.0
-1.6300510137518311 2.8233298583688593 0.0
0.0 0.0 9.630722821183037
PRIMCOORD
8 1
Zn   0.034407442808  1.917895202066  4.899953559971  0.008620651789  0.143029440421 -3.186266332096
Zn   1.695080920915  0.920455250384  2.429607010497 -0.212468766160  0.218436296597 -2.777647591541
O    0.006189629709  1.917464216578  1.799062853113  0.335859349304 -0.244824042562  2.117565448731
O    1.643567396758  0.984616014347  4.172294223289 -0.028468025533  0.014811353981  3.548327022386
Zn  -0.025212325040  1.849356773101  9.652794689940  0.650789661765  0.279261141194 -1.593950776853
Zn   1.638269078943  0.976985745551  7.278407287585 -0.401692188638 -0.423113591737 -1.108916536352
O   -0.034307031666  1.836120106849  6.654341278939  0.350839110542  0.381753026512  2.430515754647
O    1.681654842735  0.942845631109  9.102904804696 -0.703480050180 -0.369353624407  0.570373011079