# total energy = -49079.21120788375 eV

CRYSTAL
PRIMVEC
6.264509332171351 0.0 0.0
-3.1322546660856756 5.425221694393695 0.0
0.0 0.0 5.431135391203264
PRIMCOORD
16 1
Zn  -0.079546739500  1.815000001086  5.475470576649  1.298930058832 -0.112215797474  0.472383127396
Zn   1.553843883144  0.924208073383  2.718122988958  0.992723242287 -0.885965896825  1.297918586849
O    0.060735670877  1.719208762437  2.119735804647 -1.354770819951  1.762775323961 -1.192026931820
O    1.534383184904  0.919827302007  4.798042198741  0.516778879903  0.412895770664 -0.107630234986
Zn  -1.547247981268  4.526366090278  5.390848958139 -0.507795959678  0.432015007992  0.613950895670
Zn   0.041266828775  3.661875705006  2.763203651014 -1.439065465535 -0.887685193508  0.514411665222
O   -1.615221039777  4.520934134236  2.073367159472  1.364059187232 -0.087476899967 -0.731758585410
O   -0.005752698920  3.609835799533  4.796687185373  0.061931704508 -0.103875653040 -0.511955747482
Zn   3.256279421844  1.824678041553  5.457722595260 -1.750686254007  0.344102820260  0.291063790256
Zn   4.733307265106  0.937946768799  2.664846469343 -0.409377473098 -0.611767257755  0.817872800701
O    3.120114673451  1.759353617590  2.121254948160  0.563632607031  0.672357874854 -0.947083075851
O    4.712306750472  0.916138132461  4.780348092133 -0.055732774786 -0.922459363765 -0.662099944571
Zn   1.537478478965  4.496605285794  5.469652726832  0.423385871562  0.137378412783  0.254897367638
Zn   3.151383971782  3.661329439793  2.679643240385 -0.452125919809 -0.902230952533  0.897682413931
O    1.530115801147  4.451408103864  2.104171004761  0.732303659280  1.144847960142 -1.134976980885
O    3.116940446572  3.654481704642  4.729366262285  0.015809456228 -0.392696155787  0.127350853344