# total energy = -24539.546792045956 eV

CRYSTAL
PRIMVEC
3.13225493067428 0.0 0.0
-1.56612746533714 2.7126110763371933 0.0
0.0 0.0 10.057661185630321
PRIMCOORD
8 1
Zn   0.084216311870  1.761388792235  5.055430328137 -0.321205346836  0.508553149559 -0.986338936028
Zn   1.737257273798  0.884348954558  2.497077795528 -0.932148051808  0.873764212552  0.779823816348
O    0.038385157724  1.885700786247  1.901896423592  0.960800168327 -0.968330929486  0.932491294080
O    1.616587465819  0.912292114020  4.442495335254  0.341664643132 -0.509196439570 -0.427541031381
Zn  -0.094298727266  1.812350266732  10.130602319426  0.864694903261 -0.969277609670 -1.012499139363
Zn   1.533047721014  0.868846798455  7.488755459709 -0.288369788364 -0.025882781304  1.271322324417
O   -0.065206969921  1.774239807765  6.898827192516  0.346084369466  0.036452586400  0.969202276347
O    1.618683257593  0.806173822773  9.527954591412 -0.971521411399  1.053917811519 -1.526460347311