# total energy = -110421.83170210915 eV

CRYSTAL
PRIMVEC
10.54738813431007 0.0 0.0
-1.7579015381810565 3.0447672696719597 0.0
0.0 0.0 15.579114570275896
PRIMCOORD
36 1
Zn   0.004571238017  2.040495598986  5.162633234317 -0.216807759855 -0.040151375408 -0.062674496211
Zn   1.722410631848  1.057244872852  2.617707743069  0.071281778264 -0.124135431730 -0.610233594719
O    0.006661730346  2.002465936329  2.000411305120 -0.126738673681  0.119492019421 -0.069725232410
O    1.768904573483  1.041547195091  4.562076556077 -0.152078952218 -0.081274884921  0.509221636381
Zn  -0.014483673386  1.995107023628  10.404869716362  0.271198675901  0.195535480740 -0.032215408390
Zn   1.719124065705  1.019905009379  7.791028645783 -0.045767436043  0.003085323794 -0.509242462316
O   -0.046680630405  2.040730805741  7.188225373869  0.236082291814  0.025975083908  0.201514324031
O    1.830751293286  1.070532472423  9.764579972280 -0.540152007411 -0.233626888295  0.403446195215
Zn  -0.017513937997  2.087874466485  15.542266215090  0.085842449687 -0.218564851755  0.345585061232
Zn   1.761682776827  1.031253999011  12.971069289477  0.164767089208  0.118944631558  0.511316571237
O   -0.011956519189  2.055534064988  12.425122768040  0.076743058489 -0.050904500159 -0.501382857063
O    1.758291791542  1.012422692236  15.039758056946 -0.051841924372  0.082986725406 -0.670335702218
Zn   3.515443410427  2.026632112022  5.220171346067 -0.178096973548  0.034267405823 -0.879344534853
Zn   5.293889151216  1.041768690242  2.666114980911 -0.445334607919 -0.240117124005 -0.272375726928
O    3.527514896146  2.000123361424  1.934616697939  0.318839160597  0.283435327176  0.743861539321
O    5.202956953893  1.034549003064  4.674157321347  0.445472161938  0.017742411585 -0.650510954182
Zn   3.508227942204  2.068178273883  10.359461100966  0.123980651320  0.023853152469  0.374454950189
Zn   5.220125992299  0.984030178117  7.849374687464  0.144193121712  0.057840565158 -1.140797444221
O    3.484555384275  2.088496762385  7.093150162488 -0.073606312632 -0.156589952714  1.667476099736
O    5.267575527298  1.079177111738  9.750490771210 -0.060741026634 -0.158358614579  0.676626163212
Zn   3.541952161025  2.070586242594  15.542400166919 -0.158422377937 -0.331467647994  0.067055398888
Zn   5.312405091086  0.948962222048  12.978146586915  0.065811499178  0.393157925915  0.131830229271
O    3.521729653755  2.068939795307  12.458343876447 -0.213173505536 -0.425551768865 -0.726912313061
O    5.272044455651  0.956763070313  14.975463288357  0.140564523820  0.442069306904  0.108701613673
Zn   7.025973847461  2.003174720812  5.194191019615  0.142647888712  0.174738855709 -0.223480543889
Zn   8.764201342555  1.019157199560  2.497712217743  0.609759997517  0.213593623793  0.534790743099
O    7.124468522075  2.053652410945  1.951210903690 -0.589604605615 -0.138283183985  1.098930114564
O    8.736320376760  1.056915794342  4.545172257114  0.136680358275 -0.200819097736 -0.014595895536
Zn   7.083895884139  2.036980154521  10.364378293314 -0.460335195093 -0.144256627960  0.485774718212
Zn   8.738356022670  0.972627396805  7.866882297028  0.114754504736  0.036933896912 -1.345547501581
O    7.090690511575  1.984321264521  7.149814950501 -0.315431163357  0.150026697675  0.756361214450
O    8.739081682974  0.976342186906  9.777438293155  0.495252832905  0.231315466553  0.713378540241
Zn   6.952461716381  2.066017114055  15.682273299924  0.088911061310 -0.019125150865 -1.656602390246
Zn   8.826717821504  1.034789483514  13.013551004665 -0.457689529940 -0.258903146363 -0.059306351070
O    6.987108831663  2.007330391736  12.395141817269  0.417533012325  0.154563666313 -0.370768502476
O    8.815586108067  0.978979033940  14.954935961570 -0.064494323029  0.062572423416  0.465725769981