# total energy = -73616.94608612469 eV

CRYSTAL
PRIMVEC
9.780305553333779 0.0 0.0
-3.2600985910094087 5.646659411217257 0.0
0.0 0.0 5.757499614053189
PRIMCOORD
24 1
Zn   0.000000000000  1.882220781770  5.756599825942 -0.000001285552  0.000000514221  0.028922596572
Zn   1.630051251566  0.941109901870  2.877850996946 -0.000002571103  0.000000000000  0.028921568130
O    0.000000000000  1.882220781770  2.188747294178  0.000000257110  0.000000771331 -0.028922082351
O    1.630051251566  0.941109901870  5.067496123174  0.000000771331  0.000000257110 -0.028921568130
Zn  -1.630051251566  4.705551465409  5.756599825942 -0.000000514221 -0.000001285552  0.028921311020
Zn  -0.000000000000  3.764441563539  2.877850996946 -0.000001542662 -0.000001542662  0.028922082351
O   -1.630051251566  4.705551465409  2.188747294178  0.000001028441  0.000001028441 -0.028921825241
O   -0.000000000000  3.764441563539  5.067496123174  0.000000771331  0.000000257110 -0.028921311020
Zn   3.260101525101  1.882220781770  5.756599825942  0.000001799772  0.000000771331  0.028918739917
Zn   4.890152776667  0.941109901870  2.877850996946  0.000001542662  0.000000257110  0.028922596572
O    3.260101525101  1.882220781770  2.188747294178 -0.000000000000 -0.000000257110 -0.028922082351
O    4.890152776667  0.941109901870  5.067496123174 -0.000001028441 -0.000000514221 -0.028921568130
Zn   1.630051251566  4.705551465409  5.756599825942  0.000000514221  0.000001285552  0.028921053910
Zn   3.260101525101  3.764441563539  2.877850996946  0.000002313993  0.000001285552  0.028922339461
O    1.630051251566  4.705551465409  2.188747294178  0.000000257110  0.000000000000 -0.028922339461
O    3.260101525101  3.764441563539  5.067496123174 -0.000001285552 -0.000000514221 -0.028921568130
Zn   6.520204028233  1.882220781770  5.756599825942 -0.000000257110  0.000000514221  0.028920282579
Zn   8.150254301768  0.941109901870  2.877850996946  0.000000514221 -0.000000771331  0.028922082351
O    6.520204028233  1.882220781770  2.188747294178 -0.000000514221 -0.000000514221 -0.028921825241
O    8.150254301768  0.941109901870  5.067496123174  0.000000000000  0.000000000000 -0.028921825241
Zn   4.890152776667  4.705551465409  5.756599825942  0.000000257110 -0.000000771331  0.028922339461
Zn   6.520204028233  3.764441563539  2.877850996946 -0.000001028441 -0.000000257110  0.028924653454
O    4.890152776667  4.705551465409  2.188747294178 -0.000000514221 -0.000000771331 -0.028921311020
O    6.520204028233  3.764441563539  5.067496123174  0.000000000000 -0.000000514221 -0.028922082351