# total energy = -24534.12185042099 eV

CRYSTAL
PRIMVEC
2.876560207838307 0.0 0.0
-1.4382801039191535 2.49117305399317 0.0
0.0 0.0 9.606091590782933
PRIMCOORD
8 1
Zn  -0.023225922430  1.759148888863  4.869349932870  0.375187457480 -1.456320910181  0.549453230207
Zn   1.481373277081  0.689468621072  2.707908058165 -0.017941157859  1.704568119492 -2.584936724735
O    0.029263534650  1.630665313587  1.937275852549  0.118301341547 -2.169226881661 -1.178871882496
O    1.423205202494  0.889531369935  4.432307524405 -0.362353538940  1.875452891563 -0.923726146292
Zn   0.093753137950  1.720599817861  9.680931920678  0.060002862916 -5.173846832295  2.039640197009
Zn   1.483725440363  0.950273965908  7.086294461474 -4.318309684274 -2.046609686348  3.402955564095
O   -0.058892392447  1.724089660706  6.620293721396  4.252313322779  2.073177666644 -0.658437408118
O    1.600697021686  0.652832750265  8.883975737288 -0.107200603648  5.192805632786 -0.646076829670