# total energy = -49072.21650574245 eV

CRYSTAL
PRIMVEC
6.903745345495471 0.0 0.0
-1.7259363363738678 2.98941148328903 0.0
0.0 0.0 11.970666396877727
PRIMCOORD
16 1
Zn   0.070797908518  2.090554885298  5.814288765257 -0.587662651397 -0.412649201871 -0.383109540540
Zn   1.592629846374  0.891569694779  2.809196805165  1.491772566121  0.352661508463  0.266692046280
O    0.180299594192  1.990891036741  2.165992801063 -1.301455396357  0.324847571575  0.432536684823
O    1.880436634210  1.029476840677  5.114347710782 -1.174325143665 -0.579181096289  0.601157857670
Zn   0.010504738918  1.962652647155  11.872058130984  0.192108457336  0.222875306205 -0.339271203199
Zn   1.824649539196  0.914298205205  8.807479358748 -0.253456264316  0.198386577035  0.429463188104
O   -0.157082988970  2.018091793403  8.341941860364  1.095696438118  0.424073641657 -0.334122569119
O    1.669307674803  1.185623681778  11.201318538572  0.706661276122 -0.616451550605  0.768354125146
Zn   3.360965534787  1.972160485245  5.986221710465  0.935113562194  0.475598549010  0.023375698611
Zn   5.333522295015  1.028164438687  3.006036392456 -0.809466321805 -0.057888644787  0.106222813116
O    3.400481192396  2.189313652840  2.425864964107  0.546149105535 -0.723690206579 -0.772628327041
O    5.166064357540  0.972942070043  5.374993783680  0.606699613424  0.457373027141 -0.227685840220
Zn   3.397234360960  2.107492534129  12.092620368031 -0.497565283089 -0.491378951772 -0.103704931790
Zn   5.367871879981  1.024305935413  9.084316785604 -1.230077201725 -1.024362980680 -0.051797444287
O    3.329379519083  1.953653615097  8.269154982811  0.536910617656  0.474721802832 -0.065124500413
O    5.364415174687  0.841410532971  11.331558384889 -0.257103374150  0.975064648665 -0.350358314251