# total energy = -36807.55688869373 eV

CRYSTAL
PRIMVEC
10.355617489065997 0.0 0.0
-1.7259397000501626 2.989407878656127 0.0
0.0 0.0 5.098619337594111
PRIMCOORD
12 1
Zn  -0.017227605255  2.018747891239  5.256943266699 -0.181497771700 -0.055598563201 -3.215359907028
Zn   1.694889416571  1.105691026104  2.690288974170  0.200086847556  0.166268613455 -2.433441670045
O    0.002534019600  1.994397692275  1.904484007864 -0.248452126233 -0.096714873625  3.105563517629
O    1.659051731127  0.958968495272  4.460176879282  0.019297928998 -0.154974528598  2.310682292727
Zn   3.374857423902  1.913428154690  5.173079334026  0.503530242423  0.128570070463 -2.478110216597
Zn   5.271972374361  1.022169864370  2.430961529885 -0.905147097739 -0.498886573003  0.879605244714
O    3.382252370351  2.073179087885  1.852779445303  0.002053282985 -0.265102333195  2.512746575724
O    5.201970471258  0.879061444041  4.503022211081 -0.250188906418  0.426216913253 -0.345618742684
Zn   6.891296850114  1.997744627847  5.137589597329 -0.315500068921 -0.217528440071 -1.564994498830
Zn   8.602642378437  1.035700514181  2.574610513446  0.003105635509 -0.079945881697 -0.114209945086
O    6.827659509521  1.989757340078  1.890198433538  0.852471364612  0.547699994962  1.397133601188
O    8.563000039127  0.987910375031  4.528837729919  0.320240926040  0.099995344149 -0.053996251711