# total energy = -12269.745679935972 eV

CRYSTAL
PRIMVEC
3.387949124333044 0.0 0.0
-1.693974562166522 2.934048640400525 0.0
0.0 0.0 4.895413699255908
PRIMCOORD
4 1
Zn  -0.081990401578  1.976976389625  4.880556187166 -0.170715850593 -0.215914558617 -1.305759423049
Zn   1.639628470263  0.996327062099  2.393645345451 -0.000578755322 -0.043177049608 -0.378909129306
O   -0.051207495835  1.962439377523  1.835375023204 -0.102799132146 -0.008182535811  1.217749276287
O    1.543265710910  0.938156314429  4.299278980006  0.274093738060  0.267274401146  0.466919276068