# total energy = -49076.06597327681 eV

CRYSTAL
PRIMVEC
6.648050622659499 0.0 0.0
-1.6620126556648747 2.8786923442696573 0.0
0.0 0.0 9.60609409916122
PRIMCOORD
16 1
Zn   0.111736446035  1.697164223332  4.863264427316 -3.016950190065  1.070619440544 -4.255182931017
Zn   1.703015172685  0.991675085671  2.409161802553 -0.385077977121 -0.909185786584  0.534817482572
O    0.177514253311  1.960943581523  1.866939480913 -1.648929961303 -0.073151484483  0.512570755359
O    1.594586131835  0.933928123547  4.395028925860  2.899652864302 -1.615885115033 -1.909826483947
Zn  -0.113960218969  1.782255282472  9.595241156520  3.269190065475  3.061534661543  1.206861168620
Zn   1.653348251288  0.911548790736  7.215790157004 -0.830013549829 -0.965382902601 -0.263963848715
O    0.152522901410  1.926942791418  6.519268574828 -1.153705924753  0.581791280218  6.517951430782
O    1.539076903551  1.044115573787  9.095410129675  1.710992792072 -0.579383184997  0.414445117429
Zn   3.136478484824  1.907856238081  4.992846900442  0.807664492709  0.634196276183 -6.442648447173
Zn   4.920849177004  1.034258509129  2.482537002081  1.442927776704 -0.627031125893  0.846717235737
O    3.333750744586  1.798941889535  1.953786290223  0.411175702649  1.599781524603 -1.165635329201
O    5.008050992216  0.973072510418  4.430123320292 -0.837295942423 -0.445884052664 -0.516242290673
Zn   3.383746744488  1.969656516669  9.591432488318 -1.181462011820 -1.724403151941  0.966511616889
Zn   4.888725796395  0.844083043407  7.373396157921 -0.087091234493  0.281330107908 -3.848024062837
O    3.205205367356  1.813319628616  6.641625281733  2.045842983385  0.553282888366  6.735833911758
O    5.148645296395  0.892011499566  9.121855410247 -3.446919628381 -0.842229118058  0.665815188639