# total energy = -110415.88713529932 eV

CRYSTAL
PRIMVEC
8.629681152692129 0.0 0.0
-4.314840576346064 7.473519620260201 0.0
0.0 0.0 5.08014659001026
PRIMCOORD
36 1
Zn   0.000000000000  1.660783000804  5.079352659344  0.000000000000  0.000000000000  2.125824089195
Zn   1.438280479771  0.830391068918  2.539280227307  0.000000257110  0.000000000000  2.125824603416
O    0.000000000000  1.660783000804  1.931247563746  0.000000000000  0.000000257110 -2.125824346306
O    1.438280479771  0.830391068918  4.471319995783  0.000000257110  0.000000000000 -2.125824089195
Zn  -1.438280479771  4.151957070525  5.079352659344  0.000000257110  0.000000257110  2.125824603416
Zn   0.000000000000  3.321566001607  2.539280227307  0.000000000000  0.000000514221  2.125824089195
O   -1.438280479771  4.151957070525  1.931247563746 -0.000000514221 -0.000000257110 -2.125824346306
O    0.000000000000  3.321566001607  4.471319995783  0.000000000000 -0.000000514221 -2.125824603416
Zn  -2.876560096575  6.643132003215  5.079352659344  0.000000000000 -0.000000000000  2.125824089195
Zn  -1.438280479771  5.812740071329  2.539280227307  0.000000257110 -0.000000257110  2.125824089195
O   -2.876560096575  6.643132003215  1.931247563746  0.000000257110 -0.000000257110 -2.125824346306
O   -1.438280479771  5.812740071329  4.471319995783 -0.000000514221  0.000000257110 -2.125824603416
Zn   2.876560096575  1.660783000804  5.079352659344  0.000000000000  0.000000000000  2.125824603416
Zn   4.314840576346  0.830391068918  2.539280227307  0.000000000000 -0.000000000000  2.125824089195
O    2.876560096575  1.660783000804  1.931247563746 -0.000000257110 -0.000000257110 -2.125824089195
O    4.314840576346  0.830391068918  4.471319995783  0.000000000000 -0.000000257110 -2.125824603416
Zn   1.438280479771  4.151957070525  5.079352659344 -0.000000257110  0.000000257110  2.125824603416
Zn   2.876560096575  3.321566001607  2.539280227307 -0.000000000000  0.000000000000  2.125824089195
O    1.438280479771  4.151957070525  1.931247563746  0.000000514221 -0.000000257110 -2.125824346306
O    2.876560096575  3.321566001607  4.471319995783 -0.000000000000  0.000000000000 -2.125824603416
Zn  -0.000000000000  6.643132003215  5.079352659344  0.000000000000 -0.000000257110  2.125824603416
Zn   1.438280479771  5.812740071329  2.539280227307 -0.000000257110 -0.000000257110  2.125824089195
O   -0.000000000000  6.643132003215  1.931247563746  0.000000000000  0.000000514221 -2.125824346306
O    1.438280479771  5.812740071329  4.471319995783  0.000000514221  0.000000257110 -2.125824603416
Zn   5.753121056117  1.660783000804  5.079352659344 -0.000000000000  0.000000000000  2.125824603416
Zn   7.191400672921  0.830391068918  2.539280227307 -0.000000257110  0.000000000000  2.125824603416
O    5.753121056117  1.660783000804  1.931247563746  0.000000257110 -0.000000257110 -2.125824089195
O    7.191400672921  0.830391068918  4.471319995783 -0.000000257110  0.000000000000 -2.125824089195
Zn   4.314840576346  4.151957070525  5.079352659344  0.000000000000 -0.000000000000  2.125824603416
Zn   5.753121056117  3.321566001607  2.539280227307  0.000000000000  0.000000000000  2.125824089195
O    4.314840576346  4.151957070525  1.931247563746  0.000000000000  0.000000257110 -2.125824089195
O    5.753121056117  3.321566001607  4.471319995783  0.000000000000  0.000000000000 -2.125824603416
Zn   2.876560096575  6.643132003215  5.079352659344 -0.000000000000 -0.000000000000  2.125824089195
Zn   4.314840576346  5.812740071329  2.539280227307  0.000000000000 -0.000000257110  2.125824603416
O    2.876560096575  6.643132003215  1.931247563746 -0.000000257110 -0.000000257110 -2.125824346306
O    4.314840576346  5.812740071329  4.471319995783  0.000000000000 -0.000000257110 -2.125824089195