# total energy = -110413.31063344535 eV

CRYSTAL
PRIMVEC
9.204993617601557 0.0 0.0
-1.5341686712647988 2.65725153256113 0.0
0.0 0.0 13.300746322759753
PRIMCOORD
36 1
Zn  -0.000000000000  1.771501942207  4.432889278400  0.000015169509  0.000008741751 -3.647244045869
Zn   1.534165909767  0.885750510854  2.216099451939  0.000020054605  0.000011569964 -3.647243788759
O   -0.000000000000  1.771501942207  1.685452741370  0.000001542662  0.000000771331  3.647243788759
O    1.534165909767  0.885750510854  3.902242567831  0.000001799772  0.000001028441  3.647244302979
Zn  -0.000000000000  1.771501942207  8.866470772321  0.000014912398  0.000008484640 -3.647243788759
Zn   1.534165909767  0.885750510854  6.649680025360  0.000019797494  0.000011569964 -3.647243531648
O   -0.000000000000  1.771501942207  6.119033314791  0.000001285552  0.000000771331  3.647243531648
O    1.534165909767  0.885750510854  8.335824061751  0.000002313993  0.000001285552  3.647243531648
Zn  -0.000000000000  1.771501942207  13.300052266241  0.000014655288  0.000008484640 -3.647243788759
Zn   1.534165909767  0.885750510854  11.083261519281  0.000019540384  0.000011312854 -3.647243531648
O   -0.000000000000  1.771501942207  10.552614808711  0.000001542662  0.000000771331  3.647243531648
O    1.534165909767  0.885750510854  12.769405555672  0.000002313993  0.000001285552  3.647243531648
Zn   3.068330899034  1.771501942207  4.432889278400  0.000005142206  0.000003085324 -3.647244302979
Zn   4.602496808801  0.885750510854  2.216099451939 -0.000005142206 -0.000002828213 -3.647243788759
O    3.068330899034  1.771501942207  1.685452741370  0.000000771331  0.000000514221  3.647243531648
O    4.602496808801  0.885750510854  3.902242567831 -0.000000771331 -0.000000514221  3.647244045869
Zn   3.068330899034  1.771501942207  8.866470772321  0.000004885096  0.000002828213 -3.647243531648
Zn   4.602496808801  0.885750510854  6.649680025360 -0.000005399317 -0.000003085324 -3.647243788759
O    3.068330899034  1.771501942207  6.119033314791  0.000001285552  0.000000771331  3.647244302979
O    4.602496808801  0.885750510854  8.335824061751 -0.000000771331 -0.000000514221  3.647243788759
Zn   3.068330899034  1.771501942207  13.300052266241  0.000005399317  0.000003085324 -3.647243531648
Zn   4.602496808801  0.885750510854  11.083261519281 -0.000004885096 -0.000002828213 -3.647243274538
O    3.068330899034  1.771501942207  10.552614808711  0.000001285552  0.000000771331  3.647243531648
O    4.602496808801  0.885750510854  12.769405555672 -0.000001285552 -0.000000771331  3.647243017428
Zn   6.136662718567  1.771501942207  4.432889278400 -0.000020311715 -0.000011569964 -3.647244302979
Zn   7.670827707835  0.885750510854  2.216099451939 -0.000014912398 -0.000008741751 -3.647244045869
O    6.136662718567  1.771501942207  1.685452741370 -0.000002056883 -0.000001285552  3.647244045869
O    7.670827707835  0.885750510854  3.902242567831 -0.000001028441 -0.000000514221  3.647244045869
Zn   6.136662718567  1.771501942207  8.866470772321 -0.000019540384 -0.000011312854 -3.647243531648
Zn   7.670827707835  0.885750510854  6.649680025360 -0.000014655288 -0.000008484640 -3.647243274538
O    6.136662718567  1.771501942207  6.119033314791 -0.000002056883 -0.000001285552  3.647243788759
O    7.670827707835  0.885750510854  8.335824061751 -0.000002056883 -0.000001285552  3.647244045869
Zn   6.136662718567  1.771501942207  13.300052266241 -0.000020054605 -0.000011569964 -3.647243788759
Zn   7.670827707835  0.885750510854  11.083261519281 -0.000014912398 -0.000008484640 -3.647243531648
O    6.136662718567  1.771501942207  10.552614808711 -0.000002571103 -0.000001542662  3.647243531648
O    7.670827707835  0.885750510854  12.769405555672 -0.000001542662 -0.000000771331  3.647243274538