# total energy = -110395.22989242656 eV

CRYSTAL
PRIMVEC
8.82145232711341 0.0 0.0
-1.470244995003011 2.546532750529464 0.0
0.0 0.0 13.029805552833807
PRIMCOORD
36 1
Zn  -0.014878261495  1.692333878790  4.282635147186  2.226110482222  1.540847983491 -0.366693046855
Zn   1.400622564657  0.887647172528  2.169570921106  2.548834579696 -1.592628458498 -7.611849896459
O    0.050401367871  1.698530949050  1.634700684302 -2.712178563304  2.051914129280  1.743093529261
O    1.482848203943  0.872880943477  3.735408702107  0.505996701685 -0.598438658967  8.949589986180
Zn  -0.007067747604  1.685339349240  8.599697776369  0.336318291218  0.592889189904 -2.037542176829
Zn   1.586319429014  0.894001264639  6.471742056616 -5.789474087226 -2.217909177358 -1.533539108535
O    0.006885143541  1.729832108343  6.008970431826 -0.517006422532 -1.451580824393  1.961312053421
O    1.462599442271  0.860743507221  8.144335289389  0.519755188922 -0.175612002343  3.430673855946
Zn   0.013909666029  1.699104343451  12.979458877967 -2.478557074326  1.100501315705 -2.338101822390
Zn   1.498408363703  0.823906004448  10.909722979283 -0.935202008143  1.112848781527 -4.323660664173
O   -0.020380201311  1.752093043290  10.302090757248  1.789461060782 -0.772945086950  2.062372091388
O    1.433684485833  0.886547137423  12.553843210379  1.690918647030 -1.139870561532  3.331641904152
Zn   2.961480635818  1.694586877715  4.306965594849  0.236038840170 -2.071021025313 -3.111355955941
Zn   4.405241866645  0.871488918300  2.174685599166  0.909782539628  0.361144606233 -2.337742382168
O    2.967675941788  1.715650741581  1.703030771882 -0.895454295931 -0.411547741276  2.832687968246
O    4.436315432467  0.776430712314  3.863828758649  1.081619905420  2.851815947325  2.452676864125
Zn   2.952284271767  1.721786943820  8.722111306022 -0.752652912360 -0.748362255405 -5.559750390641
Zn   4.423965399209  0.864061255441  6.561970517453 -0.344638123938 -1.060624277005 -6.286821083657
O    2.910895781739  1.621085654780  5.967745138666  5.773332444469  4.036957464879  2.099226541213
O    4.376272217203  0.841226926092  8.175258008376  0.722774122523  0.620583570495  5.215101210959
Zn   2.904926304949  1.741875155059  13.058409994150  0.663216060454 -2.974366808177 -2.113411574464
Zn   4.368122959543  0.938187037200  10.914783846483  0.117510213104 -0.261934991211 -4.556739136164
O    2.901404781180  1.730172616402  10.325503773870 -0.128229656404  1.274653959894  6.205658813054
O    4.382660712978  0.781316914758  12.548003408939 -0.173103119878  2.890922169298  3.571423756305
Zn   5.936193450127  1.678349230416  4.395489751097 -1.019214603710  0.785213362795 -3.839128303009
Zn   7.379863819995  0.848710164101  2.132748414802  0.064471954431 -0.545644912205 -3.184709529132
O    5.911434279881  1.674938856947  1.608869707597 -0.338285185137  0.130006288689  5.366006968805
O    7.405696560990  0.881398937844  3.808301244831 -2.111364462127 -2.415879235681  2.700461274867
Zn   5.903974859793  1.688223964151  8.666985168285 -1.251127080416 -0.344429607472 -0.234303859757
Zn   7.307330310381  0.841262211901  6.565410883861  4.357276809566 -1.598518598730 -6.163220698494
O    5.946603646019  1.629813599712  6.067955954957 -3.122329167123  2.321576056821  1.579757773183
O    7.330611005217  0.829696405755  8.168192907208  0.328471284370 -0.558595558828  6.286075206630
Zn   5.889348009690  1.686271776751  13.009443876572  0.448658530086 -2.255071131120 -4.961510735059
Zn   7.395558947975  0.838506390194  10.743023994657 -0.199265122985  1.077939628355 -0.587216050778
O    5.899070132299  1.707843756272  10.424633962250 -0.806047011711 -1.844391394271  0.150277123122
O    7.401360817171  0.757214942710  12.482082459989 -0.746418244304  2.289558109154  1.209260007869