# total energy = -49073.79018170481 eV

CRYSTAL
PRIMVEC
6.136662235341968 0.0 0.0
-3.068331117670984 5.314502912362029 0.0
0.0 0.0 4.5321030240048685
PRIMCOORD
16 1
Zn   0.008158692442  1.828964675959  4.489290599920  0.038240017318 -2.465860709806 -0.226428570774
Zn   1.611031548997  0.905107359083  2.254205912890 -0.945656370707 -0.108515980025 -1.580168121247
O    0.031451621289  1.815863515753  1.743448446711 -0.290913637831 -1.559510592898  1.187452939296
O    1.574779830508  0.924893799128  4.021354762820 -1.097486183028 -1.054362869476  1.495201389297
Zn  -1.603507387430  4.415329091995  4.541882408943  1.012910258758  0.106122025872 -3.566688298502
Zn  -0.013492065591  3.507147265132  2.352910442948 -0.485570829731  1.433743281991 -5.174985316775
O   -1.557987467967  4.473559266280  1.700651364282  0.101566545291 -0.725893127768  3.912015220977
O    0.013307352057  3.480348461151  4.008124119040 -0.168674651793  3.453446887977  4.502584504498
Zn   3.096487351339  1.733061532211  4.527914752029 -0.576835221765  0.980451366899 -0.542767333547
Zn   4.639921111149  0.842480266306  2.332547770318  0.439085284575  0.736312523329 -3.652029640183
O    3.101182511615  1.803847931096  1.774243445140  1.005591356499 -0.571528207729  0.931233510413
O    4.563872524397  0.889134240950  4.041842623359  1.354147841655  0.665192467454  2.344661477886
Zn   1.656946669508  4.478782793174  4.439961654207 -3.053387349846  0.002342789201  0.604145222433
Zn   3.039773546293  3.514677563361  2.283205937615  0.077510532783  1.351133223198 -2.952759000099
O    1.477740790580  4.447927041789  1.712841230146  0.253911349575 -0.584826467500  0.906121545837
O    3.003613264071  3.530604042861  4.008663531651  2.335561829577 -1.658247124939  1.812410727600