# total energy = -36808.174075125295 eV

CRYSTAL
PRIMVEC
10.355617489065997 0.0 0.0
-1.7259397000501626 2.989407878656127 0.0
0.0 0.0 4.987783163608638
PRIMCOORD
12 1
Zn   0.066332907826  2.043126050370  4.997217131141 -0.496327554027  0.049450027101 -2.213220256523
Zn   1.705429364051  0.854432678967  2.349366513003  0.458537736873  0.756502625124  0.657985408182
O   -0.023932867579  1.915872080417  1.810333840339  0.161887710778  0.083065915383  2.205186073365
O    1.651878394892  1.065649995521  4.405550997027  0.644974854855 -0.500128930051 -0.480923817877
Zn   3.425903369191  2.060645684038  4.895855311596  0.047777267384 -0.330662121374  0.290876356835
Zn   5.220284380788  1.055356511737  2.442316464462 -0.849281654030 -0.680565864586  0.272871949838
O    3.578395014526  2.046831290307  1.918585252199 -1.056399183180 -0.407554818067  0.178194932579
O    5.101243451066  0.984028054034  4.511005356603  0.348444642168  0.411202185011 -0.685431420208
Zn   6.856145742109  1.939610262387  4.984394805566  0.212478536352  0.106824451255 -0.427562114427
Zn   8.701147083117  0.950676752349  2.508090168944 -0.600358244587 -0.305077073816 -0.526126639666
O    6.806011091160  1.925733734952  1.926740300972  1.579363365958  0.789508390626  0.238258473529
O    8.704391498076  0.953734766193  4.409467491561 -0.451097478544  0.027434956283  0.489891054373