# total energy = -49068.63392705288 eV

CRYSTAL
PRIMVEC
5.880968041683205 0.0 0.0
-1.4702420104208012 2.5465356146333695 0.0
0.0 0.0 10.008396080441644
PRIMCOORD
16 1
Zn   0.070896834033  1.929589721737  5.017443156444 -0.415940985248 -3.091291838201 -1.868456148530
Zn   1.574557445351  0.951411835944  2.617283072078 -1.560797687140 -0.412670284917 -8.348653243381
O   -0.014067275556  1.658404171011  1.671060602334  6.411910908880  1.525313892411  9.007986423841
O    1.568099554344  0.883922434795  4.196757006711 -2.513666002214  1.500150762882  6.280908060606
Zn  -0.089757686639  1.735487783424  10.121305373971 -0.450187565136  0.512406461867 -10.642223559018
Zn   1.379148755939  0.957477466382  7.446292955305 -1.264315039862 -0.806491812558  2.014026353095
O   -0.206187327638  1.679098121356  6.680671485540  5.397926186111  3.033972178544  0.282539554835
O    1.557247404017  1.015066845931  9.432408189471 -11.214889479896 -4.941682644589 -6.683443056861
Zn   2.920739846835  1.726632809844  4.969547376519 -1.469972439527  3.863205912784  3.081054990964
Zn   4.428731203019  1.203201954068  2.300518842836  1.448021903397 -4.505791955692  5.454637265650
O    2.983933788927  1.731855697561  1.865081383287 -5.636517874610  3.644269793732 -0.166635766986
O    4.325791914611  1.035163289923  4.406374703008  4.711988258580 -2.313019425500 -2.558799147108
Zn   2.835581077204  1.522337389624  10.111689991223  6.969459000280  4.765441750413  3.641586590473
Zn   4.491406443729  0.963070855087  7.505720137366 -4.827878676692 -3.963135436692  5.123374277467
O    2.897605882850  1.655685987582  6.961641202796  0.454149635107  1.292781008512 -1.847896836321
O    4.264382846320  0.776394815121  9.503640826779  3.960710115080 -0.103458362997 -2.770005758726