# total energy = -24529.775737715438 eV

CRYSTAL
PRIMVEC
5.753120944853822 0.0 0.0
-1.4382802362134555 2.4911761596939876 0.0
0.0 0.0 4.341213015051577
PRIMCOORD
8 1
Zn  -0.015395351648  1.671938640892  4.409539380641  0.382546726058 -1.061060078991 -6.507999204665
Zn   1.428095486205  0.814937636208  2.215636760473  0.051191692382  1.107499344290 -5.573985303293
O   -0.076887009555  1.654582050313  1.647968262475  1.845793673936  0.228623778653  6.402181340297
O    1.429740878795  0.802839398173  3.825673545935 -0.635178180480  0.780164744627  4.618003125181
Zn   2.840554564994  1.675877802803  4.359296800118  0.571342831191 -0.749440833181 -3.350832361038
Zn   4.315627160274  0.787979086772  2.217375353623 -1.433892148864  1.874609312616 -5.114445864629
O    2.888148983946  1.714549706482  1.658109864077 -0.531716217939 -3.405001390881  2.962631779128
O    4.303955803813  0.822184267350  3.804314509115 -0.250088376285  1.224605379977  6.564446746130