# total energy = -73616.77867271139 eV

CRYSTAL
PRIMVEC
9.013222972357486 0.0 0.0
-1.5022068331339051 2.6018921415452976 0.0
0.0 0.0 10.418916213903387
PRIMCOORD
24 1
Zn  -0.025512828946  1.696895153304  5.170630945031  1.258660155569  0.934096690894  1.332304520528
Zn   1.545958820086  0.879146163435  2.634994104234 -0.577763132896 -0.105726333095 -0.124977210905
O   -0.051920670932  1.715204614450  2.025364038085  1.154638978090  0.460663267856 -1.271877682700
O    1.496017452919  0.865648862033  4.501830872714  0.822974640704  0.307132927904  0.877251656880
Zn   0.048282934141  1.749641435460  10.450720272484 -0.868543587583 -0.480495986311  1.278713731786
Zn   1.540321950439  0.917081016281  7.795840294406 -0.771759037062 -0.012069786680  1.112959853184
O   -0.014174194446  1.780253945964  7.194907087104 -0.025357504928 -0.602156988359 -0.913100548258
O    1.493854279405  0.851816268738  9.835856227755  0.841403536833  0.519165120747 -1.530213643706
Zn   3.129687551038  1.719933852543  5.170149638925 -3.198908960561  0.885881307531  1.495525091185
Zn   4.574497278962  0.835920548704  2.668487240799 -1.233195949859  0.410576378502  0.858671065664
O    3.055041841026  1.766488951840  2.072825867613  0.040766897505 -1.261670403150 -2.078578268835
O    4.516495386490  0.905380951540  4.573436422618  1.807844191275 -1.643992157682 -0.913389026033
Zn   3.041958246559  1.729280564766  10.404529307395 -0.294303637349 -0.154903309041  1.391491572411
Zn   4.511112689731  0.914505037155  7.800327978124  0.172985620464 -1.189464313299  1.537749804182
O    3.050367583592  1.716578229631  7.157853727465 -0.591845579131  1.073759014615 -1.164655481786
O    4.555074684779  0.868905339493  9.807073401515 -0.367369761207 -0.166351660087 -1.232678129683
Zn   6.020016347534  1.761028741364  5.204661269686 -0.076430926565  0.492961979989  1.138977874514
Zn   7.486404632575  0.833665440316  2.560550290416 -0.107858548947  1.341812460018  1.707431814193
O    5.968713082375  1.758254471333  2.054602933408  0.838168060615 -0.856156269662 -1.895367885319
O    7.499275514980  0.917750698747  4.582399171542 -0.656133699686 -1.020437163263 -1.309460011829
Zn   6.020475120583  1.724891125178  10.505825315092  0.143584541594  0.629059469177  0.731091384139
Zn   7.500686985697  0.819778767683  7.811717086672  1.023860330012 -0.014766102566  1.441872081746
O    6.030191374947  1.668736042093  7.187878575830  0.154406829020  0.806213619196 -1.375336302807
O    7.499660379601  0.881618490496  9.836508785099  0.510177572536 -0.353132020342 -1.094405744331