# total energy = -73586.25068809997 eV

CRYSTAL
PRIMVEC
8.629681152692129 0.0 0.0
-2.8765575076703254 4.982346413506801 0.0
0.0 0.0 4.3412128819486915
PRIMCOORD
24 1
Zn  -0.000152745356  1.686126648413  4.279828233973  0.787991439761 -2.098631587941 -3.226872792764
Zn   1.457808585252  0.870134202498  2.236137650744 -1.233032941919 -0.198426943355 -8.920768948183
O   -0.073784636824  1.645006217720  1.582416866256  2.187619268125  0.526459340415  4.708265301202
O    1.427647849623  0.842866998960  3.788568963898  1.530033409374 -0.357559202875  8.760468379386
Zn  -1.492360965619  4.156560142452  4.418034303570 -1.544773286688  2.478336987896 -10.049044605788
Zn  -0.040842554959  3.345192342667  2.214729137740  0.347581265727 -2.125550780929  2.041489334402
O   -1.421374934393  4.143153069813  1.610320940263  1.279493547374  3.319396511126  9.906675681769
O   -0.078664721515  3.315608932708  4.019871170802  0.704769715526  2.061862755852 -3.238976003785
Zn   2.954244486311  1.659460070683  4.406701806280 -3.955103310416  1.009534657418 -5.042344932898
Zn   4.306106476051  0.829333070008  2.215048435943 -0.393356929300 -3.637534274780 -6.171897914553
O    2.879374235599  1.690417325882  1.659593830741 -1.317929225643 -2.442279065831  4.698117671245
O    4.305514479924  0.977843841870  3.789264516199  1.248316350441 -4.989528560428  4.960319028743
Zn   1.432873121561  4.065485076471  4.382022644120  2.001865035142  2.243041710760 -12.848934553668
Zn   2.974214431467  3.284542943526  2.117297448622 -6.743816929963  0.475219825514  1.304153254905
O    1.315902971345  4.109074458941  1.543304562368  2.351732525800  1.746699501445  13.280830262473
O    2.935724327589  3.367697688145  3.841629421434 -2.558338919642 -1.648071727068  0.114661173691
Zn   5.686637992517  1.753684970285  4.357972585715  2.891657247691 -5.790091409095 -3.669704688865
Zn   7.186475713887  0.887245997256  2.222284423589 -2.565196308883 -1.578876656129 -1.495132740842
O    5.642206353166  1.713264406734  1.624879212368  1.871758473430 -3.295434343883  5.330903440233
O    7.207264615784  0.774991967790  3.937703661707 -2.010811445702  5.866226915907 -0.642146898488
Zn   4.297266230679  4.218885425673  4.333705059346  2.357797758157 -4.302806189322 -1.090636507096
Zn   5.848501470026  3.308845851588  2.060200026243 -2.699325618601  1.843334670872  2.669738391862
O    4.258436117364  4.086389616095  1.668214019244  6.059642264980  4.741132998464  2.111958129847
O    5.757034616520  3.265396269953  3.878933807121 -0.598572870552  6.153545123078 -3.491118948606