# total energy = -49078.94702044911 eV

CRYSTAL
PRIMVEC
6.392356429000733 0.0 0.0
-3.1961782145003665 5.535940476425361 0.0
0.0 0.0 4.823569883621089
PRIMCOORD
16 1
Zn   0.004300138170  1.850736767336  4.849875708798  0.440605834985 -0.435890431787 -2.583393805728
Zn   1.653178434955  0.938865844268  2.351499267564 -1.142063455418  0.688061658742 -0.038264699908
O   -0.026927162222  1.888187665947  1.774669643538 -0.099839792407 -0.383562311807  3.153564213878
O    1.674518038422  0.954386485678  4.220967556944 -1.052111097327 -0.753018009009  0.891702027977
Zn  -1.585064681026  4.569207154305  4.888078348524  0.167340763473  0.610564495696 -1.341667449800
Zn  -0.116091585107  3.713864478374  2.451692422997  0.832501863468 -0.255338826050 -1.927860972851
O   -1.652175474232  4.674555105962  1.906126535793 -0.164117371440 -0.608854454984  0.094424792039
O    0.023086634479  3.666660761560  4.225433896381 -0.188795333802  0.330014203377  1.923339173721
Zn   3.192367730833  1.890977290292  4.803222373872 -0.180707414588 -0.142536302835 -0.485579828592
Zn   4.738045268486  0.943519479748  2.469938765188  0.905574415084 -0.548091831083 -1.080263391392
O    3.203168895491  1.810852298633  1.822479355742  0.257604225046  0.938864801706  0.849717198905
O    4.748554302455  0.947530044172  4.322919888866  0.812282193987 -0.084634288312 -0.002861637819
Zn   1.580445564270  4.657550159390  4.822117540240  0.205717820589 -0.453526142591 -1.211368826682
Zn   3.189341589300  3.683587082148  2.425246605214 -0.666993010998 -0.037387182399 -1.023137335803
O    1.559192896851  4.578869840283  1.804204887183  0.028863204089  0.239524741836  1.965089518185
O    3.218642872699  3.678027649762  4.263704295086 -0.155862330520  0.895810136608  0.816560509648