# total energy = -36808.87097839435 eV

CRYSTAL
PRIMVEC
3.3240255759183532 0.0 0.0
-1.6620127879591766 2.878689249384692 0.0
0.0 0.0 16.33035927403666
PRIMCOORD
12 1
Zn  -0.004729755992  1.887033364126  5.376760617796 -0.040313354907 -0.048979258112  0.254122694255
Zn   1.626734239717  0.953070263971  2.697911453633  0.198868658878  0.257680843920 -0.360671266141
O    0.046526385986  1.988937018999  1.990920797463 -0.169919579944 -0.335435374393  0.804350597845
O    1.652693549855  0.922274496620  4.725729267392  0.012590949291  0.058134956470  0.138072867747
Zn  -0.061147777287  1.937414954975  10.872434926545  0.523067284015  0.311980485804  0.274288370570
Zn   1.677971434749  0.945578907530  8.147795315659 -0.342638577009 -0.245249560135 -0.051134613892
O   -0.040390567176  1.822345499601  7.478457226797  0.398849319873  0.410585634473 -0.192938923657
O    1.690079530312  1.033315565399  10.202880776022 -0.519180547366 -0.378021070274  0.041261063532
Zn   0.036350546491  1.967235120819  16.352963977563  0.178494980318 -0.083411728758 -0.693644809257
Zn   1.641433745619  0.950072325304  13.563481602559  0.123126273739  0.722129289850  0.846013010581
O   -0.001978460023  2.009680933008  13.002759041014 -0.042511391000 -0.767179388111 -0.912641092123
O    1.758249644031  0.981216118132  15.675221090033 -0.320434272998  0.097764655046 -0.147077899459