# total energy = -24540.153875434917 eV

CRYSTAL
PRIMVEC
6.392356429000733 0.0 0.0
-1.5980891072501833 2.7679734343908944 0.0
0.0 0.0 5.234087013491516
PRIMCOORD
8 1
Zn  -0.000000000000  1.845314131377  5.233272627282  0.000015169509  0.000008741751  0.156181918643
Zn   1.598089107250  0.922657385307  2.616227842065 -0.000001028441 -0.000000514221  0.156188860621
O   -0.000000000000  1.845314131377  1.989769880431  0.000004627986  0.000002571103 -0.156186032408
O    1.598089107250  0.922657385307  4.606814665648 -0.000007970420 -0.000004627986 -0.156182432863
Zn   3.196178214500  1.845314131377  5.233272627282 -0.000003599544 -0.000002056883  0.156173434002
Zn   4.794267321751  0.922657385307  2.616227842065 -0.000016197950 -0.000009255971  0.156191945945
O    3.196178214500  1.845314131377  1.989769880431  0.000005913537  0.000003342434 -0.156186803739
O    4.794267321751  0.922657385307  4.606814665648  0.000002828213  0.000001542662 -0.156181147312