# total energy = -110413.32011552418 eV

CRYSTAL
PRIMVEC
9.204993617601557 0.0 0.0
-4.602496808800779 7.971754597683389 0.0
0.0 0.0 4.43358517591779
PRIMCOORD
36 1
Zn   0.000000000000  1.771501942207  4.432889278400  0.000000000000  0.000034967003 -3.646577615930
Zn   1.534165909767  0.885750510854  2.216099451939  0.000031624569  0.000018254832 -3.646577358819
O    0.000000000000  1.771501942207  1.685452741370  0.000000000000  0.000008227530  3.646578130150
O    1.534165909767  0.885750510854  3.902242567831  0.000004885096  0.000002828213  3.646577873040
Zn  -1.534165909767  4.428754395267  4.432889278400  0.000008484640  0.000004885096 -3.646578387261
Zn   0.000000000000  3.543003884414  2.216099451939 -0.000000000000  0.000023911259 -3.646577615930
O   -1.534165909767  4.428754395267  1.685452741370  0.000002313993  0.000001285552  3.646576844599
O    0.000000000000  3.543003884414  3.902242567831  0.000000000000  0.000007199089  3.646576844599
Zn  -3.068330899034  7.086007768827  4.432889278400  0.000030339017 -0.000017483501 -3.646577615930
Zn  -1.534165909767  6.200256337474  2.216099451939  0.000020825936 -0.000012084185 -3.646577615930
O   -3.068330899034  7.086007768827  1.685452741370  0.000007199089 -0.000004113765  3.646578130150
O   -1.534165909767  6.200256337474  3.902242567831  0.000006170648 -0.000003599544  3.646576844599
Zn   3.068330899034  1.771501942207  4.432889278400  0.000021854377  0.000012598405 -3.646577358819
Zn   4.602496808801  0.885750510854  2.216099451939  0.000000000000  0.000012598405 -3.646577358819
O    3.068330899034  1.771501942207  1.685452741370  0.000004627986  0.000002571103  3.646578387261
O    4.602496808801  0.885750510854  3.902242567831  0.000000000000 -0.000002056883  3.646577358819
Zn   1.534165909767  4.428754395267  4.432889278400 -0.000008484640  0.000004885096 -3.646578387261
Zn   3.068330899034  3.543003884414  2.216099451939  0.000011055744 -0.000006427758 -3.646577358819
O    1.534165909767  4.428754395267  1.685452741370 -0.000002313993  0.000001285552  3.646576844599
O    3.068330899034  3.543003884414  3.902242567831 -0.000001799772  0.000001028441  3.646577358819
Zn  -0.000000000000  7.086007768827  4.432889278400  0.000000000000 -0.000009770192 -3.646578387261
Zn   1.534165909767  6.200256337474  2.216099451939 -0.000020825936 -0.000012084185 -3.646577615930
O   -0.000000000000  7.086007768827  1.685452741370  0.000000000000 -0.000002828213  3.646576844599
O    1.534165909767  6.200256337474  3.902242567831 -0.000006170648 -0.000003599544  3.646576844599
Zn   6.136662718567  1.771501942207  4.432889278400 -0.000021854377  0.000012598405 -3.646577358819
Zn   7.670827707835  0.885750510854  2.216099451939 -0.000031624569  0.000018254832 -3.646577358819
O    6.136662718567  1.771501942207  1.685452741370 -0.000004627986  0.000002571103  3.646578387261
O    7.670827707835  0.885750510854  3.902242567831 -0.000004885096  0.000002828213  3.646577873040
Zn   4.602496808801  4.428754395267  4.432889278400  0.000000000000 -0.000025453921 -3.646577358819
Zn   6.136662718567  3.543003884414  2.216099451939 -0.000011055744 -0.000006427758 -3.646577358819
O    4.602496808801  4.428754395267  1.685452741370  0.000000000000 -0.000005399317  3.646578387261
O    6.136662718567  3.543003884414  3.902242567831  0.000001799772  0.000001028441  3.646577358819
Zn   3.068330899034  7.086007768827  4.432889278400 -0.000030339017 -0.000017483501 -3.646577615930
Zn   4.602496808801  6.200256337474  2.216099451939 -0.000000000000 -0.000036509665 -3.646577358819
O    3.068330899034  7.086007768827  1.685452741370 -0.000007199089 -0.000004113765  3.646578130150
O    4.602496808801  6.200256337474  3.902242567831  0.000000000000 -0.000005656427  3.646577873040