# total energy = -36809.744969403946 eV

CRYSTAL
PRIMVEC
3.13225493067428 0.0 0.0
-1.56612746533714 2.7126110763371933 0.0
0.0 0.0 15.991680564733576
PRIMCOORD
12 1
Zn   0.003953218948  1.815332799877  5.360566146395 -0.182264731773  0.143911071695  0.008523721200
Zn   1.607896398063  0.817161773069  2.624211324782 -0.519608121821  0.281689291020  0.912282423232
O   -0.019206360784  1.750171247652  1.969843490126  0.496912994217 -0.172816441876  0.035460911911
O    1.551442827771  0.928607090277  4.715649890993  0.216656064768 -0.223843583656 -0.927490241321
Zn   0.059828888205  1.798915398883  10.657505545482 -0.654429058290  0.205853831946  0.843906505761
Zn   1.565377290281  0.860588921556  8.015703477010  0.001673531048  1.083507095140  0.723741114422
O   -0.003643438935  1.866321524991  7.325357935769  0.013524002628 -1.098318963342  0.187235188404
O    1.575500111766  0.907039948952  10.117639795621  0.640673656377 -0.231316752104 -1.679500892111
Zn   0.005712919768  1.842136758220  15.995355952669 -0.033852172663 -1.302027209700  0.399940753165
Zn   1.573226094687  0.902374455233  13.389632449390  0.251613040459 -0.276916809332 -0.478003301796
O    0.037584866590  1.765933380914  12.635257352857 -0.276913724008  0.283701436354  0.673588404827
O    1.565650736137  0.836562020434  15.379647661270  0.046014004836  1.306576776744 -0.699684330583