# total energy = -24538.877808473095 eV

CRYSTAL
PRIMVEC
3.068331382259589 0.0 0.0
-1.5341656911297945 2.6572516853213606 0.0
0.0 0.0 10.443547587547526
PRIMCOORD
8 1
Zn  -0.058529955282  1.843833047054  5.303531017620  1.653557946993  0.971761552434  0.430276428034
Zn   1.551290969074  0.807852991974  2.731821649738 -0.340688395262  1.857217342391 -0.988976630761
O   -0.042261355460  1.832003095409  2.085508941045  0.364473156386 -2.072713325413 -1.384821873700
O    1.594318180047  1.069793373746  4.545998967148 -1.654341876347 -0.928485772465  1.814236210844
Zn  -0.091263528135  1.811466446635  10.480952388096  0.896705908950 -1.782556620353  1.603060452464
Zn   1.635023277830  0.900172639770  7.803492979124 -1.572940750261 -0.928393984082  2.209774721176
O    0.027568957470  1.741122801864  7.337447500637  1.526293996936  0.978864996248 -2.043731079248
O    1.584469449976  0.793331500041  9.877746666993 -0.873059987396  1.904305811239 -1.639817971699