# total energy = -73617.48488581121 eV

CRYSTAL
PRIMVEC
9.780305553333779 0.0 0.0
-1.630054185657481 2.8233297056086286 0.0
0.0 0.0 9.630725560201093
PRIMCOORD
24 1
Zn  -0.009007661415  1.838954666063  4.907963691110  0.195881294115  0.304644100043 -2.335712753333
Zn   1.628165608655  0.842579191603  2.400907550424 -0.063583638289  0.807520253822 -0.070702508722
O    0.002455834724  1.899947585585  1.733762589684 -0.297760742660 -0.878121718190  3.071911119682
O    1.649716511942  0.950376741381  4.329241494847 -0.299754633162 -0.341524260899 -0.566835944460
Zn   0.058630975731  1.875181895863  9.606041047015 -0.053015375855 -0.242069105525 -2.866565594830
Zn   1.640953358166  1.065566246097  7.192890510099 -0.156971761534 -0.724275389659 -1.678458566890
O    0.011396012031  1.895718581464  6.668698407449 -0.460859700138  0.393767020254  1.940160873264
O    1.660777059492  0.891496367859  8.958523203459  0.287839112671  0.316152357793  2.634268995311
Zn   3.188665195309  1.966228716320  4.814958853481  0.490033493488 -0.129735551526 -1.636965589852
Zn   5.005906605013  0.932519859502  2.380584075484 -1.742539970751 -0.465379956605 -1.032693612033
O    3.212837220484  1.915903176065  1.796538458909  0.465685403661 -0.455697696321  2.581664995962
O    4.933789565954  1.004956714552  4.197302238841 -0.847610694085 -0.163788784456  1.205455803632
Zn   3.240034294167  1.963075545810  9.662118384966 -0.015099831756 -0.817819578866 -2.727096618067
Zn   4.996081310054  0.836054749768  7.149153961695 -0.236064294092  1.052165347604 -0.751740942069
O    3.275866399622  1.871107420569  6.619850671363  0.817954304671 -0.584389637073  0.973516844562
O    4.890015852389  0.921001593652  8.969859555626  0.071552772537  0.766211881992  1.740078910805
Zn   6.519861717538  1.860332457941  4.720541739730  0.609249890650  0.247880570000  0.297795709663
Zn   8.054383834612  0.926806204998  2.427428804993  1.344552484657  0.123133472828 -2.241300045478
O    6.529425878339  1.843285385362  1.791767625860  0.123394954020  0.888608733764  4.165404379500
O    8.210172365710  0.922470595546  4.185969798796 -0.175598632606  0.025021718855  2.023963923924
Zn   6.541878163369  1.820208754409  9.742184856379  0.304797080682  0.308218190548 -6.094213575197
Zn   8.098765883182  0.933307174099  7.187035041165  0.586493570790  0.035784099578 -1.511543063880
O    6.562417783062  1.894799232742  6.615314565647 -0.492276523886 -0.045520095919 -0.136389823617
O    8.210341564996  0.934547316843  8.961180512478 -0.456298563129 -0.420785972045  3.015996310792