# total energy = -73609.07620887044 eV

CRYSTAL
PRIMVEC
6.0088151385125865 0.0 0.0
-1.5022037846281466 2.6018950695727505 0.0
0.0 0.0 13.891887877399741
PRIMCOORD
24 1
Zn   0.032754652202  1.778856243302  4.694786413170  0.056091186567 -2.303711774946 -0.018863155453
Zn   1.548881462387  0.910120377903  2.363834226126 -2.173248344116 -0.659740957421 -0.895329597428
O   -0.058656851619  1.776513406279  1.687617192476  0.862527720406  0.319107069546  3.362128502777
O    1.475771607715  0.798171945702  4.162686604446  0.473101493619  2.591584054848 -0.548700154091
Zn  -0.018838236341  1.785428685300  9.136806609604 -1.285633855944  0.263891343606  0.947793985875
Zn   1.566216293180  0.810601179816  6.941417498256 -0.408944756436  2.954826167040 -1.239493352832
O   -0.066278432741  1.778752290800  6.477392758000  1.767494583813 -2.462145722848 -0.333319870712
O    1.392058597850  0.894019156858  8.694449055856  2.232840601857  0.514524279541  0.986545138501
Zn   0.042687223626  1.654134872761  13.879006179506 -1.934175087994  0.523711088246 -1.818216792759
Zn   1.423428218162  0.864529093921  11.529313098927  0.889056362824  1.302152165314  0.254714305093
O    0.037548484919  1.822479640326  10.962833253506 -1.504099463117 -1.840829645062  0.275280559280
O    1.450303845632  0.814095906700  13.355494169378  1.638723710194 -0.978951385314 -0.884740509058
Zn   3.013530753281  1.773462730834  4.551188950753  0.516269544366 -1.058330852985 -0.177154921350
Zn   4.521438706120  0.841622288850  2.332926683698 -0.104477805400  0.954410462750 -3.427048086268
O    2.989632493712  1.740355361183  1.810506475281  0.928572932862 -0.366829829544 -1.638695170949
O    4.616030675794  0.864835543493  4.017638013173 -0.885901362135  0.859547554732  3.642835118168
Zn   2.958173942936  1.738295539354  9.285662987031  0.105504961113 -0.494479959295 -4.732754544593
Zn   4.519992384316  0.899134461185  7.028421536173 -1.271828574630 -1.409602937300 -7.828924536822
O    3.025049651902  1.683786572825  6.348914676234 -0.071427302703  1.132592796923  0.436152170089
O    4.552915884223  0.828890811334  8.615184371837 -1.525201535203 -0.413927040142  8.250081519053
Zn   2.996057719740  1.682859412649  13.794178534432 -1.390694787541  0.345734442326  1.789745167681
Zn   4.472063070364  0.817450027311  11.588460870743  2.137605655211 -0.309809960515 -1.538637348993
O    3.077902588978  1.670403739748  10.936332576101 -1.158127707970  0.601041386697  4.450574172869
O    4.423239644719  0.815204533093  13.347376260126  2.105971573246 -0.064763003309  0.686027916142