# total energy = -73612.22463183521 eV

CRYSTAL
PRIMVEC
8.82145232711341 0.0 0.0
-2.9404811685536947 5.093065501058928 0.0
0.0 0.0 5.098614194572682
PRIMCOORD
24 1
Zn   0.027660545917  1.620797193289  5.068512752797 -0.109100905994  1.675235946187  1.869449365681
Zn   1.471287690668  0.851773854494  2.558380843150  1.143157202703  0.111241092266  1.237099912899
O    0.005387260936  1.657451209853  1.932906351639  1.513225079568  1.393923064671 -2.383155777306
O    1.493735640405  0.807709817975  4.532269015865 -0.971438621877  0.384213315127 -3.015192069723
Zn  -1.408811518852  4.266595982565  5.069783041932 -1.153218186483 -2.519796540592  1.878908968432
Zn   0.024989410152  3.389109358828  2.502129970241 -2.421019642232 -0.937075313906  1.668690688870
O   -1.534324024707  4.238138859503  1.970871236019  4.417448851070  1.986788600425 -2.862178264396
O   -0.005576922161  3.352962575772  4.445164231297  0.241117026024 -0.704304602964 -0.842601156686
Zn   2.881087212180  1.672806711919  5.057172775830  1.951747806771  1.557074215542  1.915870119038
Zn   4.401303088181  0.843399649800  2.580549152848  0.913160969182  0.258549619678  1.262586230096
O    2.977099017164  1.718712667684  1.921705753619 -0.930996968922 -1.854488630606 -1.547168012172
O    4.366397483468  0.769847262442  4.550412096866  0.723135362517  2.695024163012 -1.814461439481
Zn   1.494597496297  4.227568113179  5.040195008682 -0.856920401522 -1.654550135703  2.499577128221
Zn   2.914835442348  3.365189990843  2.470067519613  0.194146313702  1.409722750707  2.132839087061
O    1.411119210781  4.228700787658  2.002452035350  1.884654869777  1.385807377542 -2.591082175511
O    2.933436356725  3.398626823743  4.491700920903  1.099494471707 -0.812760162065 -1.634430996356
Zn   5.858015093169  1.730716017866  5.116347078041  0.208097633675 -0.667334196387  0.973352551070
Zn   7.458650857164  0.904922222620  2.610088668111 -3.371478062312 -1.966529850176  1.392790750838
O    5.876780968704  1.769840041082  1.982203273678  0.519207029728 -2.865100323139 -1.309904298456
O    7.396868933646  0.783087380240  4.560806414143 -2.065908643787  3.288261737394 -2.498077403747
Zn   4.439789320394  4.275159848484  5.081929299641 -1.429503275768 -2.616745127495  2.746321013514
Zn   5.941068184683  3.438544777669  2.481307814168 -3.363455192008 -0.983841366417  3.246984733022
O    4.407524858507  4.198682267534  1.951011500395 -0.406497837557  1.943467054819 -1.056224091055
O    5.824656771194  3.409661578459  4.460049549953  2.270945122038 -0.506782687922 -1.269994349635