# total energy = -36806.284541119916 eV

CRYSTAL
PRIMVEC
3.004407833844898 0.0 0.0
-1.502203916922449 2.601892294305528 0.0
0.0 0.0 14.181303707448336
PRIMCOORD
12 1
Zn   0.029493370383  1.749796565628  4.740839291224 -0.142016682886 -0.680596203603 -2.604660428416
Zn   1.567766104673  0.880767393517  2.361627396307 -0.634840851745 -0.099271835719 -2.818613749541
O    0.021426234908  1.737060279939  1.750054343820  0.864035929521  0.246649011586  1.828535915296
O    1.523927287765  0.828559197707  4.067795153135 -0.030012230091  0.684278794661  3.399966399560
Zn   0.015107364352  1.774483484358  9.465502850671  0.431859970471  0.476398162093  0.723377817545
Zn   1.499623731475  0.859199350560  7.116802219510  0.889181061328 -0.530670036062 -1.039065062777
O    0.056626778412  1.702048713688  6.468189325044 -0.914643467265  0.380721499924  2.471662146979
O    1.539764723220  0.933603210124  8.901402446367 -0.383598564362 -0.458979452396  0.445662423572
Zn  -0.043048056766  1.704954276504  14.191115502552  0.929340407155  0.038259043481 -1.789282883333
Zn   1.481751711034  0.874370408358  11.784460144717  0.404601906086 -0.558526139043  0.465926058917
O   -0.001053345387  1.711146361050  11.320920875902 -0.429955811470  0.606252755695 -1.481388908894
O    1.525146176023  0.833772446180  13.588378713946 -0.983951666742 -0.104515857727  0.397880528202