# total energy = -73610.70758181027 eV

CRYSTAL
PRIMVEC
10.355617489065997 0.0 0.0
-1.7259397000501626 2.989407878656127 0.0
0.0 0.0 11.748986533454806
PRIMCOORD
24 1
Zn  -0.082197713819  2.020225637854  5.914112823679  0.344612927127  0.148791025495 -0.562057035014
Zn   1.861632462695  0.925520886344  3.006603381497 -0.494380200492 -0.057744405899 -0.415527551860
O   -0.043088688810  1.944774608829  2.214511519814  0.023745680356  0.292840936761  0.431581262888
O    1.708062797579  1.038580411405  5.107142010788  0.029914271061 -0.109833927506  0.809255234235
Zn   0.046612705442  1.981170462056  11.722567282117 -0.619069962064 -0.020820022069  0.680940988537
Zn   1.717495729550  1.038755421340  8.856896605714 -0.034723262414 -0.158089420078 -0.220906869625
O    0.042202247953  2.002814738170  8.088264359891 -0.315234216855 -0.002911517220  0.251555447749
O    1.653720659243  1.000774123076  11.173578718798  0.804898499929 -0.013821993485 -0.768389092149
Zn   3.372868109782  2.103685701446  5.969977237785  0.167816931778 -0.157594482719 -0.691894402225
Zn   5.306341633246  1.006042025692  2.910172907000 -0.839730520006 -0.283418615006  0.127960461903
O    3.422033474935  2.088426699076  2.307260572293  0.383012095730 -0.313982860946 -0.091392947192
O    5.215982657283  1.031064304231  5.202436474045 -0.078634104864 -0.045788261979  0.406022440583
Zn   3.464742112583  2.009480649148  11.702134613249 -0.157329144873  0.038098606644  0.067182154273
Zn   5.121758964873  0.956155909562  8.782205679012  0.451051970018  0.198278847813  0.158991877288
O    3.460488024919  1.928584636447  8.146696967135 -0.388837701273  0.267920262260 -0.004409956142
O    5.148657681301  1.010180130441  11.035064050388 -0.053885437165 -0.155254778843  0.237296366726
Zn   6.907642156759  2.004591762131  5.833549226299 -0.383133966020 -0.052999435015 -0.054135348392
Zn   8.495376821362  0.982183718559  2.954416247161  1.042104106713  0.373056270069 -0.284360410094
O    6.892459785958  1.988646182322  2.252292954661 -0.112065645050  0.118409327880  0.090887211200
O    8.577123030259  1.056341330960  5.185426336758  0.154612517273 -0.171493352189  0.191267706602
Zn   6.918218348901  1.998586539549  11.811162696421  0.246340222096  0.105371263749 -0.545389344550
Zn   8.619687724824  1.037033282152  8.740081098190 -0.272274682574 -0.300913429356  0.152687532336
O    6.831393745187  1.975024403076  8.162966677772  0.446299800045  0.167355932982 -0.078477781792
O    8.681619495217  0.945760940727  11.103750790070 -0.345110435589  0.134544028658  0.111311540492