# total energy = -110423.15280295887 eV

CRYSTAL
PRIMVEC
10.355617489065997 0.0 0.0
-1.7259397000501626 2.989407878656127 0.0
0.0 0.0 15.628376890356241
PRIMCOORD
36 1
Zn  -0.035621253039  1.977832846539  5.253093048117  0.015709697426 -0.071770544975 -1.898727288710
Zn   1.799829101958  0.954585997951  2.741687010453 -0.843513126977 -0.422066895640 -1.637905328058
O   -0.062088140217  1.964577656153  2.130963433474  0.692738238283  0.316485829873 -1.268945853765
O    1.705688254489  1.001871818529  4.551595234913  0.398107556611  0.156007340738  1.800284119540
Zn   0.013803002551  2.076853260970  10.414062523051 -0.509444808135 -0.641610823479 -0.062992798782
Zn   1.696844557153  0.944343256692  7.837895560296  0.266564005342  0.203941702525 -1.481248783771
O   -0.100381142569  1.987647900796  7.071195672696  0.305233653998  0.056673541433  2.394437006647
O    1.760408372863  0.945318755860  9.744295357396 -0.294729926254  0.374880724873  1.155176852871
Zn  -0.012012516287  1.897279604777  15.634213316373  0.123165868728  0.196804320150  0.542688400680
Zn   1.770763990352  0.939282466426  12.948335835254 -0.008247070500  0.239429611019  0.796100442021
O   -0.150808857493  1.995816411871  12.462220367958  1.111749120705  0.186468742552 -0.790755632769
O    1.765280690891  0.953952234161  14.980420726257 -0.347218225960  0.055823534728  0.076344023278
Zn   3.536325318477  1.958643887332  5.112817924733 -0.276200242881  0.062652384724  0.566509928579
Zn   5.139945500308  1.064936493476  2.512644569515  0.594877166868 -0.042835864219  0.484949394097
O    3.458416901421  1.992089425137  1.988878148153  0.075665252044  0.270393663501  0.817122295688
O    5.261385826602  0.982346301754  4.479394834218 -0.321007886113 -0.039763138831  0.218857957516
Zn   3.393361876793  2.013139288807  10.509101202557  0.401426593682  0.107830523922 -1.372403959652
Zn   5.162180046619  1.127141652171  7.896768281283 -0.163208229362 -0.183762399364 -1.371232565052
O    3.387566873246  1.973427566860  7.159197710118  0.281648410479 -0.015368512036  0.072127156984
O    5.177138736081  0.950388866183  9.774161993796 -0.138723099736  0.117417653390  1.183054296008
Zn   3.362772418292  2.015221803484  15.775808780986  0.044481884462 -0.087314663357 -2.134331355335
Zn   5.252591836230  1.038805128304  13.021390574392 -0.246479318777 -0.165862122045 -0.280077723558
O    3.546294671433  2.029286803157  12.379311223218 -0.625659956577 -0.281319052164  0.659155517231
O    5.122141087159  1.068930655142  14.916321525123  0.177054905437 -0.212532786629  1.424062050148
Zn   6.945963119277  2.006571756195  5.134662064265  0.195316679861  0.051388638885  0.133973243756
Zn   8.541695427267  0.995599421016  2.539660304421  0.857882508325  0.415751494945  0.420901928798
O    7.014599116433  2.103568682968  2.054838253750 -1.248126860138 -0.846697695353 -1.111756576904
O    8.679715097161  0.975461887247  4.499557221469 -0.415496955732 -0.009089363896  0.815991267408
Zn   6.838874643261  1.989518125314  10.503219211823  0.142114899027  0.003527553537 -1.737365882749
Zn   8.635900479565  0.950688143528  7.897208395026 -0.199174877264  0.082485617400 -1.633745026032
O    6.901476422106  2.038563365304  7.181480927831 -0.207446887465 -0.230998706643  0.046060541803
O    8.560803612658  1.017918883390  9.748405501977  0.331172742462  0.051589184931  1.688952524442
Zn   6.886917459478  1.961334276756  15.622424481424 -0.103062670220  0.004241805995  0.084954647766
Zn   8.659961756801  0.937747763914  13.006997301644 -0.436848167714 -0.079898316289  0.175479076309
O    6.919094434140  1.967943231837  12.354284802432  0.101431048154  0.124490243966  1.264484989781
O    8.568452271735  0.918144580007  15.014359191454  0.268248849244  0.252606771831 -0.040178886212