# total energy = -110415.24883814009 eV

CRYSTAL
PRIMVEC
9.588534908089704 0.0 0.0
-4.794267454044852 8.303910943778387 0.0
0.0 0.0 4.618317838481406
PRIMCOORD
36 1
Zn   0.083247660072  1.720309731172  4.577946271104 -6.551334120007  3.659301491254  0.012813863935
Zn   1.669815547493  0.973740650107  2.321918382643 -1.298327392251 -0.366838314184 -0.479214805606
O   -0.004222790774  1.856362411836  1.760384053967 -0.428527049443 -0.488788565337  1.705984026003
O    1.539340517584  1.099184575749  4.277484735492  5.971165720104 -2.817410473262 -2.693071153051
Zn  -1.493310755758  4.561453032209  4.559982150954  0.113704723315 -0.077091185857 -1.663580621336
Zn  -0.015936145017  3.660334027789  2.241606731960 -1.031709650853  0.386719626489 -1.573881002687
O   -1.737006247008  4.759150403797  1.709738371436  2.064016054750  0.440017566581  1.323197158910
O    0.187866246747  3.668566743861  4.014056998255 -2.868818138310 -0.790131883142  1.902235816084
Zn  -3.201419076259  7.610270575406  4.554160951411 -0.293945996900 -3.202124382175  0.528376097822
Zn  -1.576114466664  6.678020474700  2.436296180148 -0.448881187619 -0.754284791537 -9.481159137018
O   -3.170870004042  7.355069801120  1.902916666522 -1.500897925461  1.306333807496 -1.344914238872
O   -1.499969034398  6.493741298862  3.999115184308 -1.160228299252 -1.834548182929  10.335809511558
Zn   3.223254087952  1.761908631017  4.597294975695 -0.434239269337  2.769730136467 -1.336457623464
Zn   4.463647099586  0.734440543260  2.585749797199 -0.299448157665  3.281114841937 -10.498005497606
O    3.148754048277  1.925354797061  1.715783942695  0.388502172311  0.220855190451  3.117668271312
O    4.664577725145  0.845599469596  4.134625153896  3.004975534201  2.074899534431  9.124836891874
Zn   1.607572531990  4.534581163129  4.685149926791 -0.297861272794  2.326201728519 -0.232339794052
Zn   3.227758781652  3.794880349619  2.377200121802 -0.323640695751 -1.623441330113 -6.819465212726
O    1.556726449080  4.592944657408  1.866477357311 -0.080982036271  0.481167044236  0.489372462865
O    3.056875747934  3.843544081984  3.971335280972  2.303906921676 -1.775293253922  7.212741152277
Zn  -0.087714958486  7.456846346049  4.694886125136  1.508313758309 -2.126952803483  1.839629968327
Zn   1.586710756591  6.381614889353  2.399177043811  0.816669524422  0.402417753951 -1.005691886633
O    0.091694200473  7.436980819426  2.077432796117  0.452232877700 -2.125284671752 -3.101537427188
O    1.541940928251  6.535136921767  4.222345865503  0.525691866122 -0.192874903188  1.412263771961
Zn   6.443740924730  1.781827853435  4.581491152460 -0.344421894162 -3.237112211104  1.237676611339
Zn   7.855211617340  1.022524239159  2.353345764658 -0.911770002372  0.617349122718 -7.318079763015
O    6.206943425493  1.809244351298  1.855001798733 -0.018194668631  0.446164302909  0.005069958324
O    8.104445446353  0.854212850503  3.945112555705  0.524249477248  1.175089018414  6.793590916063
Zn   4.896460141388  4.582568903784  4.518528037986  0.199119598546 -0.366509727200 -4.392672672567
Zn   6.346868915407  4.020753631035  2.264572231918 -1.496676688291 -2.468621303270  0.218228294351
O    4.608276724726  4.594173907583  1.544163550643  1.132019183808 -0.206529260747  4.205037934731
O    6.379058585947  3.420114380443  4.112899451502  0.496771326432  4.734321631969 -1.301788097106
Zn   3.180105680866  7.541060530440  4.658394078983 -0.219498933534 -2.558123718307 -1.208424913562
Zn   4.540848229545  6.250476332829  2.341658299458 -0.229494611294  0.909545998137 -7.192613271178
O    3.234071873036  7.411580790455  1.806953650309 -1.113890078307  0.225757255739  1.306630255690
O    4.866620620754  6.379585955367  3.899315795277  1.851449329559  1.554974652701  8.871734925573