# total energy = -36809.63012525497 eV

CRYSTAL
PRIMVEC
9.588534908089704 0.0 0.0
-1.5980923475265867 2.7679703145927954 0.0
0.0 0.0 5.028831783501451
PRIMCOORD
12 1
Zn   0.011126535907  1.832760233160  4.978287739440  0.881029892976  0.245760695444 -0.797569056147
Zn   1.646412810342  0.912637711405  2.496965717071 -0.376222326502  0.330879122481 -1.266918281812
O   -0.067545475307  1.891123727439  1.796359278089  0.403931619492 -0.488056572267  1.261988705721
O    1.705342987034  0.924248468326  4.324740870933 -0.942523738615 -0.049434343372  1.430717093570
Zn   3.254882829200  1.884678314274  4.967737474481 -0.553576508347 -0.186704255601  0.647122240216
Zn   4.899330948740  0.939891204175  2.495075816841 -2.592038625887 -1.249232434497  0.445146660278
O    3.190619509393  1.860286999174  1.914637691594  0.453338194950  0.002073080479 -0.264864763263
O    4.780122447348  0.930962360468  4.434649452317  0.690526832454  0.285158737625 -0.156810553366
Zn   6.373174102074  1.863548059897  5.033585779109 -0.666700933679  0.704377879404  0.053355018582
Zn   8.001733060417  0.981583112809  2.533335029978 -0.229591798993 -0.229911387116 -0.356931082373
O    6.301753899811  1.831606732411  1.932604688305  2.470313346260  1.774921472405 -0.437047942430
O    7.938581051806  1.053455893919  4.469152836330  0.461513788782 -1.139832509205 -0.558188038977