# total energy = -24535.56094350469 eV

CRYSTAL
PRIMVEC
3.004407833844898 0.0 0.0
-1.502203916922449 2.601892294305528 0.0
0.0 0.0 9.068315327983907
PRIMCOORD
8 1
Zn  -0.028880771625  1.778164484836  4.491792208686  0.487190110502 -2.330728155634 -0.821927173276
Zn   1.627240160388  0.870379953873  2.172873070619 -1.691666580939 -0.757756809246  0.201920815441
O    0.047407152092  1.706027150541  1.688358228071  1.717386868524  0.874996285187  3.672614406313
O    1.515985436097  0.802762150283  3.941487143833 -0.650344603808  2.348312701485  0.456340986332
Zn   0.042573660769  1.696970663567  9.094460586276 -1.292501786709  0.072661432220 -4.279047910560
Zn   1.419836874394  0.898254248874  6.888437180059  0.351786304947  0.210622714090 -6.859231436881
O   -0.047064950040  1.755300640780  6.240119318443 -0.497502805282 -0.019640142828  1.682603442296
O    1.465055615820  0.818757016708  8.504884005305  1.575652492765 -0.398468282385  5.946726870336