# total energy = -49075.66646104511 eV

CRYSTAL
PRIMVEC
7.031592442324853 0.0 0.0
-1.7578981105812133 3.0447709382284116 0.0
0.0 0.0 10.837645767914008
PRIMCOORD
16 1
Zn  -0.000000000000  2.029845651447  5.417976280227 -0.000006941979 -0.000004113765  0.012935220004
Zn   1.757898110581  1.014923177303  2.708565892987 -0.000002571103 -0.000001542662  0.012930334908
O   -0.000000000000  2.029845651447  2.059997119840  0.000002571103  0.000001542662 -0.012938048218
O    1.757898110581  1.014923177303  4.769408210239 -0.000002828213 -0.000001542662 -0.012935220004
Zn  -0.000000000000  2.029845651447  10.836797757865 -0.000009513082 -0.000005656427  0.012938048218
Zn   1.757898110581  1.014923177303  8.127387370626 -0.000007199089 -0.000004113765  0.012937019777
O   -0.000000000000  2.029845651447  7.478819300638  0.000000257110  0.000000257110 -0.012936762666
O    1.757898110581  1.014923177303  10.188229687877 -0.000003342434 -0.000002056883 -0.012926992474
Zn   3.515796221162  2.029845651447  5.417976280227  0.000004885096  0.000002828213  0.012938305328
Zn   5.273694331744  1.014923177303  2.708565892987  0.000005399317  0.000003085324  0.012932648901
O    3.515796221162  2.029845651447  2.059997119840  0.000001028441  0.000000514221 -0.012931363350
O    5.273694331744  1.014923177303  4.769408210239  0.000000257110  0.000000257110 -0.012936505556
Zn   3.515796221162  2.029845651447  10.836797757865  0.000007713309  0.000004370875  0.012932391791
Zn   5.273694331744  1.014923177303  8.127387370626  0.000009770192  0.000005656427  0.012932906012
O    3.515796221162  2.029845651447  7.478819300638  0.000001542662  0.000000771331 -0.012936248446
O    5.273694331744  1.014923177303  10.188229687877 -0.000001028441 -0.000000514221 -0.012935991335