# total energy = -49072.79605978253 eV

CRYSTAL
PRIMVEC
5.880968041683205 0.0 0.0
-1.4702420104208012 2.5465356146333695 0.0
0.0 0.0 9.441888309954344
PRIMCOORD
16 1
Zn  -0.042178890892  1.710776543810  4.719190450307  0.998637550889  0.153307682419  0.675913710526
Zn   1.545035573878  0.829974550658  2.362977663923 -3.366110627353 -0.829134489658  1.656694178629
O   -0.016945421315  1.713252431355  1.797804873181  0.401176939565 -1.290239987258  0.695402929599
O    1.433266600052  0.841170149519  4.208663614609  0.142420346082  0.594279899604 -1.143145632738
Zn  -0.000418136828  1.659544490715  9.466064969574 -0.517512415635 -0.709082226858 -0.517940247201
Zn   1.467433260084  0.784080064157  7.071022503597  0.240149777015  1.053433415683 -0.095954598420
O   -0.012250644528  1.671719858851  6.526553072749  0.361665511734 -0.748640448767 -0.212202656983
O    1.433023716072  0.780493261749  8.863889127914  0.443518123535  0.631954017116  0.284017682042
Zn   2.909007903689  1.699412161166  4.716956270548  0.590849533766 -1.082137725597  0.071847935180
Zn   4.375505501758  0.908858915485  2.382968838587 -0.135011198102 -0.068775981123  0.062570880754
O    2.844785968383  1.718908746418  1.823081273824  3.029182727575  2.241557670015 -1.488074291334
O    4.446714027097  0.826474786576  4.205789585527 -1.847133990014  0.259767808356 -1.176915787210
Zn   2.938302181698  1.675747145766  9.416937126844 -1.239896501808 -0.174554507613  0.900508313415
Zn   4.408827066682  0.825958437582  7.092885002292 -0.942778277828  2.068474861852 -0.158439604329
O    2.886454391249  1.763639977440  6.512048841268  0.523652467094 -2.424243548485 -0.005787296106
O    4.345848956117  0.810526777441  8.872136597495  1.317189776374  0.324033817424  0.451503969954