# total energy = -49068.012853339074 eV

CRYSTAL
PRIMVEC
5.753120944853822 0.0 0.0
-2.876560472426911 4.982346566267031 0.0
0.0 0.0 4.803044798899717
PRIMCOORD
16 1
Zn  -0.094833870343  1.747796992422  4.761017099773  2.857847241121 -3.567482512269  2.685610068787
Zn   1.519896886498  0.799338048766  2.381865711118 -1.682332705133  0.042706537730  2.338191039670
O    0.013809216204  1.734118947376  1.847588902396  0.901690506649 -10.759479747130 -4.913240844309
O    1.487518321820  0.813958455023  4.353905550480 -3.444061590107  1.973384411204 -3.630249053973
Zn  -1.358824458156  4.185201607205  4.796598426881 -2.960261993344 -1.728795110361  1.280940307123
Zn   0.006452125140  3.129971067245  2.458133109547  0.603725104177  11.185525682022  4.424277443956
O   -1.383535263239  4.141472710216  1.807704240821 -0.455309459743 -1.237820850226  0.498756989404
O   -0.000387185040  3.316334790572  4.297469735259  2.249660244518  2.945389704218 -3.006501483928
Zn   2.821794212904  1.727266405019  4.826076267978  2.547455439960 -1.494973332446 -0.681680180696
Zn   4.257102962150  0.877280180703  2.331705975536  1.035842699185 -0.579359530848  2.311791980851
O    2.857607966098  1.736357486736  1.747326387129 -0.040722674530 -4.527018469171 -0.753572595961
O    4.341205535994  0.847443344858  4.264621715913 -2.924441126991 -2.084442183815 -2.303836987670
Zn   1.497803751445  4.097755894780  4.856428008147 -1.667190964396  2.275898609389  0.724511674039
Zn   2.865731372872  3.208696198943  2.384867689627  0.851859442059  6.425482734027  3.150239520380
O    1.468811473756  4.186467293813  1.843070401205 -1.133799158527 -0.863347388094  0.525767199444
O    2.842759736252  3.302481850649  4.225392334814  3.260038995103  1.994331702880 -2.651005334229