# total energy = -36794.888779550136 eV

CRYSTAL
PRIMVEC
8.629681152692129 0.0 0.0
-1.438283068675739 2.4911732067534005 0.0
0.0 0.0 4.433584989007108
PRIMCOORD
12 1
Zn   0.044511032417  1.513465713846  4.388789177112 -1.266539044096  2.598670786492  2.786555692664
Zn   1.493603639705  0.849076917518  2.260217913032 -0.761885486702  0.314214003120 -10.920475542221
O   -0.093992761179  1.637499258086  1.830110289541  5.386475778182  1.667348830130 -3.503662075379
O    1.395587721173  0.786087148848  3.777769780904  2.860328869892 -2.364974735522  12.069898266218
Zn   2.876320191439  1.708064160871  4.465360337979 -1.849073887349 -4.219093898604 -4.895629558985
Zn   4.453320206835  0.851781459591  2.253511787808 -6.643465745137 -3.469885750259  1.112769077329
O    2.844954752321  1.638934374061  1.628170572760  2.716264817559  0.597945778491  6.566031831229
O    4.244619134870  0.769112566021  3.990649344483 -0.361483220520  3.460485282881 -2.028881672940
Zn   5.707163689139  1.601609277140  4.450804654779 -3.849113953467  4.134334654679 -1.572855132525
Zn   7.152252987340  0.914521830475  2.171896578307 -2.399282250554 -3.695251169876  1.841811549359
O    5.705042513511  1.650894249171  1.707783696234  2.687074312038  5.015528069815  0.185392478768
O    7.093729078666  0.941436080054  3.988096684798  3.480699553045 -4.039322108457 -1.640955170627