# total energy = -24539.15776245567 eV

CRYSTAL
PRIMVEC
6.0088151385125865 0.0 0.0
-1.5022037846281466 2.6018950695727505 0.0
0.0 0.0 5.112984924772299
PRIMCOORD
8 1
Zn  -0.000000000000  1.734595310992  5.112188756766 -0.000002313993 -0.000001285552  0.927963581413
Zn   1.502203784628  0.867297955937  2.555695693499 -0.000011569964 -0.000006684868  0.927975408487
O   -0.000000000000  1.734595310992  1.943732121888 -0.000003856655 -0.000002313993 -0.927982864686
O    1.502203784628  0.867297955937  4.500225786037  0.000007970420  0.000004627986 -0.927972580274
Zn   3.004407569256  1.734595310992  5.112188756766  0.000000771331  0.000000514221  0.927985950010
Zn   4.506611353884  0.867297955937  2.555695693499  0.000004370875  0.000002571103  0.927970266281
O    3.004407569256  1.734595310992  1.943732121888 -0.000005656427 -0.000003085324 -0.927970009170
O    4.506611353884  0.867297955937  4.500225786037  0.000010284413  0.000005913537 -0.927970009170