# total energy = -98150.77600397587 eV

CRYSTAL
PRIMVEC
6.392356429000733 0.0 0.0
-3.1961782145003665 5.535940476425361 0.0
0.0 0.0 9.647146159598607
PRIMCOORD
32 1
Zn   0.236196930816  1.812582070283  4.848193879821 -4.491164435587  2.943730314238 -1.036727672893
Zn   1.485195618065  0.732688697714  2.391732119693  0.643368686710  1.744034553018 -0.005820206226
O    0.051643847590  1.985332306598  1.922789491297 -0.277588381477 -5.498460176372 -1.782750224421
O    1.556249855951  0.832559678382  4.401609157271  1.223119796570 -0.879079197007 -3.152766143456
Zn  -0.015863910950  1.836224839771  9.527725435263 -0.694910049123 -0.679308080920  0.885488700078
Zn   1.534399503205  1.107340872604  7.241519613972  4.008177050312 -4.817829005765  2.416198823804
O    0.212951765898  1.894273189267  6.699326973256 -6.449714867102  1.322853659528 -1.747597330669
O    1.692010082555  1.048960759809  9.131309843675 -3.426630282005 -2.334572469081 -0.538120064583
Zn  -1.699094091949  4.604398994154  4.799165784482 -0.071055006965 -2.489994626739  0.410789780064
Zn   0.153041322974  3.608430229906  2.333194754930 -1.617930941818  3.053941165467  1.989514741107
O   -1.577815748836  4.534295938904  1.734886174066  1.072311997755  0.599885418716  2.442968378588
O    0.002082629725  3.899118163865  4.241600165790 -0.704621877094 -1.740108992712  0.190327454176
Zn  -1.799030274653  4.583328508893  9.647989311412  3.134128473751  2.221820596597 -1.624592412999
Zn  -0.172300853659  3.534250768961  7.243659774904  0.291896570570  3.137688423188 -0.204014464745
O   -1.547037191866  4.724361790314  6.724980138841 -0.710977386998 -0.642084677792  0.438120092448
O    0.026032871557  3.705038551853  9.163242220981 -2.804775043886 -1.193585277446 -1.129920392297
Zn   3.116836925739  1.613021651868  4.865049245253  2.417701890712  1.238902770436 -2.864504341426
Zn   4.683404684202  0.893423860885  2.284313044553  0.256222257097  3.392735171919  0.226294873410
O    3.260618920425  2.001231375508  1.693899663115 -0.687879881749  0.191558498370  4.265972565433
O    4.758241279388  0.923698060933  4.123558272737  0.802651869986  0.755644390888  2.032829344734
Zn   3.168122801369  1.765430131555  9.655778397720  2.537967297964  0.470184834193 -2.237061581917
Zn   4.715930911420  1.012194482572  7.153998665924 -0.159835199124 -0.726817182244 -2.208442118408
O    3.005469292033  1.892866231617  6.588091661328  2.941043768544  1.543600092315  2.235332772151
O    4.712323065452  0.773016795953  8.915057064918  1.234680761935  0.292696954984  2.647079259702
Zn   1.671694534588  4.594329115071  4.811811143970 -0.619436858485  0.708311924351 -2.819503094125
Zn   3.166920399125  3.930371033682  2.377185673403  0.423596702021 -1.502231299560 -3.037101982422
O    1.517392638926  4.719305436379  1.943254620404  1.131810153121 -1.268950738861 -2.063164505383
O    3.071506169359  3.684278095878  4.054319464076  1.438240398531 -1.367059150400  4.304303599803
Zn   1.502827654803  4.423612287336  9.696870382553  2.550863694311  1.927769184468 -0.076712976582
Zn   3.127536451930  3.746319111200  7.442497217806 -0.981749773995  0.856787475488 -9.262234845040
O    1.640186609749  4.627572564680  6.520849824816 -0.208306407252  0.374589161774  4.681086683905
O    3.295794779383  3.647851892003  9.026904125356 -2.201205234340 -1.636653715039  6.624726773967