# total energy = -24539.183586058956 eV

CRYSTAL
PRIMVEC
6.775898248666088 0.0 0.0
-1.693974562166522 2.9340520283496487 0.0
0.0 0.0 5.33055849683612
PRIMCOORD
8 1
Zn  -0.000000000000  1.956033104524  5.329729126890 -0.000002313993 -0.000001285552 -0.047646655344
Zn   1.693974562167  0.978016891057  2.664448523293 -0.000004370875 -0.000002571103 -0.047643312910
O   -0.000000000000  1.956033104524  2.026444173585  0.000002571103  0.000001542662  0.047645369792
O    1.693974562167  0.978016891057  4.691724777182 -0.000001542662 -0.000000771331  0.047647940895
Zn   3.387949124333  1.956033104524  5.329729126890  0.000003856655  0.000002313993 -0.047651026219
Zn   5.081923686500  0.978016891057  2.664448523293  0.000003342434  0.000001799772 -0.047640998917
O    3.387949124333  1.956033104524  2.026444173585  0.000000000000  0.000000000000  0.047646141123
O    5.081923686500  0.978016891057  4.691724777182 -0.000001799772 -0.000001028441  0.047642284468