# total energy = -110416.82430583602 eV

CRYSTAL
PRIMVEC
10.355617489065997 0.0 0.0
-5.1778087445329986 8.96822363596838 0.0
0.0 0.0 5.874493266727403
PRIMCOORD
36 1
Zn   0.000000000000  1.992939621333  5.873578865703  0.000000000000  0.000007456199 -0.159807688321
Zn   1.725936593365  0.996469292885  2.936331196778  0.000007713309  0.000004627986 -0.159792261702
O    0.000000000000  1.992939621333  2.233224120617  0.000000000000 -0.000000257110  0.159799717901
O    1.725936593365  0.996469292885  5.170471789542  0.000001285552  0.000000771331  0.159798432349
Zn  -1.725936593365  4.982348535550  5.873578865703  0.000007713309  0.000004370875 -0.159806916990
Zn   0.000000000000  3.985879242665  2.936331196778  0.000000000000  0.000004113765 -0.159788919268
O   -1.725936593365  4.982348535550  2.233224120617 -0.000001542662 -0.000001028441  0.159798432349
O    0.000000000000  3.985879242665  5.170471789542  0.000000000000 -0.000000257110  0.159796375467
Zn  -3.451872151168  7.971758485330  5.873578865703  0.000006427758 -0.000003599544 -0.159807688321
Zn  -1.725936593365  6.975288156883  2.936331196778  0.000003599544 -0.000002056883 -0.159788919268
O   -3.451872151168  7.971758485330  2.233224120617 -0.000000257110  0.000000000000  0.159799717901
O   -1.725936593365  6.975288156883  5.170471789542 -0.000000257110  0.000000257110  0.159796375467
Zn   3.451872151168  1.992939621333  5.873578865703 -0.000001285552 -0.000000771331 -0.159796118356
Zn   5.177808744533  0.996469292885  2.936331196778  0.000000000000  0.000005913537 -0.159798946570
O    3.451872151168  1.992939621333  2.233224120617  0.000001028441  0.000000514221  0.159797918129
O    5.177808744533  0.996469292885  5.170471789542  0.000000000000  0.000000771331  0.159799975011
Zn   1.725936593365  4.982348535550  5.873578865703 -0.000007713309  0.000004370875 -0.159806916990
Zn   3.451872151168  3.985879242665  2.936331196778  0.000005142206 -0.000002828213 -0.159798946570
O    1.725936593365  4.982348535550  2.233224120617  0.000001542662 -0.000001028441  0.159798432349
O    3.451872151168  3.985879242665  5.170471789542  0.000000771331 -0.000000514221  0.159799975011
Zn  -0.000000000000  7.971758485330  5.873578865703  0.000000000000 -0.000008741751 -0.159806916990
Zn   1.725936593365  6.975288156883  2.936331196778 -0.000003599544 -0.000002056883 -0.159788919268
O   -0.000000000000  7.971758485330  2.233224120617  0.000000000000  0.000001799772  0.159798432349
O    1.725936593365  6.975288156883  5.170471789542  0.000000257110  0.000000257110  0.159796375467
Zn   6.903745337898  1.992939621333  5.873578865703  0.000001285552 -0.000000771331 -0.159796118356
Zn   8.629680895701  0.996469292885  2.936331196778 -0.000007713309  0.000004627986 -0.159792261702
O    6.903745337898  1.992939621333  2.233224120617 -0.000001028441  0.000000514221  0.159797918129
O    8.629680895701  0.996469292885  5.170471789542 -0.000001285552  0.000000771331  0.159798432349
Zn   5.177808744533  4.982348535550  5.873578865703  0.000000000000  0.000001542662 -0.159796118356
Zn   6.903745337898  3.985879242665  2.936331196778 -0.000005142206 -0.000002828213 -0.159798946570
O    5.177808744533  4.982348535550  2.233224120617  0.000000000000 -0.000001028441  0.159797918129
O    6.903745337898  3.985879242665  5.170471789542 -0.000000771331 -0.000000514221  0.159799975011
Zn   3.451872151168  7.971758485330  5.873578865703 -0.000006427758 -0.000003599544 -0.159807688321
Zn   5.177808744533  6.975288156883  2.936331196778  0.000000000000 -0.000008998861 -0.159792261702
O    3.451872151168  7.971758485330  2.233224120617  0.000000257110  0.000000000000  0.159799717901
O    5.177808744533  6.975288156883  5.170471789542  0.000000000000 -0.000001542662  0.159798432349