# total energy = -110421.68198303426 eV

CRYSTAL
PRIMVEC
10.355617489065997 0.0 0.0
-5.1778087445329986 8.96822363596838 0.0
0.0 0.0 5.43113821516802
PRIMCOORD
36 1
Zn  -0.071934261326  1.932305409811  5.434363990016  0.069871528180 -0.061160887780 -0.037818613510
Zn   1.709248515781  1.031968349638  2.692958652358 -0.060359989145 -0.583234183312  0.183328654261
O   -0.119319495833  1.856792247080  2.027020994051  1.191052483722  0.977077565330  0.046580418863
O    1.700908101456  0.925078701478  4.827946278788 -0.211318968826  0.485462072067 -0.224035645062
Zn  -1.824351204172  4.912928618151  5.501884687168  0.149170006101  0.563818497790 -0.450302750557
Zn   0.004133962502  4.044696043318  2.717375127274 -0.178456927991  0.084766700124  0.134649700998
O   -1.734887989122  5.024534214516  2.043417043221  0.089372060107 -0.652178828803  0.477694769417
O    0.027170033606  3.994302501931  4.789880064460 -0.432253606365 -0.507422378388 -0.223832527912
Zn  -3.563246817263  8.029291189414  5.476261782815  0.390439241432 -0.594476846106  0.124934787703
Zn  -1.737156904914  6.933480457956  2.732072855176 -0.090271689103  0.310587976332  0.287614655365
O   -3.462478374600  7.899745521311  2.139033566183 -0.379975880007  0.196640283768 -0.435021398918
O   -1.724764337465  6.896923057096  4.779115400080 -0.071755375466  0.259329949488  0.314085190852
Zn   3.412098295516  1.954579307468  5.442286037395  0.262880128733  0.158384325611 -0.004250290636
Zn   5.274832595912  1.027552714341  2.722531189222 -0.555712837964 -0.465623182964  0.307246056443
O    3.337823664638  1.952331102911  2.098572097530  0.449165551629  0.359281327772 -0.312341468688
O    5.284126762608  1.101907083474  4.718075248353 -0.884451517063 -0.585435304729  0.690831508178
Zn   1.627714597043  4.981201133133  5.364562985893  0.654972075277  0.321263196657  0.174203037810
Zn   3.467493600150  4.007615683775  2.766260890755 -0.258214090716 -0.355333913089 -0.032946115909
O    1.812554084729  5.051072555455  2.108479316782 -0.632242752001 -1.215697021744 -0.407145241333
O    3.423734902889  3.940490571210  4.779862040101 -0.014090930875  0.208223617730  0.105951818842
Zn  -0.003537478934  7.952491858992  5.498498400249 -0.043002214593 -0.178882702674 -0.261887168692
Zn   1.618610973708  6.851200934758  2.685432189567  0.302406468962  1.210273022515  0.450661933669
O   -0.025440645485  7.918813319794  2.182442243574  0.038531323306  0.267432523990 -0.750583174315
O    1.701692021700  6.995430868461  4.785433362311 -0.182155202778 -0.401324520886  0.095933515375
Zn   6.907682543667  1.955086732725  5.501676539257 -0.132989282576  0.102733311905 -0.049840577671
Zn   8.751537517818  0.989342556929  2.777071119852 -1.337766057863 -0.769701640312  0.243429219097
O    6.830900817795  1.974582218210  2.117900857573  0.663656747536  0.586416437695 -0.289566122664
O    8.569412237476  0.924596129703  4.863772573054  0.523160872170  0.450710270408 -0.546701635604
Zn   5.174641996705  5.011460247436  5.466406341651 -0.216387898709 -0.247777211653 -0.357790087939
Zn   6.746121448535  4.071541946096  2.679219854636  1.085990523684 -0.905838724489  0.453827732991
O    5.179163259301  4.924503091818  2.039303791955 -0.697590167058  0.537331250133  0.259021931329
O    6.841497721171  3.977977906521  4.931033344207  0.171889044965  0.125679379178 -0.634974034889
Zn   3.458758636798  7.920601734934  5.476582806957 -0.510082698829  0.055753857832 -0.337700259168
Zn   5.104534466304  6.896806038618  2.745544477968  0.034336311388  0.589726218795 -0.228031396485
O    3.409482466538  7.928802348424  1.977002326017  0.325472863863 -0.083150247567  1.066514160127
O    5.073241861375  6.960234195739  4.758055180793  0.486711885314 -0.243654961955  0.168259161522