# total energy = -36808.44511193738 eV

CRYSTAL
PRIMVEC
3.3240255759183532 0.0 0.0
-1.6620127879591766 2.878689249384692 0.0
0.0 0.0 16.650562657764876
PRIMCOORD
12 1
Zn  -0.025664801472  1.903012287472  5.571649899325 -0.115426848212  0.178504493399 -0.444505941370
Zn   1.741513175256  1.000324279155  2.765560027739 -0.421967393948 -0.164976377006 -0.184736847462
O   -0.008451002624  1.923194441159  2.007814492648  0.238888650914  0.175706104718  0.640880887292
O    1.595580807214  0.998938160490  4.841971106587  0.334949435895 -0.201773748340  0.044628694453
Zn   0.017399611877  1.846088349484  11.098896135397 -0.644775594360  0.561308072663  0.712617493705
Zn   1.735627987974  0.936408585771  8.395204533690 -0.108321604626  0.061623943459 -0.795911980159
O    0.072978981519  1.910045925591  7.579097419549 -0.143047952364 -0.000952593721  0.999883764592
O    1.585486738748  0.995604495240  10.439365916400  0.800062254882 -0.491865661601 -0.279797473313
Zn  -0.028184745261  1.917456508210  16.645868136444 -0.416858097746  0.212542042600  0.109725684063
Zn   1.722623735116  0.970604831286  13.920339681118 -0.339971571700  0.216965368479  0.299404706021
O   -0.012268313596  1.986008884870  13.258165864581  0.173629938916 -0.335664459684 -0.585857222758
O    1.543412885021  0.982940290199  16.005410178994  0.642838782349 -0.211416927857 -0.516331507953