# total energy = -73605.74615930625 eV

CRYSTAL
PRIMVEC
9.013222972357486 0.0 0.0
-1.5022068331339051 2.6018921415452976 0.0
0.0 0.0 10.225970149734131
PRIMCOORD
24 1
Zn   0.164141606194  1.877239830435  4.890965958678 -6.246308982475 -0.723263403455  1.755931561566
Zn   1.596837562443  1.028817040147  2.613506580667 -7.388143352601 -3.914892799635  1.804291440927
O   -0.114677939844  1.685239253356  1.877210988122  1.773838009533  1.026762334150  3.875111148862
O    1.394862051500  0.891112118253  4.670192469904  4.937258547379 -0.105298244419 -2.284816223593
Zn  -0.101192355633  1.628329763508  10.353385576283  7.071517140495  0.943673278838  0.521505853065
Zn   1.255825876573  0.538193964836  7.419629268862  9.776886651298 -3.736016781829  3.677902651295
O    0.208060337772  1.586008175042  7.245295510131 -6.163042521045  5.949055004248 -3.748630099718
O    1.645223247325  0.676435173497  9.634707229359 -5.773038824488 -1.834341723345 -2.186429104472
Zn   2.880223170899  1.963844284688  5.248822456961  0.531884110975 -3.072310926223  1.429404288296
Zn   4.276735543525  0.819057709845  2.693623317024  2.146792721027 -0.081513226184 -2.884256584352
O    2.895370793426  1.652532069834  1.927964446679  5.128197924108  3.646050539782 -3.765853919795
O    4.451293731508  0.867026983826  4.443123244884 -3.725895377124  2.017796875881 -0.051334902829
Zn   2.933090230243  1.590946519908  9.967055405308  3.679901169782  3.548425495637  1.811440650377
Zn   4.586842690467  0.886934489405  7.542961705405 -3.998495304248 -2.650135272919  3.358212455552
O    3.054778654915  1.697104260077  7.039340661246 -1.909663476006 -0.856202549519 -0.173205964004
O    4.533804379886  0.811639827338  9.577634600176 -0.234679240819 -0.413527490710 -1.193405300225
Zn   5.955076977340  1.445005314862  4.972199433361 -3.459903442235  4.581172843726  3.816652490504
Zn   7.513799422477  0.729103941936  2.580933694168  0.498976047393 -1.308221768547  0.904247211632
O    6.011931486527  1.499658795000  1.982220443684 -2.167225277850  0.942180239233 -0.435725366964
O    7.419166890524  1.033932945506  4.552873655729  8.482562466669 -2.802266418531 -2.144609597333
Zn   5.984812501248  1.557193802521  10.229495221239 -1.860639737809  2.002579544711  2.049784998752
Zn   7.692365790717  0.860849320801  7.667744369523 -3.996355889308 -1.727506730566  1.248310694014
O    5.959422252135  1.633284332176  7.057221092978  6.158107288527  3.191187937768 -2.054844415553
O    7.531062448436  1.145013708062  9.686838809709 -3.262530394066 -4.623386758090 -5.329683708894