# total energy = -73614.18123292207 eV

CRYSTAL
PRIMVEC
9.780305553333779 0.0 0.0
-1.630054185657481 2.8233297056086286 0.0
0.0 0.0 10.677541004491067
PRIMCOORD
24 1
Zn   0.054504664818  1.755457263462  5.257215468328 -1.525616768364  0.387671448879 -1.117353354266
Zn   1.907052977570  0.926861952739  2.847919349831 -0.780167572841 -1.501844862755 -6.878016430798
O   -0.078937824152  1.923697101560  2.072035973918  0.474413784673  0.091808951683 -0.680329837316
O    1.477993907036  0.950082354184  4.412096331373 -0.098158548050 -0.169126394618  7.989887421793
Zn  -0.118800393526  1.832076177167  10.690997726902  2.352763281057  1.236512158717  1.786889186290
Zn   1.751855176927  0.968082028525  8.094710968500 -1.051305056486 -0.589474764905  0.028218371416
O    0.002953652277  2.009900714707  7.061107738982  0.214869919402  0.002547191902  3.121308696278
O    1.757613820837  1.000322805781  10.215939923290 -1.982664808065 -0.874268662992 -1.828691981258
Zn   3.148396743254  1.865077862196  5.419984203499  0.506107773342  0.303691249212 -1.032069091075
Zn   5.006238157371  1.021457068051  2.785251063967 -0.786302996315 -0.567168388099 -0.959458823807
O    3.262869351573  1.865027004607  2.253081166077  2.324909492070  1.490271041875 -1.559034938813
O    4.952797589797  1.085432980767  4.720557388219 -3.399094795589 -2.149862361092  0.441014126167
Zn   3.382357300579  1.708596885465  10.610087215120  1.288515291257  1.439089119684  1.006472473553
Zn   4.812734811998  0.808466463864  7.842063181355  1.158374790983  3.881167639469  1.956209442087
O    3.322662227604  1.954503107992  7.513265935171 -0.368926564172 -3.348091565068 -1.928064090001
O    5.038103370894  1.009593557415  10.003445180594 -0.079885460773 -0.666069213632 -0.573684077730
Zn   6.382380940406  1.971456289638  5.269321530542  2.222170266627  1.208989013596 -0.598527619136
Zn   8.111617204680  1.138144915578  2.779623476152  0.178030896197 -0.329645250074 -1.627352749353
O    6.484636969057  1.792327059337  1.939339722262  0.545339465149  0.836082124620  0.308511553419
O    8.007111705750  0.995965679657  4.607872619756  0.633830922423  0.131848741214  1.342680207335
Zn   6.745207781732  1.880841758687  10.672594125942 -3.405153600188  0.781666783094  1.256062312935
Zn   8.147850302663  0.827133155043  7.934628883264 -0.133863714761  0.447860202554 -0.530917890407
O    6.512157770854  1.855217358137  7.097645004468  0.318563281228 -0.028824637541  3.025050193464
O    8.159789121652  0.973603011009  10.191901888301  1.393250978304 -2.014829308612 -2.948803100775