# total energy = -36805.29614175165 eV

CRYSTAL
PRIMVEC
3.4518726727477356 0.0 0.0
-1.7259363363738678 2.989408031416358 0.0
0.0 0.0 17.623484152623472
PRIMCOORD
12 1
Zn  -0.026020561394  1.915741352345  5.838128433497 -0.151830326542  0.242974905168  0.469373908256
Zn   1.753225115788  0.923459130091  3.028186023835 -0.077013281431  0.149229912805 -0.890014098752
O   -0.025526253228  2.019741443353  2.160817753552  0.056559384452 -0.140891311032  1.161128699579
O    1.656645170277  1.015143629778  5.244043887154  0.298173147607 -0.268909622756 -0.460285058581
Zn   0.058069473225  1.999631178349  11.741900439237 -0.128058420934  0.213274292780  0.067693803803
Zn   1.732368210725  1.062388030301  8.764532194516  0.052730240514 -0.114751419412  0.199257666786
O    0.019011879120  1.981397006142  8.132778397256 -0.096228163797  0.103940701950 -0.185008355956
O    1.747750790917  1.077022934871  11.101942576196  0.111396901117 -0.148032035842 -0.140985156298
Zn   0.090391428183  1.952541076534  17.705328053694 -0.214044338177  0.138777864234 -0.775071646375
Zn   1.707088421206  0.894171026025  14.684426171574 -0.076180758228  0.914436750571  0.261371662508
O    0.042410398032  2.116960675683  13.995812092087  0.040250105769 -1.000771052293 -0.176009752002
O    1.680246314116  0.971128456140  16.903551922752  0.184245252538 -0.089278729062  0.468548069921