# total energy = -110423.92420133691 eV

CRYSTAL
PRIMVEC
9.780305553333779 0.0 0.0
-1.630054185657481 2.8233297056086286 0.0
0.0 0.0 17.272489061854014
PRIMCOORD
36 1
Zn   0.001190263186  1.861397533216  5.672044194281 -0.021912483802  0.759906251489  0.390028122037
Zn   1.623277411940  0.937401210004  2.835450438281  0.513422561836  0.017892049789  0.240873028334
O    0.001541376155  1.826803614443  2.273073088659  0.322670361418  0.666092610671 -0.701401056164
O    1.567058259558  0.982986236157  5.080833525857  0.645766240408 -0.498990445571 -0.293227373566
Zn   0.035089780264  1.891206926512  11.567157597622  0.131165599104  0.357951553217 -0.561346382100
Zn   1.716553164032  0.972820586565  8.521970462811 -0.836487073368  0.046953228821  1.032990060227
O    0.053032728832  1.960039738966  8.010606208925 -0.714658692505 -0.983513293653 -0.555184733374
O    1.591609760588  0.955455654055  10.824500853766  0.252913247328 -0.104666010152  0.101347744412
Zn  -0.100856466927  1.858827268917  17.270903674324  0.835752252085  0.158851752165 -0.349206202925
Zn   1.598175279706  0.973113995732  14.416764050161  0.313049807609 -0.120640788313 -0.368736302538
O    0.004011881338  1.873876225072  13.573783866030 -0.288881952113  0.071793170683  1.027931671868
O    1.736937276867  0.862899732451  16.494957704456 -0.778379370592  0.070426886463  0.493650264305
Zn   3.224050340801  1.897260935650  5.764331157482  0.312526331005  0.085625705691  0.007732592758
Zn   4.895456636368  0.947144350396  2.923437001130 -0.062356193640  0.260346563678 -0.065470056678
O    3.212918397020  1.951321574596  2.184011670229  0.223564618963 -0.540951363384 -0.101689701132
O    4.900011324665  0.960643128121  5.016287421327  0.097475920161  0.195455776542  0.099690925534
Zn   3.189160078770  2.015960592028  11.526659308387  0.225037089743 -0.790348884249 -0.098629317039
Zn   4.976375950425  1.008277128288  8.539666947680 -2.749962724032 -1.575969252674  1.242966913203
O    3.211650869420  1.854906344420  7.873297565170  1.179750428446  0.792323491477 -0.490854446727
O    4.852127926706  0.965991977228  10.836524761413  0.261696135727  0.734534091272 -0.212179517054
Zn   3.315050215791  1.902869940884  17.238763634214 -0.656960823573  0.130156184003  0.224574034064
Zn   4.852693228367  0.962983555240  14.484178718310 -0.142053449661 -0.108437561379 -0.734245613498
O    3.224976535737  1.875242533757  13.686140994258  0.085601537321  0.321520821194  0.501565148277
O    4.843888997308  0.974194719495  16.557463637247  0.831662655396 -0.315322662803 -0.046159786386
Zn   6.649747109378  1.932637278867  5.730624312423 -1.291824043915 -0.093576070886  0.200579213811
Zn   8.202266944731  0.980322080925  2.854594408371 -0.815487331188 -0.733230541970 -0.024059869163
O    6.580278577064  1.796027926959  2.069673052097 -0.242323387627  0.385557487860  0.703654113864
O    8.157094647472  1.017829552722  4.997830028687  0.168382574474 -0.626054878022 -0.013620161887
Zn   6.632486826138  1.904636264067  11.525359505779 -1.204336602426 -0.147036504698  0.005163032258
Zn   8.214018959884  1.036015052867  8.709383611916 -0.282946560465 -0.242247282974  0.049738761986
O    6.398048011872  1.824287141824  7.947491941128  3.392317367655  1.953403854317 -1.067822080305
O    8.147266418421  0.944394128474  10.848902716122  0.391098729393 -0.023164868152 -0.550075951393
Zn   6.610717822037  1.776351908246  17.314846587175 -0.743463275441  0.228955708071  0.073912788129
Zn   8.151563884682  0.964512216998  14.305037751642 -0.235472940364  0.187306407962 -0.343499382348
O    6.436302699013  1.963303426929  13.618440741187  0.513095517514 -0.464579315081  0.596893425967
O    8.152902808512  0.849788254826  16.642849616850  0.370558443348 -0.056323614292 -0.415883392537