# total energy = -36806.916487006085 eV

CRYSTAL
PRIMVEC
3.3240255759183532 0.0 0.0
-1.6620127879591766 2.878689249384692 0.0
0.0 0.0 17.611169484923945
PRIMCOORD
12 1
Zn  -0.057105762187  1.871148843106  5.766120021229 -0.110395456436  0.469151764943  0.590663128787
Zn   1.642601808206  1.024072447480  2.853307654892 -0.151707170701 -0.286900402907  0.520408763346
O   -0.036184345212  1.923535818585  2.301533702600  0.136709411740  0.338883737953 -0.576560627947
O    1.588956689047  1.022509490654  5.221490397107  0.202226519607 -0.479152327799 -0.558431522446
Zn  -0.052921811194  1.892076243327  11.878731482453  0.135800269662  0.118791650920 -1.995927843722
Zn   1.665927492880  0.991359714580  8.827341819467 -0.020775027764 -0.163743533040  0.093984619178
O    0.001193325182  1.890152297324  8.195778954457 -0.037215175598  0.242396921178 -0.234951520643
O    1.653664165323  1.056536543267  10.960964696917 -0.109083936714 -0.202145529857  1.389557845723
Zn   0.019613745313  1.981342285363  17.553822730883 -0.496866457249  0.102294167485  0.084582094917
Zn   1.692989714704  1.023611405133  14.664059822695 -0.261351607903 -0.178127569676 -0.514481342118
O   -0.014767316024  1.908377597154  13.877946388533  0.149219628392  0.206966862505  1.256011405092
O    1.574739166853  1.023782592450  16.890418692480  0.563439517184 -0.168415741705 -0.054855000167