# total energy = -36805.925943380775 eV

CRYSTAL
PRIMVEC
2.9404842854302067 0.0 0.0
-1.4702421427151033 2.546532903289695 0.0
0.0 0.0 14.729344501268432
PRIMCOORD
12 1
Zn  -0.007583214924  1.757308685371  4.929398745301  0.994952902949 -1.180330469319 -0.072154924898
Zn   1.471842648312  0.805418052976  2.439619835156  0.628675603475  2.839712479193  1.970029892910
O    0.054155193133  1.759591383322  1.899875713562 -0.640122154749 -2.845292030163 -1.885957390639
O    1.535503250946  0.846128175762  4.323008253330 -1.033185721178  1.263663779431 -1.399001507635
Zn  -0.059954416241  1.747747112620  9.847293433932  1.185245390122 -2.253960157444  1.057635112469
Zn   1.510007487901  0.799487978317  7.345774640277 -0.062710491655  1.887899344856  1.021848441788
O    0.038382729475  1.729407018083  6.731046699163  0.108252699062 -1.953552206969  0.186876519513
O    1.541256308450  0.776035851850  9.203502922334 -1.224453170670  2.356377737881 -1.079046231155
Zn   0.034322508773  1.720596150970  14.754265987733  0.313557086262  0.572098221300  0.832847162623
Zn   1.465840531788  0.837655464342  12.277599873210  0.273059640369  0.966499018484  0.887202340335
O    0.014823863428  1.731812628277  11.707185030278 -0.222475756774 -1.081810424164 -1.221536511244
O    1.521276011779  0.909040719194  14.119518053410 -0.320796027213 -0.571305550196 -0.298742646957