
     Program PWSCF v.7.5 starts on 22Nov2025 at 17:53:38 

     This program is part of the open-source Quantum ESPRESSO suite
     for quantum simulation of materials; please cite
         "P. Giannozzi et al., J. Phys.:Condens. Matter 21 395502 (2009);
         "P. Giannozzi et al., J. Phys.:Condens. Matter 29 465901 (2017);
         "P. Giannozzi et al., J. Chem. Phys. 152 154105 (2020);
          URL http://www.quantum-espresso.org", 
     in publications or presentations arising from this work. More details at
     http://www.quantum-espresso.org/quote

     Parallel version (MPI), running on    16 processors

     MPI processes distributed on     1 nodes
     63739 MiB available memory on the printing compute node when the environment starts
 
     Waiting for input...
     Reading input from standard input

     Current dimensions of program PWSCF are:
     Max number of different atomic species (ntypx) = 10
     Max number of k-points (npk) =  40000
     Max angular momentum in pseudopotentials (lmaxx) =  4
scan_end: No INFO end statement, corrupted file?
scan_end: No INFO end statement, corrupted file?
     Message from routine setup:
     no reason to have ecutrho>4*ecutwfc
 
     R & G space division:  proc/nbgrp/npool/nimage =      16
     Subspace diagonalization in iterative solution of the eigenvalue problem:
     a serial algorithm will be used

 
     Parallelization info
     --------------------
     sticks:   dense  smooth     PW     G-vecs:    dense   smooth      PW
     Min          56      45     13                 2194     1571     249
     Max          58      46     14                 2197     1576     254
     Sum         913     721    211                35123    25169    4031
 
     Using Slab Decomposition
 


     bravais-lattice index     =            4
     lattice parameter (alat)  =       6.1003  a.u.
     unit-cell volume          =     317.5095 (a.u.)^3
     number of atoms/cell      =            4
     number of atomic types    =            2
     number of electrons       =        36.00
     number of Kohn-Sham states=           36
     kinetic-energy cutoff     =      70.0000  Ry
     charge density cutoff     =     350.0000  Ry
     scf convergence threshold =      1.0E-09
     mixing beta               =       0.1000
     number of iterations used =            8  local-TF  mixing
     Exchange-correlation= SLA  PW   PBE  PBE
                           (   1   4   3   4   0   0   0)

     celldm(1)=   6.100300  celldm(2)=   0.000000  celldm(3)=   1.615000
     celldm(4)=   0.000000  celldm(5)=   0.000000  celldm(6)=   0.000000

     crystal axes: (cart. coord. in units of alat)
               a(1) = (   1.000000   0.000000   0.000000 )  
               a(2) = (  -0.500000   0.866025   0.000000 )  
               a(3) = (   0.000000   0.000000   1.615000 )  

     reciprocal axes: (cart. coord. in units 2 pi/alat)
               b(1) = (  1.000000  0.577350  0.000000 )  
               b(2) = (  0.000000  1.154701  0.000000 )  
               b(3) = (  0.000000  0.000000  0.619195 )  


     PseudoPot. # 1 for Zn read from file:
     ../pseudos_PBE_Opium/Zn.upf
     MD5 check sum: 2d924c7d9f8796048ba68707c56a506a
     Pseudo is Norm-conserving, Zval = 12.0
     Generated by new atomic code, or converted to UPF format
     Using radial grid of 1163 points,  3 beta functions with: 
                l(1) =   0
                l(2) =   1
                l(3) =   2

     PseudoPot. # 2 for O  read from file:
     ../pseudos_PBE_Opium/O.upf
     MD5 check sum: 0a268a9e6805e8a522e3d83b0fddfbcb
     Pseudo is Norm-conserving, Zval =  6.0
     Generated by new atomic code, or converted to UPF format
     Using radial grid of 1130 points,  1 beta functions with: 
                l(1) =   1

     atomic species   valence    mass     pseudopotential
     Zn               12.00    65.38000     Zn( 1.00)
     O                 6.00    15.99900     O ( 1.00)

     12 Sym. Ops. (no inversion) found ( 6 have fractional translation)


                                    s                        frac. trans.

      isym =  1     identity                                     

 cryst.   s( 1) = (     1          0          0      )
                  (     0          1          0      )
                  (     0          0          1      )

 cart.    s( 1) = (  1.0000000  0.0000000  0.0000000 )
                  (  0.0000000  1.0000000  0.0000000 )
                  (  0.0000000  0.0000000  1.0000000 )


      isym =  2     180 deg rotation - cart. axis [0,0,1]        

 cryst.   s( 2) = (    -1          0          0      )    f =(  0.0000000 )
                  (     0         -1          0      )       (  0.0000000 )
                  (     0          0          1      )       (  0.5000000 )

 cart.    s( 2) = ( -1.0000000  0.0000000  0.0000000 )    f =(  0.0000000 )
                  (  0.0000000 -1.0000000  0.0000000 )       (  0.0000000 )
                  (  0.0000000  0.0000000  1.0000000 )       (  0.8075000 )


      isym =  3      60 deg rotation - cryst. axis [0,0,1]       

 cryst.   s( 3) = (     1          1          0      )    f =( -0.0000000 )
                  (    -1          0          0      )       (  0.0000000 )
                  (     0          0          1      )       (  0.5000000 )

 cart.    s( 3) = (  0.5000000 -0.8660254  0.0000000 )    f =( -0.0000000 )
                  (  0.8660254  0.5000000  0.0000000 )       (  0.0000000 )
                  (  0.0000000  0.0000000  1.0000000 )       (  0.8075000 )


      isym =  4      60 deg rotation - cryst. axis [0,0,-1]      

 cryst.   s( 4) = (     0         -1          0      )    f =(  0.0000000 )
                  (     1          1          0      )       (  0.0000000 )
                  (     0          0          1      )       (  0.5000000 )

 cart.    s( 4) = (  0.5000000  0.8660254  0.0000000 )    f =( -0.0000000 )
                  ( -0.8660254  0.5000000  0.0000000 )       (  0.0000000 )
                  (  0.0000000  0.0000000  1.0000000 )       (  0.8075000 )


      isym =  5     120 deg rotation - cryst. axis [0,0,1]       

 cryst.   s( 5) = (     0          1          0      )
                  (    -1         -1          0      )
                  (     0          0          1      )

 cart.    s( 5) = ( -0.5000000 -0.8660254  0.0000000 )
                  (  0.8660254 -0.5000000  0.0000000 )
                  (  0.0000000  0.0000000  1.0000000 )


      isym =  6     120 deg rotation - cryst. axis [0,0,-1]      

 cryst.   s( 6) = (    -1         -1          0      )
                  (     1          0          0      )
                  (     0          0          1      )

 cart.    s( 6) = ( -0.5000000  0.8660254  0.0000000 )
                  ( -0.8660254 -0.5000000  0.0000000 )
                  (  0.0000000  0.0000000  1.0000000 )


      isym =  7     inv. 180 deg rotation - cart. axis [0,1,0]   

 cryst.   s( 7) = (     1          0          0      )    f =( -0.0000000 )
                  (    -1         -1          0      )       (  0.0000000 )
                  (     0          0          1      )       (  0.5000000 )

 cart.    s( 7) = (  1.0000000  0.0000000  0.0000000 )    f =( -0.0000000 )
                  (  0.0000000 -1.0000000  0.0000000 )       (  0.0000000 )
                  (  0.0000000  0.0000000  1.0000000 )       (  0.8075000 )


      isym =  8     inv. 180 deg rotation - cart. axis [1,0,0]   

 cryst.   s( 8) = (    -1          0          0      )
                  (     1          1          0      )
                  (     0          0          1      )

 cart.    s( 8) = ( -1.0000000  0.0000000  0.0000000 )
                  (  0.0000000  1.0000000  0.0000000 )
                  (  0.0000000  0.0000000  1.0000000 )


      isym =  9     inv. 180 deg rotation - cryst. axis [1,-1,0] 

 cryst.   s( 9) = (     0          1          0      )    f =(  0.0000000 )
                  (     1          0          0      )       (  0.0000000 )
                  (     0          0          1      )       (  0.5000000 )

 cart.    s( 9) = ( -0.5000000  0.8660254  0.0000000 )    f =(  0.0000000 )
                  (  0.8660254  0.5000000  0.0000000 )       (  0.0000000 )
                  (  0.0000000  0.0000000  1.0000000 )       (  0.8075000 )


      isym = 10     inv. 180 deg rotation - cryst. axis [2,1,0]  

 cryst.   s(10) = (    -1         -1          0      )    f =(  0.0000000 )
                  (     0          1          0      )       (  0.0000000 )
                  (     0          0          1      )       (  0.5000000 )

 cart.    s(10) = ( -0.5000000 -0.8660254  0.0000000 )    f =( -0.0000000 )
                  ( -0.8660254  0.5000000  0.0000000 )       (  0.0000000 )
                  (  0.0000000  0.0000000  1.0000000 )       (  0.8075000 )


      isym = 11     inv. 180 deg rotation - cryst. axis [0,1,0]  

 cryst.   s(11) = (     1          1          0      )
                  (     0         -1          0      )
                  (     0          0          1      )

 cart.    s(11) = (  0.5000000  0.8660254  0.0000000 )
                  (  0.8660254 -0.5000000  0.0000000 )
                  (  0.0000000  0.0000000  1.0000000 )


      isym = 12     inv. 180 deg rotation - cryst. axis [1,1,0]  

 cryst.   s(12) = (     0         -1          0      )
                  (    -1          0          0      )
                  (     0          0          1      )

 cart.    s(12) = (  0.5000000 -0.8660254  0.0000000 )
                  ( -0.8660254 -0.5000000  0.0000000 )
                  (  0.0000000  0.0000000  1.0000000 )


     point group C_6v (6mm) 
     there are  6 classes
     the character table:

       E     2C6   2C3   C2    3s_v  3s_d 
A_1    1.00  1.00  1.00  1.00  1.00  1.00
A_2    1.00  1.00  1.00  1.00 -1.00 -1.00
B_1    1.00 -1.00  1.00 -1.00  1.00 -1.00
B_2    1.00 -1.00  1.00 -1.00 -1.00  1.00
E_1    2.00  1.00 -1.00 -2.00  0.00  0.00
E_2    2.00 -1.00 -1.00  2.00  0.00  0.00

     the symmetry operations in each class and the name of the first element:

     E        1
          identity                                               
     2C6      3    4
           60 deg rotation - cryst. axis [0,0,1]                 
     2C3      5    6
          120 deg rotation - cryst. axis [0,0,1]                 
     C2       2
          180 deg rotation - cart. axis [0,0,1]                  
     3s_v     8   12   11
          inv. 180 deg rotation - cart. axis [1,0,0]             
     3s_d     7    9   10
          inv. 180 deg rotation - cart. axis [0,1,0]             

   Cartesian axes

     site n.     atom                  positions (alat units)
         1        Zn     tau(   1) = (   0.5000000   0.2886751   0.8085882  )
         2        Zn     tau(   2) = (  -0.0000000   0.5773503   0.0010882  )
         3        O      tau(   3) = (   0.5000000   0.2886751   1.4206125  )
         4        O      tau(   4) = (  -0.0000000   0.5773503   0.6131125  )

   Crystallographic axes

     site n.     atom                  positions (cryst. coord.)
         1        Zn     tau(   1) = (  0.6666667  0.3333333  0.5006738  )
         2        Zn     tau(   2) = (  0.3333333  0.6666667  0.0006738  )
         3        O      tau(   3) = (  0.6666667  0.3333333  0.8796362  )
         4        O      tau(   4) = (  0.3333333  0.6666667  0.3796362  )

     number of k points=    60
                       cart. coord. in units 2pi/alat
        k(    1) = (   0.0000000   0.0000000   0.0000000), wk =   0.0027435
        k(    2) = (   0.0000000   0.0000000   0.0687994), wk =   0.0054870
        k(    3) = (   0.0000000   0.0000000   0.1375989), wk =   0.0054870
        k(    4) = (   0.0000000   0.0000000   0.2063983), wk =   0.0054870
        k(    5) = (   0.0000000   0.0000000   0.2751978), wk =   0.0054870
        k(    6) = (   0.0000000   0.1283001   0.0000000), wk =   0.0164609
        k(    7) = (   0.0000000   0.1283001   0.0687994), wk =   0.0329218
        k(    8) = (   0.0000000   0.1283001   0.1375989), wk =   0.0329218
        k(    9) = (   0.0000000   0.1283001   0.2063983), wk =   0.0329218
        k(   10) = (   0.0000000   0.1283001   0.2751978), wk =   0.0329218
        k(   11) = (   0.0000000   0.2566001   0.0000000), wk =   0.0164609
        k(   12) = (   0.0000000   0.2566001   0.0687994), wk =   0.0329218
        k(   13) = (   0.0000000   0.2566001   0.1375989), wk =   0.0329218
        k(   14) = (   0.0000000   0.2566001   0.2063983), wk =   0.0329218
        k(   15) = (   0.0000000   0.2566001   0.2751978), wk =   0.0329218
        k(   16) = (   0.0000000   0.3849002   0.0000000), wk =   0.0164609
        k(   17) = (   0.0000000   0.3849002   0.0687994), wk =   0.0329218
        k(   18) = (   0.0000000   0.3849002   0.1375989), wk =   0.0329218
        k(   19) = (   0.0000000   0.3849002   0.2063983), wk =   0.0329218
        k(   20) = (   0.0000000   0.3849002   0.2751978), wk =   0.0329218
        k(   21) = (   0.0000000   0.5132002   0.0000000), wk =   0.0164609
        k(   22) = (   0.0000000   0.5132002   0.0687994), wk =   0.0329218
        k(   23) = (   0.0000000   0.5132002   0.1375989), wk =   0.0329218
        k(   24) = (   0.0000000   0.5132002   0.2063983), wk =   0.0329218
        k(   25) = (   0.0000000   0.5132002   0.2751978), wk =   0.0329218
        k(   26) = (   0.1111111   0.1924501   0.0000000), wk =   0.0164609
        k(   27) = (   0.1111111   0.1924501   0.0687994), wk =   0.0329218
        k(   28) = (   0.1111111   0.1924501   0.1375989), wk =   0.0329218
        k(   29) = (   0.1111111   0.1924501   0.2063983), wk =   0.0329218
        k(   30) = (   0.1111111   0.1924501   0.2751978), wk =   0.0329218
        k(   31) = (   0.1111111   0.3207501   0.0000000), wk =   0.0329218
        k(   32) = (   0.1111111   0.3207501   0.0687994), wk =   0.0658436
        k(   33) = (   0.1111111   0.3207501   0.1375989), wk =   0.0658436
        k(   34) = (   0.1111111   0.3207501   0.2063983), wk =   0.0658436
        k(   35) = (   0.1111111   0.3207501   0.2751978), wk =   0.0658436
        k(   36) = (   0.1111111   0.4490502   0.0000000), wk =   0.0329218
        k(   37) = (   0.1111111   0.4490502   0.0687994), wk =   0.0658436
        k(   38) = (   0.1111111   0.4490502   0.1375989), wk =   0.0658436
        k(   39) = (   0.1111111   0.4490502   0.2063983), wk =   0.0658436
        k(   40) = (   0.1111111   0.4490502   0.2751978), wk =   0.0658436
        k(   41) = (   0.1111111   0.5773503   0.0000000), wk =   0.0164609
        k(   42) = (   0.1111111   0.5773503   0.0687994), wk =   0.0329218
        k(   43) = (   0.1111111   0.5773503   0.1375989), wk =   0.0329218
        k(   44) = (   0.1111111   0.5773503   0.2063983), wk =   0.0329218
        k(   45) = (   0.1111111   0.5773503   0.2751978), wk =   0.0329218
        k(   46) = (   0.2222222   0.3849002   0.0000000), wk =   0.0164609
        k(   47) = (   0.2222222   0.3849002   0.0687994), wk =   0.0329218
        k(   48) = (   0.2222222   0.3849002   0.1375989), wk =   0.0329218
        k(   49) = (   0.2222222   0.3849002   0.2063983), wk =   0.0329218
        k(   50) = (   0.2222222   0.3849002   0.2751978), wk =   0.0329218
        k(   51) = (   0.2222222   0.5132002   0.0000000), wk =   0.0329218
        k(   52) = (   0.2222222   0.5132002   0.0687994), wk =   0.0658436
        k(   53) = (   0.2222222   0.5132002   0.1375989), wk =   0.0658436
        k(   54) = (   0.2222222   0.5132002   0.2063983), wk =   0.0658436
        k(   55) = (   0.2222222   0.5132002   0.2751978), wk =   0.0658436
        k(   56) = (   0.3333333   0.5773503   0.0000000), wk =   0.0054870
        k(   57) = (   0.3333333   0.5773503   0.0687994), wk =   0.0109739
        k(   58) = (   0.3333333   0.5773503   0.1375989), wk =   0.0109739
        k(   59) = (   0.3333333   0.5773503   0.2063983), wk =   0.0109739
        k(   60) = (   0.3333333   0.5773503   0.2751978), wk =   0.0109739

                       cryst. coord.
        k(    1) = (   0.0000000   0.0000000   0.0000000), wk =   0.0027435
        k(    2) = (   0.0000000   0.0000000   0.1111111), wk =   0.0054870
        k(    3) = (   0.0000000   0.0000000   0.2222222), wk =   0.0054870
        k(    4) = (   0.0000000   0.0000000   0.3333333), wk =   0.0054870
        k(    5) = (   0.0000000   0.0000000   0.4444444), wk =   0.0054870
        k(    6) = (   0.0000000   0.1111111   0.0000000), wk =   0.0164609
        k(    7) = (   0.0000000   0.1111111   0.1111111), wk =   0.0329218
        k(    8) = (   0.0000000   0.1111111   0.2222222), wk =   0.0329218
        k(    9) = (   0.0000000   0.1111111   0.3333333), wk =   0.0329218
        k(   10) = (   0.0000000   0.1111111   0.4444444), wk =   0.0329218
        k(   11) = (   0.0000000   0.2222222   0.0000000), wk =   0.0164609
        k(   12) = (   0.0000000   0.2222222   0.1111111), wk =   0.0329218
        k(   13) = (   0.0000000   0.2222222   0.2222222), wk =   0.0329218
        k(   14) = (   0.0000000   0.2222222   0.3333333), wk =   0.0329218
        k(   15) = (   0.0000000   0.2222222   0.4444444), wk =   0.0329218
        k(   16) = (   0.0000000   0.3333333   0.0000000), wk =   0.0164609
        k(   17) = (   0.0000000   0.3333333   0.1111111), wk =   0.0329218
        k(   18) = (   0.0000000   0.3333333   0.2222222), wk =   0.0329218
        k(   19) = (   0.0000000   0.3333333   0.3333333), wk =   0.0329218
        k(   20) = (   0.0000000   0.3333333   0.4444444), wk =   0.0329218
        k(   21) = (   0.0000000   0.4444444   0.0000000), wk =   0.0164609
        k(   22) = (   0.0000000   0.4444444   0.1111111), wk =   0.0329218
        k(   23) = (   0.0000000   0.4444444   0.2222222), wk =   0.0329218
        k(   24) = (   0.0000000   0.4444444   0.3333333), wk =   0.0329218
        k(   25) = (   0.0000000   0.4444444   0.4444444), wk =   0.0329218
        k(   26) = (   0.1111111   0.1111111   0.0000000), wk =   0.0164609
        k(   27) = (   0.1111111   0.1111111   0.1111111), wk =   0.0329218
        k(   28) = (   0.1111111   0.1111111   0.2222222), wk =   0.0329218
        k(   29) = (   0.1111111   0.1111111   0.3333333), wk =   0.0329218
        k(   30) = (   0.1111111   0.1111111   0.4444444), wk =   0.0329218
        k(   31) = (   0.1111111   0.2222222   0.0000000), wk =   0.0329218
        k(   32) = (   0.1111111   0.2222222   0.1111111), wk =   0.0658436
        k(   33) = (   0.1111111   0.2222222   0.2222222), wk =   0.0658436
        k(   34) = (   0.1111111   0.2222222   0.3333333), wk =   0.0658436
        k(   35) = (   0.1111111   0.2222222   0.4444444), wk =   0.0658436
        k(   36) = (   0.1111111   0.3333333   0.0000000), wk =   0.0329218
        k(   37) = (   0.1111111   0.3333333   0.1111111), wk =   0.0658436
        k(   38) = (   0.1111111   0.3333333   0.2222222), wk =   0.0658436
        k(   39) = (   0.1111111   0.3333333   0.3333333), wk =   0.0658436
        k(   40) = (   0.1111111   0.3333333   0.4444444), wk =   0.0658436
        k(   41) = (   0.1111111   0.4444444   0.0000000), wk =   0.0164609
        k(   42) = (   0.1111111   0.4444444   0.1111111), wk =   0.0329218
        k(   43) = (   0.1111111   0.4444444   0.2222222), wk =   0.0329218
        k(   44) = (   0.1111111   0.4444444   0.3333333), wk =   0.0329218
        k(   45) = (   0.1111111   0.4444444   0.4444444), wk =   0.0329218
        k(   46) = (   0.2222222   0.2222222   0.0000000), wk =   0.0164609
        k(   47) = (   0.2222222   0.2222222   0.1111111), wk =   0.0329218
        k(   48) = (   0.2222222   0.2222222   0.2222222), wk =   0.0329218
        k(   49) = (   0.2222222   0.2222222   0.3333333), wk =   0.0329218
        k(   50) = (   0.2222222   0.2222222   0.4444444), wk =   0.0329218
        k(   51) = (   0.2222222   0.3333333   0.0000000), wk =   0.0329218
        k(   52) = (   0.2222222   0.3333333   0.1111111), wk =   0.0658436
        k(   53) = (   0.2222222   0.3333333   0.2222222), wk =   0.0658436
        k(   54) = (   0.2222222   0.3333333   0.3333333), wk =   0.0658436
        k(   55) = (   0.2222222   0.3333333   0.4444444), wk =   0.0658436
        k(   56) = (   0.3333333   0.3333333   0.0000000), wk =   0.0054870
        k(   57) = (   0.3333333   0.3333333   0.1111111), wk =   0.0109739
        k(   58) = (   0.3333333   0.3333333   0.2222222), wk =   0.0109739
        k(   59) = (   0.3333333   0.3333333   0.3333333), wk =   0.0109739
        k(   60) = (   0.3333333   0.3333333   0.4444444), wk =   0.0109739

     Dense  grid:    35123 G-vectors     FFT dimensions: (  40,  40,  60)

     Smooth grid:    25169 G-vectors     FFT dimensions: (  36,  36,  54)

     Dynamical RAM for                 wfc:       0.11 MB

     Dynamical RAM for     wfc (w. buffer):       6.57 MB

     Dynamical RAM for           str. fact:       0.07 MB

     Dynamical RAM for           local pot:       0.00 MB

     Dynamical RAM for          nlocal pot:       0.07 MB

     Dynamical RAM for                qrad:       0.86 MB

     Dynamical RAM for          rho,v,vnew:       0.25 MB

     Dynamical RAM for               rhoin:       0.08 MB

     Dynamical RAM for            rho*nmix:       0.54 MB

     Dynamical RAM for           G-vectors:       0.14 MB

     Dynamical RAM for          h,s,v(r/c):       0.24 MB

     Dynamical RAM for          <psi|beta>:       0.01 MB

     Dynamical RAM for                 psi:       0.22 MB

     Dynamical RAM for                hpsi:       0.22 MB

     Dynamical RAM for      wfcinit/wfcrot:       0.25 MB

     Estimated static dynamical RAM per process >       8.38 MB

     Estimated max dynamical RAM per process >       9.86 MB

     Estimated total dynamical RAM >     157.69 MB

     Initial potential from superposition of free atoms

     starting charge      35.0000, renormalised to      36.0000
     Starting wfcs are   26 randomized atomic wfcs +   10 random wfcs

     total cpu time spent up to now is        1.0 secs

     Self-consistent Calculation

     iteration #  1     ecut=    70.00 Ry     beta= 0.10
     Davidson diagonalization with overlap

---- Real-time Memory Report at c_bands before calling an iterative solver
           100 MiB given to the printing process from OS
             0 MiB allocation reported by mallinfo(arena+hblkhd)
         63487 MiB available memory on the node where the printing process lives
------------------
     ethr =  1.00E-02,  avg # of iterations =  6.2

     total cpu time spent up to now is        5.4 secs

     total energy              =    -270.79714688 Ry
     estimated scf accuracy    <       0.89789248 Ry

     iteration #  2     ecut=    70.00 Ry     beta= 0.10
     Davidson diagonalization with overlap

---- Real-time Memory Report at c_bands before calling an iterative solver
           104 MiB given to the printing process from OS
             0 MiB allocation reported by mallinfo(arena+hblkhd)
         63483 MiB available memory on the node where the printing process lives
------------------
     ethr =  2.49E-03,  avg # of iterations =  1.0

     total cpu time spent up to now is        7.6 secs

     total energy              =    -270.43042291 Ry
     estimated scf accuracy    <       0.71745692 Ry

     iteration #  3     ecut=    70.00 Ry     beta= 0.10
     Davidson diagonalization with overlap

---- Real-time Memory Report at c_bands before calling an iterative solver
           104 MiB given to the printing process from OS
             0 MiB allocation reported by mallinfo(arena+hblkhd)
         63487 MiB available memory on the node where the printing process lives
------------------
     ethr =  1.99E-03,  avg # of iterations =  1.5

     total cpu time spent up to now is       10.0 secs

     total energy              =    -270.56287702 Ry
     estimated scf accuracy    <       0.04007770 Ry

     iteration #  4     ecut=    70.00 Ry     beta= 0.10
     Davidson diagonalization with overlap

---- Real-time Memory Report at c_bands before calling an iterative solver
           105 MiB given to the printing process from OS
             0 MiB allocation reported by mallinfo(arena+hblkhd)
         63490 MiB available memory on the node where the printing process lives
------------------
     ethr =  1.11E-04,  avg # of iterations =  4.2

     total cpu time spent up to now is       12.9 secs

     total energy              =    -270.55104102 Ry
     estimated scf accuracy    <       0.02839548 Ry

     iteration #  5     ecut=    70.00 Ry     beta= 0.10
     Davidson diagonalization with overlap

---- Real-time Memory Report at c_bands before calling an iterative solver
           105 MiB given to the printing process from OS
             0 MiB allocation reported by mallinfo(arena+hblkhd)
         63498 MiB available memory on the node where the printing process lives
------------------
     ethr =  7.89E-05,  avg # of iterations =  1.4

     total cpu time spent up to now is       15.1 secs

     total energy              =    -270.55517004 Ry
     estimated scf accuracy    <       0.00112070 Ry

     iteration #  6     ecut=    70.00 Ry     beta= 0.10
     Davidson diagonalization with overlap

---- Real-time Memory Report at c_bands before calling an iterative solver
           105 MiB given to the printing process from OS
             0 MiB allocation reported by mallinfo(arena+hblkhd)
         63504 MiB available memory on the node where the printing process lives
------------------
     ethr =  3.11E-06,  avg # of iterations =  6.2

     total cpu time spent up to now is       18.7 secs

     total energy              =    -270.55514972 Ry
     estimated scf accuracy    <       0.00086477 Ry

     iteration #  7     ecut=    70.00 Ry     beta= 0.10
     Davidson diagonalization with overlap

---- Real-time Memory Report at c_bands before calling an iterative solver
           105 MiB given to the printing process from OS
             0 MiB allocation reported by mallinfo(arena+hblkhd)
         63514 MiB available memory on the node where the printing process lives
------------------
     ethr =  2.40E-06,  avg # of iterations =  1.0

     total cpu time spent up to now is       20.9 secs

     total energy              =    -270.55518428 Ry
     estimated scf accuracy    <       0.00000917 Ry

     iteration #  8     ecut=    70.00 Ry     beta= 0.10
     Davidson diagonalization with overlap

---- Real-time Memory Report at c_bands before calling an iterative solver
           105 MiB given to the printing process from OS
             0 MiB allocation reported by mallinfo(arena+hblkhd)
         63514 MiB available memory on the node where the printing process lives
------------------
     ethr =  2.55E-08,  avg # of iterations =  2.0

     total cpu time spent up to now is       23.7 secs

     total energy              =    -270.55518817 Ry
     estimated scf accuracy    <       0.00000934 Ry

     iteration #  9     ecut=    70.00 Ry     beta= 0.10
     Davidson diagonalization with overlap

---- Real-time Memory Report at c_bands before calling an iterative solver
           105 MiB given to the printing process from OS
             0 MiB allocation reported by mallinfo(arena+hblkhd)
         63519 MiB available memory on the node where the printing process lives
------------------
     ethr =  2.55E-08,  avg # of iterations =  1.2

     total cpu time spent up to now is       26.0 secs

     total energy              =    -270.55519087 Ry
     estimated scf accuracy    <       0.00000166 Ry

     iteration # 10     ecut=    70.00 Ry     beta= 0.10
     Davidson diagonalization with overlap

---- Real-time Memory Report at c_bands before calling an iterative solver
           105 MiB given to the printing process from OS
             0 MiB allocation reported by mallinfo(arena+hblkhd)
         63520 MiB available memory on the node where the printing process lives
------------------
     ethr =  4.62E-09,  avg # of iterations =  1.0

     total cpu time spent up to now is       28.2 secs

     total energy              =    -270.55519294 Ry
     estimated scf accuracy    <       0.00000010 Ry

     iteration # 11     ecut=    70.00 Ry     beta= 0.10
     Davidson diagonalization with overlap

---- Real-time Memory Report at c_bands before calling an iterative solver
           105 MiB given to the printing process from OS
             0 MiB allocation reported by mallinfo(arena+hblkhd)
         63524 MiB available memory on the node where the printing process lives
------------------
     ethr =  2.76E-10,  avg # of iterations =  2.0

     total cpu time spent up to now is       31.0 secs

     total energy              =    -270.55519395 Ry
     estimated scf accuracy    <       0.00000056 Ry

     iteration # 12     ecut=    70.00 Ry     beta= 0.10
     Davidson diagonalization with overlap

---- Real-time Memory Report at c_bands before calling an iterative solver
           105 MiB given to the printing process from OS
             0 MiB allocation reported by mallinfo(arena+hblkhd)
         63528 MiB available memory on the node where the printing process lives
------------------
     ethr =  2.76E-10,  avg # of iterations =  2.0

     total cpu time spent up to now is       33.8 secs

     total energy              =    -270.55519501 Ry
     estimated scf accuracy    <          1.3E-09 Ry

     iteration # 13     ecut=    70.00 Ry     beta= 0.10
     Davidson diagonalization with overlap

---- Real-time Memory Report at c_bands before calling an iterative solver
           105 MiB given to the printing process from OS
             0 MiB allocation reported by mallinfo(arena+hblkhd)
         63531 MiB available memory on the node where the printing process lives
------------------
     ethr =  3.48E-12,  avg # of iterations =  3.1

     total cpu time spent up to now is       36.7 secs

     total energy              =    -270.55519578 Ry
     estimated scf accuracy    <          1.1E-09 Ry

     iteration # 14     ecut=    70.00 Ry     beta= 0.10
     Davidson diagonalization with overlap

---- Real-time Memory Report at c_bands before calling an iterative solver
           105 MiB given to the printing process from OS
             0 MiB allocation reported by mallinfo(arena+hblkhd)
         63536 MiB available memory on the node where the printing process lives
------------------
     ethr =  3.04E-12,  avg # of iterations =  2.0

     total cpu time spent up to now is       39.6 secs

     total energy              =    -270.55519639 Ry
     estimated scf accuracy    <          4.3E-09 Ry

     iteration # 15     ecut=    70.00 Ry     beta= 0.10
     Davidson diagonalization with overlap

---- Real-time Memory Report at c_bands before calling an iterative solver
           105 MiB given to the printing process from OS
             0 MiB allocation reported by mallinfo(arena+hblkhd)
         63537 MiB available memory on the node where the printing process lives
------------------
     ethr =  3.04E-12,  avg # of iterations =  2.0

     total cpu time spent up to now is       42.4 secs

     End of self-consistent calculation

          k = 0.0000 0.0000 0.0000 (  3141 PWs)   bands (ev):

    -9.3747  -8.6425   2.8815   2.8815   2.9292   3.0097   3.0778   3.0778
     4.0708   4.0708   4.2840   4.2840   4.5732   7.8336   7.8336   8.5233
     8.6105   8.6105   9.5099  13.9851  16.8873  21.7015  21.7015  22.7289
    22.9560  22.9560  25.1809  26.7849  26.7849  28.4549  28.4549  28.6018
    29.8544  31.8507  33.6077  33.6077

     occupation numbers 
     1.0000   1.0000   1.0000   1.0000   1.0000   1.0000   1.0000   1.0000
     1.0000   1.0000   1.0000   1.0000   1.0000   1.0000   1.0000   1.0000
     1.0000   1.0000   0.0000   0.0000   0.0000   0.0000   0.0000   0.0000
     0.0000   0.0000   0.0000   0.0000   0.0000   0.0000   0.0000   0.0000
     0.0000   0.0000   0.0000   0.0000

          k = 0.0000 0.0000 0.0688 (  3135 PWs)   bands (ev):

    -9.3537  -8.6657   2.8847   2.8847   2.9067   2.9463   3.0688   3.0688
     4.0796   4.0796   4.2804   4.2804   4.7228   7.8576   7.8576   8.2345
     8.5877   8.5877   9.8392  13.8707  16.9891  21.6997  21.6997  22.2664
    22.8609  22.8609  25.3735  26.9207  26.9207  28.5221  28.6200  28.6200
    30.3427  31.7826  33.4055  33.4055

     occupation numbers 
     1.0000   1.0000   1.0000   1.0000   1.0000   1.0000   1.0000   1.0000
     1.0000   1.0000   1.0000   1.0000   1.0000   1.0000   1.0000   1.0000
     1.0000   1.0000   0.0000   0.0000   0.0000   0.0000   0.0000   0.0000
     0.0000   0.0000   0.0000   0.0000   0.0000   0.0000   0.0000   0.0000
     0.0000   0.0000   0.0000   0.0000

          k = 0.0000 0.0000 0.1376 (  3146 PWs)   bands (ev):

    -9.2930  -8.7323   2.8227   2.8472   2.8946   2.8946   3.0440   3.0440
     4.1042   4.1042   4.2686   4.2686   5.0967   7.7324   7.9265   7.9265
     8.5219   8.5219  10.4515  13.5502  17.2842  21.2859  21.7083  21.7083
    22.6228  22.6228  25.7362  27.3048  27.3048  28.2419  29.0083  29.0083
    31.5814  31.8040  32.9692  32.9692

     occupation numbers 
     1.0000   1.0000   1.0000   1.0000   1.0000   1.0000   1.0000   1.0000
     1.0000   1.0000   1.0000   1.0000   1.0000   1.0000   1.0000   1.0000
     1.0000   1.0000   0.0000   0.0000   0.0000   0.0000   0.0000   0.0000
     0.0000   0.0000   0.0000   0.0000   0.0000   0.0000   0.0000   0.0000
     0.0000   0.0000   0.0000   0.0000

          k = 0.0000 0.0000 0.2064 (  3110 PWs)   bands (ev):

    -9.1989  -8.8330   2.7255   2.7722   2.9125   2.9125   3.0095   3.0095
     4.1397   4.1397   4.2475   4.2475   5.5843   7.2020   8.0316   8.0316
     8.4204   8.4204  11.1315  13.0712  17.7593  20.2182  21.7580  21.7580
    22.3350  22.3350  26.1545  27.7618  27.8755  27.8755  29.2952  29.2952
    32.1500  32.7253  32.7253  33.0238

     occupation numbers 
     1.0000   1.0000   1.0000   1.0000   1.0000   1.0000   1.0000   1.0000
     1.0000   1.0000   1.0000   1.0000   1.0000   1.0000   1.0000   1.0000
     1.0000   1.0000   0.0000   0.0000   0.0000   0.0000   0.0000   0.0000
     0.0000   0.0000   0.0000   0.0000   0.0000   0.0000   0.0000   0.0000
     0.0000   0.0000   0.0000   0.0000

          k = 0.0000 0.0000 0.2752 (  3134 PWs)   bands (ev):

    -9.0817  -8.9546   2.6883   2.7102   2.9389   2.9389   2.9724   2.9724
     4.1794   4.1794   4.2170   4.2170   6.1182   6.6626   8.1596   8.1596
     8.2946   8.2946  11.8212  12.4808  18.4113  19.2380  21.8759  21.8759
    22.0723  22.0723  26.6416  27.1935  28.5339  28.5339  29.1064  29.1064
    32.7764  33.1054  33.1054  33.4098

     occupation numbers 
     1.0000   1.0000   1.0000   1.0000   1.0000   1.0000   1.0000   1.0000
     1.0000   1.0000   1.0000   1.0000   1.0000   1.0000   1.0000   1.0000
     1.0000   1.0000   0.0000   0.0000   0.0000   0.0000   0.0000   0.0000
     0.0000   0.0000   0.0000   0.0000   0.0000   0.0000   0.0000   0.0000
     0.0000   0.0000   0.0000   0.0000

          k = 0.0000 0.1283 0.0000 (  3134 PWs)   bands (ev):

    -9.3056  -8.6117   2.8089   2.9213   2.9698   3.0560   3.1264   3.1344
     4.0421   4.0672   4.2899   4.3403   4.5575   7.3962   7.6725   7.9433
     8.4435   8.5246  10.3408  14.4856  16.8799  20.4798  21.8160  22.0605
    22.9369  23.1034  24.4972  26.0839  27.0505  28.7833  29.8942  30.0057
    30.6980  32.3250  33.5182  33.7024

     occupation numbers 
     1.0000   1.0000   1.0000   1.0000   1.0000   1.0000   1.0000   1.0000
     1.0000   1.0000   1.0000   1.0000   1.0000   1.0000   1.0000   1.0000
     1.0000   1.0000   0.0000   0.0000   0.0000   0.0000   0.0000   0.0000
     0.0000   0.0000   0.0000   0.0000   0.0000   0.0000   0.0000   0.0000
     0.0000   0.0000   0.0000   0.0000

          k = 0.0000 0.1283 0.0688 (  3137 PWs)   bands (ev):

    -9.2856  -8.6335   2.7970   2.9250   2.9525   2.9974   3.1116   3.1248
     4.0534   4.0759   4.2855   4.3178   4.7319   7.4202   7.6990   7.8189
     8.4137   8.4997  10.5136  14.3503  16.9895  20.5032  21.8146  21.9608
    22.4009  22.9919  24.9071  26.2882  27.1703  28.7559  29.9175  29.9823
    31.0459  32.3568  33.4846  33.5625

     occupation numbers 
     1.0000   1.0000   1.0000   1.0000   1.0000   1.0000   1.0000   1.0000
     1.0000   1.0000   1.0000   1.0000   1.0000   1.0000   1.0000   1.0000
     1.0000   1.0000   0.0000   0.0000   0.0000   0.0000   0.0000   0.0000
     0.0000   0.0000   0.0000   0.0000   0.0000   0.0000   0.0000   0.0000
     0.0000   0.0000   0.0000   0.0000

          k = 0.0000 0.1283 0.1376 (  3123 PWs)   bands (ev):

    -9.2276  -8.6960   2.7583   2.8359   2.9365   2.9622   3.0838   3.0985
     4.0840   4.1004   4.2718   4.2908   5.1270   7.4281   7.5814   7.7750
     8.3199   8.4277  10.9549  13.9852  17.2948  20.5361  21.3247  21.8233
    21.8797  22.7300  25.5420  26.8276  27.4409  28.6357  29.8381  30.1260
    31.7987  32.4569  33.0688  33.6264

     occupation numbers 
     1.0000   1.0000   1.0000   1.0000   1.0000   1.0000   1.0000   1.0000
     1.0000   1.0000   1.0000   1.0000   1.0000   1.0000   1.0000   1.0000
     1.0000   1.0000   0.0000   0.0000   0.0000   0.0000   0.0000   0.0000
     0.0000   0.0000   0.0000   0.0000   0.0000   0.0000   0.0000   0.0000
     0.0000   0.0000   0.0000   0.0000

          k = 0.0000 0.1283 0.2064 (  3118 PWs)   bands (ev):

    -9.1379  -8.7909   2.6998   2.7218   2.9567   2.9640   3.0487   3.0618
     4.1272   4.1359   4.2482   4.2601   5.6168   7.0790   7.6562   7.8906
     8.1722   8.3167  11.5427  13.4646  17.7663  20.0725  20.9140  21.6024
    21.8709  22.4334  26.1368  27.5447  27.5795  28.6237  29.8838  29.9580
    31.9304  32.6594  33.0025  34.0213

     occupation numbers 
     1.0000   1.0000   1.0000   1.0000   1.0000   1.0000   1.0000   1.0000
     1.0000   1.0000   1.0000   1.0000   1.0000   1.0000   1.0000   1.0000
     1.0000   1.0000   0.0000   0.0000   0.0000   0.0000   0.0000   0.0000
     0.0000   0.0000   0.0000   0.0000   0.0000   0.0000   0.0000   0.0000
     0.0000   0.0000   0.0000   0.0000

          k = 0.0000 0.1283 0.2752 (  3118 PWs)   bands (ev):

    -9.0263  -8.9058   2.6559   2.6638   2.9826   2.9858   3.0127   3.0221
     4.1753   4.1764   4.2154   4.2212   6.1306   6.6263   7.8148   7.9950
     8.0312   8.1791  12.1937  12.8506  18.3973  19.1837  21.0733  21.3236
    21.9836  22.1736  26.6864  27.1946  28.4442  29.0955  29.3079  29.6688
    31.9233  32.3404  33.5454  34.4371

     occupation numbers 
     1.0000   1.0000   1.0000   1.0000   1.0000   1.0000   1.0000   1.0000
     1.0000   1.0000   1.0000   1.0000   1.0000   1.0000   1.0000   1.0000
     1.0000   1.0000   0.0000   0.0000   0.0000   0.0000   0.0000   0.0000
     0.0000   0.0000   0.0000   0.0000   0.0000   0.0000   0.0000   0.0000
     0.0000   0.0000   0.0000   0.0000

          k = 0.0000 0.2566 0.0000 (  3148 PWs)   bands (ev):

    -9.1215  -8.5378   2.6684   2.9855   3.0144   3.1288   3.2912   3.4032
     3.9734   4.0805   4.3019   4.4723   4.5556   6.4059   7.1265   7.2640
     8.1962   8.2951  11.6167  15.5454  16.8442  18.7502  20.6691  22.0991
    22.1704  23.0362  24.0557  26.2135  26.9589  29.6211  31.5008  32.3329
    32.3566  32.8156  34.0347  35.3226

     occupation numbers 
     1.0000   1.0000   1.0000   1.0000   1.0000   1.0000   1.0000   1.0000
     1.0000   1.0000   1.0000   1.0000   1.0000   1.0000   1.0000   1.0000
     1.0000   1.0000   0.0000   0.0000   0.0000   0.0000   0.0000   0.0000
     0.0000   0.0000   0.0000   0.0000   0.0000   0.0000   0.0000   0.0000
     0.0000   0.0000   0.0000   0.0000

          k = 0.0000 0.2566 0.0688 (  3144 PWs)   bands (ev):

    -9.1042  -8.5556   2.6551   2.9447   3.0202   3.1150   3.2797   3.3361
     3.9942   4.0881   4.2961   4.3951   4.7948   6.4396   7.0720   7.2969
     8.1742   8.2653  11.7071  15.3367  16.9865  18.7839  20.6236  21.9922
    22.0958  22.9577  24.0283  26.4123  27.1340  29.7167  31.1669  32.3159
    32.4399  33.1089  33.8001  35.1718

     occupation numbers 
     1.0000   1.0000   1.0000   1.0000   1.0000   1.0000   1.0000   1.0000
     1.0000   1.0000   1.0000   1.0000   1.0000   1.0000   1.0000   1.0000
     1.0000   1.0000   0.0000   0.0000   0.0000   0.0000   0.0000   0.0000
     0.0000   0.0000   0.0000   0.0000   0.0000   0.0000   0.0000   0.0000
     0.0000   0.0000   0.0000   0.0000

          k = 0.0000 0.2566 0.1376 (  3125 PWs)   bands (ev):

    -9.0542  -8.6068   2.6199   2.8242   3.0375   3.0926   3.2409   3.2479
     4.0430   4.1095   4.2789   4.3437   5.2076   6.5241   6.9553   7.3907
     8.0768   8.1792  11.9776  14.8528  17.3022  18.8595  20.4549  21.5298
    22.0971  22.7689  24.1838  26.9559  27.2642  29.9847  30.8844  31.8738
    32.5577  33.1332  33.6524  35.3882

     occupation numbers 
     1.0000   1.0000   1.0000   1.0000   1.0000   1.0000   1.0000   1.0000
     1.0000   1.0000   1.0000   1.0000   1.0000   1.0000   1.0000   1.0000
     1.0000   1.0000   0.0000   0.0000   0.0000   0.0000   0.0000   0.0000
     0.0000   0.0000   0.0000   0.0000   0.0000   0.0000   0.0000   0.0000
     0.0000   0.0000   0.0000   0.0000

          k = 0.0000 0.2566 0.2064 (  3122 PWs)   bands (ev):

    -8.9773  -8.6851   2.5799   2.6866   3.0664   3.0858   3.1763   3.2028
     4.1059   4.1413   4.2518   4.2950   5.6481   6.5249   6.9608   7.5324
     7.8653   8.0462  12.4130  14.2485  17.7021  18.8645  20.2319  20.9961
    22.1281  22.5497  24.6752  26.9147  27.7496  30.3435  30.9091  30.9715
    32.4873  32.8100  34.0090  35.8288

     occupation numbers 
     1.0000   1.0000   1.0000   1.0000   1.0000   1.0000   1.0000   1.0000
     1.0000   1.0000   1.0000   1.0000   1.0000   1.0000   1.0000   1.0000
     1.0000   1.0000   0.0000   0.0000   0.0000   0.0000   0.0000   0.0000
     0.0000   0.0000   0.0000   0.0000   0.0000   0.0000   0.0000   0.0000
     0.0000   0.0000   0.0000   0.0000

          k = 0.0000 0.2566 0.2752 (  3126 PWs)   bands (ev):

    -8.8824  -8.7809   2.5628   2.5945   3.0991   3.1058   3.1301   3.1530
     4.1735   4.1789   4.2173   4.2381   6.0308   6.3278   7.2142   7.5546
     7.7029   7.8812  12.9727  13.6028  18.1607  18.6093  20.2415  20.5397
    22.2111  22.3545  25.4021  26.2095  28.7177  29.7976  30.7024  30.9946
    32.3929  32.6247  34.5979  35.2397

     occupation numbers 
     1.0000   1.0000   1.0000   1.0000   1.0000   1.0000   1.0000   1.0000
     1.0000   1.0000   1.0000   1.0000   1.0000   1.0000   1.0000   1.0000
     1.0000   1.0000   0.0000   0.0000   0.0000   0.0000   0.0000   0.0000
     0.0000   0.0000   0.0000   0.0000   0.0000   0.0000   0.0000   0.0000
     0.0000   0.0000   0.0000   0.0000

          k = 0.0000 0.3849 0.0000 (  3146 PWs)   bands (ev):

    -8.8879  -8.4687   2.5959   2.9473   3.0992   3.3098   3.5024   3.6391
     3.9842   4.1448   4.3157   4.4806   4.7571   5.4682   6.3712   6.7793
     7.7988   8.0140  12.9695  16.2509  16.6636  17.5482  19.7672  21.1260
    22.1747  22.8716  24.5251  26.8963  27.5596  28.4189  31.9492  33.1571
    34.3194  34.5799  34.9160  36.6054

     occupation numbers 
     1.0000   1.0000   1.0000   1.0000   1.0000   1.0000   1.0000   1.0000
     1.0000   1.0000   1.0000   1.0000   1.0000   1.0000   1.0000   1.0000
     1.0000   1.0000   0.0000   0.0000   0.0000   0.0000   0.0000   0.0000
     0.0000   0.0000   0.0000   0.0000   0.0000   0.0000   0.0000   0.0000
     0.0000   0.0000   0.0000   0.0000

          k = 0.0000 0.3849 0.0688 (  3138 PWs)   bands (ev):

    -8.8748  -8.4808   2.5813   2.9043   3.1086   3.2964   3.4867   3.5638
     4.0019   4.1493   4.3091   4.4514   4.9027   5.5359   6.3470   6.8206
     7.8113   7.9792  12.9981  15.9305  16.9032  17.5715  19.7526  21.1817
    22.1811  22.8381  24.1534  27.0755  27.7051  28.7354  31.2504  33.5649
    34.1813  34.6703  34.8437  36.2540

     occupation numbers 
     1.0000   1.0000   1.0000   1.0000   1.0000   1.0000   1.0000   1.0000
     1.0000   1.0000   1.0000   1.0000   1.0000   1.0000   1.0000   1.0000
     1.0000   1.0000   0.0000   0.0000   0.0000   0.0000   0.0000   0.0000
     0.0000   0.0000   0.0000   0.0000   0.0000   0.0000   0.0000   0.0000
     0.0000   0.0000   0.0000   0.0000

          k = 0.0000 0.3849 0.1376 (  3137 PWs)   bands (ev):

    -8.8372  -8.5157   2.5450   2.7876   3.1362   3.2700   3.4418   3.4429
     4.0538   4.1624   4.2910   4.4031   5.1431   5.7027   6.3527   6.9373
     7.8021   7.8783  13.1075  15.4027  17.2025  17.6390  19.7029  21.2459
    22.2061  22.7459  23.6450  27.0644  28.1293  29.5126  30.5001  33.1074
    33.7327  34.9484  35.0552  36.0384

     occupation numbers 
     1.0000   1.0000   1.0000   1.0000   1.0000   1.0000   1.0000   1.0000
     1.0000   1.0000   1.0000   1.0000   1.0000   1.0000   1.0000   1.0000
     1.0000   1.0000   0.0000   0.0000   0.0000   0.0000   0.0000   0.0000
     0.0000   0.0000   0.0000   0.0000   0.0000   0.0000   0.0000   0.0000
     0.0000   0.0000   0.0000   0.0000

          k = 0.0000 0.3849 0.2064 (  3144 PWs)   bands (ev):

    -8.7800  -8.5699   2.5083   2.6487   3.1810   3.2555   3.3541   3.3799
     4.1250   4.1828   4.2656   4.3445   5.3390   5.7544   6.5980   7.1106
     7.6846   7.7223  13.3454  14.8222  17.4384  17.7160  19.7148  20.9737
    22.2613  22.6165  23.7550  26.4547  28.8010  30.2182  30.3826  31.8952
    33.8029  34.8737  35.1410  35.8431

     occupation numbers 
     1.0000   1.0000   1.0000   1.0000   1.0000   1.0000   1.0000   1.0000
     1.0000   1.0000   1.0000   1.0000   1.0000   1.0000   1.0000   1.0000
     1.0000   1.0000   0.0000   0.0000   0.0000   0.0000   0.0000   0.0000
     0.0000   0.0000   0.0000   0.0000   0.0000   0.0000   0.0000   0.0000
     0.0000   0.0000   0.0000   0.0000

          k = 0.0000 0.3849 0.2752 (  3154 PWs)   bands (ev):

    -8.7105  -8.6375   2.5005   2.5452   3.2402   3.2644   3.2972   3.3090
     4.2020   4.2085   4.2370   4.2766   5.5051   5.6529   7.0193   7.3159
     7.4144   7.5278  13.7339  14.2456  17.6119  17.7165  19.9500  20.4271
    22.3533  22.4773  24.4867  25.4785  29.6813  30.4961  30.6144  30.7286
    34.0670  34.5090  35.3743  35.6174

     occupation numbers 
     1.0000   1.0000   1.0000   1.0000   1.0000   1.0000   1.0000   1.0000
     1.0000   1.0000   1.0000   1.0000   1.0000   1.0000   1.0000   1.0000
     1.0000   1.0000   0.0000   0.0000   0.0000   0.0000   0.0000   0.0000
     0.0000   0.0000   0.0000   0.0000   0.0000   0.0000   0.0000   0.0000
     0.0000   0.0000   0.0000   0.0000

          k = 0.0000 0.5132 0.0000 (  3148 PWs)   bands (ev):

    -8.7046  -8.4486   2.6473   2.9029   3.1389   3.5040   3.5795   3.6649
     4.0998   4.2276   4.3289   4.4812   4.7780   5.1779   5.8644   6.4328
     7.4080   7.8174  14.2036  15.8343  16.2689  17.3137  19.3547  21.0833
    21.9560  23.0279  24.5978  27.0949  27.7407  29.0324  31.5968  33.0819
    34.0173  34.6070  35.6782  35.9913

     occupation numbers 
     1.0000   1.0000   1.0000   1.0000   1.0000   1.0000   1.0000   1.0000
     1.0000   1.0000   1.0000   1.0000   1.0000   1.0000   1.0000   1.0000
     1.0000   1.0000   0.0000   0.0000   0.0000   0.0000   0.0000   0.0000
     0.0000   0.0000   0.0000   0.0000   0.0000   0.0000   0.0000   0.0000
     0.0000   0.0000   0.0000   0.0000

          k = 0.0000 0.5132 0.0688 (  3134 PWs)   bands (ev):

    -8.6959  -8.4552   2.6274   2.8562   3.1510   3.4866   3.5571   3.6444
     4.1242   4.2292   4.3221   4.4728   4.7710   5.1981   5.9644   6.4817
     7.4480   7.7793  14.1496  15.6654  16.4373  17.3333  19.3168  21.1661
    21.9837  22.9909  24.1524  27.1967  28.2845  29.1553  30.7514  33.3460
    34.4864  34.5304  35.2958  35.9616

     occupation numbers 
     1.0000   1.0000   1.0000   1.0000   1.0000   1.0000   1.0000   1.0000
     1.0000   1.0000   1.0000   1.0000   1.0000   1.0000   1.0000   1.0000
     1.0000   1.0000   0.0000   0.0000   0.0000   0.0000   0.0000   0.0000
     0.0000   0.0000   0.0000   0.0000   0.0000   0.0000   0.0000   0.0000
     0.0000   0.0000   0.0000   0.0000

          k = 0.0000 0.5132 0.1376 (  3147 PWs)   bands (ev):

    -8.6713  -8.4747   2.5774   2.7407   3.1871   3.4523   3.5137   3.5871
     4.1787   4.2340   4.3055   4.4446   4.7902   5.1827   6.2637   6.6181
     7.5204   7.6689  14.0561  15.3464  16.7113  17.3701  19.2762  21.2712
    22.0650  22.8859  23.5169  27.1815  29.3549  29.5185  29.7817  33.2679
    33.9587  34.9126  35.0547  35.7702

     occupation numbers 
     1.0000   1.0000   1.0000   1.0000   1.0000   1.0000   1.0000   1.0000
     1.0000   1.0000   1.0000   1.0000   1.0000   1.0000   1.0000   1.0000
     1.0000   1.0000   0.0000   0.0000   0.0000   0.0000   0.0000   0.0000
     0.0000   0.0000   0.0000   0.0000   0.0000   0.0000   0.0000   0.0000
     0.0000   0.0000   0.0000   0.0000

          k = 0.0000 0.5132 0.2064 (  3157 PWs)   bands (ev):

    -8.6343  -8.5058   2.5236   2.6144   3.2453   3.4289   3.4721   3.5047
     4.2404   4.2421   4.2861   4.4025   4.8493   5.1128   6.6746   6.8166
     7.4977   7.5240  14.0531  14.9558  16.9592  17.3691  19.3913  20.9728
    22.1943  22.7300  23.5613  26.4862  29.6650  30.1067  30.2505  32.9145
    33.2348  34.8769  34.9101  35.5034

     occupation numbers 
     1.0000   1.0000   1.0000   1.0000   1.0000   1.0000   1.0000   1.0000
     1.0000   1.0000   1.0000   1.0000   1.0000   1.0000   1.0000   1.0000
     1.0000   1.0000   0.0000   0.0000   0.0000   0.0000   0.0000   0.0000
     0.0000   0.0000   0.0000   0.0000   0.0000   0.0000   0.0000   0.0000
     0.0000   0.0000   0.0000   0.0000

          k = 0.0000 0.5132 0.2752 (  3150 PWs)   bands (ev):

    -8.5905  -8.5458   2.4985   2.5268   3.3223   3.4120   3.4255   3.4410
     4.2536   4.2683   4.2997   4.3538   4.9311   5.0226   7.0478   7.0779
     7.2834   7.3796  14.2217  14.5498  17.1543  17.2944  19.7590  20.3416
    22.3604  22.5464  24.3110  25.3763  30.0942  30.4546  30.8954  31.8498
    33.6418  34.3200  35.0357  35.2429

     occupation numbers 
     1.0000   1.0000   1.0000   1.0000   1.0000   1.0000   1.0000   1.0000
     1.0000   1.0000   1.0000   1.0000   1.0000   1.0000   1.0000   1.0000
     1.0000   1.0000   0.0000   0.0000   0.0000   0.0000   0.0000   0.0000
     0.0000   0.0000   0.0000   0.0000   0.0000   0.0000   0.0000   0.0000
     0.0000   0.0000   0.0000   0.0000

          k = 0.1111 0.1925 0.0000 (  3142 PWs)   bands (ev):

    -9.1789  -8.5594   2.7363   2.9268   3.0295   3.0735   3.2498   3.3196
     4.0015   4.0644   4.2971   4.4482   4.5398   6.8141   7.0777   7.5350
     8.2848   8.3215  11.2799  15.2751  16.8737  19.2884  20.8386  22.0030
    22.2029  23.6989  24.4812  24.5279  28.9391  29.1388  30.7131  30.7313
    32.3429  32.5619  34.0465  35.4560

     occupation numbers 
     1.0000   1.0000   1.0000   1.0000   1.0000   1.0000   1.0000   1.0000
     1.0000   1.0000   1.0000   1.0000   1.0000   1.0000   1.0000   1.0000
     1.0000   1.0000   0.0000   0.0000   0.0000   0.0000   0.0000   0.0000
     0.0000   0.0000   0.0000   0.0000   0.0000   0.0000   0.0000   0.0000
     0.0000   0.0000   0.0000   0.0000

          k = 0.1111 0.1925 0.0688 (  3136 PWs)   bands (ev):

    -9.1607  -8.5784   2.7220   2.9069   3.0245   3.0489   3.2393   3.2638
     4.0164   4.0753   4.2916   4.3783   4.7696   6.8497   7.0608   7.5112
     8.2590   8.2921  11.3885  15.0923  17.0020  19.3158  20.8628  21.8763
    21.9403  23.4163  24.6674  24.9264  28.9170  29.1440  30.8944  30.8987
    32.1954  32.3841  33.9569  35.5044

     occupation numbers 
     1.0000   1.0000   1.0000   1.0000   1.0000   1.0000   1.0000   1.0000
     1.0000   1.0000   1.0000   1.0000   1.0000   1.0000   1.0000   1.0000
     1.0000   1.0000   0.0000   0.0000   0.0000   0.0000   0.0000   0.0000
     0.0000   0.0000   0.0000   0.0000   0.0000   0.0000   0.0000   0.0000
     0.0000   0.0000   0.0000   0.0000

          k = 0.1111 0.1925 0.1376 (  3129 PWs)   bands (ev):

    -9.1081  -8.6333   2.6824   2.8142   3.0170   3.0222   3.1882   3.2105
     4.0567   4.1010   4.2754   4.3307   5.1859   6.9568   6.9659   7.5104
     8.1563   8.2076  11.7020  14.6430  17.3161  19.3712  20.8798  21.1693
    21.8370  22.9983  25.1716  25.5628  28.4875  29.5609  31.1237  31.2148
    31.5524  32.4663  33.8834  35.6217

     occupation numbers 
     1.0000   1.0000   1.0000   1.0000   1.0000   1.0000   1.0000   1.0000
     1.0000   1.0000   1.0000   1.0000   1.0000   1.0000   1.0000   1.0000
     1.0000   1.0000   0.0000   0.0000   0.0000   0.0000   0.0000   0.0000
     0.0000   0.0000   0.0000   0.0000   0.0000   0.0000   0.0000   0.0000
     0.0000   0.0000   0.0000   0.0000

          k = 0.1111 0.1925 0.2064 (  3115 PWs)   bands (ev):

    -9.0270  -8.7169   2.6331   2.6921   3.0186   3.0283   3.1389   3.1712
     4.1127   4.1357   4.2491   4.2862   5.6549   6.7595   7.1359   7.5961
     7.9568   8.0783  12.1818  14.0580  17.7503  19.3107  20.5489  20.7804
    21.8461  22.6033  25.8796  26.1416  28.0919  29.5515  30.5517  31.5443
    32.1807  32.3447  33.6958  35.0553

     occupation numbers 
     1.0000   1.0000   1.0000   1.0000   1.0000   1.0000   1.0000   1.0000
     1.0000   1.0000   1.0000   1.0000   1.0000   1.0000   1.0000   1.0000
     1.0000   1.0000   0.0000   0.0000   0.0000   0.0000   0.0000   0.0000
     0.0000   0.0000   0.0000   0.0000   0.0000   0.0000   0.0000   0.0000
     0.0000   0.0000   0.0000   0.0000

          k = 0.1111 0.1925 0.2752 (  3128 PWs)   bands (ev):

    -8.9266  -8.8189   2.6017   2.6163   3.0307   3.0392   3.1155   3.1328
     4.1743   4.1751   4.2148   4.2342   6.0963   6.4671   7.3814   7.6504
     7.7742   7.9211  12.7721  13.4154  18.2882  18.8824  20.4094  20.5766
    22.0040  22.2651  26.5294  26.5561  27.9711  28.5989  31.0411  31.6741
    32.0806  32.3771  33.8570  34.4407

     occupation numbers 
     1.0000   1.0000   1.0000   1.0000   1.0000   1.0000   1.0000   1.0000
     1.0000   1.0000   1.0000   1.0000   1.0000   1.0000   1.0000   1.0000
     1.0000   1.0000   0.0000   0.0000   0.0000   0.0000   0.0000   0.0000
     0.0000   0.0000   0.0000   0.0000   0.0000   0.0000   0.0000   0.0000
     0.0000   0.0000   0.0000   0.0000

          k = 0.1111 0.3208 0.0000 (  3137 PWs)   bands (ev):

    -8.9689  -8.4883   2.6694   2.9343   3.0773   3.2063   3.4411   3.5838
     3.9542   4.0996   4.3096   4.4846   4.7023   5.9278   6.4699   6.8932
     7.9667   7.9986  12.5693  16.1599  16.9560  18.0178  19.9403  20.9908
    21.6478  23.4587  24.4696  25.6419  28.6579  29.6548  31.1576  32.5834
    33.6227  33.8335  34.8838  35.3625

     occupation numbers 
     1.0000   1.0000   1.0000   1.0000   1.0000   1.0000   1.0000   1.0000
     1.0000   1.0000   1.0000   1.0000   1.0000   1.0000   1.0000   1.0000
     1.0000   1.0000   0.0000   0.0000   0.0000   0.0000   0.0000   0.0000
     0.0000   0.0000   0.0000   0.0000   0.0000   0.0000   0.0000   0.0000
     0.0000   0.0000   0.0000   0.0000

          k = 0.1111 0.3208 0.0688 (  3138 PWs)   bands (ev):

    -8.9543  -8.5024   2.6538   2.9054   3.0757   3.1946   3.4268   3.4926
     3.9768   4.1156   4.3035   4.4427   4.8914   5.9773   6.4634   6.8992
     7.9489   7.9806  12.6245  15.9096  17.0979  18.0515  20.0086  20.9135
    21.5423  23.4895  24.3551  25.7992  28.5531  29.9657  31.1734  32.1948
    33.1115  34.1109  35.3510  35.5332

     occupation numbers 
     1.0000   1.0000   1.0000   1.0000   1.0000   1.0000   1.0000   1.0000
     1.0000   1.0000   1.0000   1.0000   1.0000   1.0000   1.0000   1.0000
     1.0000   1.0000   0.0000   0.0000   0.0000   0.0000   0.0000   0.0000
     0.0000   0.0000   0.0000   0.0000   0.0000   0.0000   0.0000   0.0000
     0.0000   0.0000   0.0000   0.0000

          k = 0.1111 0.3208 0.1376 (  3141 PWs)   bands (ev):

    -8.9120  -8.5434   2.6137   2.8095   3.0824   3.1709   3.3576   3.3915
     4.0329   4.1410   4.2865   4.3914   5.2361   6.1014   6.4603   6.9572
     7.8479   7.9369  12.8034  15.3883  17.3488  18.1331  20.0381  20.7600
    21.4031  23.3450  24.3762  26.1682  28.2830  30.5357  31.0496  31.3903
    33.2739  34.2124  35.3354  35.5220

     occupation numbers 
     1.0000   1.0000   1.0000   1.0000   1.0000   1.0000   1.0000   1.0000
     1.0000   1.0000   1.0000   1.0000   1.0000   1.0000   1.0000   1.0000
     1.0000   1.0000   0.0000   0.0000   0.0000   0.0000   0.0000   0.0000
     0.0000   0.0000   0.0000   0.0000   0.0000   0.0000   0.0000   0.0000
     0.0000   0.0000   0.0000   0.0000

          k = 0.1111 0.3208 0.2064 (  3139 PWs)   bands (ev):

    -8.8473  -8.6065   2.5701   2.6820   3.1025   3.1567   3.2816   3.3387
     4.1066   4.1682   4.2619   4.3341   5.5471   6.1112   6.6573   7.0932
     7.6846   7.7895  13.1269  14.7787  17.6249  18.1957  19.9037  20.4566
    21.6084  22.9295  24.8050  26.4375  28.0486  29.7786  31.3718  31.5350
    33.6170  34.3817  34.8595  35.3180

     occupation numbers 
     1.0000   1.0000   1.0000   1.0000   1.0000   1.0000   1.0000   1.0000
     1.0000   1.0000   1.0000   1.0000   1.0000   1.0000   1.0000   1.0000
     1.0000   1.0000   0.0000   0.0000   0.0000   0.0000   0.0000   0.0000
     0.0000   0.0000   0.0000   0.0000   0.0000   0.0000   0.0000   0.0000
     0.0000   0.0000   0.0000   0.0000

          k = 0.1111 0.3208 0.2752 (  3141 PWs)   bands (ev):

    -8.7683  -8.6846   2.5530   2.5878   3.1277   3.1482   3.2593   3.2874
     4.1829   4.1967   4.2353   4.2677   5.7842   5.9729   7.0440   7.2612
     7.4711   7.5445  13.5913  14.1598  17.9074  18.1293  19.8785  20.0970
    22.0198  22.4690  25.4565  26.1343  28.2839  28.9238  31.5921  31.7309
    34.0180  34.3937  34.6969  35.0043

     occupation numbers 
     1.0000   1.0000   1.0000   1.0000   1.0000   1.0000   1.0000   1.0000
     1.0000   1.0000   1.0000   1.0000   1.0000   1.0000   1.0000   1.0000
     1.0000   1.0000   0.0000   0.0000   0.0000   0.0000   0.0000   0.0000
     0.0000   0.0000   0.0000   0.0000   0.0000   0.0000   0.0000   0.0000
     0.0000   0.0000   0.0000   0.0000

          k = 0.1111 0.4491 0.0000 (  3134 PWs)   bands (ev):

    -8.7548  -8.4482   2.6847   2.9727   3.1148   3.3851   3.6145   3.6739
     4.0375   4.1484   4.3304   4.5758   4.7276   5.3492   6.0237   6.2836
     7.5191   7.7167  13.9181  16.3145  16.6516  17.3676  19.5451  20.6921
    21.2547  22.9677  24.7140  26.9835  28.6438  29.0728  31.5450  33.2669
    33.8986  34.7738  35.2911  35.9709

     occupation numbers 
     1.0000   1.0000   1.0000   1.0000   1.0000   1.0000   1.0000   1.0000
     1.0000   1.0000   1.0000   1.0000   1.0000   1.0000   1.0000   1.0000
     1.0000   1.0000   0.0000   0.0000   0.0000   0.0000   0.0000   0.0000
     0.0000   0.0000   0.0000   0.0000   0.0000   0.0000   0.0000   0.0000
     0.0000   0.0000   0.0000   0.0000

          k = 0.1111 0.4491 0.0688 (  3141 PWs)   bands (ev):

    -8.7447  -8.4565   2.6673   2.9316   3.1209   3.3722   3.5875   3.6235
     4.0404   4.1762   4.3253   4.5399   4.7949   5.4168   6.0486   6.3382
     7.5407   7.6857  13.9166  16.0786  16.8287  17.3876  19.4759  20.7815
    21.1805  23.0223  24.5965  26.9607  28.4935  29.6169  31.0136  33.1043
    34.0238  34.8423  35.1223  36.0371

     occupation numbers 
     1.0000   1.0000   1.0000   1.0000   1.0000   1.0000   1.0000   1.0000
     1.0000   1.0000   1.0000   1.0000   1.0000   1.0000   1.0000   1.0000
     1.0000   1.0000   0.0000   0.0000   0.0000   0.0000   0.0000   0.0000
     0.0000   0.0000   0.0000   0.0000   0.0000   0.0000   0.0000   0.0000
     0.0000   0.0000   0.0000   0.0000

          k = 0.1111 0.4491 0.1376 (  3149 PWs)   bands (ev):

    -8.7160  -8.4807   2.6227   2.8205   3.1443   3.3450   3.5046   3.5513
     4.0817   4.2072   4.3138   4.4789   4.9184   5.4817   6.2161   6.4969
     7.5039   7.6537  13.9429  15.6705  17.0617  17.4394  19.3288  20.6959
    21.3214  23.1067  24.3884  26.8475  28.4902  30.2481  30.5630  32.4302
    34.1460  34.5607  35.2909  36.0856

     occupation numbers 
     1.0000   1.0000   1.0000   1.0000   1.0000   1.0000   1.0000   1.0000
     1.0000   1.0000   1.0000   1.0000   1.0000   1.0000   1.0000   1.0000
     1.0000   1.0000   0.0000   0.0000   0.0000   0.0000   0.0000   0.0000
     0.0000   0.0000   0.0000   0.0000   0.0000   0.0000   0.0000   0.0000
     0.0000   0.0000   0.0000   0.0000

          k = 0.1111 0.4491 0.2064 (  3149 PWs)   bands (ev):

    -8.6727  -8.5189   2.5749   2.6891   3.1876   3.3219   3.4330   3.4770
     4.1460   4.2249   4.3039   4.4138   5.0506   5.4257   6.5240   6.7622
     7.3379   7.6146  14.0645  15.2021  17.2515  17.4884  19.2652  20.2657
    21.8267  23.0450  24.4117  26.3544  28.7451  30.0964  31.0261  31.7783
    34.0922  34.6477  35.1983  35.9026

     occupation numbers 
     1.0000   1.0000   1.0000   1.0000   1.0000   1.0000   1.0000   1.0000
     1.0000   1.0000   1.0000   1.0000   1.0000   1.0000   1.0000   1.0000
     1.0000   1.0000   0.0000   0.0000   0.0000   0.0000   0.0000   0.0000
     0.0000   0.0000   0.0000   0.0000   0.0000   0.0000   0.0000   0.0000
     0.0000   0.0000   0.0000   0.0000

          k = 0.1111 0.4491 0.2752 (  3149 PWs)   bands (ev):

    -8.6209  -8.5674   2.5566   2.5929   3.2449   3.2964   3.3981   3.4156
     4.2039   4.2289   4.3098   4.3514   5.1838   5.3130   6.8135   7.0197
     7.2024   7.4495  14.3306  14.7305  17.3913  17.4772  19.4208  19.7907
    22.3575  22.7773  24.8295  25.5553  29.2878  29.8804  31.0864  31.4097
    34.3768  34.6665  35.2362  35.5641

     occupation numbers 
     1.0000   1.0000   1.0000   1.0000   1.0000   1.0000   1.0000   1.0000
     1.0000   1.0000   1.0000   1.0000   1.0000   1.0000   1.0000   1.0000
     1.0000   1.0000   0.0000   0.0000   0.0000   0.0000   0.0000   0.0000
     0.0000   0.0000   0.0000   0.0000   0.0000   0.0000   0.0000   0.0000
     0.0000   0.0000   0.0000   0.0000

          k = 0.1111 0.5774 0.0000 (  3128 PWs)   bands (ev):

    -8.6494  -8.4512   2.7231   3.0200   3.1264   3.4822   3.5926   3.7272
     4.0961   4.1947   4.3532   4.3965   4.9180   5.1552   5.7102   6.2481
     7.2275   7.6030  14.8408  15.8674  16.2734  17.3241  19.3130  21.0435
    21.2740  22.5615  24.6831  27.7044  28.5241  29.1174  31.3152  33.5034
    33.9615  34.1688  35.8047  35.9103

     occupation numbers 
     1.0000   1.0000   1.0000   1.0000   1.0000   1.0000   1.0000   1.0000
     1.0000   1.0000   1.0000   1.0000   1.0000   1.0000   1.0000   1.0000
     1.0000   1.0000   0.0000   0.0000   0.0000   0.0000   0.0000   0.0000
     0.0000   0.0000   0.0000   0.0000   0.0000   0.0000   0.0000   0.0000
     0.0000   0.0000   0.0000   0.0000

          k = 0.1111 0.5774 0.0688 (  3135 PWs)   bands (ev):

    -8.6424  -8.4560   2.7053   2.9621   3.1333   3.4743   3.5782   3.6969
     4.1260   4.1996   4.3531   4.4015   4.8899   5.1287   5.8262   6.3233
     7.2669   7.5686  14.7525  15.8000  16.3861  17.3506  19.2073  20.9425
    21.3877  22.6349  24.5730  27.6508  28.4173  29.6292  30.7320  33.3872
    34.1117  34.3545  35.6678  35.7230

     occupation numbers 
     1.0000   1.0000   1.0000   1.0000   1.0000   1.0000   1.0000   1.0000
     1.0000   1.0000   1.0000   1.0000   1.0000   1.0000   1.0000   1.0000
     1.0000   1.0000   0.0000   0.0000   0.0000   0.0000   0.0000   0.0000
     0.0000   0.0000   0.0000   0.0000   0.0000   0.0000   0.0000   0.0000
     0.0000   0.0000   0.0000   0.0000

          k = 0.1111 0.5774 0.1376 (  3137 PWs)   bands (ev):

    -8.6224  -8.4702   2.6580   2.8283   3.1584   3.4563   3.5457   3.6228
     4.1804   4.2099   4.3624   4.4137   4.8484   5.0635   6.0845   6.5443
     7.3001   7.5102  14.6001  15.5996  16.6281  17.4000  19.0158  20.6246
    21.7353  22.7795  24.3757  27.2882  28.5809  30.0863  30.4480  32.7528
    34.0443  34.4507  35.4237  36.0766

     occupation numbers 
     1.0000   1.0000   1.0000   1.0000   1.0000   1.0000   1.0000   1.0000
     1.0000   1.0000   1.0000   1.0000   1.0000   1.0000   1.0000   1.0000
     1.0000   1.0000   0.0000   0.0000   0.0000   0.0000   0.0000   0.0000
     0.0000   0.0000   0.0000   0.0000   0.0000   0.0000   0.0000   0.0000
     0.0000   0.0000   0.0000   0.0000

          k = 0.1111 0.5774 0.2064 (  3146 PWs)   bands (ev):

    -8.5928  -8.4933   2.6034   2.6917   3.2073   3.4261   3.5143   3.5407
     4.2142   4.2192   4.3902   4.4264   4.8344   4.9847   6.3724   6.8680
     7.1636   7.5065  14.5436  15.2885  16.8810  17.3919  18.9768  20.1511
    22.2254  22.8771  24.3367  26.4340  29.0814  30.0898  30.9568  31.7890
    34.2568  34.5000  35.1966  35.9294

     occupation numbers 
     1.0000   1.0000   1.0000   1.0000   1.0000   1.0000   1.0000   1.0000
     1.0000   1.0000   1.0000   1.0000   1.0000   1.0000   1.0000   1.0000
     1.0000   1.0000   0.0000   0.0000   0.0000   0.0000   0.0000   0.0000
     0.0000   0.0000   0.0000   0.0000   0.0000   0.0000   0.0000   0.0000
     0.0000   0.0000   0.0000   0.0000

          k = 0.1111 0.5774 0.2752 (  3153 PWs)   bands (ev):

    -8.5582  -8.5236   2.5753   2.6017   3.2787   3.3615   3.4957   3.4980
     4.2247   4.2248   4.4189   4.4307   4.8570   4.9112   6.6576   6.9291
     7.1932   7.4210  14.6613  14.9391  17.1021  17.2811  19.2058  19.6367
    22.6546  22.8583  24.6697  25.4393  29.8221  30.4209  30.8291  30.8988
    34.6472  34.7185  35.1013  35.5499

     occupation numbers 
     1.0000   1.0000   1.0000   1.0000   1.0000   1.0000   1.0000   1.0000
     1.0000   1.0000   1.0000   1.0000   1.0000   1.0000   1.0000   1.0000
     1.0000   1.0000   0.0000   0.0000   0.0000   0.0000   0.0000   0.0000
     0.0000   0.0000   0.0000   0.0000   0.0000   0.0000   0.0000   0.0000
     0.0000   0.0000   0.0000   0.0000

          k = 0.2222 0.3849 0.0000 (  3140 PWs)   bands (ev):

    -8.7750  -8.4485   2.8356   2.8611   3.1927   3.2922   3.6178   3.7247
     3.9434   4.1105   4.3319   4.5857   4.7657   5.7191   5.8090   6.1738
     7.5372   7.6116  13.8881  16.3475  17.3997  17.4479  19.6352  20.2910
    20.4060  23.4967  24.2549  26.5122  30.1867  30.7137  30.9400  32.0719
    32.9568  34.5250  35.4907  35.6441

     occupation numbers 
     1.0000   1.0000   1.0000   1.0000   1.0000   1.0000   1.0000   1.0000
     1.0000   1.0000   1.0000   1.0000   1.0000   1.0000   1.0000   1.0000
     1.0000   1.0000   0.0000   0.0000   0.0000   0.0000   0.0000   0.0000
     0.0000   0.0000   0.0000   0.0000   0.0000   0.0000   0.0000   0.0000
     0.0000   0.0000   0.0000   0.0000

          k = 0.2222 0.3849 0.0688 (  3141 PWs)   bands (ev):

    -8.7644  -8.4575   2.8084   2.8519   3.1900   3.2728   3.5971   3.6155
     3.9692   4.1547   4.3277   4.5521   4.8661   5.7310   5.9188   6.1719
     7.4919   7.6399  13.9116  16.2188  17.4126  17.4721  19.6363  20.1449
    20.4715  23.6680  24.3017  26.3503  29.8172  30.8169  31.3852  31.5268
    32.9210  35.0492  35.0654  35.6519

     occupation numbers 
     1.0000   1.0000   1.0000   1.0000   1.0000   1.0000   1.0000   1.0000
     1.0000   1.0000   1.0000   1.0000   1.0000   1.0000   1.0000   1.0000
     1.0000   1.0000   0.0000   0.0000   0.0000   0.0000   0.0000   0.0000
     0.0000   0.0000   0.0000   0.0000   0.0000   0.0000   0.0000   0.0000
     0.0000   0.0000   0.0000   0.0000

          k = 0.2222 0.3849 0.1376 (  3150 PWs)   bands (ev):

    -8.7341  -8.4836   2.7418   2.8116   3.1870   3.2208   3.4709   3.5417
     4.0344   4.1985   4.3186   4.4942   5.0470   5.7194   6.2228   6.2237
     7.3648   7.6802  13.9988  15.8762  17.4693  17.5388  19.4795  19.7950
    20.8435  24.1098  24.2176  26.1611  29.3354  29.9957  31.5227  32.0268
    33.1977  34.3172  35.5067  35.7487

     occupation numbers 
     1.0000   1.0000   1.0000   1.0000   1.0000   1.0000   1.0000   1.0000
     1.0000   1.0000   1.0000   1.0000   1.0000   1.0000   1.0000   1.0000
     1.0000   1.0000   0.0000   0.0000   0.0000   0.0000   0.0000   0.0000
     0.0000   0.0000   0.0000   0.0000   0.0000   0.0000   0.0000   0.0000
     0.0000   0.0000   0.0000   0.0000

          k = 0.2222 0.3849 0.2064 (  3154 PWs)   bands (ev):

    -8.6883  -8.5246   2.6722   2.7317   3.1838   3.1880   3.3991   3.4700
     4.1151   4.2183   4.3122   4.4275   5.2181   5.6371   6.3811   6.6228
     7.1901   7.6432  14.1874  15.4155  17.5706  17.6272  19.2274  19.4068
    21.4896  23.7440  24.7062  26.1658  28.9483  29.0111  31.7202  32.4043
    33.6270  33.7675  35.8715  35.8933

     occupation numbers 
     1.0000   1.0000   1.0000   1.0000   1.0000   1.0000   1.0000   1.0000
     1.0000   1.0000   1.0000   1.0000   1.0000   1.0000   1.0000   1.0000
     1.0000   1.0000   0.0000   0.0000   0.0000   0.0000   0.0000   0.0000
     0.0000   0.0000   0.0000   0.0000   0.0000   0.0000   0.0000   0.0000
     0.0000   0.0000   0.0000   0.0000

          k = 0.2222 0.3849 0.2752 (  3145 PWs)   bands (ev):

    -8.6333  -8.5764   2.6370   2.6584   3.1836   3.1892   3.3801   3.4075
     4.1861   4.2193   4.3200   4.3617   5.3719   5.5132   6.6038   6.8037
     7.1918   7.4686  14.5032  14.9313  17.6690  17.6908  19.0695  19.1284
    22.2531  23.0347  25.3697  25.9484  28.5726  28.6598  31.9211  32.2311
    33.7354  33.8086  36.0389  36.0853

     occupation numbers 
     1.0000   1.0000   1.0000   1.0000   1.0000   1.0000   1.0000   1.0000
     1.0000   1.0000   1.0000   1.0000   1.0000   1.0000   1.0000   1.0000
     1.0000   1.0000   0.0000   0.0000   0.0000   0.0000   0.0000   0.0000
     0.0000   0.0000   0.0000   0.0000   0.0000   0.0000   0.0000   0.0000
     0.0000   0.0000   0.0000   0.0000

          k = 0.2222 0.5132 0.0000 (  3131 PWs)   bands (ev):

    -8.6147  -8.4540   2.8218   3.1064   3.3035   3.3587   3.7149   3.8008
     4.0528   4.0796   4.3471   4.4156   4.8528   5.2397   5.4368   6.2136
     7.0848   7.2758  15.2337  16.3132  16.7125  17.2754  19.4548  20.0302
    20.9429  22.5037  23.9012  28.1359  29.7936  30.8120  31.2265  31.8642
    34.4387  34.5107  35.1475  35.5522

     occupation numbers 
     1.0000   1.0000   1.0000   1.0000   1.0000   1.0000   1.0000   1.0000
     1.0000   1.0000   1.0000   1.0000   1.0000   1.0000   1.0000   1.0000
     1.0000   1.0000   0.0000   0.0000   0.0000   0.0000   0.0000   0.0000
     0.0000   0.0000   0.0000   0.0000   0.0000   0.0000   0.0000   0.0000
     0.0000   0.0000   0.0000   0.0000

          k = 0.2222 0.5132 0.0688 (  3140 PWs)   bands (ev):

    -8.6087  -8.4576   2.8200   3.0717   3.2376   3.3747   3.6842   3.7432
     4.0392   4.1428   4.3508   4.4522   4.8371   5.2741   5.4532   6.3138
     7.0808   7.2849  15.2177  16.2662  16.7612  17.3125  19.1775  19.8388
    21.1711  22.7107  24.0795  27.7949  29.4113  30.6904  31.4818  31.8226
    34.2482  34.4883  35.3183  35.7881

     occupation numbers 
     1.0000   1.0000   1.0000   1.0000   1.0000   1.0000   1.0000   1.0000
     1.0000   1.0000   1.0000   1.0000   1.0000   1.0000   1.0000   1.0000
     1.0000   1.0000   0.0000   0.0000   0.0000   0.0000   0.0000   0.0000
     0.0000   0.0000   0.0000   0.0000   0.0000   0.0000   0.0000   0.0000
     0.0000   0.0000   0.0000   0.0000

          k = 0.2222 0.5132 0.1376 (  3142 PWs)   bands (ev):

    -8.5918  -8.4685   2.8045   2.9764   3.1471   3.3638   3.6201   3.6470
     4.0781   4.1791   4.3707   4.5236   4.8246   5.2492   5.6015   6.5647
     6.9844   7.3695  15.1987  16.1312  16.8796  17.4127  18.6441  19.4149
    21.6583  23.1902  24.4636  27.0375  28.7138  30.2933  31.6272  32.0370
    33.9191  34.4710  35.5822  36.4332

     occupation numbers 
     1.0000   1.0000   1.0000   1.0000   1.0000   1.0000   1.0000   1.0000
     1.0000   1.0000   1.0000   1.0000   1.0000   1.0000   1.0000   1.0000
     1.0000   1.0000   0.0000   0.0000   0.0000   0.0000   0.0000   0.0000
     0.0000   0.0000   0.0000   0.0000   0.0000   0.0000   0.0000   0.0000
     0.0000   0.0000   0.0000   0.0000

          k = 0.2222 0.5132 0.2064 (  3148 PWs)   bands (ev):

    -8.5671  -8.4864   2.7658   2.8543   3.1237   3.3163   3.5670   3.5780
     4.1217   4.1838   4.4128   4.5490   4.8670   5.1624   5.8530   6.6766
     6.9898   7.4528  15.2388  15.9103  17.0345  17.5115  18.2200  18.9347
    22.3022  23.6609  24.7560  26.1849  28.3048  29.7349  31.5459  32.1563
    33.8994  34.4883  35.9255  36.3727

     occupation numbers 
     1.0000   1.0000   1.0000   1.0000   1.0000   1.0000   1.0000   1.0000
     1.0000   1.0000   1.0000   1.0000   1.0000   1.0000   1.0000   1.0000
     1.0000   1.0000   0.0000   0.0000   0.0000   0.0000   0.0000   0.0000
     0.0000   0.0000   0.0000   0.0000   0.0000   0.0000   0.0000   0.0000
     0.0000   0.0000   0.0000   0.0000

          k = 0.2222 0.5132 0.2752 (  3152 PWs)   bands (ev):

    -8.5385  -8.5105   2.7387   2.7650   3.1664   3.2410   3.5414   3.5466
     4.1532   4.1736   4.4673   4.5191   4.9572   5.0607   6.1424   6.4350
     7.2539   7.4267  15.3864  15.6345  17.2176  17.4210  18.2013  18.5035
    23.0450  23.6617  24.9846  25.4732  28.4778  29.0566  31.6705  31.9241
    34.1389  34.3807  36.0855  36.1998

     occupation numbers 
     1.0000   1.0000   1.0000   1.0000   1.0000   1.0000   1.0000   1.0000
     1.0000   1.0000   1.0000   1.0000   1.0000   1.0000   1.0000   1.0000
     1.0000   1.0000   0.0000   0.0000   0.0000   0.0000   0.0000   0.0000
     0.0000   0.0000   0.0000   0.0000   0.0000   0.0000   0.0000   0.0000
     0.0000   0.0000   0.0000   0.0000

          k = 0.3333 0.5774 0.0000 (  3138 PWs)   bands (ev):

    -8.5079  -8.5079   2.8421   3.2552   3.2552   3.6206   3.8974   3.8974
     3.9934   4.1291   4.1757   4.1757   4.8879   5.1058   5.1058   6.7143
     6.7143   6.9081  16.3227  16.4544  16.4544  16.8391  19.4840  19.4840
    21.7906  22.5081  22.5081  29.9085  29.9561  29.9561  30.8288  33.4332
    34.6905  34.6905  34.8417  34.8417

     occupation numbers 
     1.0000   1.0000   1.0000   1.0000   1.0000   1.0000   1.0000   1.0000
     1.0000   1.0000   1.0000   1.0000   1.0000   1.0000   1.0000   1.0000
     1.0000   1.0000   0.0000   0.0000   0.0000   0.0000   0.0000   0.0000
     0.0000   0.0000   0.0000   0.0000   0.0000   0.0000   0.0000   0.0000
     0.0000   0.0000   0.0000   0.0000

          k = 0.3333 0.5774 0.0688 (  3144 PWs)   bands (ev):

    -8.5066  -8.5066   2.8551   3.2113   3.2113   3.5669   3.8278   3.8278
     4.0029   4.1258   4.2656   4.2656   4.9675   5.0832   5.0832   6.7958
     6.7958   6.8485  16.3531  16.4693  16.4693  16.8328  19.2048  19.2048
    21.9146  22.8190  22.8190  28.9372  29.7271  29.7271  31.4272  33.3049
    34.3178  34.3178  35.5910  35.5910

     occupation numbers 
     1.0000   1.0000   1.0000   1.0000   1.0000   1.0000   1.0000   1.0000
     1.0000   1.0000   1.0000   1.0000   1.0000   1.0000   1.0000   1.0000
     1.0000   1.0000   0.0000   0.0000   0.0000   0.0000   0.0000   0.0000
     0.0000   0.0000   0.0000   0.0000   0.0000   0.0000   0.0000   0.0000
     0.0000   0.0000   0.0000   0.0000

          k = 0.3333 0.5774 0.1376 (  3138 PWs)   bands (ev):

    -8.5034  -8.5034   2.8941   3.0997   3.0997   3.4429   3.7427   3.7427
     4.0215   4.1164   4.4076   4.4076   5.0294   5.0294   5.1762   6.6792
     6.9959   6.9959  16.4329  16.5172  16.5172  16.8126  18.6194  18.6194
    22.2881  23.4966  23.4966  27.5172  29.1828  29.1828  31.9010  33.0267
    34.1938  34.1938  36.3037  36.3037

     occupation numbers 
     1.0000   1.0000   1.0000   1.0000   1.0000   1.0000   1.0000   1.0000
     1.0000   1.0000   1.0000   1.0000   1.0000   1.0000   1.0000   1.0000
     1.0000   1.0000   0.0000   0.0000   0.0000   0.0000   0.0000   0.0000
     0.0000   0.0000   0.0000   0.0000   0.0000   0.0000   0.0000   0.0000
     0.0000   0.0000   0.0000   0.0000

          k = 0.3333 0.5774 0.2064 (  3141 PWs)   bands (ev):

    -8.4996  -8.4996   2.9593   2.9780   2.9780   3.3001   3.6948   3.6948
     4.0419   4.1017   4.5261   4.5261   4.9686   4.9686   5.4622   6.4247
     7.2161   7.2161  16.5356  16.6028  16.6028  16.7752  18.0389  18.0389
    22.9109  24.2085  24.2085  26.1221  28.5740  28.5740  32.1430  32.7396
    34.2522  34.2522  36.0601  36.0601

     occupation numbers 
     1.0000   1.0000   1.0000   1.0000   1.0000   1.0000   1.0000   1.0000
     1.0000   1.0000   1.0000   1.0000   1.0000   1.0000   1.0000   1.0000
     1.0000   1.0000   0.0000   0.0000   0.0000   0.0000   0.0000   0.0000
     0.0000   0.0000   0.0000   0.0000   0.0000   0.0000   0.0000   0.0000
     0.0000   0.0000   0.0000   0.0000

          k = 0.3333 0.5774 0.2752 (  3135 PWs)   bands (ev):

    -8.4972  -8.4972   2.9028   2.9028   3.0503   3.1654   3.6745   3.6745
     4.0628   4.0832   4.5982   4.5982   4.9241   4.9241   5.7857   6.1164
     7.3573   7.3573  16.6354  16.7021  16.7021  16.7168  17.6536  17.6536
    23.7742  24.6959  24.6959  24.8563  28.1437  28.1437  32.3148  32.5017
    34.3652  34.3652  35.7339  35.7339

     occupation numbers 
     1.0000   1.0000   1.0000   1.0000   1.0000   1.0000   1.0000   1.0000
     1.0000   1.0000   1.0000   1.0000   1.0000   1.0000   1.0000   1.0000
     1.0000   1.0000   0.0000   0.0000   0.0000   0.0000   0.0000   0.0000
     0.0000   0.0000   0.0000   0.0000   0.0000   0.0000   0.0000   0.0000
     0.0000   0.0000   0.0000   0.0000

     highest occupied, lowest unoccupied level (ev):     8.6105    9.5099

!    total energy              =    -270.55519909 Ry
     estimated scf accuracy    <          4.1E-10 Ry

     The total energy is the sum of the following terms:
     one-electron contribution =     -80.53547492 Ry
     hartree contribution      =      73.99410467 Ry
     xc contribution           =     -45.40891337 Ry
     ewald contribution        =    -218.60491548 Ry

     convergence has been achieved in  15 iterations

     Forces acting on atoms (cartesian axes, Ry/au):

     atom    1 type  1   force =     0.00000000    0.00000000   -0.00000019
     atom    2 type  1   force =     0.00000000    0.00000000   -0.00000019
     atom    3 type  2   force =     0.00000000    0.00000000    0.00000019
     atom    4 type  2   force =     0.00000000    0.00000000    0.00000019
     The non-local contrib.  to forces
     atom    1 type  1   force =     0.00000000    0.00000000   -0.00391359
     atom    2 type  1   force =     0.00000000    0.00000000   -0.00391359
     atom    3 type  2   force =     0.00000000    0.00000000    0.00238672
     atom    4 type  2   force =     0.00000000   -0.00000000    0.00238672
     The ionic contribution  to forces
     atom    1 type  1   force =    -0.00000000    0.00000000    0.06973285
     atom    2 type  1   force =     0.00000000   -0.00000000    0.06973285
     atom    3 type  2   force =    -0.00000000    0.00000000   -0.06973285
     atom    4 type  2   force =     0.00000000   -0.00000000   -0.06973285
     The local contribution  to forces
     atom    1 type  1   force =    -0.00000001    0.00000001   -0.06582136
     atom    2 type  1   force =     0.00000004   -0.00000002   -0.06582136
     atom    3 type  2   force =    -0.00000000    0.00000000    0.06734204
     atom    4 type  2   force =     0.00000001   -0.00000001    0.06734204
     The core correction contribution to forces
     atom    1 type  1   force =     0.00000000    0.00000000    0.00000000
     atom    2 type  1   force =     0.00000000    0.00000000    0.00000000
     atom    3 type  2   force =     0.00000000    0.00000000    0.00000000
     atom    4 type  2   force =     0.00000000    0.00000000    0.00000000
     The Hubbard contrib.    to forces
     atom    1 type  1   force =     0.00000000    0.00000000    0.00000000
     atom    2 type  1   force =     0.00000000    0.00000000    0.00000000
     atom    3 type  2   force =     0.00000000    0.00000000    0.00000000
     atom    4 type  2   force =     0.00000000    0.00000000    0.00000000
     The SCF correction term to forces
     atom    1 type  1   force =     0.00000000   -0.00000000   -0.00000545
     atom    2 type  1   force =    -0.00000000    0.00000000   -0.00000545
     atom    3 type  2   force =     0.00000000   -0.00000000   -0.00000309
     atom    4 type  2   force =    -0.00000000    0.00000000   -0.00000309

     Total force =     0.000000     Total SCF correction =     0.000009
     SCF correction compared to forces is large: reduce conv_thr to get better values


     Computing stress (Cartesian axis) and pressure

          total   stress  (Ry/bohr**3)                   (kbar)     P=        0.10
   0.00000070  -0.00000000   0.00000000            0.10       -0.00        0.00
  -0.00000000   0.00000070   0.00000000           -0.00        0.10        0.00
   0.00000000  -0.00000000   0.00000063            0.00       -0.00        0.09

     kinetic stress (kbar)  73005.17     -0.00     -0.00
                               -0.00  73005.17     -0.00
                                0.00      0.00  73032.71

     local   stress (kbar)  47954.68     -0.00     -0.00
                               -0.00  47954.68      0.00
                               -0.00      0.00  45993.02

     nonloc. stress (kbar) -91309.23      0.00      0.00
                                0.00 -91309.23     -0.00
                                0.00      0.00 -91336.74

     hartree stress (kbar)  11119.62      0.00     -0.00
                                0.00  11119.62     -0.00
                               -0.00     -0.00  12042.90

     exc-cor stress (kbar)  -6663.39     -0.00      0.00
                               -0.00  -6663.39     -0.00
                                0.00     -0.00  -6663.63

     corecor stress (kbar)      0.00      0.00      0.00
                                0.00      0.00      0.00
                                0.00      0.00      0.00

     ewald   stress (kbar) -34106.75      0.00     -0.00
                                0.00 -34106.75     -0.00
                               -0.00     -0.00 -33068.18

     hubbard stress (kbar)      0.00      0.00      0.00
                                0.00      0.00      0.00
                                0.00      0.00      0.00

     DFT-D   stress (kbar)      0.00      0.00      0.00
                                0.00      0.00      0.00
                                0.00      0.00      0.00

     XDM     stress (kbar)      0.00      0.00      0.00
                                0.00      0.00      0.00
                                0.00      0.00      0.00

     dft-nl  stress (kbar)      0.00      0.00      0.00
                                0.00      0.00      0.00
                                0.00      0.00      0.00

     TS-vdW  stress (kbar)      0.00      0.00      0.00
                                0.00      0.00      0.00
                                0.00      0.00      0.00

     MDB     stress (kbar)      0.00      0.00      0.00
                                0.00      0.00      0.00
                                0.00      0.00      0.00

     3D-RISM stress (kbar)      0.00      0.00      0.00
                                0.00      0.00      0.00
                                0.00      0.00      0.00

     Message from routine punch:
     Nothing written, as per user request (disk_io='none')
 
     init_run     :      0.79s CPU      0.85s WALL (       1 calls)
     electrons    :     40.15s CPU     41.36s WALL (       1 calls)
     forces       :      0.06s CPU      0.06s WALL (       1 calls)
     stress       :      0.26s CPU      0.27s WALL (       1 calls)

     Called by init_run:
     wfcinit      :      0.73s CPU      0.77s WALL (       1 calls)
     wfcinit:atom :      0.01s CPU      0.01s WALL (      60 calls)
     wfcinit:wfcr :      0.71s CPU      0.75s WALL (      60 calls)
     potinit      :      0.02s CPU      0.02s WALL (       1 calls)
     hinit0       :      0.02s CPU      0.03s WALL (       1 calls)

     Called by electrons:
     c_bands      :     35.06s CPU     36.05s WALL (      15 calls)
     sum_band     :      4.87s CPU      5.06s WALL (      15 calls)
     v_of_rho     :      0.10s CPU      0.11s WALL (      16 calls)
     v_h          :      0.00s CPU      0.01s WALL (      16 calls)
     v_xc         :      0.10s CPU      0.10s WALL (      16 calls)
     mix_rho      :      0.12s CPU      0.13s WALL (      15 calls)

     Called by c_bands:
     init_us_2    :      0.17s CPU      0.18s WALL (    1980 calls)
     cegterg      :     34.61s CPU     35.59s WALL (     900 calls)

     Called by sum_band:
     sum_band:wei :      0.00s CPU      0.00s WALL (      15 calls)
     sum_band:loo :      4.85s CPU      5.04s WALL (      15 calls)
     sum_band:buf :      0.02s CPU      0.02s WALL (     900 calls)
     sum_band:ini :      0.08s CPU      0.08s WALL (     900 calls)

     Called by *egterg:
     cdiaghg      :      9.39s CPU      9.44s WALL (    3109 calls)
     cegterg:over :      1.29s CPU      1.33s WALL (    2209 calls)
     cegterg:upda :      0.55s CPU      0.55s WALL (    2209 calls)
     cegterg:last :      0.97s CPU      0.97s WALL (    1561 calls)
     h_psi        :     22.11s CPU     23.00s WALL (    3169 calls)
     g_psi        :      0.06s CPU      0.06s WALL (    2209 calls)

     Called by h_psi:
     h_psi:calbec :      0.51s CPU      0.53s WALL (    3169 calls)
     vloc_psi     :     21.18s CPU     22.04s WALL (    3169 calls)
                                        0.00s GPU  (    3169 calls)
     add_vuspsi   :      0.34s CPU      0.35s WALL (    3169 calls)

     General routines
     calbec       :      0.70s CPU      0.73s WALL (    4189 calls)
     fft          :      0.05s CPU      0.06s WALL (     197 calls)
     ffts         :      0.07s CPU      0.07s WALL (     363 calls)
     fftw         :     23.87s CPU     24.85s WALL (  186464 calls)
     interpolate  :      0.01s CPU      0.01s WALL (      16 calls)
 
     Parallel routines
 
     PWSCF        :     41.41s CPU     42.70s WALL

 
   This run was terminated on:  17:54:20  22Nov2025            

=------------------------------------------------------------------------------=
   JOB DONE.
=------------------------------------------------------------------------------=
