
     Program PWSCF v.7.5 starts on  4Nov2025 at  0:13:23 

     This program is part of the open-source Quantum ESPRESSO suite
     for quantum simulation of materials; please cite
         "P. Giannozzi et al., J. Phys.:Condens. Matter 21 395502 (2009);
         "P. Giannozzi et al., J. Phys.:Condens. Matter 29 465901 (2017);
         "P. Giannozzi et al., J. Chem. Phys. 152 154105 (2020);
          URL http://www.quantum-espresso.org", 
     in publications or presentations arising from this work. More details at
     http://www.quantum-espresso.org/quote

     Parallel version (MPI), running on    32 processors

     MPI processes distributed on     1 nodes
     61736 MiB available memory on the printing compute node when the environment starts
 
     Reading input from disp09.pw.in

     Current dimensions of program PWSCF are:
     Max number of different atomic species (ntypx) = 10
     Max number of k-points (npk) =  40000
     Max angular momentum in pseudopotentials (lmaxx) =  4
     file Zn.upf: wavefunction(s)  3D renormalized
     Message from routine setup:
     using ibrav=0 with symmetry is DISCOURAGED, use correct ibrav instead
 
     R & G space division:  proc/nbgrp/npool/nimage =      32
     Subspace diagonalization in iterative solution of the eigenvalue problem:
     a serial algorithm will be used

 
     Parallelization info
     --------------------
     sticks:   dense  smooth     PW     G-vecs:    dense   smooth      PW
     Min         131      65     18                11135     3932     572
     Max         132      66     19                11140     3936     579
     Sum        4219    2107    583               356437   125891   18401
 
     Using Slab Decomposition
 


     bravais-lattice index     =            0
     lattice parameter (alat)  =      12.3576  a.u.
     unit-cell volume          =    2638.3809 (a.u.)^3
     number of atoms/cell      =           32
     number of atomic types    =            2
     number of electrons       =       288.00
     number of Kohn-Sham states=          144
     kinetic-energy cutoff     =      50.0000  Ry
     charge density cutoff     =     400.0000  Ry
     scf convergence threshold =      1.0E-08
     mixing beta               =       0.3000
     number of iterations used =            8  plain     mixing
     Exchange-correlation= PBE
                           (   1   4   3   4   0   0   0)

     celldm(1)=  12.357643  celldm(2)=   0.000000  celldm(3)=   0.000000
     celldm(4)=   0.000000  celldm(5)=   0.000000  celldm(6)=   0.000000

     crystal axes: (cart. coord. in units of alat)
               a(1) = (   1.000000   0.000000   0.000000 )  
               a(2) = (  -0.500000   0.866025   0.000000 )  
               a(3) = (   0.000000   0.000000   1.614358 )  

     reciprocal axes: (cart. coord. in units 2 pi/alat)
               b(1) = (  1.000000  0.577350  0.000000 )  
               b(2) = (  0.000000  1.154701  0.000000 )  
               b(3) = (  0.000000  0.000000  0.619441 )  


     PseudoPot. # 1 for Zn read from file:
     /home/jvc/QEspresso7.2/ZnO_database/pseudos/Zn.upf
     MD5 check sum: 7f56cabf9682ed8c977c2f7d0c5985c5
     Pseudo is Ultrasoft + core correction, Zval = 12.0
     Generated using &quot;atomic&quot; code by A. Dal Corso  v.6.2.2
     Using radial grid of 1201 points,  6 beta functions with: 
                l(1) =   0
                l(2) =   0
                l(3) =   1
                l(4) =   1
                l(5) =   2
                l(6) =   2
     Q(r) pseudized with 0 coefficients 


     PseudoPot. # 2 for O  read from file:
     /home/jvc/QEspresso7.2/ZnO_database/pseudos/O.upf
     MD5 check sum: 91400c9766925bcf19f520983a725ff0
     Pseudo is Ultrasoft + core correction, Zval =  6.0
     Generated using &quot;atomic&quot; code by A. Dal Corso  v.6.3MaX
     Using radial grid of 1095 points,  4 beta functions with: 
                l(1) =   0
                l(2) =   0
                l(3) =   1
                l(4) =   1
     Q(r) pseudized with 0 coefficients 


     atomic species   valence    mass     pseudopotential
     Zn               12.00    65.38000     Zn( 1.00)
     O                 6.00    15.99900     O ( 1.00)

      6 Sym. Ops. (no inversion) found ( 4 have fractional translation)


                                    s                        frac. trans.

      isym =  1     identity                                     

 cryst.   s( 1) = (     1          0          0      )
                  (     0          1          0      )
                  (     0          0          1      )

 cart.    s( 1) = (  1.0000000  0.0000000  0.0000000 )
                  (  0.0000000  1.0000000  0.0000000 )
                  (  0.0000000  0.0000000  1.0000000 )


      isym =  2     120 deg rotation - cryst. axis [0,0,1]       

 cryst.   s( 2) = (     0          1          0      )    f =( -0.5000000 )
                  (    -1         -1          0      )       (  0.0000000 )
                  (     0          0          1      )       (  0.0000000 )

 cart.    s( 2) = ( -0.5000000 -0.8660254  0.0000000 )    f =( -0.5000000 )
                  (  0.8660254 -0.5000000  0.0000000 )       (  0.0000000 )
                  (  0.0000000  0.0000000  1.0000000 )       (  0.0000000 )


      isym =  3     120 deg rotation - cryst. axis [0,0,-1]      

 cryst.   s( 3) = (    -1         -1          0      )    f =( -0.5000000 )
                  (     1          0          0      )       ( -0.5000000 )
                  (     0          0          1      )       (  0.0000000 )

 cart.    s( 3) = ( -0.5000000  0.8660254  0.0000000 )    f =( -0.2500000 )
                  ( -0.8660254 -0.5000000  0.0000000 )       ( -0.4330127 )
                  (  0.0000000  0.0000000  1.0000000 )       (  0.0000000 )


      isym =  4     inv. 180 deg rotation - cart. axis [1,0,0]   

 cryst.   s( 4) = (    -1          0          0      )    f =( -0.5000000 )
                  (     1          1          0      )       (  0.0000000 )
                  (     0          0          1      )       (  0.0000000 )

 cart.    s( 4) = ( -1.0000000  0.0000000  0.0000000 )    f =( -0.5000000 )
                  (  0.0000000  1.0000000  0.0000000 )       (  0.0000000 )
                  (  0.0000000  0.0000000  1.0000000 )       (  0.0000000 )


      isym =  5     inv. 180 deg rotation - cryst. axis [0,1,0]  

 cryst.   s( 5) = (     1          1          0      )
                  (     0         -1          0      )
                  (     0          0          1      )

 cart.    s( 5) = (  0.5000000  0.8660254  0.0000000 )
                  (  0.8660254 -0.5000000  0.0000000 )
                  (  0.0000000  0.0000000  1.0000000 )


      isym =  6     inv. 180 deg rotation - cryst. axis [1,1,0]  

 cryst.   s( 6) = (     0         -1          0      )    f =( -0.5000000 )
                  (    -1          0          0      )       ( -0.5000000 )
                  (     0          0          1      )       (  0.0000000 )

 cart.    s( 6) = (  0.5000000 -0.8660254  0.0000000 )    f =( -0.2500000 )
                  ( -0.8660254 -0.5000000  0.0000000 )       ( -0.4330127 )
                  (  0.0000000  0.0000000  1.0000000 )       (  0.0000000 )


   Cartesian axes

     site n.     atom                  positions (alat units)
         1        Zn     tau(   1) = (   0.2500000   0.1443376   0.4041010  )
         2        Zn     tau(   2) = (  -0.0000000   0.2886751   0.0005114  )
         3        O      tau(   3) = (   0.2500000   0.1443376   0.7115857  )
         4        O      tau(   4) = (  -0.0000000   0.2886751   0.3064669  )
         5        Zn     tau(   5) = (   0.2500000   0.1443376   1.2112802  )
         6        Zn     tau(   6) = (  -0.0000000   0.2886751   0.8076906  )
         7        O      tau(   7) = (   0.2500000   0.1443376   1.5172357  )
         8        O      tau(   8) = (  -0.0000000   0.2886751   1.1136461  )
         9        Zn     tau(   9) = (   0.0000000   0.5773503   0.4041010  )
        10        Zn     tau(  10) = (  -0.2500000   0.7216878   0.0005114  )
        11        O      tau(  11) = (   0.0000000   0.5773503   0.7100565  )
        12        O      tau(  12) = (  -0.2500000   0.7216878   0.3064669  )
        13        Zn     tau(  13) = (   0.0000000   0.5773503   1.2112802  )
        14        Zn     tau(  14) = (  -0.2500000   0.7216878   0.8076906  )
        15        O      tau(  15) = (   0.0000000   0.5773503   1.5172357  )
        16        O      tau(  16) = (  -0.2500000   0.7216878   1.1136461  )
        17        Zn     tau(  17) = (   0.7500000   0.1443376   0.4041010  )
        18        Zn     tau(  18) = (   0.5000000   0.2886751   0.0005114  )
        19        O      tau(  19) = (   0.7500000   0.1443376   0.7100565  )
        20        O      tau(  20) = (   0.5000000   0.2886751   0.3064669  )
        21        Zn     tau(  21) = (   0.7500000   0.1443376   1.2112802  )
        22        Zn     tau(  22) = (   0.5000000   0.2886751   0.8076906  )
        23        O      tau(  23) = (   0.7500000   0.1443376   1.5172357  )
        24        O      tau(  24) = (   0.5000000   0.2886751   1.1136461  )
        25        Zn     tau(  25) = (   0.5000000   0.5773503   0.4041010  )
        26        Zn     tau(  26) = (   0.2500000   0.7216878   0.0005114  )
        27        O      tau(  27) = (   0.5000000   0.5773503   0.7100565  )
        28        O      tau(  28) = (   0.2500000   0.7216878   0.3064669  )
        29        Zn     tau(  29) = (   0.5000000   0.5773503   1.2112802  )
        30        Zn     tau(  30) = (   0.2500000   0.7216878   0.8076906  )
        31        O      tau(  31) = (   0.5000000   0.5773503   1.5172357  )
        32        O      tau(  32) = (   0.2500000   0.7216878   1.1136461  )

   Crystallographic axes

     site n.     atom                  positions (cryst. coord.)
         1        Zn     tau(   1) = (  0.3333333  0.1666667  0.2503168  )
         2        Zn     tau(   2) = (  0.1666667  0.3333333  0.0003168  )
         3        O      tau(   3) = (  0.3333333  0.1666667  0.4407855  )
         4        O      tau(   4) = (  0.1666667  0.3333333  0.1898382  )
         5        Zn     tau(   5) = (  0.3333333  0.1666667  0.7503168  )
         6        Zn     tau(   6) = (  0.1666667  0.3333333  0.5003168  )
         7        O      tau(   7) = (  0.3333333  0.1666667  0.9398382  )
         8        O      tau(   8) = (  0.1666667  0.3333333  0.6898382  )
         9        Zn     tau(   9) = (  0.3333333  0.6666667  0.2503168  )
        10        Zn     tau(  10) = (  0.1666667  0.8333333  0.0003168  )
        11        O      tau(  11) = (  0.3333333  0.6666667  0.4398382  )
        12        O      tau(  12) = (  0.1666667  0.8333333  0.1898382  )
        13        Zn     tau(  13) = (  0.3333333  0.6666667  0.7503168  )
        14        Zn     tau(  14) = (  0.1666667  0.8333333  0.5003168  )
        15        O      tau(  15) = (  0.3333333  0.6666667  0.9398382  )
        16        O      tau(  16) = (  0.1666667  0.8333333  0.6898382  )
        17        Zn     tau(  17) = (  0.8333333  0.1666667  0.2503168  )
        18        Zn     tau(  18) = (  0.6666667  0.3333333  0.0003168  )
        19        O      tau(  19) = (  0.8333333  0.1666667  0.4398382  )
        20        O      tau(  20) = (  0.6666667  0.3333333  0.1898382  )
        21        Zn     tau(  21) = (  0.8333333  0.1666667  0.7503168  )
        22        Zn     tau(  22) = (  0.6666667  0.3333333  0.5003168  )
        23        O      tau(  23) = (  0.8333333  0.1666667  0.9398382  )
        24        O      tau(  24) = (  0.6666667  0.3333333  0.6898382  )
        25        Zn     tau(  25) = (  0.8333333  0.6666667  0.2503168  )
        26        Zn     tau(  26) = (  0.6666667  0.8333333  0.0003168  )
        27        O      tau(  27) = (  0.8333333  0.6666667  0.4398382  )
        28        O      tau(  28) = (  0.6666667  0.8333333  0.1898382  )
        29        Zn     tau(  29) = (  0.8333333  0.6666667  0.7503168  )
        30        Zn     tau(  30) = (  0.6666667  0.8333333  0.5003168  )
        31        O      tau(  31) = (  0.8333333  0.6666667  0.9398382  )
        32        O      tau(  32) = (  0.6666667  0.8333333  0.6898382  )

     number of k points=    34
                       cart. coord. in units 2pi/alat
        k(    1) = (   0.0000000   0.0000000   0.0000000), wk =   0.0092593
        k(    2) = (   0.0000000   0.0000000   0.1032402), wk =   0.0185185
        k(    3) = (   0.0000000   0.0000000   0.2064804), wk =   0.0185185
        k(    4) = (   0.0000000   0.0000000  -0.3097206), wk =   0.0092593
        k(    5) = (   0.0000000   0.1924501   0.0000000), wk =   0.0555556
        k(    6) = (   0.0000000   0.1924501   0.1032402), wk =   0.0555556
        k(    7) = (   0.0000000   0.1924501   0.2064804), wk =   0.0555556
        k(    8) = (   0.0000000   0.1924501  -0.3097206), wk =   0.0555556
        k(    9) = (   0.0000000   0.3849002   0.0000000), wk =   0.0555556
        k(   10) = (   0.0000000   0.3849002   0.1032402), wk =   0.0555556
        k(   11) = (   0.0000000   0.3849002   0.2064804), wk =   0.0555556
        k(   12) = (   0.0000000   0.3849002  -0.3097206), wk =   0.0555556
        k(   13) = (   0.0000000  -0.5773503   0.0000000), wk =   0.0277778
        k(   14) = (   0.0000000  -0.5773503   0.1032402), wk =   0.0555556
        k(   15) = (   0.0000000  -0.5773503   0.2064804), wk =   0.0555556
        k(   16) = (   0.0000000  -0.5773503  -0.3097206), wk =   0.0277778
        k(   17) = (   0.1666667   0.2886751   0.0000000), wk =   0.0555556
        k(   18) = (   0.1666667   0.2886751   0.1032402), wk =   0.1111111
        k(   19) = (   0.1666667   0.2886751   0.2064804), wk =   0.1111111
        k(   20) = (   0.1666667   0.2886751  -0.3097206), wk =   0.0555556
        k(   21) = (   0.1666667   0.4811252   0.0000000), wk =   0.1111111
        k(   22) = (   0.1666667   0.4811252   0.1032402), wk =   0.1111111
        k(   23) = (   0.1666667   0.4811252   0.2064804), wk =   0.1111111
        k(   24) = (   0.1666667   0.4811252  -0.3097206), wk =   0.1111111
        k(   25) = (   0.3333333   0.5773503   0.0000000), wk =   0.0185185
        k(   26) = (   0.3333333   0.5773503   0.1032402), wk =   0.0370370
        k(   27) = (   0.3333333   0.5773503   0.2064804), wk =   0.0370370
        k(   28) = (   0.3333333   0.5773503  -0.3097206), wk =   0.0185185
        k(   29) = (   0.0000000  -0.1924501   0.1032402), wk =   0.0555556
        k(   30) = (   0.0000000  -0.1924501   0.2064804), wk =   0.0555556
        k(   31) = (   0.0000000  -0.3849002   0.1032402), wk =   0.0555556
        k(   32) = (   0.0000000  -0.3849002   0.2064804), wk =   0.0555556
        k(   33) = (  -0.1666667  -0.4811252   0.1032402), wk =   0.1111111
        k(   34) = (  -0.1666667  -0.4811252   0.2064804), wk =   0.1111111

                       cryst. coord.
        k(    1) = (   0.0000000   0.0000000   0.0000000), wk =   0.0092593
        k(    2) = (   0.0000000   0.0000000   0.1666667), wk =   0.0185185
        k(    3) = (   0.0000000   0.0000000   0.3333333), wk =   0.0185185
        k(    4) = (   0.0000000   0.0000000  -0.5000000), wk =   0.0092593
        k(    5) = (   0.0000000   0.1666667   0.0000000), wk =   0.0555556
        k(    6) = (   0.0000000   0.1666667   0.1666667), wk =   0.0555556
        k(    7) = (   0.0000000   0.1666667   0.3333333), wk =   0.0555556
        k(    8) = (   0.0000000   0.1666667  -0.5000000), wk =   0.0555556
        k(    9) = (   0.0000000   0.3333333   0.0000000), wk =   0.0555556
        k(   10) = (   0.0000000   0.3333333   0.1666667), wk =   0.0555556
        k(   11) = (   0.0000000   0.3333333   0.3333333), wk =   0.0555556
        k(   12) = (   0.0000000   0.3333333  -0.5000000), wk =   0.0555556
        k(   13) = (   0.0000000  -0.5000000   0.0000000), wk =   0.0277778
        k(   14) = (   0.0000000  -0.5000000   0.1666667), wk =   0.0555556
        k(   15) = (   0.0000000  -0.5000000   0.3333333), wk =   0.0555556
        k(   16) = (   0.0000000  -0.5000000  -0.5000000), wk =   0.0277778
        k(   17) = (   0.1666667   0.1666667   0.0000000), wk =   0.0555556
        k(   18) = (   0.1666667   0.1666667   0.1666667), wk =   0.1111111
        k(   19) = (   0.1666667   0.1666667   0.3333333), wk =   0.1111111
        k(   20) = (   0.1666667   0.1666667  -0.5000000), wk =   0.0555556
        k(   21) = (   0.1666667   0.3333333   0.0000000), wk =   0.1111111
        k(   22) = (   0.1666667   0.3333333   0.1666667), wk =   0.1111111
        k(   23) = (   0.1666667   0.3333333   0.3333333), wk =   0.1111111
        k(   24) = (   0.1666667   0.3333333  -0.5000000), wk =   0.1111111
        k(   25) = (   0.3333333   0.3333333   0.0000000), wk =   0.0185185
        k(   26) = (   0.3333333   0.3333333   0.1666667), wk =   0.0370370
        k(   27) = (   0.3333333   0.3333333   0.3333333), wk =   0.0370370
        k(   28) = (   0.3333333   0.3333333  -0.5000000), wk =   0.0185185
        k(   29) = (   0.0000000  -0.1666667   0.1666667), wk =   0.0555556
        k(   30) = (   0.0000000  -0.1666667   0.3333333), wk =   0.0555556
        k(   31) = (   0.0000000  -0.3333333   0.1666667), wk =   0.0555556
        k(   32) = (   0.0000000  -0.3333333   0.3333333), wk =   0.0555556
        k(   33) = (  -0.1666667  -0.3333333   0.1666667), wk =   0.1111111
        k(   34) = (  -0.1666667  -0.3333333   0.3333333), wk =   0.1111111

     Dense  grid:   356437 G-vectors     FFT dimensions: (  80,  80, 128)

     Smooth grid:   125891 G-vectors     FFT dimensions: (  60,  60,  90)

     Dynamical RAM for                 wfc:       1.08 MB

     Dynamical RAM for     wfc (w. buffer):      37.84 MB

     Dynamical RAM for           str. fact:       0.34 MB

     Dynamical RAM for           local pot:       0.00 MB

     Dynamical RAM for          nlocal pot:       3.12 MB

     Dynamical RAM for                qrad:       3.21 MB

     Dynamical RAM for          rho,v,vnew:       1.10 MB

     Dynamical RAM for               rhoin:       0.37 MB

     Dynamical RAM for            rho*nmix:       2.72 MB

     Dynamical RAM for           G-vectors:       0.67 MB

     Dynamical RAM for          h,s,v(r/c):       3.80 MB

     Dynamical RAM for          <psi|beta>:       0.91 MB

     Dynamical RAM for                 psi:       2.16 MB

     Dynamical RAM for                hpsi:       2.16 MB

     Dynamical RAM for                spsi:       2.16 MB

     Dynamical RAM for      wfcinit/wfcrot:       2.64 MB

     Dynamical RAM for           addusdens:      34.34 MB

     Dynamical RAM for          addusforce:      39.58 MB

     Estimated static dynamical RAM per process >      48.13 MB

     Estimated max dynamical RAM per process >      90.43 MB

     Estimated total dynamical RAM >       2.83 GB

     Check: negative core charge=   -0.000002

     Initial potential from superposition of free atoms

     starting charge     287.9404, renormalised to     288.0000
     Starting wfcs are  208 randomized atomic wfcs

     total cpu time spent up to now is       14.8 secs

     Self-consistent Calculation

     iteration #  1     ecut=    50.00 Ry     beta= 0.30
     Davidson diagonalization with overlap

---- Real-time Memory Report at c_bands before calling an iterative solver
           208 MiB given to the printing process from OS
             0 MiB allocation reported by mallinfo(arena+hblkhd)
         59242 MiB available memory on the node where the printing process lives
------------------
     ethr =  1.00E-02,  avg # of iterations =  2.0

     total cpu time spent up to now is       45.2 secs

     total energy              =   -2891.83737553 Ry
     estimated scf accuracy    <       5.52632961 Ry

     iteration #  2     ecut=    50.00 Ry     beta= 0.30
     Davidson diagonalization with overlap

---- Real-time Memory Report at c_bands before calling an iterative solver
           293 MiB given to the printing process from OS
             0 MiB allocation reported by mallinfo(arena+hblkhd)
         58371 MiB available memory on the node where the printing process lives
------------------
     ethr =  1.92E-03,  avg # of iterations =  2.0

     total cpu time spent up to now is       83.4 secs

     total energy              =   -2892.63313944 Ry
     estimated scf accuracy    <       0.70503055 Ry

     iteration #  3     ecut=    50.00 Ry     beta= 0.30
     Davidson diagonalization with overlap

---- Real-time Memory Report at c_bands before calling an iterative solver
           323 MiB given to the printing process from OS
             0 MiB allocation reported by mallinfo(arena+hblkhd)
         58462 MiB available memory on the node where the printing process lives
------------------
     ethr =  2.45E-04,  avg # of iterations =  7.8

     total cpu time spent up to now is      161.0 secs

     total energy              =   -2892.88920053 Ry
     estimated scf accuracy    <       0.45757524 Ry

     iteration #  4     ecut=    50.00 Ry     beta= 0.30
     Davidson diagonalization with overlap

---- Real-time Memory Report at c_bands before calling an iterative solver
           337 MiB given to the printing process from OS
             0 MiB allocation reported by mallinfo(arena+hblkhd)
         58516 MiB available memory on the node where the printing process lives
------------------
     ethr =  1.59E-04,  avg # of iterations =  9.8

     total cpu time spent up to now is      257.4 secs

     total energy              =   -2893.19404868 Ry
     estimated scf accuracy    <       1.85928002 Ry

     iteration #  5     ecut=    50.00 Ry     beta= 0.30
     Davidson diagonalization with overlap

---- Real-time Memory Report at c_bands before calling an iterative solver
           342 MiB given to the printing process from OS
             0 MiB allocation reported by mallinfo(arena+hblkhd)
         58536 MiB available memory on the node where the printing process lives
------------------
     ethr =  1.59E-04,  avg # of iterations =  2.0

     total cpu time spent up to now is      288.8 secs

     total energy              =   -2892.34053442 Ry
     estimated scf accuracy    <       1.06220140 Ry

     iteration #  6     ecut=    50.00 Ry     beta= 0.30
     Davidson diagonalization with overlap

---- Real-time Memory Report at c_bands before calling an iterative solver
           343 MiB given to the printing process from OS
             0 MiB allocation reported by mallinfo(arena+hblkhd)
         58529 MiB available memory on the node where the printing process lives
------------------
     c_bands:  1 eigenvalues not converged
     ethr =  1.59E-04,  avg # of iterations = 12.7

     total cpu time spent up to now is      406.0 secs

     total energy              =   -2892.47759785 Ry
     estimated scf accuracy    <       6.90659340 Ry

     iteration #  7     ecut=    50.00 Ry     beta= 0.30
     Davidson diagonalization with overlap

---- Real-time Memory Report at c_bands before calling an iterative solver
           345 MiB given to the printing process from OS
             0 MiB allocation reported by mallinfo(arena+hblkhd)
         58545 MiB available memory on the node where the printing process lives
------------------
     ethr =  1.59E-04,  avg # of iterations =  9.8

     total cpu time spent up to now is      499.7 secs

     total energy              =   -2893.08168340 Ry
     estimated scf accuracy    <       0.47399704 Ry

     iteration #  8     ecut=    50.00 Ry     beta= 0.30
     Davidson diagonalization with overlap

---- Real-time Memory Report at c_bands before calling an iterative solver
           346 MiB given to the printing process from OS
             0 MiB allocation reported by mallinfo(arena+hblkhd)
         58556 MiB available memory on the node where the printing process lives
------------------
     ethr =  1.59E-04,  avg # of iterations =  1.9

     total cpu time spent up to now is      529.6 secs

     total energy              =   -2893.09586836 Ry
     estimated scf accuracy    <       0.25416394 Ry

     iteration #  9     ecut=    50.00 Ry     beta= 0.30
     Davidson diagonalization with overlap

---- Real-time Memory Report at c_bands before calling an iterative solver
           346 MiB given to the printing process from OS
             0 MiB allocation reported by mallinfo(arena+hblkhd)
         58557 MiB available memory on the node where the printing process lives
------------------
     ethr =  8.83E-05,  avg # of iterations =  1.9

     total cpu time spent up to now is      559.6 secs

     total energy              =   -2892.97903511 Ry
     estimated scf accuracy    <       0.22153563 Ry

     iteration # 10     ecut=    50.00 Ry     beta= 0.30
     Davidson diagonalization with overlap

---- Real-time Memory Report at c_bands before calling an iterative solver
           347 MiB given to the printing process from OS
             0 MiB allocation reported by mallinfo(arena+hblkhd)
         58565 MiB available memory on the node where the printing process lives
------------------
     ethr =  7.69E-05,  avg # of iterations =  7.9

     total cpu time spent up to now is      633.0 secs

     total energy              =   -2893.09466943 Ry
     estimated scf accuracy    <       0.08041874 Ry

     iteration # 11     ecut=    50.00 Ry     beta= 0.30
     Davidson diagonalization with overlap

---- Real-time Memory Report at c_bands before calling an iterative solver
           347 MiB given to the printing process from OS
             0 MiB allocation reported by mallinfo(arena+hblkhd)
         58559 MiB available memory on the node where the printing process lives
------------------
     ethr =  2.79E-05,  avg # of iterations =  2.2

     total cpu time spent up to now is      663.9 secs

     total energy              =   -2893.08472307 Ry
     estimated scf accuracy    <       0.03648359 Ry

     iteration # 12     ecut=    50.00 Ry     beta= 0.30
     Davidson diagonalization with overlap

---- Real-time Memory Report at c_bands before calling an iterative solver
           347 MiB given to the printing process from OS
             0 MiB allocation reported by mallinfo(arena+hblkhd)
         58564 MiB available memory on the node where the printing process lives
------------------
     ethr =  1.27E-05,  avg # of iterations =  4.3

     total cpu time spent up to now is      712.4 secs

     total energy              =   -2893.09546309 Ry
     estimated scf accuracy    <       0.00058922 Ry

     iteration # 13     ecut=    50.00 Ry     beta= 0.30
     Davidson diagonalization with overlap

---- Real-time Memory Report at c_bands before calling an iterative solver
           347 MiB given to the printing process from OS
             0 MiB allocation reported by mallinfo(arena+hblkhd)
         58571 MiB available memory on the node where the printing process lives
------------------
     ethr =  2.05E-07,  avg # of iterations = 10.3

     total cpu time spent up to now is      801.0 secs

     total energy              =   -2893.09816040 Ry
     estimated scf accuracy    <       0.00096843 Ry

     iteration # 14     ecut=    50.00 Ry     beta= 0.30
     Davidson diagonalization with overlap

---- Real-time Memory Report at c_bands before calling an iterative solver
           347 MiB given to the printing process from OS
             0 MiB allocation reported by mallinfo(arena+hblkhd)
         58571 MiB available memory on the node where the printing process lives
------------------
     ethr =  2.05E-07,  avg # of iterations = 10.7

     total cpu time spent up to now is      898.8 secs

     total energy              =   -2893.09332686 Ry
     estimated scf accuracy    <       0.01123857 Ry

     iteration # 15     ecut=    50.00 Ry     beta= 0.30
     Davidson diagonalization with overlap

---- Real-time Memory Report at c_bands before calling an iterative solver
           347 MiB given to the printing process from OS
             0 MiB allocation reported by mallinfo(arena+hblkhd)
         58588 MiB available memory on the node where the printing process lives
------------------
     c_bands:  1 eigenvalues not converged
     ethr =  2.05E-07,  avg # of iterations = 12.9

     total cpu time spent up to now is     1019.4 secs

     total energy              =   -2893.09682985 Ry
     estimated scf accuracy    <       0.00072043 Ry

     iteration # 16     ecut=    50.00 Ry     beta= 0.30
     Davidson diagonalization with overlap

---- Real-time Memory Report at c_bands before calling an iterative solver
           347 MiB given to the printing process from OS
             0 MiB allocation reported by mallinfo(arena+hblkhd)
         58592 MiB available memory on the node where the printing process lives
------------------
     ethr =  2.05E-07,  avg # of iterations =  6.4

     total cpu time spent up to now is     1067.5 secs

     total energy              =   -2893.09699698 Ry
     estimated scf accuracy    <       0.00184929 Ry

     iteration # 17     ecut=    50.00 Ry     beta= 0.30
     Davidson diagonalization with overlap

---- Real-time Memory Report at c_bands before calling an iterative solver
           347 MiB given to the printing process from OS
             0 MiB allocation reported by mallinfo(arena+hblkhd)
         58596 MiB available memory on the node where the printing process lives
------------------
     ethr =  2.05E-07,  avg # of iterations =  2.1

     total cpu time spent up to now is     1100.6 secs

     total energy              =   -2893.09682188 Ry
     estimated scf accuracy    <       0.00246187 Ry

     iteration # 18     ecut=    50.00 Ry     beta= 0.30
     Davidson diagonalization with overlap

---- Real-time Memory Report at c_bands before calling an iterative solver
           347 MiB given to the printing process from OS
             0 MiB allocation reported by mallinfo(arena+hblkhd)
         58589 MiB available memory on the node where the printing process lives
------------------
     ethr =  2.05E-07,  avg # of iterations =  1.0

     total cpu time spent up to now is     1126.9 secs

     total energy              =   -2893.09571411 Ry
     estimated scf accuracy    <       0.00219519 Ry

     iteration # 19     ecut=    50.00 Ry     beta= 0.30
     Davidson diagonalization with overlap

---- Real-time Memory Report at c_bands before calling an iterative solver
           347 MiB given to the printing process from OS
             0 MiB allocation reported by mallinfo(arena+hblkhd)
         58593 MiB available memory on the node where the printing process lives
------------------
     ethr =  2.05E-07,  avg # of iterations =  7.6

     total cpu time spent up to now is     1204.5 secs

     total energy              =   -2893.09621505 Ry
     estimated scf accuracy    <       0.00002265 Ry

     iteration # 20     ecut=    50.00 Ry     beta= 0.30
     Davidson diagonalization with overlap

---- Real-time Memory Report at c_bands before calling an iterative solver
           347 MiB given to the printing process from OS
             0 MiB allocation reported by mallinfo(arena+hblkhd)
         58600 MiB available memory on the node where the printing process lives
------------------
     ethr =  7.86E-09,  avg # of iterations =  7.3

     total cpu time spent up to now is     1264.7 secs

     total energy              =   -2893.09625582 Ry
     estimated scf accuracy    <       0.00000994 Ry

     iteration # 21     ecut=    50.00 Ry     beta= 0.30
     Davidson diagonalization with overlap

---- Real-time Memory Report at c_bands before calling an iterative solver
           347 MiB given to the printing process from OS
             0 MiB allocation reported by mallinfo(arena+hblkhd)
         58601 MiB available memory on the node where the printing process lives
------------------
     ethr =  3.45E-09,  avg # of iterations = 11.7

     total cpu time spent up to now is     1371.1 secs

     total energy              =   -2893.09624788 Ry
     estimated scf accuracy    <       0.00021380 Ry

     iteration # 22     ecut=    50.00 Ry     beta= 0.30
     Davidson diagonalization with overlap

---- Real-time Memory Report at c_bands before calling an iterative solver
           347 MiB given to the printing process from OS
             0 MiB allocation reported by mallinfo(arena+hblkhd)
         58603 MiB available memory on the node where the printing process lives
------------------
     ethr =  3.45E-09,  avg # of iterations =  5.6

     total cpu time spent up to now is     1419.9 secs

     total energy              =   -2893.09623805 Ry
     estimated scf accuracy    <       0.00013719 Ry

     iteration # 23     ecut=    50.00 Ry     beta= 0.30
     Davidson diagonalization with overlap

---- Real-time Memory Report at c_bands before calling an iterative solver
           347 MiB given to the printing process from OS
             0 MiB allocation reported by mallinfo(arena+hblkhd)
         58610 MiB available memory on the node where the printing process lives
------------------
     ethr =  3.45E-09,  avg # of iterations =  6.1

     total cpu time spent up to now is     1473.8 secs

     total energy              =   -2893.09623190 Ry
     estimated scf accuracy    <       0.00007601 Ry

     iteration # 24     ecut=    50.00 Ry     beta= 0.30
     Davidson diagonalization with overlap

---- Real-time Memory Report at c_bands before calling an iterative solver
           347 MiB given to the printing process from OS
             0 MiB allocation reported by mallinfo(arena+hblkhd)
         58608 MiB available memory on the node where the printing process lives
------------------
     ethr =  3.45E-09,  avg # of iterations =  4.8

     total cpu time spent up to now is     1515.1 secs

     total energy              =   -2893.09621619 Ry
     estimated scf accuracy    <       0.00005181 Ry

     iteration # 25     ecut=    50.00 Ry     beta= 0.30
     Davidson diagonalization with overlap

---- Real-time Memory Report at c_bands before calling an iterative solver
           347 MiB given to the printing process from OS
             0 MiB allocation reported by mallinfo(arena+hblkhd)
         58610 MiB available memory on the node where the printing process lives
------------------
     ethr =  3.45E-09,  avg # of iterations =  7.7

     total cpu time spent up to now is     1590.8 secs

     total energy              =   -2893.09622410 Ry
     estimated scf accuracy    <       0.00000163 Ry

     iteration # 26     ecut=    50.00 Ry     beta= 0.30
     Davidson diagonalization with overlap

---- Real-time Memory Report at c_bands before calling an iterative solver
           347 MiB given to the printing process from OS
             0 MiB allocation reported by mallinfo(arena+hblkhd)
         58613 MiB available memory on the node where the printing process lives
------------------
     ethr =  5.65E-10,  avg # of iterations =  6.5

     total cpu time spent up to now is     1636.0 secs

     total energy              =   -2893.09622434 Ry
     estimated scf accuracy    <       0.00000050 Ry

     iteration # 27     ecut=    50.00 Ry     beta= 0.30
     Davidson diagonalization with overlap

---- Real-time Memory Report at c_bands before calling an iterative solver
           347 MiB given to the printing process from OS
             0 MiB allocation reported by mallinfo(arena+hblkhd)
         58616 MiB available memory on the node where the printing process lives
------------------
     ethr =  1.73E-10,  avg # of iterations =  5.5

     total cpu time spent up to now is     1685.9 secs

     total energy              =   -2893.09622443 Ry
     estimated scf accuracy    <       0.00000009 Ry

     iteration # 28     ecut=    50.00 Ry     beta= 0.30
     Davidson diagonalization with overlap

---- Real-time Memory Report at c_bands before calling an iterative solver
           347 MiB given to the printing process from OS
             0 MiB allocation reported by mallinfo(arena+hblkhd)
         58617 MiB available memory on the node where the printing process lives
------------------
     ethr =  3.19E-11,  avg # of iterations =  6.6

     total cpu time spent up to now is     1744.0 secs

     End of self-consistent calculation

          k = 0.0000 0.0000 0.0000 ( 15657 PWs)   bands (ev):

   -11.0003 -10.6700 -10.6686 -10.3513 -10.3513 -10.3511 -10.3202 -10.2397
   -10.2393 -10.2393 -10.2387 -10.2387 -10.2384 -10.1425 -10.1424 -10.1424
     0.9508   0.9514   0.9514   0.9517   0.9517   0.9526   1.1130   1.1131
     1.1131   1.1287   1.1311   1.3137   1.3137   1.3208   1.3208   1.3224
     1.3569   1.3832   1.3832   1.3833   1.3833   1.4392   1.4992   1.4992
     1.5598   1.5598   1.5603   1.7797   1.7797   1.7809   1.7810   1.7810
     1.7821   1.8566   1.8566   1.8577   1.8584   1.8584   1.8608   1.9412
     1.9412   1.9435   1.9528   1.9528   1.9539   2.0726   2.0726   2.0748
     2.4272   2.4272   2.4635   2.4635   2.4638   2.5447   2.5447   2.5470
     2.5470   2.5883   2.5883   2.5901   2.6110   2.6110   2.6125   2.6132
     2.6132   2.6138   2.6242   2.6242   2.6696   2.6696   2.6704   2.6952
     2.6952   2.6966   2.6975   2.6976   2.6976   2.7408   2.7408   2.7411
     2.8917   3.1838   3.1838   3.1862   3.1868   3.1868   3.1894   3.2038
     3.2041   3.2041   3.4232   3.4232   3.4249   4.1395   4.1395   4.1415
     4.6577   4.6604   4.7126   4.7128   4.7128   5.4342   5.4342   5.4366
     5.4375   5.4376   5.4376   5.5497   5.5527   5.5527   5.5537   5.5537
     5.5553   5.6395   5.6401   5.6401   6.0793   6.0793   6.0814   6.1243
     6.1243   6.5083   6.5083   6.5109   6.5109   6.8030   6.8856   6.8856

     occupation numbers 
     1.0000   1.0000   1.0000   1.0000   1.0000   1.0000   1.0000   1.0000
     1.0000   1.0000   1.0000   1.0000   1.0000   1.0000   1.0000   1.0000
     1.0000   1.0000   1.0000   1.0000   1.0000   1.0000   1.0000   1.0000
     1.0000   1.0000   1.0000   1.0000   1.0000   1.0000   1.0000   1.0000
     1.0000   1.0000   1.0000   1.0000   1.0000   1.0000   1.0000   1.0000
     1.0000   1.0000   1.0000   1.0000   1.0000   1.0000   1.0000   1.0000
     1.0000   1.0000   1.0000   1.0000   1.0000   1.0000   1.0000   1.0000
     1.0000   1.0000   1.0000   1.0000   1.0000   1.0000   1.0000   1.0000
     1.0000   1.0000   1.0000   1.0000   1.0000   1.0000   1.0000   1.0000
     1.0000   1.0000   1.0000   1.0000   1.0000   1.0000   1.0000   1.0000
     1.0000   1.0000   1.0000   1.0000   1.0000   1.0000   1.0000   1.0000
     1.0000   1.0000   1.0000   1.0000   1.0000   1.0000   1.0000   1.0000
     1.0000   1.0000   1.0000   1.0000   1.0000   1.0000   1.0000   1.0000
     1.0000   1.0000   1.0000   1.0000   1.0000   1.0000   1.0000   1.0000
     1.0000   1.0000   1.0000   1.0000   1.0000   1.0000   1.0000   1.0000
     1.0000   1.0000   1.0000   1.0000   1.0000   1.0000   1.0000   1.0000
     1.0000   1.0000   1.0000   1.0000   1.0000   1.0000   1.0000   1.0000
     1.0000   1.0000   1.0000   1.0000   1.0000   1.0000   1.0000   1.0000

          k = 0.0000 0.0000 0.1032 ( 15729 PWs)   bands (ev):

   -10.9893 -10.7566 -10.5808 -10.3473 -10.3473 -10.3471 -10.3324 -10.2666
   -10.2666 -10.2666 -10.2125 -10.2125 -10.2125 -10.1455 -10.1453 -10.1453
     0.9534   0.9534   0.9534   0.9824   0.9824   0.9828   1.1011   1.1012
     1.1012   1.1288   1.1589   1.2940   1.2940   1.2957   1.3154   1.3154
     1.3447   1.3613   1.3613   1.4021   1.4083   1.4083   1.4943   1.4943
     1.5662   1.5662   1.5668   1.7175   1.7175   1.7184   1.8478   1.8478
     1.8493   1.8580   1.8580   1.8594   1.8650   1.8650   1.8671   1.9351
     1.9351   1.9367   1.9397   1.9397   1.9414   2.0611   2.0611   2.0632
     2.4315   2.4315   2.4818   2.4818   2.4822   2.5186   2.5186   2.5704
     2.5704   2.5888   2.5888   2.5905   2.6049   2.6049   2.6060   2.6206
     2.6206   2.6220   2.6225   2.6225   2.6654   2.6654   2.6664   2.6664
     2.6666   2.6668   2.7173   2.7173   2.7179   2.7407   2.7407   2.7410
     2.9759   3.1573   3.1573   3.1596   3.1904   3.1904   3.1906   3.2249
     3.2249   3.2274   3.4094   3.4094   3.4111   4.2171   4.2171   4.2188
     4.2618   4.7399   4.7401   4.7401   5.0580   5.2602   5.2602   5.2611
     5.3081   5.3086   5.3086   5.6068   5.6068   5.6082   5.6646   5.6651
     5.6651   5.7181   5.7190   5.7190   6.0579   6.0579   6.0600   6.1376
     6.1376   6.4107   6.4107   6.6056   6.6079   6.6079   6.8730   6.8730

     occupation numbers 
     1.0000   1.0000   1.0000   1.0000   1.0000   1.0000   1.0000   1.0000
     1.0000   1.0000   1.0000   1.0000   1.0000   1.0000   1.0000   1.0000
     1.0000   1.0000   1.0000   1.0000   1.0000   1.0000   1.0000   1.0000
     1.0000   1.0000   1.0000   1.0000   1.0000   1.0000   1.0000   1.0000
     1.0000   1.0000   1.0000   1.0000   1.0000   1.0000   1.0000   1.0000
     1.0000   1.0000   1.0000   1.0000   1.0000   1.0000   1.0000   1.0000
     1.0000   1.0000   1.0000   1.0000   1.0000   1.0000   1.0000   1.0000
     1.0000   1.0000   1.0000   1.0000   1.0000   1.0000   1.0000   1.0000
     1.0000   1.0000   1.0000   1.0000   1.0000   1.0000   1.0000   1.0000
     1.0000   1.0000   1.0000   1.0000   1.0000   1.0000   1.0000   1.0000
     1.0000   1.0000   1.0000   1.0000   1.0000   1.0000   1.0000   1.0000
     1.0000   1.0000   1.0000   1.0000   1.0000   1.0000   1.0000   1.0000
     1.0000   1.0000   1.0000   1.0000   1.0000   1.0000   1.0000   1.0000
     1.0000   1.0000   1.0000   1.0000   1.0000   1.0000   1.0000   1.0000
     1.0000   1.0000   1.0000   1.0000   1.0000   1.0000   1.0000   1.0000
     1.0000   1.0000   1.0000   1.0000   1.0000   1.0000   1.0000   1.0000
     1.0000   1.0000   1.0000   1.0000   1.0000   1.0000   1.0000   1.0000
     1.0000   1.0000   1.0000   1.0000   1.0000   1.0000   1.0000   1.0000

          k = 0.0000 0.0000 0.2065 ( 15741 PWs)   bands (ev):

   -10.9570 -10.8369 -10.4972 -10.3680 -10.3356 -10.3356 -10.3353 -10.2932
   -10.2931 -10.2931 -10.1889 -10.1889 -10.1888 -10.1543 -10.1541 -10.1541
     0.9815   0.9815   0.9815   1.0454   1.0454   1.0460   1.0689   1.0690
     1.0690   1.1614   1.2063   1.2236   1.2236   1.2249   1.3103   1.3173
     1.3203   1.3203   1.3434   1.3434   1.4343   1.4343   1.4805   1.4805
     1.5859   1.5859   1.5865   1.6629   1.6629   1.6636   1.8672   1.8672
     1.8685   1.8793   1.8793   1.8816   1.9121   1.9121   1.9128   1.9156
     1.9156   1.9172   1.9195   1.9195   1.9222   2.0283   2.0283   2.0303
     2.4449   2.4449   2.4910   2.4910   2.5257   2.5257   2.5263   2.5892
     2.5892   2.5912   2.5912   2.5919   2.5998   2.5998   2.6006   2.6166
     2.6166   2.6257   2.6257   2.6264   2.6316   2.6316   2.6326   2.6566
     2.6566   2.6574   2.7298   2.7298   2.7306   2.7406   2.7406   2.7407
     3.1438   3.1438   3.1457   3.1648   3.1648   3.1656   3.2004   3.2724
     3.2724   3.2748   3.3728   3.3728   3.3747   3.8746   4.4229   4.4229
     4.4238   4.8186   4.8186   4.8186   5.0133   5.0135   5.0135   5.0908
     5.0908   5.0914   5.4553   5.7255   5.7260   5.7260   5.7627   5.7627
     5.7644   5.7913   5.7922   5.7922   5.9952   5.9952   5.9972   6.1763
     6.1763   6.2414   6.3180   6.3180   6.6988   6.6988   6.8359   6.8359

     occupation numbers 
     1.0000   1.0000   1.0000   1.0000   1.0000   1.0000   1.0000   1.0000
     1.0000   1.0000   1.0000   1.0000   1.0000   1.0000   1.0000   1.0000
     1.0000   1.0000   1.0000   1.0000   1.0000   1.0000   1.0000   1.0000
     1.0000   1.0000   1.0000   1.0000   1.0000   1.0000   1.0000   1.0000
     1.0000   1.0000   1.0000   1.0000   1.0000   1.0000   1.0000   1.0000
     1.0000   1.0000   1.0000   1.0000   1.0000   1.0000   1.0000   1.0000
     1.0000   1.0000   1.0000   1.0000   1.0000   1.0000   1.0000   1.0000
     1.0000   1.0000   1.0000   1.0000   1.0000   1.0000   1.0000   1.0000
     1.0000   1.0000   1.0000   1.0000   1.0000   1.0000   1.0000   1.0000
     1.0000   1.0000   1.0000   1.0000   1.0000   1.0000   1.0000   1.0000
     1.0000   1.0000   1.0000   1.0000   1.0000   1.0000   1.0000   1.0000
     1.0000   1.0000   1.0000   1.0000   1.0000   1.0000   1.0000   1.0000
     1.0000   1.0000   1.0000   1.0000   1.0000   1.0000   1.0000   1.0000
     1.0000   1.0000   1.0000   1.0000   1.0000   1.0000   1.0000   1.0000
     1.0000   1.0000   1.0000   1.0000   1.0000   1.0000   1.0000   1.0000
     1.0000   1.0000   1.0000   1.0000   1.0000   1.0000   1.0000   1.0000
     1.0000   1.0000   1.0000   1.0000   1.0000   1.0000   1.0000   1.0000
     1.0000   1.0000   1.0000   1.0000   1.0000   1.0000   1.0000   1.0000

          k = 0.0000 0.0000-0.3097 ( 15656 PWs)   bands (ev):

   -10.9075 -10.9028 -10.4276 -10.4211 -10.3201 -10.3201 -10.3182 -10.3154
   -10.3136 -10.3136 -10.1722 -10.1722 -10.1713 -10.1667 -10.1657 -10.1657
     1.0224   1.0224   1.0224   1.0267   1.0268   1.0268   1.1307   1.1307
     1.1313   1.1340   1.1340   1.1352   1.2246   1.2301   1.2592   1.2634
     1.3269   1.3269   1.3323   1.3323   1.4570   1.4570   1.4621   1.4621
     1.6156   1.6156   1.6167   1.6216   1.6216   1.6218   1.8847   1.8847
     1.8860   1.8864   1.8864   1.8873   1.8976   1.8976   1.8996   1.9013
     1.9013   1.9040   1.9753   1.9753   1.9775   1.9804   1.9804   1.9819
     2.4627   2.4627   2.4685   2.4685   2.5758   2.5758   2.5765   2.5790
     2.5790   2.5801   2.5911   2.5911   2.5934   2.5976   2.5976   2.5982
     2.6034   2.6034   2.6088   2.6088   2.6414   2.6414   2.6429   2.6469
     2.6469   2.6472   2.7346   2.7346   2.7358   2.7398   2.7400   2.7400
     3.1460   3.1460   3.1469   3.1473   3.1473   3.1494   3.3207   3.3207
     3.3236   3.3272   3.3272   3.3287   3.5103   3.5150   4.7022   4.7022
     4.7027   4.7066   4.7066   4.7068   4.9371   4.9379   4.9379   4.9410
     4.9410   4.9423   5.7803   5.7803   5.7804   5.7849   5.7866   5.7866
     5.8481   5.8530   5.8908   5.8908   5.8938   5.8988   5.8988   5.8995
     6.2353   6.2353   6.2406   6.2406   6.7732   6.7732   6.7798   6.7798

     occupation numbers 
     1.0000   1.0000   1.0000   1.0000   1.0000   1.0000   1.0000   1.0000
     1.0000   1.0000   1.0000   1.0000   1.0000   1.0000   1.0000   1.0000
     1.0000   1.0000   1.0000   1.0000   1.0000   1.0000   1.0000   1.0000
     1.0000   1.0000   1.0000   1.0000   1.0000   1.0000   1.0000   1.0000
     1.0000   1.0000   1.0000   1.0000   1.0000   1.0000   1.0000   1.0000
     1.0000   1.0000   1.0000   1.0000   1.0000   1.0000   1.0000   1.0000
     1.0000   1.0000   1.0000   1.0000   1.0000   1.0000   1.0000   1.0000
     1.0000   1.0000   1.0000   1.0000   1.0000   1.0000   1.0000   1.0000
     1.0000   1.0000   1.0000   1.0000   1.0000   1.0000   1.0000   1.0000
     1.0000   1.0000   1.0000   1.0000   1.0000   1.0000   1.0000   1.0000
     1.0000   1.0000   1.0000   1.0000   1.0000   1.0000   1.0000   1.0000
     1.0000   1.0000   1.0000   1.0000   1.0000   1.0000   1.0000   1.0000
     1.0000   1.0000   1.0000   1.0000   1.0000   1.0000   1.0000   1.0000
     1.0000   1.0000   1.0000   1.0000   1.0000   1.0000   1.0000   1.0000
     1.0000   1.0000   1.0000   1.0000   1.0000   1.0000   1.0000   1.0000
     1.0000   1.0000   1.0000   1.0000   1.0000   1.0000   1.0000   1.0000
     1.0000   1.0000   1.0000   1.0000   1.0000   1.0000   1.0000   1.0000
     1.0000   1.0000   1.0000   1.0000   1.0000   1.0000   1.0000   1.0000

          k = 0.0000 0.1925 0.0000 ( 15778 PWs)   bands (ev):

   -10.9638 -10.6424 -10.6411 -10.4107 -10.3538 -10.3537 -10.3038 -10.2695
   -10.2688 -10.2401 -10.2400 -10.2394 -10.2392 -10.1411 -10.1410 -10.1409
     0.9507   0.9514   0.9909   0.9912   0.9916   0.9921   1.0724   1.1070
     1.1089   1.1340   1.1341   1.2722   1.3352   1.3449   1.3810   1.3905
     1.3919   1.4049   1.4052   1.4089   1.4091   1.4781   1.5104   1.5294
     1.5465   1.5468   1.5502   1.7417   1.7423   1.7432   1.7433   1.7543
     1.7556   1.8026   1.8044   1.8607   1.8608   1.8616   1.8628   1.8650
     1.8918   1.8921   1.9743   1.9760   1.9927   2.0240   2.0854   2.0869
     2.4117   2.4245   2.4390   2.4506   2.4507   2.5432   2.5443   2.5455
     2.5466   2.5520   2.5527   2.5590   2.5836   2.5841   2.5853   2.5856
     2.5967   2.5986   2.6273   2.6398   2.6408   2.6549   2.6650   2.6768
     2.6775   2.7142   2.7147   2.7158   2.7158   2.7816   2.7820   2.8537
     2.8829   3.0646   3.1482   3.1488   3.2568   3.2580   3.2593   3.2610
     3.4089   3.4110   3.5128   3.5135   3.5342   4.1343   4.1353   4.2508
     4.6223   4.6225   4.6555   4.6579   4.8200   5.2448   5.2465   5.2475
     5.2480   5.5131   5.5153   5.5400   5.5423   5.6073   5.6094   5.6100
     5.6110   5.6259   5.6264   5.7849   5.8726   5.9846   5.9860   6.0338
     6.1401   6.3166   6.3190   6.4011   6.4396   6.4421   6.7595   6.8373

     occupation numbers 
     1.0000   1.0000   1.0000   1.0000   1.0000   1.0000   1.0000   1.0000
     1.0000   1.0000   1.0000   1.0000   1.0000   1.0000   1.0000   1.0000
     1.0000   1.0000   1.0000   1.0000   1.0000   1.0000   1.0000   1.0000
     1.0000   1.0000   1.0000   1.0000   1.0000   1.0000   1.0000   1.0000
     1.0000   1.0000   1.0000   1.0000   1.0000   1.0000   1.0000   1.0000
     1.0000   1.0000   1.0000   1.0000   1.0000   1.0000   1.0000   1.0000
     1.0000   1.0000   1.0000   1.0000   1.0000   1.0000   1.0000   1.0000
     1.0000   1.0000   1.0000   1.0000   1.0000   1.0000   1.0000   1.0000
     1.0000   1.0000   1.0000   1.0000   1.0000   1.0000   1.0000   1.0000
     1.0000   1.0000   1.0000   1.0000   1.0000   1.0000   1.0000   1.0000
     1.0000   1.0000   1.0000   1.0000   1.0000   1.0000   1.0000   1.0000
     1.0000   1.0000   1.0000   1.0000   1.0000   1.0000   1.0000   1.0000
     1.0000   1.0000   1.0000   1.0000   1.0000   1.0000   1.0000   1.0000
     1.0000   1.0000   1.0000   1.0000   1.0000   1.0000   1.0000   1.0000
     1.0000   1.0000   1.0000   1.0000   1.0000   1.0000   1.0000   1.0000
     1.0000   1.0000   1.0000   1.0000   1.0000   1.0000   1.0000   1.0000
     1.0000   1.0000   1.0000   1.0000   1.0000   1.0000   1.0000   1.0000
     1.0000   1.0000   1.0000   1.0000   1.0000   1.0000   1.0000   1.0000

          k = 0.0000 0.1925 0.1032 ( 15742 PWs)   bands (ev):

   -10.9530 -10.7266 -10.5558 -10.4057 -10.3497 -10.3496 -10.3155 -10.3046
   -10.2678 -10.2677 -10.2346 -10.2127 -10.2126 -10.1450 -10.1442 -10.1441
     0.9428   0.9885   0.9886   0.9918   1.0279   1.0280   1.0620   1.1142
     1.1233   1.1234   1.1302   1.2669   1.3200   1.3370   1.3621   1.3633
     1.3749   1.3852   1.3860   1.4287   1.4341   1.4352   1.5104   1.5245
     1.5517   1.5520   1.5565   1.6852   1.6858   1.6969   1.7942   1.7955
     1.7962   1.8174   1.8232   1.8558   1.8697   1.8702   1.8713   1.8720
     1.8836   1.8841   1.9649   1.9664   1.9743   2.0136   2.0703   2.0719
     2.4172   2.4292   2.4477   2.4642   2.4642   2.5150   2.5166   2.5554
     2.5560   2.5601   2.5699   2.5732   2.5752   2.5752   2.5866   2.5885
     2.5889   2.5972   2.6103   2.6254   2.6460   2.6616   2.6743   2.6751
     2.6826   2.6909   2.6912   2.7399   2.7400   2.7823   2.7828   2.8391
     2.9769   3.0798   3.1372   3.1382   3.2020   3.2032   3.3204   3.3220
     3.3295   3.4893   3.5113   3.5119   3.5680   4.1958   4.1967   4.2742
     4.2841   4.6549   4.6552   4.8459   5.0309   5.0466   5.0471   5.2674
     5.3442   5.3715   5.3720   5.4507   5.4521   5.6486   5.6488   5.6801
     5.7429   5.7599   5.7612   5.8057   5.8860   5.9639   5.9652   6.0478
     6.1193   6.2024   6.2991   6.3365   6.4353   6.5445   6.7506   6.8240

     occupation numbers 
     1.0000   1.0000   1.0000   1.0000   1.0000   1.0000   1.0000   1.0000
     1.0000   1.0000   1.0000   1.0000   1.0000   1.0000   1.0000   1.0000
     1.0000   1.0000   1.0000   1.0000   1.0000   1.0000   1.0000   1.0000
     1.0000   1.0000   1.0000   1.0000   1.0000   1.0000   1.0000   1.0000
     1.0000   1.0000   1.0000   1.0000   1.0000   1.0000   1.0000   1.0000
     1.0000   1.0000   1.0000   1.0000   1.0000   1.0000   1.0000   1.0000
     1.0000   1.0000   1.0000   1.0000   1.0000   1.0000   1.0000   1.0000
     1.0000   1.0000   1.0000   1.0000   1.0000   1.0000   1.0000   1.0000
     1.0000   1.0000   1.0000   1.0000   1.0000   1.0000   1.0000   1.0000
     1.0000   1.0000   1.0000   1.0000   1.0000   1.0000   1.0000   1.0000
     1.0000   1.0000   1.0000   1.0000   1.0000   1.0000   1.0000   1.0000
     1.0000   1.0000   1.0000   1.0000   1.0000   1.0000   1.0000   1.0000
     1.0000   1.0000   1.0000   1.0000   1.0000   1.0000   1.0000   1.0000
     1.0000   1.0000   1.0000   1.0000   1.0000   1.0000   1.0000   1.0000
     1.0000   1.0000   1.0000   1.0000   1.0000   1.0000   1.0000   1.0000
     1.0000   1.0000   1.0000   1.0000   1.0000   1.0000   1.0000   1.0000
     1.0000   1.0000   1.0000   1.0000   1.0000   1.0000   1.0000   1.0000
     1.0000   1.0000   1.0000   1.0000   1.0000   1.0000   1.0000   1.0000

          k = 0.0000 0.1925 0.2065 ( 15730 PWs)   bands (ev):

   -10.9215 -10.8047 -10.4748 -10.3912 -10.3499 -10.3388 -10.3379 -10.3371
   -10.2948 -10.2947 -10.2034 -10.1886 -10.1885 -10.1571 -10.1532 -10.1531
     0.9614   1.0128   1.0129   1.0334   1.0643   1.0927   1.0928   1.0980
     1.0981   1.1538   1.1716   1.2476   1.2511   1.2869   1.2879   1.3298
     1.3426   1.3671   1.3710   1.3739   1.4546   1.4625   1.4992   1.5102
     1.5676   1.5678   1.5748   1.6350   1.6355   1.6463   1.7965   1.8258
     1.8266   1.8332   1.8528   1.8644   1.8656   1.8798   1.8891   1.8905
     1.9139   1.9149   1.9331   1.9418   1.9433   1.9835   2.0300   2.0315
     2.4323   2.4425   2.4729   2.4844   2.4887   2.4960   2.4961   2.5529
     2.5568   2.5574   2.5632   2.5656   2.5662   2.5775   2.5850   2.5857
     2.5909   2.5972   2.6191   2.6242   2.6323   2.6525   2.6684   2.6695
     2.6746   2.6748   2.7240   2.7608   2.7609   2.7821   2.7825   2.8053
     3.1212   3.1230   3.1245   3.1566   3.1579   3.2130   3.2517   3.3848
     3.3864   3.4912   3.4916   3.5606   3.6151   3.8936   4.3663   4.3670
     4.4113   4.7520   4.7527   4.8314   4.8316   4.9205   4.9552   5.1369
     5.1370   5.1809   5.3906   5.5985   5.5996   5.6987   5.6991   5.8311
     5.8315   5.8328   5.8494   5.8566   5.9081   5.9089   5.9170   6.0581
     6.0649   6.0889   6.0974   6.2386   6.5460   6.6404   6.7118   6.7849

     occupation numbers 
     1.0000   1.0000   1.0000   1.0000   1.0000   1.0000   1.0000   1.0000
     1.0000   1.0000   1.0000   1.0000   1.0000   1.0000   1.0000   1.0000
     1.0000   1.0000   1.0000   1.0000   1.0000   1.0000   1.0000   1.0000
     1.0000   1.0000   1.0000   1.0000   1.0000   1.0000   1.0000   1.0000
     1.0000   1.0000   1.0000   1.0000   1.0000   1.0000   1.0000   1.0000
     1.0000   1.0000   1.0000   1.0000   1.0000   1.0000   1.0000   1.0000
     1.0000   1.0000   1.0000   1.0000   1.0000   1.0000   1.0000   1.0000
     1.0000   1.0000   1.0000   1.0000   1.0000   1.0000   1.0000   1.0000
     1.0000   1.0000   1.0000   1.0000   1.0000   1.0000   1.0000   1.0000
     1.0000   1.0000   1.0000   1.0000   1.0000   1.0000   1.0000   1.0000
     1.0000   1.0000   1.0000   1.0000   1.0000   1.0000   1.0000   1.0000
     1.0000   1.0000   1.0000   1.0000   1.0000   1.0000   1.0000   1.0000
     1.0000   1.0000   1.0000   1.0000   1.0000   1.0000   1.0000   1.0000
     1.0000   1.0000   1.0000   1.0000   1.0000   1.0000   1.0000   1.0000
     1.0000   1.0000   1.0000   1.0000   1.0000   1.0000   1.0000   1.0000
     1.0000   1.0000   1.0000   1.0000   1.0000   1.0000   1.0000   1.0000
     1.0000   1.0000   1.0000   1.0000   1.0000   1.0000   1.0000   1.0000
     1.0000   1.0000   1.0000   1.0000   1.0000   1.0000   1.0000   1.0000

          k = 0.0000 0.1925-0.3097 ( 15710 PWs)   bands (ev):

   -10.8734 -10.8687 -10.4077 -10.4012 -10.3706 -10.3654 -10.3221 -10.3208
   -10.3168 -10.3156 -10.1800 -10.1740 -10.1715 -10.1708 -10.1656 -10.1650
     0.9940   0.9980   1.0505   1.0506   1.0547   1.0548   1.1557   1.1588
     1.1882   1.1887   1.1912   1.1918   1.2088   1.2109   1.2342   1.2372
     1.3499   1.3552   1.3651   1.3672   1.4771   1.4812   1.4860   1.4911
     1.5925   1.5931   1.5982   1.5983   1.6023   1.6078   1.8099   1.8113
     1.8439   1.8449   1.8456   1.8464   1.8886   1.8913   1.9127   1.9138
     1.9158   1.9175   1.9348   1.9395   1.9717   1.9733   1.9768   1.9776
     2.4527   2.4585   2.4603   2.4661   2.5092   2.5108   2.5296   2.5303
     2.5316   2.5322   2.5662   2.5719   2.5734   2.5748   2.5780   2.5787
     2.6049   2.6104   2.6139   2.6193   2.6364   2.6414   2.6650   2.6660
     2.6700   2.6702   2.7638   2.7665   2.7730   2.7740   2.7778   2.7781
     3.1272   3.1290   3.1293   3.1305   3.1803   3.1814   3.4425   3.4437
     3.4480   3.4487   3.5292   3.5337   3.6081   3.6129   4.5954   4.5974
     4.5977   4.5994   4.6496   4.6513   4.9126   4.9134   4.9156   4.9172
     5.0338   5.0377   5.7006   5.7021   5.7070   5.7075   5.7263   5.7286
     5.8512   5.8522   5.8569   5.8576   5.8788   5.8846   5.9568   5.9638
     6.0094   6.0145   6.1515   6.1567   6.6394   6.6427   6.7190   6.7256

     occupation numbers 
     1.0000   1.0000   1.0000   1.0000   1.0000   1.0000   1.0000   1.0000
     1.0000   1.0000   1.0000   1.0000   1.0000   1.0000   1.0000   1.0000
     1.0000   1.0000   1.0000   1.0000   1.0000   1.0000   1.0000   1.0000
     1.0000   1.0000   1.0000   1.0000   1.0000   1.0000   1.0000   1.0000
     1.0000   1.0000   1.0000   1.0000   1.0000   1.0000   1.0000   1.0000
     1.0000   1.0000   1.0000   1.0000   1.0000   1.0000   1.0000   1.0000
     1.0000   1.0000   1.0000   1.0000   1.0000   1.0000   1.0000   1.0000
     1.0000   1.0000   1.0000   1.0000   1.0000   1.0000   1.0000   1.0000
     1.0000   1.0000   1.0000   1.0000   1.0000   1.0000   1.0000   1.0000
     1.0000   1.0000   1.0000   1.0000   1.0000   1.0000   1.0000   1.0000
     1.0000   1.0000   1.0000   1.0000   1.0000   1.0000   1.0000   1.0000
     1.0000   1.0000   1.0000   1.0000   1.0000   1.0000   1.0000   1.0000
     1.0000   1.0000   1.0000   1.0000   1.0000   1.0000   1.0000   1.0000
     1.0000   1.0000   1.0000   1.0000   1.0000   1.0000   1.0000   1.0000
     1.0000   1.0000   1.0000   1.0000   1.0000   1.0000   1.0000   1.0000
     1.0000   1.0000   1.0000   1.0000   1.0000   1.0000   1.0000   1.0000
     1.0000   1.0000   1.0000   1.0000   1.0000   1.0000   1.0000   1.0000
     1.0000   1.0000   1.0000   1.0000   1.0000   1.0000   1.0000   1.0000

          k = 0.0000 0.3849 0.0000 ( 15776 PWs)   bands (ev):

   -10.8611 -10.5661 -10.5649 -10.5488 -10.3587 -10.3587 -10.3509 -10.3501
   -10.2601 -10.2414 -10.2413 -10.2407 -10.2405 -10.1593 -10.1385 -10.1384
     0.9605   0.9612   1.0406   1.0536   1.0547   1.0843   1.0844   1.0851
     1.0853   1.1771   1.2088   1.2088   1.3766   1.3921   1.4169   1.4514
     1.4518   1.4679   1.4690   1.4807   1.4810   1.4968   1.5184   1.5825
     1.5832   1.6160   1.6607   1.6610   1.6617   1.6623   1.6639   1.6822
     1.6831   1.6858   1.6874   1.7195   1.7913   1.7920   1.8580   1.8583
     1.8585   1.8593   1.8985   2.0306   2.0450   2.0463   2.1128   2.1141
     2.3469   2.3709   2.4040   2.4043   2.4258   2.4723   2.4724   2.4974
     2.5419   2.5442   2.5465   2.5487   2.5517   2.5519   2.5528   2.5529
     2.5682   2.5702   2.5835   2.5851   2.6351   2.6544   2.6822   2.6829
     2.7373   2.7377   2.7383   2.7384   2.7477   2.8128   2.8610   2.8719
     2.8726   3.0727   3.0741   3.0835   3.4246   3.4254   3.4263   3.4280
     3.6799   3.6803   3.7932   3.8738   3.8752   4.1012   4.1013   4.4210
     4.4214   4.5990   4.6005   4.6487   4.9256   4.9274   4.9287   4.9292
     5.0962   5.2248   5.5280   5.5305   5.6114   5.6119   5.6393   5.6411
     5.6427   5.6428   5.7194   5.7216   5.7777   5.7876   5.7947   5.7958
     5.9100   5.9117   6.0920   6.2511   6.2534   6.2990   6.6239   6.7010

     occupation numbers 
     1.0000   1.0000   1.0000   1.0000   1.0000   1.0000   1.0000   1.0000
     1.0000   1.0000   1.0000   1.0000   1.0000   1.0000   1.0000   1.0000
     1.0000   1.0000   1.0000   1.0000   1.0000   1.0000   1.0000   1.0000
     1.0000   1.0000   1.0000   1.0000   1.0000   1.0000   1.0000   1.0000
     1.0000   1.0000   1.0000   1.0000   1.0000   1.0000   1.0000   1.0000
     1.0000   1.0000   1.0000   1.0000   1.0000   1.0000   1.0000   1.0000
     1.0000   1.0000   1.0000   1.0000   1.0000   1.0000   1.0000   1.0000
     1.0000   1.0000   1.0000   1.0000   1.0000   1.0000   1.0000   1.0000
     1.0000   1.0000   1.0000   1.0000   1.0000   1.0000   1.0000   1.0000
     1.0000   1.0000   1.0000   1.0000   1.0000   1.0000   1.0000   1.0000
     1.0000   1.0000   1.0000   1.0000   1.0000   1.0000   1.0000   1.0000
     1.0000   1.0000   1.0000   1.0000   1.0000   1.0000   1.0000   1.0000
     1.0000   1.0000   1.0000   1.0000   1.0000   1.0000   1.0000   1.0000
     1.0000   1.0000   1.0000   1.0000   1.0000   1.0000   1.0000   1.0000
     1.0000   1.0000   1.0000   1.0000   1.0000   1.0000   1.0000   1.0000
     1.0000   1.0000   1.0000   1.0000   1.0000   1.0000   1.0000   1.0000
     1.0000   1.0000   1.0000   1.0000   1.0000   1.0000   1.0000   1.0000
     1.0000   1.0000   1.0000   1.0000   1.0000   1.0000   1.0000   1.0000

          k = 0.0000 0.3849 0.1032 ( 15777 PWs)   bands (ev):

   -10.8512 -10.6430 -10.5420 -10.4874 -10.4013 -10.3545 -10.3543 -10.3003
   -10.2711 -10.2700 -10.2695 -10.2130 -10.2130 -10.1656 -10.1417 -10.1416
     0.9448   1.0090   1.0326   1.0559   1.0795   1.0796   1.0828   1.1243
     1.1243   1.1698   1.2010   1.2011   1.3536   1.3944   1.4005   1.4324
     1.4331   1.4507   1.4540   1.4812   1.4926   1.5107   1.5233   1.5748
     1.5751   1.6105   1.6180   1.6182   1.6356   1.6360   1.6704   1.7021
     1.7028   1.7105   1.7169   1.7327   1.7858   1.7870   1.8646   1.8651
     1.8734   1.8736   1.8900   1.9859   2.0280   2.0295   2.0842   2.0858
     2.3556   2.3788   2.3987   2.3991   2.4302   2.4993   2.5014   2.5018
     2.5082   2.5150   2.5290   2.5291   2.5318   2.5502   2.5643   2.5647
     2.5695   2.5841   2.5889   2.6326   2.6345   2.6512   2.6808   2.6816
     2.7068   2.7091   2.7093   2.7731   2.7734   2.7934   2.8743   2.8749
     2.9916   3.0799   3.0816   3.1704   3.3398   3.3409   3.5096   3.5110
     3.6926   3.6930   3.7616   3.8304   3.9754   4.1238   4.1239   4.2792
     4.4703   4.4708   4.6357   4.7292   4.7296   4.8837   5.1026   5.1032
     5.1188   5.2173   5.2393   5.4421   5.4432   5.5651   5.6184   5.6192
     5.7330   5.7384   5.7820   5.7826   5.7882   5.7892   5.7926   5.8039
     5.8730   6.0990   6.1009   6.1337   6.2796   6.3697   6.6059   6.6859

     occupation numbers 
     1.0000   1.0000   1.0000   1.0000   1.0000   1.0000   1.0000   1.0000
     1.0000   1.0000   1.0000   1.0000   1.0000   1.0000   1.0000   1.0000
     1.0000   1.0000   1.0000   1.0000   1.0000   1.0000   1.0000   1.0000
     1.0000   1.0000   1.0000   1.0000   1.0000   1.0000   1.0000   1.0000
     1.0000   1.0000   1.0000   1.0000   1.0000   1.0000   1.0000   1.0000
     1.0000   1.0000   1.0000   1.0000   1.0000   1.0000   1.0000   1.0000
     1.0000   1.0000   1.0000   1.0000   1.0000   1.0000   1.0000   1.0000
     1.0000   1.0000   1.0000   1.0000   1.0000   1.0000   1.0000   1.0000
     1.0000   1.0000   1.0000   1.0000   1.0000   1.0000   1.0000   1.0000
     1.0000   1.0000   1.0000   1.0000   1.0000   1.0000   1.0000   1.0000
     1.0000   1.0000   1.0000   1.0000   1.0000   1.0000   1.0000   1.0000
     1.0000   1.0000   1.0000   1.0000   1.0000   1.0000   1.0000   1.0000
     1.0000   1.0000   1.0000   1.0000   1.0000   1.0000   1.0000   1.0000
     1.0000   1.0000   1.0000   1.0000   1.0000   1.0000   1.0000   1.0000
     1.0000   1.0000   1.0000   1.0000   1.0000   1.0000   1.0000   1.0000
     1.0000   1.0000   1.0000   1.0000   1.0000   1.0000   1.0000   1.0000
     1.0000   1.0000   1.0000   1.0000   1.0000   1.0000   1.0000   1.0000
     1.0000   1.0000   1.0000   1.0000   1.0000   1.0000   1.0000   1.0000

          k = 0.0000 0.3849 0.2065 ( 15754 PWs)   bands (ev):

   -10.8222 -10.7146 -10.5220 -10.4489 -10.4140 -10.3423 -10.3421 -10.3016
   -10.2978 -10.2978 -10.2539 -10.1880 -10.1879 -10.1841 -10.1511 -10.1510
     0.9548   1.0099   1.0806   1.0893   1.1025   1.1027   1.1432   1.1492
     1.1770   1.1772   1.1962   1.1963   1.2867   1.3351   1.3745   1.3751
     1.4015   1.4316   1.4413   1.4550   1.5208   1.5380   1.5417   1.5625
     1.5626   1.5832   1.5833   1.5892   1.5943   1.5960   1.6668   1.6939
     1.7322   1.7330   1.7576   1.7718   1.7732   1.7828   1.8659   1.8890
     1.8897   1.8963   1.9117   1.9123   1.9813   1.9826   2.0267   2.0282
     2.3837   2.4004   2.4164   2.4165   2.4429   2.4687   2.4781   2.4874
     2.4941   2.4949   2.5068   2.5331   2.5380   2.5385   2.5667   2.5673
     2.5924   2.6084   2.6163   2.6249   2.6419   2.6717   2.6785   2.6794
     2.6810   2.6906   2.6907   2.7604   2.8104   2.8109   2.8684   2.8688
     3.1131   3.1151   3.2550   3.2551   3.2572   3.3421   3.5892   3.5903
     3.6404   3.6954   3.6956   3.9331   3.9347   4.0460   4.2077   4.2078
     4.5331   4.5334   4.6156   4.6162   4.6213   4.9075   5.0805   5.0806
     5.1214   5.1844   5.2744   5.3780   5.3800   5.4170   5.5940   5.5954
     5.5966   5.6299   5.7971   5.7972   5.8435   5.8443   5.8512   5.9780
     6.0130   6.0224   6.1075   6.2230   6.2823   6.4783   6.5456   6.6417

     occupation numbers 
     1.0000   1.0000   1.0000   1.0000   1.0000   1.0000   1.0000   1.0000
     1.0000   1.0000   1.0000   1.0000   1.0000   1.0000   1.0000   1.0000
     1.0000   1.0000   1.0000   1.0000   1.0000   1.0000   1.0000   1.0000
     1.0000   1.0000   1.0000   1.0000   1.0000   1.0000   1.0000   1.0000
     1.0000   1.0000   1.0000   1.0000   1.0000   1.0000   1.0000   1.0000
     1.0000   1.0000   1.0000   1.0000   1.0000   1.0000   1.0000   1.0000
     1.0000   1.0000   1.0000   1.0000   1.0000   1.0000   1.0000   1.0000
     1.0000   1.0000   1.0000   1.0000   1.0000   1.0000   1.0000   1.0000
     1.0000   1.0000   1.0000   1.0000   1.0000   1.0000   1.0000   1.0000
     1.0000   1.0000   1.0000   1.0000   1.0000   1.0000   1.0000   1.0000
     1.0000   1.0000   1.0000   1.0000   1.0000   1.0000   1.0000   1.0000
     1.0000   1.0000   1.0000   1.0000   1.0000   1.0000   1.0000   1.0000
     1.0000   1.0000   1.0000   1.0000   1.0000   1.0000   1.0000   1.0000
     1.0000   1.0000   1.0000   1.0000   1.0000   1.0000   1.0000   1.0000
     1.0000   1.0000   1.0000   1.0000   1.0000   1.0000   1.0000   1.0000
     1.0000   1.0000   1.0000   1.0000   1.0000   1.0000   1.0000   1.0000
     1.0000   1.0000   1.0000   1.0000   1.0000   1.0000   1.0000   1.0000
     1.0000   1.0000   1.0000   1.0000   1.0000   1.0000   1.0000   1.0000

          k = 0.0000 0.3849-0.3097 ( 15754 PWs)   bands (ev):

   -10.7780 -10.7732 -10.4927 -10.4877 -10.3537 -10.3473 -10.3260 -10.3247
   -10.3206 -10.3195 -10.2174 -10.2113 -10.1700 -10.1695 -10.1642 -10.1636
     0.9785   0.9825   1.1143   1.1173   1.1385   1.1387   1.1423   1.1425
     1.1880   1.1910   1.2339   1.2355   1.2866   1.2871   1.2881   1.2882
     1.4112   1.4166   1.4412   1.4428   1.5510   1.5537   1.5595   1.5613
     1.5617   1.5647   1.5657   1.5659   1.5683   1.5734   1.6748   1.6768
     1.7531   1.7537   1.7543   1.7556   1.8151   1.8174   1.8264   1.8312
     1.9278   1.9279   1.9293   1.9310   1.9647   1.9663   1.9695   1.9696
     2.4249   2.4284   2.4291   2.4342   2.4519   2.4531   2.4548   2.4552
     2.4599   2.4656   2.5154   2.5210   2.5573   2.5578   2.5603   2.5611
     2.6085   2.6140   2.6244   2.6294   2.6423   2.6472   2.6785   2.6795
     2.6833   2.6833   2.7216   2.7242   2.8424   2.8434   2.8468   2.8469
     3.1752   3.1769   3.1775   3.1782   3.5040   3.5047   3.5812   3.5850
     3.6542   3.6547   3.6589   3.6596   4.0371   4.0411   4.3509   4.3523
     4.3536   4.3554   4.6853   4.6885   4.8364   4.8375   4.8397   4.8415
     5.2698   5.2732   5.2846   5.2888   5.4954   5.4978   5.5030   5.5039
     5.5400   5.5441   5.8323   5.8324   5.8372   5.8379   5.9232   5.9282
     6.0751   6.0810   6.1288   6.1357   6.4347   6.4376   6.5676   6.5742

     occupation numbers 
     1.0000   1.0000   1.0000   1.0000   1.0000   1.0000   1.0000   1.0000
     1.0000   1.0000   1.0000   1.0000   1.0000   1.0000   1.0000   1.0000
     1.0000   1.0000   1.0000   1.0000   1.0000   1.0000   1.0000   1.0000
     1.0000   1.0000   1.0000   1.0000   1.0000   1.0000   1.0000   1.0000
     1.0000   1.0000   1.0000   1.0000   1.0000   1.0000   1.0000   1.0000
     1.0000   1.0000   1.0000   1.0000   1.0000   1.0000   1.0000   1.0000
     1.0000   1.0000   1.0000   1.0000   1.0000   1.0000   1.0000   1.0000
     1.0000   1.0000   1.0000   1.0000   1.0000   1.0000   1.0000   1.0000
     1.0000   1.0000   1.0000   1.0000   1.0000   1.0000   1.0000   1.0000
     1.0000   1.0000   1.0000   1.0000   1.0000   1.0000   1.0000   1.0000
     1.0000   1.0000   1.0000   1.0000   1.0000   1.0000   1.0000   1.0000
     1.0000   1.0000   1.0000   1.0000   1.0000   1.0000   1.0000   1.0000
     1.0000   1.0000   1.0000   1.0000   1.0000   1.0000   1.0000   1.0000
     1.0000   1.0000   1.0000   1.0000   1.0000   1.0000   1.0000   1.0000
     1.0000   1.0000   1.0000   1.0000   1.0000   1.0000   1.0000   1.0000
     1.0000   1.0000   1.0000   1.0000   1.0000   1.0000   1.0000   1.0000
     1.0000   1.0000   1.0000   1.0000   1.0000   1.0000   1.0000   1.0000
     1.0000   1.0000   1.0000   1.0000   1.0000   1.0000   1.0000   1.0000

          k = 0.0000-0.5774 0.0000 ( 15750 PWs)   bands (ev):

   -10.7125 -10.7123 -10.4604 -10.4594 -10.4590 -10.4584 -10.3611 -10.3610
   -10.2422 -10.2419 -10.2413 -10.2412 -10.2048 -10.2046 -10.1372 -10.1371
     0.9957   0.9967   0.9969   0.9978   1.0811   1.0823   1.1424   1.1426
     1.1431   1.1433   1.2867   1.2869   1.3943   1.3945   1.4045   1.4049
     1.4611   1.4623   1.5648   1.5656   1.5669   1.5682   1.5804   1.5808
     1.5820   1.5828   1.5849   1.5858   1.6099   1.6101   1.6105   1.6115
     1.6642   1.6655   1.7346   1.7354   1.7466   1.7489   1.8543   1.8546
     1.8549   1.8553   1.8875   1.8891   2.0703   2.0703   2.1871   2.1879
     2.3151   2.3151   2.3222   2.3230   2.4439   2.4444   2.4469   2.4478
     2.5410   2.5411   2.5419   2.5420   2.5473   2.5492   2.5499   2.5506
     2.5561   2.5578   2.5587   2.5593   2.6440   2.6447   2.6833   2.6841
     2.7463   2.7469   2.7473   2.7474   2.8112   2.8131   2.9215   2.9226
     2.9237   2.9247   3.0426   3.0444   3.5301   3.5306   3.5313   3.5332
     3.7611   3.7615   4.1037   4.1039   4.2835   4.2840   4.3421   4.3426
     4.3430   4.3439   4.4529   4.4547   4.7525   4.7544   4.7560   4.7562
     5.1887   5.1896   5.4480   5.4493   5.6046   5.6073   5.6098   5.6105
     5.6179   5.6194   5.6470   5.6489   5.6501   5.6506   5.6932   5.6934
     5.9885   5.9903   5.9910   5.9925   6.3953   6.3960   6.5048   6.5060

     occupation numbers 
     1.0000   1.0000   1.0000   1.0000   1.0000   1.0000   1.0000   1.0000
     1.0000   1.0000   1.0000   1.0000   1.0000   1.0000   1.0000   1.0000
     1.0000   1.0000   1.0000   1.0000   1.0000   1.0000   1.0000   1.0000
     1.0000   1.0000   1.0000   1.0000   1.0000   1.0000   1.0000   1.0000
     1.0000   1.0000   1.0000   1.0000   1.0000   1.0000   1.0000   1.0000
     1.0000   1.0000   1.0000   1.0000   1.0000   1.0000   1.0000   1.0000
     1.0000   1.0000   1.0000   1.0000   1.0000   1.0000   1.0000   1.0000
     1.0000   1.0000   1.0000   1.0000   1.0000   1.0000   1.0000   1.0000
     1.0000   1.0000   1.0000   1.0000   1.0000   1.0000   1.0000   1.0000
     1.0000   1.0000   1.0000   1.0000   1.0000   1.0000   1.0000   1.0000
     1.0000   1.0000   1.0000   1.0000   1.0000   1.0000   1.0000   1.0000
     1.0000   1.0000   1.0000   1.0000   1.0000   1.0000   1.0000   1.0000
     1.0000   1.0000   1.0000   1.0000   1.0000   1.0000   1.0000   1.0000
     1.0000   1.0000   1.0000   1.0000   1.0000   1.0000   1.0000   1.0000
     1.0000   1.0000   1.0000   1.0000   1.0000   1.0000   1.0000   1.0000
     1.0000   1.0000   1.0000   1.0000   1.0000   1.0000   1.0000   1.0000
     1.0000   1.0000   1.0000   1.0000   1.0000   1.0000   1.0000   1.0000
     1.0000   1.0000   1.0000   1.0000   1.0000   1.0000   1.0000   1.0000

          k = 0.0000-0.5774 0.1032 ( 15780 PWs)   bands (ev):

   -10.7039 -10.7038 -10.5251 -10.5249 -10.3936 -10.3934 -10.3568 -10.3567
   -10.2712 -10.2711 -10.2144 -10.2134 -10.2132 -10.2121 -10.1405 -10.1404
     0.9846   0.9857   1.0393   1.0404   1.0737   1.0749   1.1503   1.1504
     1.1683   1.1684   1.2859   1.2861   1.3732   1.3733   1.3824   1.3831
     1.4646   1.4658   1.5458   1.5474   1.5479   1.5500   1.5771   1.5781
     1.5870   1.5872   1.5929   1.5951   1.6182   1.6202   1.6353   1.6361
     1.6641   1.6654   1.7194   1.7201   1.7399   1.7423   1.8396   1.8410
     1.8585   1.8590   1.8727   1.8728   2.0565   2.0566   2.1163   2.1166
     2.3298   2.3301   2.3356   2.3364   2.4504   2.4515   2.4836   2.4836
     2.5080   2.5090   2.5130   2.5134   2.5232   2.5239   2.5569   2.5573
     2.5738   2.5745   2.6032   2.6045   2.6410   2.6416   2.6821   2.6829
     2.7154   2.7154   2.7602   2.7617   2.7865   2.7871   2.9220   2.9227
     3.0652   3.0661   3.0682   3.0706   3.4380   3.4395   3.6187   3.6196
     3.7738   3.7742   4.1035   4.1036   4.1483   4.1493   4.3475   4.3480
     4.4738   4.4757   4.4992   4.4998   4.5582   4.5589   4.9321   4.9328
     5.1622   5.1631   5.3321   5.3337   5.4492   5.4504   5.4672   5.4686
     5.5907   5.5926   5.7173   5.7174   5.7892   5.7899   5.8534   5.8539
     5.8790   5.8801   6.1254   6.1260   6.3882   6.3889   6.4875   6.4888

     occupation numbers 
     1.0000   1.0000   1.0000   1.0000   1.0000   1.0000   1.0000   1.0000
     1.0000   1.0000   1.0000   1.0000   1.0000   1.0000   1.0000   1.0000
     1.0000   1.0000   1.0000   1.0000   1.0000   1.0000   1.0000   1.0000
     1.0000   1.0000   1.0000   1.0000   1.0000   1.0000   1.0000   1.0000
     1.0000   1.0000   1.0000   1.0000   1.0000   1.0000   1.0000   1.0000
     1.0000   1.0000   1.0000   1.0000   1.0000   1.0000   1.0000   1.0000
     1.0000   1.0000   1.0000   1.0000   1.0000   1.0000   1.0000   1.0000
     1.0000   1.0000   1.0000   1.0000   1.0000   1.0000   1.0000   1.0000
     1.0000   1.0000   1.0000   1.0000   1.0000   1.0000   1.0000   1.0000
     1.0000   1.0000   1.0000   1.0000   1.0000   1.0000   1.0000   1.0000
     1.0000   1.0000   1.0000   1.0000   1.0000   1.0000   1.0000   1.0000
     1.0000   1.0000   1.0000   1.0000   1.0000   1.0000   1.0000   1.0000
     1.0000   1.0000   1.0000   1.0000   1.0000   1.0000   1.0000   1.0000
     1.0000   1.0000   1.0000   1.0000   1.0000   1.0000   1.0000   1.0000
     1.0000   1.0000   1.0000   1.0000   1.0000   1.0000   1.0000   1.0000
     1.0000   1.0000   1.0000   1.0000   1.0000   1.0000   1.0000   1.0000
     1.0000   1.0000   1.0000   1.0000   1.0000   1.0000   1.0000   1.0000
     1.0000   1.0000   1.0000   1.0000   1.0000   1.0000   1.0000   1.0000

          k = 0.0000-0.5774 0.2065 ( 15782 PWs)   bands (ev):

   -10.6788 -10.6786 -10.5862 -10.5860 -10.3445 -10.3443 -10.3323 -10.3320
   -10.2995 -10.2994 -10.2389 -10.2387 -10.1877 -10.1876 -10.1501 -10.1500
     0.9977   0.9988   1.0528   1.0540   1.1158   1.1168   1.1895   1.1896
     1.2150   1.2151   1.2799   1.2801   1.3151   1.3161   1.3189   1.3191
     1.4746   1.4760   1.5163   1.5176   1.5415   1.5434   1.5609   1.5622
     1.5832   1.5833   1.6299   1.6320   1.6517   1.6530   1.6567   1.6587
     1.6635   1.6647   1.6741   1.6745   1.7209   1.7232   1.7512   1.7530
     1.8809   1.8815   1.9124   1.9129   2.0039   2.0041   2.0186   2.0190
     2.3674   2.3682   2.3688   2.3695   2.4580   2.4589   2.4606   2.4617
     2.4708   2.4714   2.4993   2.4999   2.5301   2.5306   2.5610   2.5616
     2.5968   2.5977   2.6319   2.6324   2.6448   2.6462   2.6806   2.6814
     2.6947   2.6948   2.7166   2.7181   2.8293   2.8299   2.9043   2.9048
     3.1429   3.1450   3.3308   3.3319   3.3410   3.3430   3.6988   3.6994
     3.7879   3.7881   3.9106   3.9118   4.1282   4.1283   4.3724   4.3729
     4.5237   4.5243   4.5338   4.5355   4.6037   4.6046   4.9766   4.9768
     5.0975   5.0987   5.1172   5.1192   5.3181   5.3200   5.5138   5.5156
     5.5230   5.5242   5.7240   5.7246   5.7763   5.7764   5.8475   5.8480
     6.1057   6.1066   6.2499   6.2507   6.3535   6.3542   6.4369   6.4380

     occupation numbers 
     1.0000   1.0000   1.0000   1.0000   1.0000   1.0000   1.0000   1.0000
     1.0000   1.0000   1.0000   1.0000   1.0000   1.0000   1.0000   1.0000
     1.0000   1.0000   1.0000   1.0000   1.0000   1.0000   1.0000   1.0000
     1.0000   1.0000   1.0000   1.0000   1.0000   1.0000   1.0000   1.0000
     1.0000   1.0000   1.0000   1.0000   1.0000   1.0000   1.0000   1.0000
     1.0000   1.0000   1.0000   1.0000   1.0000   1.0000   1.0000   1.0000
     1.0000   1.0000   1.0000   1.0000   1.0000   1.0000   1.0000   1.0000
     1.0000   1.0000   1.0000   1.0000   1.0000   1.0000   1.0000   1.0000
     1.0000   1.0000   1.0000   1.0000   1.0000   1.0000   1.0000   1.0000
     1.0000   1.0000   1.0000   1.0000   1.0000   1.0000   1.0000   1.0000
     1.0000   1.0000   1.0000   1.0000   1.0000   1.0000   1.0000   1.0000
     1.0000   1.0000   1.0000   1.0000   1.0000   1.0000   1.0000   1.0000
     1.0000   1.0000   1.0000   1.0000   1.0000   1.0000   1.0000   1.0000
     1.0000   1.0000   1.0000   1.0000   1.0000   1.0000   1.0000   1.0000
     1.0000   1.0000   1.0000   1.0000   1.0000   1.0000   1.0000   1.0000
     1.0000   1.0000   1.0000   1.0000   1.0000   1.0000   1.0000   1.0000
     1.0000   1.0000   1.0000   1.0000   1.0000   1.0000   1.0000   1.0000
     1.0000   1.0000   1.0000   1.0000   1.0000   1.0000   1.0000   1.0000

          k = 0.0000-0.5774-0.3097 ( 15776 PWs)   bands (ev):

   -10.6414 -10.6406 -10.6365 -10.6357 -10.3279 -10.3266 -10.3226 -10.3214
   -10.2833 -10.2816 -10.2768 -10.2756 -10.1694 -10.1688 -10.1635 -10.1629
     1.0225   1.0236   1.0263   1.0273   1.2138   1.2160   1.2171   1.2179
     1.2499   1.2503   1.2505   1.2511   1.2567   1.2570   1.2608   1.2609
     1.4889   1.4914   1.4956   1.4957   1.5456   1.5465   1.5475   1.5492
     1.6138   1.6138   1.6175   1.6177   1.6594   1.6606   1.6611   1.6624
     1.6790   1.6806   1.6812   1.6839   1.6889   1.6921   1.6950   1.6962
     1.9238   1.9240   1.9265   1.9273   1.9636   1.9651   1.9677   1.9681
     2.4066   2.4082   2.4125   2.4127   2.4180   2.4191   2.4216   2.4222
     2.4741   2.4765   2.4807   2.4813   2.5524   2.5527   2.5550   2.5558
     2.6133   2.6155   2.6193   2.6202   2.6788   2.6812   2.6818   2.6824
     2.6839   2.6850   2.6861   2.6862   2.8683   2.8693   2.8727   2.8729
     3.2398   3.2414   3.2419   3.2434   3.6287   3.6294   3.6299   3.6331
     3.7596   3.7598   3.7641   3.7647   4.2176   4.2189   4.2208   4.2226
     4.6026   4.6052   4.6085   4.6089   4.7651   4.7662   4.7689   4.7706
     5.0450   5.0464   5.0494   5.0513   5.3977   5.4002   5.4051   5.4066
     5.6085   5.6095   5.6133   5.6144   5.8307   5.8307   5.8356   5.8363
     6.2610   6.2643   6.2671   6.2689   6.3515   6.3547   6.3592   6.3605

     occupation numbers 
     1.0000   1.0000   1.0000   1.0000   1.0000   1.0000   1.0000   1.0000
     1.0000   1.0000   1.0000   1.0000   1.0000   1.0000   1.0000   1.0000
     1.0000   1.0000   1.0000   1.0000   1.0000   1.0000   1.0000   1.0000
     1.0000   1.0000   1.0000   1.0000   1.0000   1.0000   1.0000   1.0000
     1.0000   1.0000   1.0000   1.0000   1.0000   1.0000   1.0000   1.0000
     1.0000   1.0000   1.0000   1.0000   1.0000   1.0000   1.0000   1.0000
     1.0000   1.0000   1.0000   1.0000   1.0000   1.0000   1.0000   1.0000
     1.0000   1.0000   1.0000   1.0000   1.0000   1.0000   1.0000   1.0000
     1.0000   1.0000   1.0000   1.0000   1.0000   1.0000   1.0000   1.0000
     1.0000   1.0000   1.0000   1.0000   1.0000   1.0000   1.0000   1.0000
     1.0000   1.0000   1.0000   1.0000   1.0000   1.0000   1.0000   1.0000
     1.0000   1.0000   1.0000   1.0000   1.0000   1.0000   1.0000   1.0000
     1.0000   1.0000   1.0000   1.0000   1.0000   1.0000   1.0000   1.0000
     1.0000   1.0000   1.0000   1.0000   1.0000   1.0000   1.0000   1.0000
     1.0000   1.0000   1.0000   1.0000   1.0000   1.0000   1.0000   1.0000
     1.0000   1.0000   1.0000   1.0000   1.0000   1.0000   1.0000   1.0000
     1.0000   1.0000   1.0000   1.0000   1.0000   1.0000   1.0000   1.0000
     1.0000   1.0000   1.0000   1.0000   1.0000   1.0000   1.0000   1.0000

          k = 0.1667 0.2887 0.0000 ( 15760 PWs)   bands (ev):

   -10.8942 -10.5905 -10.5892 -10.4587 -10.4586 -10.3012 -10.2962 -10.2957
   -10.2953 -10.2949 -10.2736 -10.2153 -10.2148 -10.1462 -10.1438 -10.1437
     0.9847   0.9852   0.9853   0.9861   1.0718   1.0730   1.0896   1.0900
     1.1037   1.1044   1.2149   1.2184   1.3520   1.3858   1.3865   1.4175
     1.4308   1.4310   1.4721   1.4728   1.4845   1.5263   1.5267   1.5406
     1.5911   1.5956   1.6141   1.6752   1.6765   1.6862   1.6869   1.6873
     1.6879   1.7732   1.7742   1.7746   1.7760   1.7812   1.7816   1.8310
     1.9225   1.9237   1.9801   1.9815   2.0273   2.0438   2.0453   2.1357
     2.3865   2.3884   2.3897   2.4212   2.4334   2.5078   2.5084   2.5093
     2.5397   2.5408   2.5414   2.5431   2.5466   2.5485   2.5700   2.5714
     2.5718   2.5720   2.6320   2.6349   2.6357   2.6359   2.6363   2.6632
     2.6635   2.7050   2.7072   2.7184   2.8083   2.8097   2.8671   2.8671
     2.8677   3.0880   3.0897   3.2220   3.2249   3.2474   3.5158   3.6279
     3.6295   3.6298   3.6309   3.6626   3.6627   3.8327   4.3964   4.3977
     4.5771   4.6281   4.6300   4.7719   4.7728   4.8260   4.8285   5.3794
     5.3801   5.3809   5.3816   5.4014   5.4847   5.6161   5.6180   5.6192
     5.6197   5.6497   5.6511   5.7112   5.7203   5.9007   5.9018   6.0323
     6.0351   6.0411   6.1032   6.1043   6.2948   6.2970   6.6708   6.7273

     occupation numbers 
     1.0000   1.0000   1.0000   1.0000   1.0000   1.0000   1.0000   1.0000
     1.0000   1.0000   1.0000   1.0000   1.0000   1.0000   1.0000   1.0000
     1.0000   1.0000   1.0000   1.0000   1.0000   1.0000   1.0000   1.0000
     1.0000   1.0000   1.0000   1.0000   1.0000   1.0000   1.0000   1.0000
     1.0000   1.0000   1.0000   1.0000   1.0000   1.0000   1.0000   1.0000
     1.0000   1.0000   1.0000   1.0000   1.0000   1.0000   1.0000   1.0000
     1.0000   1.0000   1.0000   1.0000   1.0000   1.0000   1.0000   1.0000
     1.0000   1.0000   1.0000   1.0000   1.0000   1.0000   1.0000   1.0000
     1.0000   1.0000   1.0000   1.0000   1.0000   1.0000   1.0000   1.0000
     1.0000   1.0000   1.0000   1.0000   1.0000   1.0000   1.0000   1.0000
     1.0000   1.0000   1.0000   1.0000   1.0000   1.0000   1.0000   1.0000
     1.0000   1.0000   1.0000   1.0000   1.0000   1.0000   1.0000   1.0000
     1.0000   1.0000   1.0000   1.0000   1.0000   1.0000   1.0000   1.0000
     1.0000   1.0000   1.0000   1.0000   1.0000   1.0000   1.0000   1.0000
     1.0000   1.0000   1.0000   1.0000   1.0000   1.0000   1.0000   1.0000
     1.0000   1.0000   1.0000   1.0000   1.0000   1.0000   1.0000   1.0000
     1.0000   1.0000   1.0000   1.0000   1.0000   1.0000   1.0000   1.0000
     1.0000   1.0000   1.0000   1.0000   1.0000   1.0000   1.0000   1.0000

          k = 0.1667 0.2887 0.1032 ( 15756 PWs)   bands (ev):

   -10.8840 -10.6697 -10.5092 -10.4530 -10.4529 -10.3369 -10.3368 -10.2978
   -10.2846 -10.2552 -10.2551 -10.2356 -10.1956 -10.1488 -10.1487 -10.1481
     0.9729   0.9735   1.0299   1.0307   1.0802   1.0806   1.0840   1.0905
     1.0994   1.1442   1.2086   1.2111   1.3477   1.3627   1.3634   1.4143
     1.4192   1.4267   1.4595   1.4766   1.4935   1.5311   1.5315   1.5389
     1.5513   1.5858   1.5915   1.6194   1.6461   1.6467   1.7117   1.7124
     1.7380   1.7719   1.7730   1.7771   1.7782   1.8048   1.8054   1.8361
     1.9274   1.9311   1.9695   1.9706   2.0103   2.0114   2.0170   2.1166
     2.3899   2.3914   2.3934   2.4262   2.4488   2.5105   2.5136   2.5142
     2.5192   2.5198   2.5355   2.5415   2.5424   2.5428   2.5687   2.5736
     2.5743   2.5811   2.6216   2.6219   2.6300   2.6600   2.6604   2.6747
     2.6755   2.6897   2.7088   2.7127   2.7971   2.8060   2.8465   2.8470
     2.9845   3.1360   3.1374   3.1846   3.2304   3.2770   3.5000   3.5314
     3.5324   3.7068   3.7073   3.7217   3.7229   3.8877   4.2843   4.4022
     4.4035   4.6148   4.6297   4.7979   4.7988   4.9462   5.0316   5.1687
     5.1693   5.3443   5.3448   5.4180   5.4731   5.5017   5.6066   5.6072
     5.7007   5.7079   5.7501   5.8085   5.8093   5.8817   5.9147   5.9157
     6.0104   6.0835   6.0846   6.1528   6.2286   6.4062   6.6535   6.7125

     occupation numbers 
     1.0000   1.0000   1.0000   1.0000   1.0000   1.0000   1.0000   1.0000
     1.0000   1.0000   1.0000   1.0000   1.0000   1.0000   1.0000   1.0000
     1.0000   1.0000   1.0000   1.0000   1.0000   1.0000   1.0000   1.0000
     1.0000   1.0000   1.0000   1.0000   1.0000   1.0000   1.0000   1.0000
     1.0000   1.0000   1.0000   1.0000   1.0000   1.0000   1.0000   1.0000
     1.0000   1.0000   1.0000   1.0000   1.0000   1.0000   1.0000   1.0000
     1.0000   1.0000   1.0000   1.0000   1.0000   1.0000   1.0000   1.0000
     1.0000   1.0000   1.0000   1.0000   1.0000   1.0000   1.0000   1.0000
     1.0000   1.0000   1.0000   1.0000   1.0000   1.0000   1.0000   1.0000
     1.0000   1.0000   1.0000   1.0000   1.0000   1.0000   1.0000   1.0000
     1.0000   1.0000   1.0000   1.0000   1.0000   1.0000   1.0000   1.0000
     1.0000   1.0000   1.0000   1.0000   1.0000   1.0000   1.0000   1.0000
     1.0000   1.0000   1.0000   1.0000   1.0000   1.0000   1.0000   1.0000
     1.0000   1.0000   1.0000   1.0000   1.0000   1.0000   1.0000   1.0000
     1.0000   1.0000   1.0000   1.0000   1.0000   1.0000   1.0000   1.0000
     1.0000   1.0000   1.0000   1.0000   1.0000   1.0000   1.0000   1.0000
     1.0000   1.0000   1.0000   1.0000   1.0000   1.0000   1.0000   1.0000
     1.0000   1.0000   1.0000   1.0000   1.0000   1.0000   1.0000   1.0000

          k = 0.1667 0.2887 0.2065 ( 15755 PWs)   bands (ev):

   -10.8541 -10.7435 -10.4364 -10.4363 -10.4332 -10.3758 -10.3757 -10.3166
   -10.2887 -10.2557 -10.2184 -10.2182 -10.1787 -10.1633 -10.1632 -10.1541
     0.9880   0.9886   1.0541   1.0546   1.1065   1.1072   1.1156   1.1219
     1.1430   1.1887   1.1892   1.2215   1.2966   1.2975   1.3134   1.4074
     1.4093   1.4104   1.4139   1.4477   1.4991   1.5208   1.5383   1.5458
     1.5462   1.5562   1.5707   1.5759   1.6052   1.6057   1.7216   1.7222
     1.7546   1.7551   1.7930   1.8099   1.8105   1.8388   1.8523   1.8529
     1.9286   1.9293   1.9417   1.9490   1.9500   1.9576   1.9921   2.0678
     2.4094   2.4107   2.4118   2.4399   2.4741   2.4811   2.4864   2.4952
     2.4963   2.5230   2.5279   2.5368   2.5372   2.5413   2.5640   2.5644
     2.5913   2.6109   2.6223   2.6287   2.6289   2.6519   2.6522   2.6606
     2.7199   2.7207   2.7241   2.7285   2.7762   2.7855   2.8077   2.8085
     3.1674   3.1981   3.2316   3.2327   3.2411   3.3381   3.4322   3.4332
     3.4581   3.7965   3.7981   3.8007   3.8021   3.9240   4.0252   4.4045
     4.4556   4.4568   4.7784   4.8737   4.8744   4.8954   4.8962   5.1516
     5.1522   5.2150   5.2284   5.2425   5.4289   5.5521   5.6332   5.6971
     5.7457   5.7569   5.7577   5.7690   5.9316   5.9332   5.9382   5.9391
     5.9735   6.0334   6.0343   6.0736   6.3641   6.5106   6.5968   6.6694

     occupation numbers 
     1.0000   1.0000   1.0000   1.0000   1.0000   1.0000   1.0000   1.0000
     1.0000   1.0000   1.0000   1.0000   1.0000   1.0000   1.0000   1.0000
     1.0000   1.0000   1.0000   1.0000   1.0000   1.0000   1.0000   1.0000
     1.0000   1.0000   1.0000   1.0000   1.0000   1.0000   1.0000   1.0000
     1.0000   1.0000   1.0000   1.0000   1.0000   1.0000   1.0000   1.0000
     1.0000   1.0000   1.0000   1.0000   1.0000   1.0000   1.0000   1.0000
     1.0000   1.0000   1.0000   1.0000   1.0000   1.0000   1.0000   1.0000
     1.0000   1.0000   1.0000   1.0000   1.0000   1.0000   1.0000   1.0000
     1.0000   1.0000   1.0000   1.0000   1.0000   1.0000   1.0000   1.0000
     1.0000   1.0000   1.0000   1.0000   1.0000   1.0000   1.0000   1.0000
     1.0000   1.0000   1.0000   1.0000   1.0000   1.0000   1.0000   1.0000
     1.0000   1.0000   1.0000   1.0000   1.0000   1.0000   1.0000   1.0000
     1.0000   1.0000   1.0000   1.0000   1.0000   1.0000   1.0000   1.0000
     1.0000   1.0000   1.0000   1.0000   1.0000   1.0000   1.0000   1.0000
     1.0000   1.0000   1.0000   1.0000   1.0000   1.0000   1.0000   1.0000
     1.0000   1.0000   1.0000   1.0000   1.0000   1.0000   1.0000   1.0000
     1.0000   1.0000   1.0000   1.0000   1.0000   1.0000   1.0000   1.0000
     1.0000   1.0000   1.0000   1.0000   1.0000   1.0000   1.0000   1.0000

          k = 0.1667 0.2887-0.3097 ( 15760 PWs)   bands (ev):

   -10.8087 -10.8039 -10.4130 -10.4119 -10.4078 -10.4068 -10.3707 -10.3642
   -10.2768 -10.2714 -10.1905 -10.1894 -10.1844 -10.1835 -10.1674 -10.1616
     1.0177   1.0180   1.0215   1.0219   1.1534   1.1546   1.1557   1.1590
     1.2014   1.2021   1.2041   1.2048   1.2252   1.2279   1.3268   1.3292
     1.4000   1.4041   1.4045   1.4065   1.5252   1.5276   1.5454   1.5462
     1.5505   1.5512   1.5685   1.5687   1.5732   1.5739   1.7341   1.7347
     1.7360   1.7365   1.8255   1.8276   1.8608   1.8615   1.8624   1.8641
     1.9005   1.9015   1.9049   1.9057   1.9627   1.9657   2.0051   2.0095
     2.4370   2.4426   2.4462   2.4480   2.4498   2.4503   2.4579   2.4636
     2.5075   2.5102   2.5328   2.5376   2.5489   2.5499   2.5539   2.5541
     2.6067   2.6122   2.6341   2.6377   2.6386   2.6393   2.6430   2.6432
     2.7486   2.7518   2.7534   2.7555   2.7642   2.7646   2.7658   2.7669
     3.1722   3.1743   3.3313   3.3330   3.3337   3.3339   3.3982   3.4032
     3.5652   3.5693   3.8351   3.8367   3.8398   3.8410   4.2032   4.2057
     4.6255   4.6263   4.6282   4.6299   4.9912   4.9922   4.9948   4.9956
     4.9959   4.9983   5.3551   5.3621   5.4654   5.4668   5.6317   5.6370
     5.7291   5.7343   5.8779   5.8800   5.8840   5.8848   5.9918   5.9927
     5.9959   5.9974   5.9979   6.0019   6.4967   6.4986   6.5972   6.6038

     occupation numbers 
     1.0000   1.0000   1.0000   1.0000   1.0000   1.0000   1.0000   1.0000
     1.0000   1.0000   1.0000   1.0000   1.0000   1.0000   1.0000   1.0000
     1.0000   1.0000   1.0000   1.0000   1.0000   1.0000   1.0000   1.0000
     1.0000   1.0000   1.0000   1.0000   1.0000   1.0000   1.0000   1.0000
     1.0000   1.0000   1.0000   1.0000   1.0000   1.0000   1.0000   1.0000
     1.0000   1.0000   1.0000   1.0000   1.0000   1.0000   1.0000   1.0000
     1.0000   1.0000   1.0000   1.0000   1.0000   1.0000   1.0000   1.0000
     1.0000   1.0000   1.0000   1.0000   1.0000   1.0000   1.0000   1.0000
     1.0000   1.0000   1.0000   1.0000   1.0000   1.0000   1.0000   1.0000
     1.0000   1.0000   1.0000   1.0000   1.0000   1.0000   1.0000   1.0000
     1.0000   1.0000   1.0000   1.0000   1.0000   1.0000   1.0000   1.0000
     1.0000   1.0000   1.0000   1.0000   1.0000   1.0000   1.0000   1.0000
     1.0000   1.0000   1.0000   1.0000   1.0000   1.0000   1.0000   1.0000
     1.0000   1.0000   1.0000   1.0000   1.0000   1.0000   1.0000   1.0000
     1.0000   1.0000   1.0000   1.0000   1.0000   1.0000   1.0000   1.0000
     1.0000   1.0000   1.0000   1.0000   1.0000   1.0000   1.0000   1.0000
     1.0000   1.0000   1.0000   1.0000   1.0000   1.0000   1.0000   1.0000
     1.0000   1.0000   1.0000   1.0000   1.0000   1.0000   1.0000   1.0000

          k = 0.1667 0.4811 0.0000 ( 15758 PWs)   bands (ev):

   -10.7683 -10.6116 -10.4991 -10.4980 -10.4859 -10.3914 -10.3904 -10.3116
   -10.3108 -10.2668 -10.2242 -10.2015 -10.2010 -10.1741 -10.1534 -10.1464
     0.9926   0.9931   1.0255   1.0261   1.0451   1.0456   1.0838   1.1396
     1.1824   1.2287   1.2293   1.2712   1.3413   1.3758   1.3852   1.4545
     1.4882   1.4889   1.4896   1.5289   1.5634   1.5639   1.5730   1.5736
     1.5826   1.5831   1.5900   1.5913   1.6029   1.6031   1.6454   1.6786
     1.6792   1.6968   1.7051   1.7464   1.7634   1.7638   1.8074   1.8198
     1.8480   1.9690   1.9727   1.9734   1.9959   2.0753   2.1238   2.2188
     2.3185   2.3201   2.3455   2.4056   2.4285   2.4290   2.4638   2.4710
     2.4908   2.4924   2.5426   2.5444   2.5543   2.5549   2.5561   2.5573
     2.5588   2.5594   2.5808   2.5814   2.6397   2.6424   2.6431   2.6501
     2.6632   2.6665   2.6897   2.8132   2.8162   2.8595   2.8609   2.8704
     2.8733   3.0365   3.1159   3.2258   3.2888   3.2914   3.4569   3.6367
     3.8236   3.8251   3.9656   4.1060   4.1071   4.1203   4.3319   4.4749
     4.4780   4.4786   4.4792   4.6485   4.6663   4.7908   4.8273   5.1674
     5.2029   5.2044   5.2259   5.2938   5.4579   5.5246   5.5264   5.6314
     5.6332   5.6411   5.6691   5.6704   5.7052   5.7069   5.7562   5.7576
     5.9491   6.0100   6.0352   6.0372   6.2283   6.3038   6.4939   6.5309

     occupation numbers 
     1.0000   1.0000   1.0000   1.0000   1.0000   1.0000   1.0000   1.0000
     1.0000   1.0000   1.0000   1.0000   1.0000   1.0000   1.0000   1.0000
     1.0000   1.0000   1.0000   1.0000   1.0000   1.0000   1.0000   1.0000
     1.0000   1.0000   1.0000   1.0000   1.0000   1.0000   1.0000   1.0000
     1.0000   1.0000   1.0000   1.0000   1.0000   1.0000   1.0000   1.0000
     1.0000   1.0000   1.0000   1.0000   1.0000   1.0000   1.0000   1.0000
     1.0000   1.0000   1.0000   1.0000   1.0000   1.0000   1.0000   1.0000
     1.0000   1.0000   1.0000   1.0000   1.0000   1.0000   1.0000   1.0000
     1.0000   1.0000   1.0000   1.0000   1.0000   1.0000   1.0000   1.0000
     1.0000   1.0000   1.0000   1.0000   1.0000   1.0000   1.0000   1.0000
     1.0000   1.0000   1.0000   1.0000   1.0000   1.0000   1.0000   1.0000
     1.0000   1.0000   1.0000   1.0000   1.0000   1.0000   1.0000   1.0000
     1.0000   1.0000   1.0000   1.0000   1.0000   1.0000   1.0000   1.0000
     1.0000   1.0000   1.0000   1.0000   1.0000   1.0000   1.0000   1.0000
     1.0000   1.0000   1.0000   1.0000   1.0000   1.0000   1.0000   1.0000
     1.0000   1.0000   1.0000   1.0000   1.0000   1.0000   1.0000   1.0000
     1.0000   1.0000   1.0000   1.0000   1.0000   1.0000   1.0000   1.0000
     1.0000   1.0000   1.0000   1.0000   1.0000   1.0000   1.0000   1.0000

          k = 0.1667 0.4811 0.1032 ( 15750 PWs)   bands (ev):

   -10.7593 -10.6040 -10.5689 -10.4799 -10.4477 -10.4279 -10.3556 -10.3343
   -10.2676 -10.2642 -10.2336 -10.2164 -10.1873 -10.1813 -10.1547 -10.1518
     0.9806   1.0231   1.0376   1.0393   1.0599   1.0756   1.0844   1.1318
     1.1717   1.2295   1.2637   1.2739   1.3307   1.3627   1.3659   1.4511
     1.4771   1.4905   1.4928   1.5203   1.5377   1.5444   1.5608   1.5617
     1.5701   1.5855   1.5952   1.5962   1.6156   1.6389   1.6567   1.6725
     1.6894   1.6989   1.7049   1.7095   1.7538   1.7659   1.7963   1.8241
     1.8402   1.9412   1.9591   1.9738   1.9842   2.0158   2.1061   2.1816
     2.3301   2.3315   2.3552   2.3915   2.4345   2.4706   2.4722   2.4781
     2.4924   2.5032   2.5083   2.5166   2.5182   2.5227   2.5402   2.5661
     2.5714   2.5860   2.5983   2.6260   2.6303   2.6368   2.6468   2.6603
     2.6738   2.6810   2.7137   2.7493   2.7867   2.8206   2.8511   2.8856
     3.0323   3.1464   3.1835   3.2150   3.2323   3.3547   3.4905   3.6334
     3.7149   3.9262   3.9678   4.0000   4.1480   4.2262   4.2319   4.2503
     4.3511   4.6716   4.6834   4.6975   4.7031   4.7799   4.8463   5.0443
     5.1798   5.2155   5.2170   5.2370   5.2945   5.4633   5.4694   5.5109
     5.5326   5.5613   5.6377   5.7263   5.8189   5.8372   5.8731   5.9113
     5.9303   5.9854   6.0182   6.1626   6.2283   6.2862   6.4821   6.5148

     occupation numbers 
     1.0000   1.0000   1.0000   1.0000   1.0000   1.0000   1.0000   1.0000
     1.0000   1.0000   1.0000   1.0000   1.0000   1.0000   1.0000   1.0000
     1.0000   1.0000   1.0000   1.0000   1.0000   1.0000   1.0000   1.0000
     1.0000   1.0000   1.0000   1.0000   1.0000   1.0000   1.0000   1.0000
     1.0000   1.0000   1.0000   1.0000   1.0000   1.0000   1.0000   1.0000
     1.0000   1.0000   1.0000   1.0000   1.0000   1.0000   1.0000   1.0000
     1.0000   1.0000   1.0000   1.0000   1.0000   1.0000   1.0000   1.0000
     1.0000   1.0000   1.0000   1.0000   1.0000   1.0000   1.0000   1.0000
     1.0000   1.0000   1.0000   1.0000   1.0000   1.0000   1.0000   1.0000
     1.0000   1.0000   1.0000   1.0000   1.0000   1.0000   1.0000   1.0000
     1.0000   1.0000   1.0000   1.0000   1.0000   1.0000   1.0000   1.0000
     1.0000   1.0000   1.0000   1.0000   1.0000   1.0000   1.0000   1.0000
     1.0000   1.0000   1.0000   1.0000   1.0000   1.0000   1.0000   1.0000
     1.0000   1.0000   1.0000   1.0000   1.0000   1.0000   1.0000   1.0000
     1.0000   1.0000   1.0000   1.0000   1.0000   1.0000   1.0000   1.0000
     1.0000   1.0000   1.0000   1.0000   1.0000   1.0000   1.0000   1.0000
     1.0000   1.0000   1.0000   1.0000   1.0000   1.0000   1.0000   1.0000
     1.0000   1.0000   1.0000   1.0000   1.0000   1.0000   1.0000   1.0000

          k = 0.1667 0.4811 0.2065 ( 15767 PWs)   bands (ev):

   -10.7326 -10.6341 -10.5819 -10.5009 -10.4621 -10.3974 -10.3619 -10.2820
   -10.2611 -10.2572 -10.2316 -10.2275 -10.2027 -10.1756 -10.1676 -10.1584
     0.9938   1.0441   1.0525   1.0613   1.1091   1.1148   1.1276   1.1414
     1.1524   1.2533   1.2786   1.2954   1.3054   1.3102   1.3314   1.4481
     1.4644   1.4882   1.4904   1.4990   1.5024   1.5133   1.5377   1.5560
     1.5677   1.5914   1.5989   1.6191   1.6231   1.6265   1.6270   1.6693
     1.6797   1.6920   1.6992   1.7243   1.7486   1.7714   1.8138   1.8165
     1.8403   1.8422   1.9045   1.9316   1.9889   2.0074   2.0644   2.1095
     2.3632   2.3641   2.3810   2.4098   2.4488   2.4590   2.4617   2.4626
     2.4689   2.4854   2.4924   2.5035   2.5113   2.5207   2.5231   2.5583
     2.5943   2.6052   2.6281   2.6346   2.6369   2.6376   2.6534   2.6718
     2.6944   2.7047   2.7279   2.7497   2.7746   2.7775   2.8150   2.8840
     3.1920   3.1945   3.3048   3.3242   3.3715   3.4200   3.5202   3.5975
     3.6827   3.8051   3.9423   4.0147   4.0318   4.0657   4.2276   4.3121
     4.4322   4.7051   4.7566   4.8454   4.8478   4.8646   4.8952   4.8974
     4.9535   4.9736   5.1808   5.2250   5.2482   5.2702   5.3398   5.4275
     5.5206   5.6244   5.6464   5.7020   5.7798   5.8650   5.9761   5.9894
     6.0385   6.0734   6.1786   6.2029   6.2453   6.2838   6.4353   6.4678

     occupation numbers 
     1.0000   1.0000   1.0000   1.0000   1.0000   1.0000   1.0000   1.0000
     1.0000   1.0000   1.0000   1.0000   1.0000   1.0000   1.0000   1.0000
     1.0000   1.0000   1.0000   1.0000   1.0000   1.0000   1.0000   1.0000
     1.0000   1.0000   1.0000   1.0000   1.0000   1.0000   1.0000   1.0000
     1.0000   1.0000   1.0000   1.0000   1.0000   1.0000   1.0000   1.0000
     1.0000   1.0000   1.0000   1.0000   1.0000   1.0000   1.0000   1.0000
     1.0000   1.0000   1.0000   1.0000   1.0000   1.0000   1.0000   1.0000
     1.0000   1.0000   1.0000   1.0000   1.0000   1.0000   1.0000   1.0000
     1.0000   1.0000   1.0000   1.0000   1.0000   1.0000   1.0000   1.0000
     1.0000   1.0000   1.0000   1.0000   1.0000   1.0000   1.0000   1.0000
     1.0000   1.0000   1.0000   1.0000   1.0000   1.0000   1.0000   1.0000
     1.0000   1.0000   1.0000   1.0000   1.0000   1.0000   1.0000   1.0000
     1.0000   1.0000   1.0000   1.0000   1.0000   1.0000   1.0000   1.0000
     1.0000   1.0000   1.0000   1.0000   1.0000   1.0000   1.0000   1.0000
     1.0000   1.0000   1.0000   1.0000   1.0000   1.0000   1.0000   1.0000
     1.0000   1.0000   1.0000   1.0000   1.0000   1.0000   1.0000   1.0000
     1.0000   1.0000   1.0000   1.0000   1.0000   1.0000   1.0000   1.0000
     1.0000   1.0000   1.0000   1.0000   1.0000   1.0000   1.0000   1.0000

          k = 0.1667 0.4811-0.3097 ( 15770 PWs)   bands (ev):

   -10.6923 -10.6875 -10.5492 -10.5442 -10.4365 -10.4313 -10.3081 -10.3018
   -10.2485 -10.2430 -10.2401 -10.2339 -10.1965 -10.1904 -10.1685 -10.1628
     1.0201   1.0237   1.0753   1.0784   1.0989   1.1018   1.2111   1.2137
     1.2187   1.2207   1.2299   1.2328   1.2727   1.2775   1.4137   1.4158
     1.4526   1.4545   1.4889   1.4903   1.5139   1.5175   1.5383   1.5418
     1.5560   1.5577   1.6061   1.6084   1.6291   1.6308   1.6438   1.6457
     1.6550   1.6597   1.7513   1.7534   1.7787   1.7816   1.7861   1.7905
     1.8182   1.8200   1.8878   1.8918   2.0193   2.0216   2.0462   2.0493
     2.4072   2.4105   2.4121   2.4149   2.4156   2.4208   2.4353   2.4378
     2.4658   2.4715   2.4994   2.5048   2.5109   2.5149   2.5422   2.5462
     2.6108   2.6162   2.6206   2.6257   2.6415   2.6462   2.6690   2.6735
     2.7111   2.7143   2.7286   2.7310   2.7725   2.7747   2.8432   2.8462
     3.1805   3.1822   3.4682   3.4685   3.4783   3.4827   3.6057   3.6067
     3.6215   3.6247   3.8334   3.8359   4.0706   4.0753   4.3133   4.3175
     4.6254   4.6286   4.7780   4.7820   4.7925   4.7965   4.9293   4.9335
     4.9922   4.9976   5.1592   5.1638   5.1844   5.1896   5.3076   5.3120
     5.6169   5.6216   5.6917   5.6963   5.7549   5.7616   6.0339   6.0394
     6.1148   6.1189   6.1860   6.1890   6.3348   6.3385   6.3862   6.3918

     occupation numbers 
     1.0000   1.0000   1.0000   1.0000   1.0000   1.0000   1.0000   1.0000
     1.0000   1.0000   1.0000   1.0000   1.0000   1.0000   1.0000   1.0000
     1.0000   1.0000   1.0000   1.0000   1.0000   1.0000   1.0000   1.0000
     1.0000   1.0000   1.0000   1.0000   1.0000   1.0000   1.0000   1.0000
     1.0000   1.0000   1.0000   1.0000   1.0000   1.0000   1.0000   1.0000
     1.0000   1.0000   1.0000   1.0000   1.0000   1.0000   1.0000   1.0000
     1.0000   1.0000   1.0000   1.0000   1.0000   1.0000   1.0000   1.0000
     1.0000   1.0000   1.0000   1.0000   1.0000   1.0000   1.0000   1.0000
     1.0000   1.0000   1.0000   1.0000   1.0000   1.0000   1.0000   1.0000
     1.0000   1.0000   1.0000   1.0000   1.0000   1.0000   1.0000   1.0000
     1.0000   1.0000   1.0000   1.0000   1.0000   1.0000   1.0000   1.0000
     1.0000   1.0000   1.0000   1.0000   1.0000   1.0000   1.0000   1.0000
     1.0000   1.0000   1.0000   1.0000   1.0000   1.0000   1.0000   1.0000
     1.0000   1.0000   1.0000   1.0000   1.0000   1.0000   1.0000   1.0000
     1.0000   1.0000   1.0000   1.0000   1.0000   1.0000   1.0000   1.0000
     1.0000   1.0000   1.0000   1.0000   1.0000   1.0000   1.0000   1.0000
     1.0000   1.0000   1.0000   1.0000   1.0000   1.0000   1.0000   1.0000
     1.0000   1.0000   1.0000   1.0000   1.0000   1.0000   1.0000   1.0000

          k = 0.3333 0.5774 0.0000 ( 15750 PWs)   bands (ev):

   -10.6341 -10.6341 -10.6339 -10.4072 -10.4059 -10.4057 -10.4054 -10.4054
   -10.4045 -10.1990 -10.1959 -10.1865 -10.1846 -10.1802 -10.1800 -10.1797
     1.0186   1.0195   1.0197   1.0200   1.0201   1.0212   1.1424   1.1433
     1.1438   1.2794   1.3206   1.3209   1.3333   1.3334   1.3339   1.5252
     1.5256   1.5273   1.5285   1.5299   1.5304   1.5311   1.5318   1.5324
     1.5324   1.5341   1.5815   1.5826   1.5834   1.6675   1.6682   1.6751
     1.6757   1.6773   1.6773   1.6775   1.6784   1.8339   1.8360   1.8369
     1.9666   1.9679   1.9679   2.0240   2.0536   2.0549   2.2687   2.2703
     2.3211   2.3217   2.3221   2.3614   2.4322   2.4347   2.4454   2.4463
     2.4468   2.4850   2.5283   2.5303   2.5493   2.5507   2.5510   2.5514
     2.5517   2.5518   2.5812   2.5822   2.5827   2.5829   2.5832   2.5839
     2.6473   2.6479   2.6480   2.8189   2.8194   2.8211   2.9233   2.9255
     3.0187   3.0196   3.0220   3.2400   3.2401   3.2431   3.4094   3.4111
     4.2107   4.2119   4.2123   4.2125   4.2126   4.2141   4.2786   4.2818
     4.4204   4.4214   4.4232   4.6334   4.6344   4.6352   5.0277   5.0277
     5.2143   5.2268   5.2273   5.2279   5.5252   5.5270   5.5287   5.5288
     5.5308   5.5309   5.6804   5.6813   5.7206   5.7207   5.7215   5.7221
     5.7239   5.7248   6.2500   6.2514   6.2521   6.2844   6.2851   6.2857

     occupation numbers 
     1.0000   1.0000   1.0000   1.0000   1.0000   1.0000   1.0000   1.0000
     1.0000   1.0000   1.0000   1.0000   1.0000   1.0000   1.0000   1.0000
     1.0000   1.0000   1.0000   1.0000   1.0000   1.0000   1.0000   1.0000
     1.0000   1.0000   1.0000   1.0000   1.0000   1.0000   1.0000   1.0000
     1.0000   1.0000   1.0000   1.0000   1.0000   1.0000   1.0000   1.0000
     1.0000   1.0000   1.0000   1.0000   1.0000   1.0000   1.0000   1.0000
     1.0000   1.0000   1.0000   1.0000   1.0000   1.0000   1.0000   1.0000
     1.0000   1.0000   1.0000   1.0000   1.0000   1.0000   1.0000   1.0000
     1.0000   1.0000   1.0000   1.0000   1.0000   1.0000   1.0000   1.0000
     1.0000   1.0000   1.0000   1.0000   1.0000   1.0000   1.0000   1.0000
     1.0000   1.0000   1.0000   1.0000   1.0000   1.0000   1.0000   1.0000
     1.0000   1.0000   1.0000   1.0000   1.0000   1.0000   1.0000   1.0000
     1.0000   1.0000   1.0000   1.0000   1.0000   1.0000   1.0000   1.0000
     1.0000   1.0000   1.0000   1.0000   1.0000   1.0000   1.0000   1.0000
     1.0000   1.0000   1.0000   1.0000   1.0000   1.0000   1.0000   1.0000
     1.0000   1.0000   1.0000   1.0000   1.0000   1.0000   1.0000   1.0000
     1.0000   1.0000   1.0000   1.0000   1.0000   1.0000   1.0000   1.0000
     1.0000   1.0000   1.0000   1.0000   1.0000   1.0000   1.0000   1.0000

          k = 0.3333 0.5774 0.1032 ( 15750 PWs)   bands (ev):

   -10.6263 -10.6263 -10.6261 -10.4648 -10.4646 -10.4645 -10.3471 -10.3469
   -10.3468 -10.1986 -10.1953 -10.1878 -10.1878 -10.1876 -10.1871 -10.1844
     1.0145   1.0149   1.0155   1.0566   1.0571   1.0576   1.1329   1.1337
     1.1343   1.2863   1.3225   1.3227   1.3231   1.3421   1.3425   1.4536
     1.5210   1.5214   1.5230   1.5239   1.5239   1.5264   1.5362   1.5366
     1.5379   1.5736   1.5745   1.5753   1.6178   1.6437   1.6444   1.6670
     1.6672   1.6687   1.7036   1.7044   1.7054   1.8268   1.8288   1.8297
     1.9108   1.9117   1.9122   1.9936   2.0588   2.0600   2.2257   2.2272
     2.3321   2.3326   2.3331   2.3665   2.4194   2.4470   2.4570   2.4577
     2.4583   2.4833   2.5134   2.5140   2.5148   2.5366   2.5373   2.5378
     2.5809   2.5832   2.5861   2.5863   2.5868   2.6253   2.6263   2.6271
     2.6441   2.6447   2.6447   2.7878   2.7882   2.7899   2.9038   2.9060
     3.1353   3.1356   3.1381   3.2527   3.2556   3.2846   3.3973   3.3991
     4.0368   4.0539   4.0543   4.0557   4.3476   4.3484   4.3491   4.4525
     4.4536   4.4554   4.5194   4.6293   4.6304   4.6311   5.0738   5.0739
     5.1816   5.2236   5.2243   5.2249   5.2749   5.2756   5.2772   5.4822
     5.4823   5.4824   5.6382   5.6391   5.8190   5.8191   5.8198   5.8922
     5.8931   5.8934   6.2296   6.2309   6.2316   6.2849   6.2856   6.2862

     occupation numbers 
     1.0000   1.0000   1.0000   1.0000   1.0000   1.0000   1.0000   1.0000
     1.0000   1.0000   1.0000   1.0000   1.0000   1.0000   1.0000   1.0000
     1.0000   1.0000   1.0000   1.0000   1.0000   1.0000   1.0000   1.0000
     1.0000   1.0000   1.0000   1.0000   1.0000   1.0000   1.0000   1.0000
     1.0000   1.0000   1.0000   1.0000   1.0000   1.0000   1.0000   1.0000
     1.0000   1.0000   1.0000   1.0000   1.0000   1.0000   1.0000   1.0000
     1.0000   1.0000   1.0000   1.0000   1.0000   1.0000   1.0000   1.0000
     1.0000   1.0000   1.0000   1.0000   1.0000   1.0000   1.0000   1.0000
     1.0000   1.0000   1.0000   1.0000   1.0000   1.0000   1.0000   1.0000
     1.0000   1.0000   1.0000   1.0000   1.0000   1.0000   1.0000   1.0000
     1.0000   1.0000   1.0000   1.0000   1.0000   1.0000   1.0000   1.0000
     1.0000   1.0000   1.0000   1.0000   1.0000   1.0000   1.0000   1.0000
     1.0000   1.0000   1.0000   1.0000   1.0000   1.0000   1.0000   1.0000
     1.0000   1.0000   1.0000   1.0000   1.0000   1.0000   1.0000   1.0000
     1.0000   1.0000   1.0000   1.0000   1.0000   1.0000   1.0000   1.0000
     1.0000   1.0000   1.0000   1.0000   1.0000   1.0000   1.0000   1.0000
     1.0000   1.0000   1.0000   1.0000   1.0000   1.0000   1.0000   1.0000
     1.0000   1.0000   1.0000   1.0000   1.0000   1.0000   1.0000   1.0000

          k = 0.3333 0.5774 0.2065 ( 15738 PWs)   bands (ev):

   -10.6035 -10.6035 -10.6033 -10.5198 -10.5196 -10.5195 -10.2927 -10.2924
   -10.2923 -10.2100 -10.2099 -10.2099 -10.1977 -10.1936 -10.1888 -10.1855
     1.0351   1.0356   1.0362   1.1062   1.1069   1.1075   1.1255   1.1261
     1.1264   1.2834   1.2839   1.2842   1.3074   1.3910   1.4024   1.4028
     1.5146   1.5150   1.5167   1.5178   1.5179   1.5203   1.5360   1.5365
     1.5375   1.5550   1.5555   1.5563   1.5778   1.5784   1.6833   1.6839
     1.6854   1.7158   1.7391   1.7402   1.7412   1.8058   1.8069   1.8082
     1.8086   1.8087   1.8101   1.9171   2.0752   2.0764   2.1572   2.1586
     2.3627   2.3633   2.3638   2.3778   2.4055   2.4591   2.4597   2.4600
     2.4608   2.4770   2.4773   2.4783   2.4790   2.5169   2.5173   2.5178
     2.6038   2.6046   2.6049   2.6353   2.6358   2.6359   2.6707   2.6719
     2.6727   2.6789   2.6811   2.7485   2.7495   2.7507   2.8508   2.8531
     3.2845   3.2871   3.3659   3.3679   3.3742   3.3742   3.3768   3.4076
     3.8016   3.8645   3.8647   3.8666   4.4635   4.4646   4.4649   4.5527
     4.5539   4.5556   4.6080   4.6091   4.6095   4.7422   4.9803   4.9812
     4.9829   5.0859   5.1974   5.1976   5.2305   5.2312   5.2318   5.3645
     5.3649   5.3652   5.5222   5.5230   5.9542   5.9548   5.9555   6.0884
     6.0893   6.0898   6.1699   6.1710   6.1717   6.2719   6.2727   6.2732

     occupation numbers 
     1.0000   1.0000   1.0000   1.0000   1.0000   1.0000   1.0000   1.0000
     1.0000   1.0000   1.0000   1.0000   1.0000   1.0000   1.0000   1.0000
     1.0000   1.0000   1.0000   1.0000   1.0000   1.0000   1.0000   1.0000
     1.0000   1.0000   1.0000   1.0000   1.0000   1.0000   1.0000   1.0000
     1.0000   1.0000   1.0000   1.0000   1.0000   1.0000   1.0000   1.0000
     1.0000   1.0000   1.0000   1.0000   1.0000   1.0000   1.0000   1.0000
     1.0000   1.0000   1.0000   1.0000   1.0000   1.0000   1.0000   1.0000
     1.0000   1.0000   1.0000   1.0000   1.0000   1.0000   1.0000   1.0000
     1.0000   1.0000   1.0000   1.0000   1.0000   1.0000   1.0000   1.0000
     1.0000   1.0000   1.0000   1.0000   1.0000   1.0000   1.0000   1.0000
     1.0000   1.0000   1.0000   1.0000   1.0000   1.0000   1.0000   1.0000
     1.0000   1.0000   1.0000   1.0000   1.0000   1.0000   1.0000   1.0000
     1.0000   1.0000   1.0000   1.0000   1.0000   1.0000   1.0000   1.0000
     1.0000   1.0000   1.0000   1.0000   1.0000   1.0000   1.0000   1.0000
     1.0000   1.0000   1.0000   1.0000   1.0000   1.0000   1.0000   1.0000
     1.0000   1.0000   1.0000   1.0000   1.0000   1.0000   1.0000   1.0000
     1.0000   1.0000   1.0000   1.0000   1.0000   1.0000   1.0000   1.0000
     1.0000   1.0000   1.0000   1.0000   1.0000   1.0000   1.0000   1.0000

          k = 0.3333 0.5774-0.3097 ( 15732 PWs)   bands (ev):

   -10.5703 -10.5694 -10.5688 -10.5650 -10.5648 -10.5638 -10.2501 -10.2489
   -10.2475 -10.2437 -10.2424 -10.2417 -10.1972 -10.1916 -10.1908 -10.1860
     1.0688   1.0690   1.0698   1.0712   1.0723   1.0726   1.2086   1.2096
     1.2100   1.2125   1.2126   1.2128   1.3395   1.3453   1.4851   1.4875
     1.4905   1.4919   1.5124   1.5131   1.5146   1.5147   1.5147   1.5173
     1.5383   1.5384   1.5401   1.5413   1.5417   1.5418   1.7272   1.7283
     1.7287   1.7290   1.7292   1.7317   1.7728   1.7747   1.7759   1.7780
     1.7793   1.7799   1.8167   1.8209   2.1045   2.1045   2.1084   2.1109
     2.3884   2.3944   2.4044   2.4053   2.4062   2.4103   2.4104   2.4108
     2.4674   2.4732   2.4933   2.4949   2.4961   2.4998   2.4999   2.5003
     2.6176   2.6198   2.6202   2.6240   2.6241   2.6249   2.7093   2.7111
     2.7112   2.7131   2.7138   2.7156   2.7725   2.7744   2.7748   2.7767
     3.3243   3.3255   3.3262   3.3295   3.5854   3.5880   3.6336   3.6336
     3.6339   3.6341   3.6345   3.6391   4.5503   4.5526   4.5527   4.5565
     4.5566   4.5567   4.7256   4.7283   4.7293   4.7327   4.7332   4.7350
     4.9316   4.9393   5.2728   5.2733   5.2733   5.2771   5.2777   5.2787
     5.3571   5.3602   5.3630   5.3673   6.0703   6.0734   6.0750   6.0791
     6.0793   6.0806   6.2099   6.2130   6.2145   6.2162   6.2187   6.2191

     occupation numbers 
     1.0000   1.0000   1.0000   1.0000   1.0000   1.0000   1.0000   1.0000
     1.0000   1.0000   1.0000   1.0000   1.0000   1.0000   1.0000   1.0000
     1.0000   1.0000   1.0000   1.0000   1.0000   1.0000   1.0000   1.0000
     1.0000   1.0000   1.0000   1.0000   1.0000   1.0000   1.0000   1.0000
     1.0000   1.0000   1.0000   1.0000   1.0000   1.0000   1.0000   1.0000
     1.0000   1.0000   1.0000   1.0000   1.0000   1.0000   1.0000   1.0000
     1.0000   1.0000   1.0000   1.0000   1.0000   1.0000   1.0000   1.0000
     1.0000   1.0000   1.0000   1.0000   1.0000   1.0000   1.0000   1.0000
     1.0000   1.0000   1.0000   1.0000   1.0000   1.0000   1.0000   1.0000
     1.0000   1.0000   1.0000   1.0000   1.0000   1.0000   1.0000   1.0000
     1.0000   1.0000   1.0000   1.0000   1.0000   1.0000   1.0000   1.0000
     1.0000   1.0000   1.0000   1.0000   1.0000   1.0000   1.0000   1.0000
     1.0000   1.0000   1.0000   1.0000   1.0000   1.0000   1.0000   1.0000
     1.0000   1.0000   1.0000   1.0000   1.0000   1.0000   1.0000   1.0000
     1.0000   1.0000   1.0000   1.0000   1.0000   1.0000   1.0000   1.0000
     1.0000   1.0000   1.0000   1.0000   1.0000   1.0000   1.0000   1.0000
     1.0000   1.0000   1.0000   1.0000   1.0000   1.0000   1.0000   1.0000
     1.0000   1.0000   1.0000   1.0000   1.0000   1.0000   1.0000   1.0000

          k = 0.0000-0.1925 0.1032 ( 15742 PWs)   bands (ev):

   -10.9530 -10.7266 -10.5558 -10.4057 -10.3497 -10.3496 -10.3155 -10.3046
   -10.2678 -10.2677 -10.2346 -10.2127 -10.2126 -10.1450 -10.1441 -10.1441
     0.9425   0.9888   0.9889   0.9923   1.0275   1.0277   1.0621   1.1146
     1.1233   1.1233   1.1298   1.2667   1.3197   1.3370   1.3623   1.3634
     1.3756   1.3854   1.3859   1.4278   1.4342   1.4352   1.5106   1.5244
     1.5517   1.5520   1.5564   1.6854   1.6855   1.6969   1.7937   1.7961
     1.7964   1.8174   1.8237   1.8556   1.8694   1.8696   1.8712   1.8722
     1.8838   1.8839   1.9649   1.9665   1.9745   2.0136   2.0704   2.0717
     2.4172   2.4292   2.4482   2.4636   2.4641   2.5150   2.5167   2.5555
     2.5563   2.5602   2.5698   2.5734   2.5764   2.5764   2.5862   2.5871
     2.5880   2.5962   2.6107   2.6254   2.6460   2.6615   2.6745   2.6752
     2.6835   2.6912   2.6914   2.7392   2.7399   2.7825   2.7828   2.8389
     2.9769   3.0792   3.1377   3.1384   3.2010   3.2028   3.3213   3.3222
     3.3300   3.4889   3.5111   3.5121   3.5680   4.1957   4.1965   4.2741
     4.2843   4.6550   4.6551   4.8459   5.0310   5.0467   5.0471   5.2672
     5.3442   5.3714   5.3718   5.4508   5.4524   5.6485   5.6489   5.6801
     5.7431   5.7605   5.7605   5.8056   5.8859   5.9638   5.9653   6.0478
     6.1193   6.2023   6.2992   6.3365   6.4354   6.5445   6.7505   6.8240

     occupation numbers 
     1.0000   1.0000   1.0000   1.0000   1.0000   1.0000   1.0000   1.0000
     1.0000   1.0000   1.0000   1.0000   1.0000   1.0000   1.0000   1.0000
     1.0000   1.0000   1.0000   1.0000   1.0000   1.0000   1.0000   1.0000
     1.0000   1.0000   1.0000   1.0000   1.0000   1.0000   1.0000   1.0000
     1.0000   1.0000   1.0000   1.0000   1.0000   1.0000   1.0000   1.0000
     1.0000   1.0000   1.0000   1.0000   1.0000   1.0000   1.0000   1.0000
     1.0000   1.0000   1.0000   1.0000   1.0000   1.0000   1.0000   1.0000
     1.0000   1.0000   1.0000   1.0000   1.0000   1.0000   1.0000   1.0000
     1.0000   1.0000   1.0000   1.0000   1.0000   1.0000   1.0000   1.0000
     1.0000   1.0000   1.0000   1.0000   1.0000   1.0000   1.0000   1.0000
     1.0000   1.0000   1.0000   1.0000   1.0000   1.0000   1.0000   1.0000
     1.0000   1.0000   1.0000   1.0000   1.0000   1.0000   1.0000   1.0000
     1.0000   1.0000   1.0000   1.0000   1.0000   1.0000   1.0000   1.0000
     1.0000   1.0000   1.0000   1.0000   1.0000   1.0000   1.0000   1.0000
     1.0000   1.0000   1.0000   1.0000   1.0000   1.0000   1.0000   1.0000
     1.0000   1.0000   1.0000   1.0000   1.0000   1.0000   1.0000   1.0000
     1.0000   1.0000   1.0000   1.0000   1.0000   1.0000   1.0000   1.0000
     1.0000   1.0000   1.0000   1.0000   1.0000   1.0000   1.0000   1.0000

          k = 0.0000-0.1925 0.2065 ( 15730 PWs)   bands (ev):

   -10.9215 -10.8047 -10.4748 -10.3912 -10.3499 -10.3389 -10.3379 -10.3371
   -10.2948 -10.2947 -10.2034 -10.1886 -10.1885 -10.1571 -10.1532 -10.1531
     0.9610   1.0130   1.0131   1.0338   1.0645   1.0918   1.0920   1.0984
     1.0986   1.1547   1.1707   1.2471   1.2509   1.2873   1.2881   1.3314
     1.3426   1.3671   1.3711   1.3728   1.4545   1.4625   1.4993   1.5102
     1.5675   1.5679   1.5748   1.6351   1.6353   1.6463   1.7961   1.8263
     1.8273   1.8335   1.8528   1.8643   1.8647   1.8797   1.8891   1.8897
     1.9141   1.9149   1.9333   1.9419   1.9437   1.9835   2.0302   2.0313
     2.4323   2.4425   2.4738   2.4843   2.4888   2.4950   2.4958   2.5518
     2.5581   2.5583   2.5631   2.5659   2.5670   2.5771   2.5840   2.5849
     2.5909   2.5973   2.6192   2.6246   2.6323   2.6523   2.6690   2.6697
     2.6744   2.6748   2.7248   2.7602   2.7609   2.7824   2.7825   2.8049
     3.1204   3.1239   3.1249   3.1555   3.1574   3.2129   3.2525   3.3856
     3.3864   3.4907   3.4919   3.5603   3.6151   3.8936   4.3663   4.3667
     4.4116   4.7523   4.7524   4.8316   4.8317   4.9205   4.9550   5.1365
     5.1374   5.1809   5.3907   5.5984   5.5997   5.6987   5.6992   5.8308
     5.8317   5.8326   5.8494   5.8566   5.9077   5.9093   5.9166   6.0581
     6.0655   6.0889   6.0971   6.2387   6.5461   6.6404   6.7118   6.7849

     occupation numbers 
     1.0000   1.0000   1.0000   1.0000   1.0000   1.0000   1.0000   1.0000
     1.0000   1.0000   1.0000   1.0000   1.0000   1.0000   1.0000   1.0000
     1.0000   1.0000   1.0000   1.0000   1.0000   1.0000   1.0000   1.0000
     1.0000   1.0000   1.0000   1.0000   1.0000   1.0000   1.0000   1.0000
     1.0000   1.0000   1.0000   1.0000   1.0000   1.0000   1.0000   1.0000
     1.0000   1.0000   1.0000   1.0000   1.0000   1.0000   1.0000   1.0000
     1.0000   1.0000   1.0000   1.0000   1.0000   1.0000   1.0000   1.0000
     1.0000   1.0000   1.0000   1.0000   1.0000   1.0000   1.0000   1.0000
     1.0000   1.0000   1.0000   1.0000   1.0000   1.0000   1.0000   1.0000
     1.0000   1.0000   1.0000   1.0000   1.0000   1.0000   1.0000   1.0000
     1.0000   1.0000   1.0000   1.0000   1.0000   1.0000   1.0000   1.0000
     1.0000   1.0000   1.0000   1.0000   1.0000   1.0000   1.0000   1.0000
     1.0000   1.0000   1.0000   1.0000   1.0000   1.0000   1.0000   1.0000
     1.0000   1.0000   1.0000   1.0000   1.0000   1.0000   1.0000   1.0000
     1.0000   1.0000   1.0000   1.0000   1.0000   1.0000   1.0000   1.0000
     1.0000   1.0000   1.0000   1.0000   1.0000   1.0000   1.0000   1.0000
     1.0000   1.0000   1.0000   1.0000   1.0000   1.0000   1.0000   1.0000
     1.0000   1.0000   1.0000   1.0000   1.0000   1.0000   1.0000   1.0000

          k = 0.0000-0.3849 0.1032 ( 15777 PWs)   bands (ev):

   -10.8512 -10.6430 -10.5420 -10.4874 -10.4013 -10.3545 -10.3543 -10.3003
   -10.2710 -10.2700 -10.2696 -10.2130 -10.2130 -10.1656 -10.1417 -10.1416
     0.9444   1.0096   1.0326   1.0568   1.0799   1.0801   1.0818   1.1236
     1.1238   1.1696   1.2010   1.2010   1.3532   1.3944   1.4015   1.4329
     1.4332   1.4513   1.4539   1.4796   1.4929   1.5108   1.5233   1.5746
     1.5753   1.6105   1.6179   1.6181   1.6357   1.6360   1.6700   1.7027
     1.7032   1.7117   1.7159   1.7327   1.7858   1.7862   1.8644   1.8646
     1.8737   1.8737   1.8900   1.9861   2.0284   2.0293   2.0845   2.0853
     2.3562   2.3787   2.3980   2.3986   2.4301   2.4997   2.5016   2.5021
     2.5084   2.5151   2.5296   2.5297   2.5310   2.5498   2.5638   2.5642
     2.5694   2.5840   2.5892   2.6326   2.6352   2.6511   2.6809   2.6816
     2.7069   2.7093   2.7093   2.7728   2.7734   2.7928   2.8744   2.8749
     2.9916   3.0803   3.0819   3.1702   3.3391   3.3409   3.5101   3.5108
     3.6926   3.6930   3.7620   3.8305   3.9750   4.1237   4.1238   4.2791
     4.4704   4.4707   4.6358   4.7291   4.7299   4.8840   5.1025   5.1029
     5.1188   5.2172   5.2391   5.4421   5.4436   5.5650   5.6183   5.6193
     5.7340   5.7371   5.7819   5.7825   5.7882   5.7890   5.7929   5.8038
     5.8730   6.0990   6.1010   6.1338   6.2796   6.3697   6.6059   6.6859

     occupation numbers 
     1.0000   1.0000   1.0000   1.0000   1.0000   1.0000   1.0000   1.0000
     1.0000   1.0000   1.0000   1.0000   1.0000   1.0000   1.0000   1.0000
     1.0000   1.0000   1.0000   1.0000   1.0000   1.0000   1.0000   1.0000
     1.0000   1.0000   1.0000   1.0000   1.0000   1.0000   1.0000   1.0000
     1.0000   1.0000   1.0000   1.0000   1.0000   1.0000   1.0000   1.0000
     1.0000   1.0000   1.0000   1.0000   1.0000   1.0000   1.0000   1.0000
     1.0000   1.0000   1.0000   1.0000   1.0000   1.0000   1.0000   1.0000
     1.0000   1.0000   1.0000   1.0000   1.0000   1.0000   1.0000   1.0000
     1.0000   1.0000   1.0000   1.0000   1.0000   1.0000   1.0000   1.0000
     1.0000   1.0000   1.0000   1.0000   1.0000   1.0000   1.0000   1.0000
     1.0000   1.0000   1.0000   1.0000   1.0000   1.0000   1.0000   1.0000
     1.0000   1.0000   1.0000   1.0000   1.0000   1.0000   1.0000   1.0000
     1.0000   1.0000   1.0000   1.0000   1.0000   1.0000   1.0000   1.0000
     1.0000   1.0000   1.0000   1.0000   1.0000   1.0000   1.0000   1.0000
     1.0000   1.0000   1.0000   1.0000   1.0000   1.0000   1.0000   1.0000
     1.0000   1.0000   1.0000   1.0000   1.0000   1.0000   1.0000   1.0000
     1.0000   1.0000   1.0000   1.0000   1.0000   1.0000   1.0000   1.0000
     1.0000   1.0000   1.0000   1.0000   1.0000   1.0000   1.0000   1.0000

          k = 0.0000-0.3849 0.2065 ( 15754 PWs)   bands (ev):

   -10.8222 -10.7146 -10.5220 -10.4489 -10.4140 -10.3423 -10.3421 -10.3015
   -10.2979 -10.2978 -10.2539 -10.1880 -10.1879 -10.1841 -10.1511 -10.1510
     0.9544   1.0102   1.0814   1.0898   1.1030   1.1031   1.1420   1.1491
     1.1764   1.1765   1.1958   1.1961   1.2862   1.3364   1.3752   1.3755
     1.4015   1.4316   1.4420   1.4537   1.5206   1.5380   1.5417   1.5623
     1.5626   1.5831   1.5833   1.5894   1.5944   1.5959   1.6664   1.6941
     1.7328   1.7338   1.7576   1.7716   1.7720   1.7827   1.8660   1.8887
     1.8891   1.8966   1.9118   1.9125   1.9817   1.9825   2.0271   2.0277
     2.3844   2.4002   2.4154   2.4163   2.4428   2.4687   2.4774   2.4876
     2.4950   2.4954   2.5069   2.5329   2.5382   2.5389   2.5662   2.5669
     2.5923   2.6087   2.6162   2.6250   2.6417   2.6719   2.6786   2.6794
     2.6817   2.6905   2.6908   2.7597   2.8102   2.8108   2.8685   2.8689
     3.1137   3.1153   3.2544   3.2551   3.2570   3.3417   3.5897   3.5901
     3.6408   3.6952   3.6958   3.9334   3.9345   4.0457   4.2075   4.2076
     4.5331   4.5336   4.6158   4.6160   4.6214   4.9074   5.0802   5.0805
     5.1219   5.1844   5.2739   5.3783   5.3800   5.4170   5.5937   5.5955
     5.5962   5.6304   5.7969   5.7976   5.8438   5.8438   5.8511   5.9782
     6.0130   6.0224   6.1073   6.2230   6.2824   6.4782   6.5456   6.6417

     occupation numbers 
     1.0000   1.0000   1.0000   1.0000   1.0000   1.0000   1.0000   1.0000
     1.0000   1.0000   1.0000   1.0000   1.0000   1.0000   1.0000   1.0000
     1.0000   1.0000   1.0000   1.0000   1.0000   1.0000   1.0000   1.0000
     1.0000   1.0000   1.0000   1.0000   1.0000   1.0000   1.0000   1.0000
     1.0000   1.0000   1.0000   1.0000   1.0000   1.0000   1.0000   1.0000
     1.0000   1.0000   1.0000   1.0000   1.0000   1.0000   1.0000   1.0000
     1.0000   1.0000   1.0000   1.0000   1.0000   1.0000   1.0000   1.0000
     1.0000   1.0000   1.0000   1.0000   1.0000   1.0000   1.0000   1.0000
     1.0000   1.0000   1.0000   1.0000   1.0000   1.0000   1.0000   1.0000
     1.0000   1.0000   1.0000   1.0000   1.0000   1.0000   1.0000   1.0000
     1.0000   1.0000   1.0000   1.0000   1.0000   1.0000   1.0000   1.0000
     1.0000   1.0000   1.0000   1.0000   1.0000   1.0000   1.0000   1.0000
     1.0000   1.0000   1.0000   1.0000   1.0000   1.0000   1.0000   1.0000
     1.0000   1.0000   1.0000   1.0000   1.0000   1.0000   1.0000   1.0000
     1.0000   1.0000   1.0000   1.0000   1.0000   1.0000   1.0000   1.0000
     1.0000   1.0000   1.0000   1.0000   1.0000   1.0000   1.0000   1.0000
     1.0000   1.0000   1.0000   1.0000   1.0000   1.0000   1.0000   1.0000
     1.0000   1.0000   1.0000   1.0000   1.0000   1.0000   1.0000   1.0000

          k =-0.1667-0.4811 0.1032 ( 15750 PWs)   bands (ev):

   -10.7593 -10.6040 -10.5689 -10.4799 -10.4477 -10.4279 -10.3556 -10.3343
   -10.2676 -10.2642 -10.2336 -10.2164 -10.1873 -10.1813 -10.1547 -10.1518
     0.9801   1.0236   1.0381   1.0397   1.0593   1.0757   1.0839   1.1317
     1.1716   1.2298   1.2631   1.2741   1.3310   1.3630   1.3655   1.4510
     1.4775   1.4906   1.4926   1.5200   1.5375   1.5447   1.5604   1.5618
     1.5702   1.5854   1.5952   1.5962   1.6159   1.6391   1.6567   1.6723
     1.6893   1.6988   1.7052   1.7096   1.7538   1.7657   1.7963   1.8237
     1.8402   1.9414   1.9591   1.9741   1.9839   2.0157   2.1062   2.1816
     2.3299   2.3317   2.3551   2.3911   2.4345   2.4711   2.4720   2.4784
     2.4925   2.5029   2.5084   2.5162   2.5184   2.5230   2.5400   2.5660
     2.5713   2.5862   2.5981   2.6264   2.6303   2.6368   2.6467   2.6603
     2.6737   2.6809   2.7138   2.7494   2.7863   2.8206   2.8513   2.8855
     3.0323   3.1464   3.1836   3.2150   3.2322   3.3547   3.4905   3.6334
     3.7147   3.9263   3.9681   3.9999   4.1481   4.2259   4.2318   4.2503
     4.3511   4.6716   4.6837   4.6975   4.7030   4.7799   4.8461   5.0445
     5.1799   5.2153   5.2173   5.2371   5.2944   5.4632   5.4692   5.5110
     5.5327   5.5612   5.6377   5.7263   5.8191   5.8372   5.8733   5.9112
     5.9303   5.9853   6.0182   6.1626   6.2282   6.2862   6.4822   6.5148

     occupation numbers 
     1.0000   1.0000   1.0000   1.0000   1.0000   1.0000   1.0000   1.0000
     1.0000   1.0000   1.0000   1.0000   1.0000   1.0000   1.0000   1.0000
     1.0000   1.0000   1.0000   1.0000   1.0000   1.0000   1.0000   1.0000
     1.0000   1.0000   1.0000   1.0000   1.0000   1.0000   1.0000   1.0000
     1.0000   1.0000   1.0000   1.0000   1.0000   1.0000   1.0000   1.0000
     1.0000   1.0000   1.0000   1.0000   1.0000   1.0000   1.0000   1.0000
     1.0000   1.0000   1.0000   1.0000   1.0000   1.0000   1.0000   1.0000
     1.0000   1.0000   1.0000   1.0000   1.0000   1.0000   1.0000   1.0000
     1.0000   1.0000   1.0000   1.0000   1.0000   1.0000   1.0000   1.0000
     1.0000   1.0000   1.0000   1.0000   1.0000   1.0000   1.0000   1.0000
     1.0000   1.0000   1.0000   1.0000   1.0000   1.0000   1.0000   1.0000
     1.0000   1.0000   1.0000   1.0000   1.0000   1.0000   1.0000   1.0000
     1.0000   1.0000   1.0000   1.0000   1.0000   1.0000   1.0000   1.0000
     1.0000   1.0000   1.0000   1.0000   1.0000   1.0000   1.0000   1.0000
     1.0000   1.0000   1.0000   1.0000   1.0000   1.0000   1.0000   1.0000
     1.0000   1.0000   1.0000   1.0000   1.0000   1.0000   1.0000   1.0000
     1.0000   1.0000   1.0000   1.0000   1.0000   1.0000   1.0000   1.0000
     1.0000   1.0000   1.0000   1.0000   1.0000   1.0000   1.0000   1.0000

          k =-0.1667-0.4811 0.2065 ( 15767 PWs)   bands (ev):

   -10.7326 -10.6341 -10.5819 -10.5009 -10.4621 -10.3974 -10.3619 -10.2820
   -10.2611 -10.2572 -10.2316 -10.2275 -10.2027 -10.1756 -10.1676 -10.1584
     0.9934   1.0445   1.0528   1.0617   1.1087   1.1154   1.1271   1.1408
     1.1523   1.2536   1.2784   1.2959   1.3048   1.3108   1.3312   1.4479
     1.4648   1.4883   1.4903   1.4993   1.5018   1.5135   1.5376   1.5559
     1.5678   1.5914   1.5987   1.6193   1.6233   1.6265   1.6273   1.6691
     1.6796   1.6920   1.6990   1.7245   1.7487   1.7714   1.8135   1.8166
     1.8408   1.8418   1.9043   1.9318   1.9891   2.0071   2.0645   2.1096
     2.3631   2.3645   2.3809   2.4094   2.4487   2.4593   2.4616   2.4625
     2.4691   2.4855   2.4924   2.5038   2.5111   2.5205   2.5232   2.5583
     2.5942   2.6054   2.6281   2.6345   2.6367   2.6376   2.6534   2.6721
     2.6943   2.7049   2.7277   2.7493   2.7743   2.7780   2.8152   2.8839
     3.1919   3.1946   3.3049   3.3244   3.3713   3.4200   3.5202   3.5973
     3.6827   3.8054   3.9422   4.0148   4.0318   4.0656   4.2278   4.3117
     4.4322   4.7051   4.7564   4.8459   4.8478   4.8648   4.8951   4.8971
     4.9537   4.9735   5.1813   5.2251   5.2481   5.2696   5.3399   5.4275
     5.5207   5.6244   5.6464   5.7019   5.7799   5.8650   5.9760   5.9895
     6.0385   6.0734   6.1786   6.2028   6.2454   6.2839   6.4353   6.4677

     occupation numbers 
     1.0000   1.0000   1.0000   1.0000   1.0000   1.0000   1.0000   1.0000
     1.0000   1.0000   1.0000   1.0000   1.0000   1.0000   1.0000   1.0000
     1.0000   1.0000   1.0000   1.0000   1.0000   1.0000   1.0000   1.0000
     1.0000   1.0000   1.0000   1.0000   1.0000   1.0000   1.0000   1.0000
     1.0000   1.0000   1.0000   1.0000   1.0000   1.0000   1.0000   1.0000
     1.0000   1.0000   1.0000   1.0000   1.0000   1.0000   1.0000   1.0000
     1.0000   1.0000   1.0000   1.0000   1.0000   1.0000   1.0000   1.0000
     1.0000   1.0000   1.0000   1.0000   1.0000   1.0000   1.0000   1.0000
     1.0000   1.0000   1.0000   1.0000   1.0000   1.0000   1.0000   1.0000
     1.0000   1.0000   1.0000   1.0000   1.0000   1.0000   1.0000   1.0000
     1.0000   1.0000   1.0000   1.0000   1.0000   1.0000   1.0000   1.0000
     1.0000   1.0000   1.0000   1.0000   1.0000   1.0000   1.0000   1.0000
     1.0000   1.0000   1.0000   1.0000   1.0000   1.0000   1.0000   1.0000
     1.0000   1.0000   1.0000   1.0000   1.0000   1.0000   1.0000   1.0000
     1.0000   1.0000   1.0000   1.0000   1.0000   1.0000   1.0000   1.0000
     1.0000   1.0000   1.0000   1.0000   1.0000   1.0000   1.0000   1.0000
     1.0000   1.0000   1.0000   1.0000   1.0000   1.0000   1.0000   1.0000
     1.0000   1.0000   1.0000   1.0000   1.0000   1.0000   1.0000   1.0000

     highest occupied level (ev):     6.8856

!    total energy              =   -2893.09622447 Ry
     estimated scf accuracy    <          2.2E-09 Ry

     The total energy is the sum of the following terms:
     one-electron contribution =   -1236.18463781 Ry
     hartree contribution      =     946.28703346 Ry
     xc contribution           =    -876.36280927 Ry
     ewald contribution        =   -1726.83581084 Ry

     convergence has been achieved in  28 iterations

     Forces acting on atoms (cartesian axes, Ry/au):

     atom    1 type  1   force =     0.00000000    0.00000000    0.00188876
     atom    2 type  1   force =     0.00001640   -0.00000947   -0.00018135
     atom    3 type  2   force =     0.00000000    0.00000000   -0.00431455
     atom    4 type  2   force =     0.00023935   -0.00013819    0.00026037
     atom    5 type  1   force =     0.00000000    0.00000000   -0.00020609
     atom    6 type  1   force =    -0.00049385    0.00028512    0.00046185
     atom    7 type  2   force =     0.00000000    0.00000000    0.00013008
     atom    8 type  2   force =    -0.00014960    0.00008637    0.00026388
     atom    9 type  1   force =     0.00007925    0.00004576    0.00019868
     atom   10 type  1   force =    -0.00000000    0.00001893   -0.00018135
     atom   11 type  2   force =    -0.00000827   -0.00000478   -0.00022497
     atom   12 type  2   force =     0.00000000    0.00027638    0.00026037
     atom   13 type  1   force =    -0.00007929   -0.00004578   -0.00007809
     atom   14 type  1   force =     0.00000000   -0.00057025    0.00046185
     atom   15 type  2   force =    -0.00000899   -0.00000519    0.00013213
     atom   16 type  2   force =     0.00000000   -0.00017274    0.00026388
     atom   17 type  1   force =    -0.00000000   -0.00009151    0.00019868
     atom   18 type  1   force =    -0.00001640   -0.00000947   -0.00018135
     atom   19 type  2   force =     0.00000000    0.00000955   -0.00022497
     atom   20 type  2   force =    -0.00023935   -0.00013819    0.00026037
     atom   21 type  1   force =    -0.00000000    0.00009156   -0.00007809
     atom   22 type  1   force =     0.00049385    0.00028512    0.00046185
     atom   23 type  2   force =    -0.00000000    0.00001039    0.00013213
     atom   24 type  2   force =     0.00014960    0.00008637    0.00026388
     atom   25 type  1   force =    -0.00007925    0.00004576    0.00019868
     atom   26 type  1   force =     0.00000000    0.00000000   -0.00005611
     atom   27 type  2   force =     0.00000827   -0.00000478   -0.00022497
     atom   28 type  2   force =     0.00000000    0.00000000   -0.00004569
     atom   29 type  1   force =     0.00007929   -0.00004578   -0.00007809
     atom   30 type  1   force =     0.00000000    0.00000000    0.00015078
     atom   31 type  2   force =     0.00000899   -0.00000519    0.00013213
     atom   32 type  2   force =     0.00000000    0.00000000   -0.00004469
     The non-local contrib.  to forces
     atom    1 type  1   force =     0.00000000   -0.00000000    0.00616382
     atom    2 type  1   force =    -0.00009433    0.00005446   -0.00372565
     atom    3 type  2   force =     0.00000000    0.00000000    0.00237890
     atom    4 type  2   force =     0.00137559   -0.00079419    0.00706428
     atom    5 type  1   force =     0.00000000   -0.00000000   -0.00365053
     atom    6 type  1   force =    -0.00368421    0.00212708   -0.00632799
     atom    7 type  2   force =     0.00000000    0.00000000    0.00658142
     atom    8 type  2   force =    -0.00095935    0.00055388    0.00729979
     atom    9 type  1   force =    -0.00040508   -0.00023388   -0.00561888
     atom   10 type  1   force =     0.00000000   -0.00010892   -0.00372565
     atom   11 type  2   force =    -0.00008145   -0.00004702    0.00434856
     atom   12 type  2   force =     0.00000000    0.00158839    0.00706428
     atom   13 type  1   force =     0.00051069    0.00029485   -0.00404737
     atom   14 type  1   force =     0.00000000   -0.00425416   -0.00632799
     atom   15 type  2   force =    -0.00004947   -0.00002856    0.00659470
     atom   16 type  2   force =     0.00000000   -0.00110776    0.00729979
     atom   17 type  1   force =     0.00000000    0.00046775   -0.00561888
     atom   18 type  1   force =     0.00009433    0.00005446   -0.00372565
     atom   19 type  2   force =     0.00000000    0.00009405    0.00434856
     atom   20 type  2   force =    -0.00137559   -0.00079419    0.00706428
     atom   21 type  1   force =     0.00000000   -0.00058970   -0.00404737
     atom   22 type  1   force =     0.00368421    0.00212708   -0.00632799
     atom   23 type  2   force =     0.00000000    0.00005712    0.00659470
     atom   24 type  2   force =     0.00095935    0.00055388    0.00729979
     atom   25 type  1   force =     0.00040508   -0.00023388   -0.00561888
     atom   26 type  1   force =     0.00000000    0.00000000   -0.00444943
     atom   27 type  2   force =     0.00008145   -0.00004702    0.00434856
     atom   28 type  2   force =     0.00000000    0.00000000    0.00552477
     atom   29 type  1   force =    -0.00051069    0.00029485   -0.00404737
     atom   30 type  1   force =     0.00000000    0.00000000   -0.00499097
     atom   31 type  2   force =     0.00004947   -0.00002856    0.00659470
     atom   32 type  2   force =     0.00000000   -0.00000000    0.00544634
     The ionic contribution  to forces
     atom    1 type  1   force =    -0.00000000    0.00000000    0.16323252
     atom    2 type  1   force =     0.00099227   -0.00057288    0.07617090
     atom    3 type  2   force =    -0.00000000    0.00000000   -0.16650753
     atom    4 type  2   force =     0.00585387   -0.00337973   -0.05558865
     atom    5 type  1   force =    -0.00000000    0.00000000    0.09018995
     atom    6 type  1   force =    -0.03877245    0.02238529    0.02280351
     atom    7 type  2   force =    -0.00000000    0.00000000   -0.05489466
     atom    8 type  2   force =    -0.00591621    0.00341573   -0.05559381
     atom    9 type  1   force =     0.00000000    0.00000001    0.06200014
     atom   10 type  1   force =     0.00000001    0.00114577    0.07617090
     atom   11 type  2   force =     0.00000000    0.00000001   -0.07480082
     atom   12 type  2   force =     0.00000001    0.00675946   -0.05558865
     atom   13 type  1   force =     0.00000000    0.00000001    0.07170203
     atom   14 type  1   force =     0.00000001   -0.04477057    0.02280351
     atom   15 type  2   force =     0.00000000    0.00000001   -0.05667456
     atom   16 type  2   force =     0.00000001   -0.00683145   -0.05559381
     atom   17 type  1   force =    -0.00000001    0.00000000    0.06200014
     atom   18 type  1   force =    -0.00099226   -0.00057289    0.07617090
     atom   19 type  2   force =    -0.00000001    0.00000000   -0.07480082
     atom   20 type  2   force =    -0.00585387   -0.00337974   -0.05558865
     atom   21 type  1   force =    -0.00000001    0.00000000    0.07170204
     atom   22 type  1   force =     0.03877245    0.02238528    0.02280351
     atom   23 type  2   force =    -0.00000001    0.00000000   -0.05667457
     atom   24 type  2   force =     0.00591621    0.00341572   -0.05559381
     atom   25 type  1   force =     0.00000000   -0.00000000    0.06200015
     atom   26 type  1   force =    -0.00000001   -0.00000000    0.07413626
     atom   27 type  2   force =     0.00000000   -0.00000000   -0.07480082
     atom   28 type  2   force =    -0.00000001   -0.00000000   -0.06065390
     atom   29 type  1   force =     0.00000000   -0.00000000    0.07170204
     atom   30 type  1   force =    -0.00000001   -0.00000000    0.04513333
     atom   31 type  2   force =     0.00000000   -0.00000000   -0.05667457
     atom   32 type  2   force =    -0.00000001   -0.00000000   -0.06069219
     The local contribution  to forces
     atom    1 type  1   force =    -0.00000001    0.00000003   -0.16711708
     atom    2 type  1   force =    -0.00089065    0.00051424   -0.07304047
     atom    3 type  2   force =    -0.00000000    0.00000001    0.15980210
     atom    4 type  2   force =    -0.00697762    0.00402854    0.04885823
     atom    5 type  1   force =    -0.00000001    0.00000003   -0.08719975
     atom    6 type  1   force =     0.04167218   -0.02405943   -0.01654976
     atom    7 type  2   force =    -0.00000000    0.00000001    0.04852948
     atom    8 type  2   force =     0.00671244   -0.00387542    0.04864004
     atom    9 type  1   force =     0.00046343    0.00026760   -0.05670134
     atom   10 type  1   force =     0.00000007   -0.00102854   -0.07304047
     atom   11 type  2   force =     0.00006863    0.00003964    0.07026432
     atom   12 type  2   force =     0.00000002   -0.00805708    0.04885823
     atom   13 type  1   force =    -0.00058397   -0.00033712   -0.06818617
     atom   14 type  1   force =     0.00000007    0.04811879   -0.01654976
     atom   15 type  2   force =     0.00003757    0.00002170    0.05029707
     atom   16 type  2   force =     0.00000002    0.00775084    0.04864004
     atom   17 type  1   force =    -0.00000001   -0.00053511   -0.05670134
     atom   18 type  1   force =     0.00089079    0.00051424   -0.07304047
     atom   19 type  2   force =    -0.00000000   -0.00007925    0.07026432
     atom   20 type  2   force =     0.00697765    0.00402854    0.04885823
     atom   21 type  1   force =    -0.00000001    0.00067432   -0.06818617
     atom   22 type  1   force =    -0.04167204   -0.02405943   -0.01654976
     atom   23 type  2   force =    -0.00000000   -0.00004338    0.05029707
     atom   24 type  2   force =    -0.00671241   -0.00387542    0.04864004
     atom   25 type  1   force =    -0.00046345    0.00026760   -0.05670134
     atom   26 type  1   force =    -0.00000010   -0.00000002   -0.07018387
     atom   27 type  2   force =    -0.00006864    0.00003964    0.07026432
     atom   28 type  2   force =    -0.00000003   -0.00000000    0.05513706
     atom   29 type  1   force =     0.00058394   -0.00033712   -0.06818617
     atom   30 type  1   force =    -0.00000010   -0.00000002   -0.04049225
     atom   31 type  2   force =    -0.00003758    0.00002170    0.05029707
     atom   32 type  2   force =    -0.00000003   -0.00000000    0.05526191
     The core correction contribution to forces
     atom    1 type  1   force =    -0.00000000    0.00000000   -0.00041166
     atom    2 type  1   force =     0.00000476   -0.00000275    0.00044468
     atom    3 type  2   force =     0.00000000    0.00000000   -0.00000271
     atom    4 type  2   force =    -0.00001436    0.00000829   -0.00007871
     atom    5 type  1   force =    -0.00000000    0.00000000    0.00045206
     atom    6 type  1   force =     0.00028173   -0.00016266    0.00052055
     atom    7 type  2   force =     0.00000000    0.00000000   -0.00007290
     atom    8 type  2   force =     0.00001027   -0.00000593   -0.00008157
     atom    9 type  1   force =     0.00001154    0.00000667    0.00050148
     atom   10 type  1   force =     0.00000001    0.00000549    0.00044468
     atom   11 type  2   force =     0.00000129    0.00000074   -0.00005055
     atom   12 type  2   force =    -0.00000000   -0.00001658   -0.00007871
     atom   13 type  1   force =    -0.00001668   -0.00000963    0.00045171
     atom   14 type  1   force =     0.00000001    0.00032531    0.00052055
     atom   15 type  2   force =     0.00000050    0.00000029   -0.00007333
     atom   16 type  2   force =    -0.00000000    0.00001186   -0.00008157
     atom   17 type  1   force =    -0.00000000   -0.00001333    0.00050148
     atom   18 type  1   force =    -0.00000474   -0.00000275    0.00044468
     atom   19 type  2   force =     0.00000000   -0.00000149   -0.00005055
     atom   20 type  2   force =     0.00001436    0.00000829   -0.00007871
     atom   21 type  1   force =    -0.00000000    0.00001927    0.00045171
     atom   22 type  1   force =    -0.00028172   -0.00016266    0.00052055
     atom   23 type  2   force =     0.00000000   -0.00000058   -0.00007333
     atom   24 type  2   force =    -0.00001027   -0.00000593   -0.00008157
     atom   25 type  1   force =    -0.00001155    0.00000667    0.00050148
     atom   26 type  1   force =    -0.00000001   -0.00000000    0.00046765
     atom   27 type  2   force =    -0.00000129    0.00000074   -0.00005055
     atom   28 type  2   force =     0.00000000    0.00000000   -0.00006227
     atom   29 type  1   force =     0.00001668   -0.00000963    0.00045171
     atom   30 type  1   force =    -0.00000001   -0.00000000    0.00047670
     atom   31 type  2   force =    -0.00000050    0.00000029   -0.00007333
     atom   32 type  2   force =     0.00000000    0.00000000   -0.00006147
     The Hubbard contrib.    to forces
     atom    1 type  1   force =     0.00000000    0.00000000    0.00000000
     atom    2 type  1   force =     0.00000000    0.00000000    0.00000000
     atom    3 type  2   force =     0.00000000    0.00000000    0.00000000
     atom    4 type  2   force =     0.00000000    0.00000000    0.00000000
     atom    5 type  1   force =     0.00000000    0.00000000    0.00000000
     atom    6 type  1   force =     0.00000000    0.00000000    0.00000000
     atom    7 type  2   force =     0.00000000    0.00000000    0.00000000
     atom    8 type  2   force =     0.00000000    0.00000000    0.00000000
     atom    9 type  1   force =     0.00000000    0.00000000    0.00000000
     atom   10 type  1   force =     0.00000000    0.00000000    0.00000000
     atom   11 type  2   force =     0.00000000    0.00000000    0.00000000
     atom   12 type  2   force =     0.00000000    0.00000000    0.00000000
     atom   13 type  1   force =     0.00000000    0.00000000    0.00000000
     atom   14 type  1   force =     0.00000000    0.00000000    0.00000000
     atom   15 type  2   force =     0.00000000    0.00000000    0.00000000
     atom   16 type  2   force =     0.00000000    0.00000000    0.00000000
     atom   17 type  1   force =     0.00000000    0.00000000    0.00000000
     atom   18 type  1   force =     0.00000000    0.00000000    0.00000000
     atom   19 type  2   force =     0.00000000    0.00000000    0.00000000
     atom   20 type  2   force =     0.00000000    0.00000000    0.00000000
     atom   21 type  1   force =     0.00000000    0.00000000    0.00000000
     atom   22 type  1   force =     0.00000000    0.00000000    0.00000000
     atom   23 type  2   force =     0.00000000    0.00000000    0.00000000
     atom   24 type  2   force =     0.00000000    0.00000000    0.00000000
     atom   25 type  1   force =     0.00000000    0.00000000    0.00000000
     atom   26 type  1   force =     0.00000000    0.00000000    0.00000000
     atom   27 type  2   force =     0.00000000    0.00000000    0.00000000
     atom   28 type  2   force =     0.00000000    0.00000000    0.00000000
     atom   29 type  1   force =     0.00000000    0.00000000    0.00000000
     atom   30 type  1   force =     0.00000000    0.00000000    0.00000000
     atom   31 type  2   force =     0.00000000    0.00000000    0.00000000
     atom   32 type  2   force =     0.00000000    0.00000000    0.00000000
     The SCF correction term to forces
     atom    1 type  1   force =     0.00000000   -0.00000000    0.00001974
     atom    2 type  1   force =     0.00000443   -0.00000255   -0.00003222
     atom    3 type  2   force =     0.00000000   -0.00000000    0.00001328
     atom    4 type  2   force =     0.00000189   -0.00000109    0.00000380
     atom    5 type  1   force =     0.00000000   -0.00000000    0.00000077
     atom    6 type  1   force =     0.00000897   -0.00000518    0.00001414
     atom    7 type  2   force =     0.00000000   -0.00000000   -0.00001467
     atom    8 type  2   force =     0.00000327   -0.00000189   -0.00000197
     atom    9 type  1   force =     0.00000935    0.00000540    0.00001587
     atom   10 type  1   force =    -0.00000000    0.00000511   -0.00003222
     atom   11 type  2   force =     0.00000325    0.00000188    0.00001211
     atom   12 type  2   force =    -0.00000000    0.00000219    0.00000380
     atom   13 type  1   force =     0.00001065    0.00000615    0.00000028
     atom   14 type  1   force =    -0.00000000    0.00001036    0.00001414
     atom   15 type  2   force =     0.00000240    0.00000139   -0.00001315
     atom   16 type  2   force =    -0.00000000    0.00000378   -0.00000197
     atom   17 type  1   force =     0.00000000   -0.00001080    0.00001587
     atom   18 type  1   force =    -0.00000443   -0.00000255   -0.00003222
     atom   19 type  2   force =     0.00000000   -0.00000375    0.00001211
     atom   20 type  2   force =    -0.00000189   -0.00000109    0.00000380
     atom   21 type  1   force =     0.00000000   -0.00001230    0.00000028
     atom   22 type  1   force =    -0.00000897   -0.00000518    0.00001414
     atom   23 type  2   force =     0.00000000   -0.00000277   -0.00001315
     atom   24 type  2   force =    -0.00000327   -0.00000189   -0.00000197
     atom   25 type  1   force =    -0.00000935    0.00000540    0.00001587
     atom   26 type  1   force =     0.00000000    0.00000000   -0.00002813
     atom   27 type  2   force =    -0.00000325    0.00000188    0.00001211
     atom   28 type  2   force =     0.00000000    0.00000000    0.00000725
     atom   29 type  1   force =    -0.00001065    0.00000615    0.00000028
     atom   30 type  1   force =     0.00000000    0.00000000    0.00002255
     atom   31 type  2   force =    -0.00000240    0.00000139   -0.00001315
     atom   32 type  2   force =     0.00000000    0.00000000   -0.00000070

     Total force =     0.005011     Total SCF correction =     0.000095
     Message from routine punch:
     Nothing written, as per user request (disk_io='none')
 
     init_run     :     14.18s CPU     14.50s WALL (       1 calls)
     electrons    :   1705.51s CPU   1729.22s WALL (       1 calls)
     forces       :      4.25s CPU      4.27s WALL (       1 calls)

     Called by init_run:
     wfcinit      :     13.64s CPU     13.89s WALL (       1 calls)
     wfcinit:atom :      0.05s CPU      0.05s WALL (      34 calls)
     wfcinit:wfcr :     13.23s CPU     13.47s WALL (      34 calls)
     potinit      :      0.04s CPU      0.05s WALL (       1 calls)
     hinit0       :      0.06s CPU      0.07s WALL (       1 calls)

     Called by electrons:
     c_bands      :   1617.65s CPU   1639.46s WALL (      28 calls)
     sum_band     :     83.60s CPU     85.45s WALL (      28 calls)
     v_of_rho     :      0.87s CPU      0.88s WALL (      29 calls)
     v_h          :      0.06s CPU      0.07s WALL (      29 calls)
     v_xc         :      0.83s CPU      0.84s WALL (      30 calls)
     newd         :      3.27s CPU      3.34s WALL (      29 calls)
     mix_rho      :      0.14s CPU      0.14s WALL (      28 calls)

     Called by c_bands:
     init_us_2    :      6.18s CPU      6.22s WALL (    1972 calls)
     cegterg      :   1586.47s CPU   1608.17s WALL (     952 calls)

     Called by sum_band:
     sum_band:wei :      0.00s CPU      0.00s WALL (      28 calls)
     sum_band:loo :     80.05s CPU     81.86s WALL (      28 calls)
     sum_band:buf :      1.13s CPU      1.14s WALL (     952 calls)
     sum_band:ini :      2.90s CPU      2.91s WALL (     952 calls)
     sum_band:cal :     24.98s CPU     25.10s WALL (     952 calls)
     sum_band:bec :      1.18s CPU      1.18s WALL (     952 calls)
     addusdens    :      3.35s CPU      3.38s WALL (      28 calls)
                                        0.00s GPU  (      28 calls)
     addusd:skk   :      0.13s CPU      0.13s WALL (      56 calls)
                                        0.00s GPU  (      56 calls)

     Called by *egterg:
     cdiaghg      :    565.13s CPU    566.20s WALL (    6966 calls)
     cegterg:over :     95.53s CPU     96.87s WALL (    6014 calls)
     cegterg:upda :     60.24s CPU     60.31s WALL (    6014 calls)
     cegterg:last :    143.73s CPU    143.79s WALL (    3441 calls)
     h_psi        :    577.81s CPU    595.88s WALL (    7000 calls)
     s_psi        :    111.36s CPU    111.43s WALL (    7000 calls)
     g_psi        :      1.20s CPU      1.21s WALL (    6014 calls)

     Called by h_psi:
     h_psi:calbec :     98.16s CPU     98.64s WALL (    7000 calls)
     vloc_psi     :    367.30s CPU    384.77s WALL (    7000 calls)
                                        0.00s GPU  (    7000 calls)
     add_vuspsi   :    110.80s CPU    110.93s WALL (    7000 calls)

     General routines
     calbec       :    126.59s CPU    127.24s WALL (    8088 calls)
     fft          :      0.54s CPU      0.56s WALL (     386 calls)
     ffts         :      0.04s CPU      0.04s WALL (      57 calls)
     fftw         :    392.23s CPU    410.86s WALL ( 1155974 calls)
     interpolate  :      0.06s CPU      0.07s WALL (      29 calls)
 
     Parallel routines
 
     PWSCF        :  28m44.24s CPU  29m 8.31s WALL

 
   This run was terminated on:   0:42:31   4Nov2025            

=------------------------------------------------------------------------------=
   JOB DONE.
=------------------------------------------------------------------------------=
