
     Program PWSCF v.7.0 starts on 28Sep2025 at 14:52:17 

     This program is part of the open-source Quantum ESPRESSO suite
     for quantum simulation of materials; please cite
         "P. Giannozzi et al., J. Phys.:Condens. Matter 21 395502 (2009);
         "P. Giannozzi et al., J. Phys.:Condens. Matter 29 465901 (2017);
         "P. Giannozzi et al., J. Chem. Phys. 152 154105 (2020);
          URL http://www.quantum-espresso.org", 
     in publications or presentations arising from this work. More details at
     http://www.quantum-espresso.org/quote

     Parallel version (MPI & OpenMP), running on      48 processor cores
     Number of MPI processes:                24
     Threads/MPI process:                     2

     MPI processes distributed on     1 nodes
     K-points division:     npool     =       8
     R & G space division:  proc/nbgrp/npool/nimage =       3
     105304 MiB available memory on the printing compute node when the environment starts

     Reading input from /home/jvc/QEspresso7.2/ZnO_database/scripts/random_3x1x1.in/ZnO-3.01-1.71-311-0.04-1.in
Warning: card &CELL ignored
Warning: card / ignored
Warning: card &FCP ignored
Warning: card / ignored
Warning: card &RISM ignored
Warning: card / ignored

     Current dimensions of program PWSCF are:
     Max number of different atomic species (ntypx) = 10
     Max number of k-points (npk) =  40000
     Max angular momentum in pseudopotentials (lmaxx) =  4
     file Zn.upf: wavefunction(s)  3D renormalized

     Subspace diagonalization in iterative solution of the eigenvalue problem:
     a serial algorithm will be used


     Parallelization info
     --------------------
     sticks:   dense  smooth     PW     G-vecs:    dense   smooth      PW
     Min         889     443    135                36741    12997    2146
     Max         890     444    136                36742    13000    2147
     Sum        2669    1331    407               110225    38997    6439

     Using Slab Decomposition



     bravais-lattice index     =            0
     lattice parameter (alat)  =      17.0536  a.u.
     unit-cell volume          =     816.6669 (a.u.)^3
     number of atoms/cell      =           12
     number of atomic types    =            2
     number of electrons       =       108.00
     number of Kohn-Sham states=           54
     kinetic-energy cutoff     =      50.0000  Ry
     charge density cutoff     =     400.0000  Ry
     scf convergence threshold =      1.0E-08
     mixing beta               =       0.3000
     number of iterations used =            8  plain     mixing
     Exchange-correlation= PBE
                           (   1   4   3   4   0   0   0)

     celldm(1)=  17.053637  celldm(2)=   0.000000  celldm(3)=   0.000000
     celldm(4)=   0.000000  celldm(5)=   0.000000  celldm(6)=   0.000000

     crystal axes: (cart. coord. in units of alat)
               a(1) = (   1.000000   0.000000   0.000000 )  
               a(2) = (  -0.166667   0.288675   0.000000 )  
               a(3) = (   0.000000   0.000000   0.570407 )  

     reciprocal axes: (cart. coord. in units 2 pi/alat)
               b(1) = (  1.000000  0.577350 -0.000000 )  
               b(2) = (  0.000000  3.464102  0.000000 )  
               b(3) = (  0.000000 -0.000000  1.753135 )  


     PseudoPot. # 1 for Zn read from file:
     /home/jvc/QEspresso7.2/ZnO_database/pseudos/Zn.upf
     MD5 check sum: 7f56cabf9682ed8c977c2f7d0c5985c5
     Pseudo is Ultrasoft + core correction, Zval = 12.0
     Generated using &quot;atomic&quot; code by A. Dal Corso  v.6.2.2
     Using radial grid of 1201 points,  6 beta functions with: 
                l(1) =   0
                l(2) =   0
                l(3) =   1
                l(4) =   1
                l(5) =   2
                l(6) =   2
     Q(r) pseudized with 0 coefficients 


     PseudoPot. # 2 for O  read from file:
     /home/jvc/QEspresso7.2/ZnO_database/pseudos/O.upf
     MD5 check sum: 91400c9766925bcf19f520983a725ff0
     Pseudo is Ultrasoft + core correction, Zval =  6.0
     Generated using &quot;atomic&quot; code by A. Dal Corso  v.6.3MaX
     Using radial grid of 1095 points,  4 beta functions with: 
                l(1) =   0
                l(2) =   0
                l(3) =   1
                l(4) =   1
     Q(r) pseudized with 0 coefficients 


     atomic species   valence    mass     pseudopotential
        Zn            12.00    65.38000     Zn( 1.00)
        O              6.00    15.99900     O ( 1.00)

     No symmetry found


                                    s                        frac. trans.

      isym =  1     identity                                     

 cryst.   s( 1) = (     1          0          0      )
                  (     0          1          0      )
                  (     0          0          1      )

 cart.    s( 1) = (  1.0000000  0.0000000  0.0000000 )
                  (  0.0000000  1.0000000  0.0000000 )
                  (  0.0000000  0.0000000  1.0000000 )


   Cartesian axes

     site n.     atom                  positions (alat units)
         1           Zn  tau(   1) = (   0.1753397   0.0932761   0.2851596  )
         2           Zn  tau(   2) = (  -0.0036538   0.1886828  -0.0026334  )
         3           O   tau(   3) = (   0.1647569   0.0949027   0.5004496  )
         4           O   tau(   4) = (   0.0019899   0.1890756   0.2157297  )
         5           Zn  tau(   5) = (   0.5024377   0.0939582   0.2776947  )
         6           Zn  tau(   6) = (   0.3347766   0.1948005   0.0080759  )
         7           O   tau(   7) = (   0.5002846   0.0989958   0.5003089  )
         8           O   tau(   8) = (   0.3321019   0.1898526   0.2079210  )
         9           Zn  tau(   9) = (   0.8327589   0.1051571   0.2944648  )
        10           Zn  tau(  10) = (   0.6643844   0.1926149   0.0003236  )
        11           O   tau(  11) = (   0.8383882   0.0964323   0.4965324  )
        12           O   tau(  12) = (   0.6697213   0.1939459   0.2093222  )

   Crystallographic axes

     site n.     atom                  positions (cryst. coord.)
         1           Zn  tau(   1) = (  0.2291926  0.3231178  0.4999234  )
         2           Zn  tau(   2) = (  0.1052823  0.6536165 -0.0046167  )
         3           O   tau(   3) = (  0.2195490  0.3287527  0.8773558  )
         4           O   tau(   4) = (  0.1111527  0.6549770  0.3782033  )
         5           Zn  tau(   5) = (  0.5566845  0.3254808  0.4868364  )
         6           Zn  tau(   6) = (  0.4472447  0.6748087  0.0141581  )
         7           O   tau(   7) = (  0.5574398  0.3429314  0.8771092  )
         8           O   tau(   8) = (  0.4417133  0.6576686  0.3645136  )
         9           Zn  tau(   9) = (  0.8934714  0.3642750  0.5162367  )
        10           Zn  tau(  10) = (  0.7755907  0.6672377  0.0005673  )
        11           O   tau(  11) = (  0.8940634  0.3340512  0.8704885  )
        12           O   tau(  12) = (  0.7816960  0.6718483  0.3669702  )

     number of k points=   112
                       cart. coord. in units 2pi/alat
        k(    1) = (   0.0000000   0.0000000   0.0000000), wk =   0.0092593
        k(    2) = (   0.0000000   0.0000000   0.2921892), wk =   0.0185185
        k(    3) = (   0.0000000   0.0000000   0.5843784), wk =   0.0185185
        k(    4) = (   0.0000000   0.0000000  -0.8765677), wk =   0.0092593
        k(    5) = (   0.0000000   0.5773503   0.0000000), wk =   0.0185185
        k(    6) = (   0.0000000   0.5773503   0.2921892), wk =   0.0185185
        k(    7) = (   0.0000000   0.5773503   0.5843784), wk =   0.0185185
        k(    8) = (   0.0000000   0.5773503  -0.8765677), wk =   0.0185185
        k(    9) = (   0.0000000   1.1547005   0.0000000), wk =   0.0185185
        k(   10) = (   0.0000000   1.1547005   0.2921892), wk =   0.0185185
        k(   11) = (   0.0000000   1.1547005   0.5843784), wk =   0.0185185
        k(   12) = (   0.0000000   1.1547005  -0.8765677), wk =   0.0185185
        k(   13) = (   0.0000000  -1.7320508   0.0000000), wk =   0.0092593
        k(   14) = (   0.0000000  -1.7320508   0.2921892), wk =   0.0185185
        k(   15) = (   0.0000000  -1.7320508   0.5843784), wk =   0.0185185
        k(   16) = (   0.0000000  -1.7320508  -0.8765677), wk =   0.0092593
        k(   17) = (   0.1666667   0.0962250   0.0000000), wk =   0.0185185
        k(   18) = (   0.1666667   0.0962250   0.2921892), wk =   0.0185185
        k(   19) = (   0.1666667   0.0962250   0.5843784), wk =   0.0185185
        k(   20) = (   0.1666667   0.0962250  -0.8765677), wk =   0.0185185
        k(   21) = (   0.1666667   0.6735753   0.0000000), wk =   0.0185185
        k(   22) = (   0.1666667   0.6735753   0.2921892), wk =   0.0185185
        k(   23) = (   0.1666667   0.6735753   0.5843784), wk =   0.0185185
        k(   24) = (   0.1666667   0.6735753  -0.8765677), wk =   0.0185185
        k(   25) = (   0.1666667   1.2509256   0.0000000), wk =   0.0185185
        k(   26) = (   0.1666667   1.2509256   0.2921892), wk =   0.0185185
        k(   27) = (   0.1666667   1.2509256   0.5843784), wk =   0.0185185
        k(   28) = (   0.1666667   1.2509256  -0.8765677), wk =   0.0185185
        k(   29) = (   0.1666667  -1.6358258   0.0000000), wk =   0.0185185
        k(   30) = (   0.1666667  -1.6358258   0.2921892), wk =   0.0185185
        k(   31) = (   0.1666667  -1.6358258   0.5843784), wk =   0.0185185
        k(   32) = (   0.1666667  -1.6358258  -0.8765677), wk =   0.0185185
        k(   33) = (   0.1666667  -0.4811252   0.0000000), wk =   0.0185185
        k(   34) = (   0.1666667  -0.4811252   0.2921892), wk =   0.0185185
        k(   35) = (   0.1666667  -0.4811252   0.5843784), wk =   0.0185185
        k(   36) = (   0.1666667  -0.4811252  -0.8765677), wk =   0.0185185
        k(   37) = (   0.3333333   0.1924501   0.0000000), wk =   0.0185185
        k(   38) = (   0.3333333   0.1924501   0.2921892), wk =   0.0185185
        k(   39) = (   0.3333333   0.1924501   0.5843784), wk =   0.0185185
        k(   40) = (   0.3333333   0.1924501  -0.8765677), wk =   0.0185185
        k(   41) = (   0.3333333   1.3471506   0.0000000), wk =   0.0185185
        k(   42) = (   0.3333333   1.3471506   0.2921892), wk =   0.0185185
        k(   43) = (   0.3333333   1.3471506   0.5843784), wk =   0.0185185
        k(   44) = (   0.3333333   1.3471506  -0.8765677), wk =   0.0185185
        k(   45) = (  -0.5000000  -0.2886751   0.0000000), wk =   0.0092593
        k(   46) = (  -0.5000000  -0.2886751   0.2921892), wk =   0.0185185
        k(   47) = (  -0.5000000  -0.2886751   0.5843784), wk =   0.0185185
        k(   48) = (  -0.5000000  -0.2886751  -0.8765677), wk =   0.0092593
        k(   49) = (  -0.5000000   0.8660254   0.0000000), wk =   0.0185185
        k(   50) = (  -0.5000000   0.8660254   0.2921892), wk =   0.0185185
        k(   51) = (  -0.5000000   0.8660254   0.5843784), wk =   0.0185185
        k(   52) = (  -0.5000000   0.8660254  -0.8765677), wk =   0.0185185
        k(   53) = (   0.5000000  -0.2886751   0.0000000), wk =   0.0185185
        k(   54) = (   0.0000000  -0.5773503   0.2921892), wk =   0.0185185
        k(   55) = (   0.5000000  -0.2886751  -0.2921892), wk =   0.0185185
        k(   56) = (  -0.5000000   0.2886751  -0.2921892), wk =   0.0185185
        k(   57) = (   0.0000000  -0.5773503   0.5843784), wk =   0.0185185
        k(   58) = (   0.5000000  -0.2886751  -0.5843784), wk =   0.0185185
        k(   59) = (  -0.5000000   0.2886751  -0.5843784), wk =   0.0185185
        k(   60) = (   0.5000000  -0.2886751   0.8765677), wk =   0.0185185
        k(   61) = (   0.0000000  -1.1547005   0.2921892), wk =   0.0185185
        k(   62) = (   0.0000000  -1.1547005   0.5843784), wk =   0.0185185
        k(   63) = (  -1.5000000   0.8660254   0.0000000), wk =   0.0092593
        k(   64) = (  -1.5000000   0.8660254  -0.2921892), wk =   0.0185185
        k(   65) = (  -1.5000000   0.8660254  -0.5843784), wk =   0.0185185
        k(   66) = (  -1.5000000   0.8660254   0.8765677), wk =   0.0092593
        k(   67) = (  -0.1666667  -0.0962250   0.2921892), wk =   0.0185185
        k(   68) = (  -0.1666667  -0.0962250   0.5843784), wk =   0.0185185
        k(   69) = (   0.6666667  -0.1924501   0.0000000), wk =   0.0185185
        k(   70) = (  -0.1666667  -0.6735753   0.2921892), wk =   0.0185185
        k(   71) = (   0.6666667  -0.1924501  -0.2921892), wk =   0.0185185
        k(   72) = (  -0.6666667   0.1924501  -0.2921892), wk =   0.0185185
        k(   73) = (  -0.1666667  -0.6735753   0.5843784), wk =   0.0185185
        k(   74) = (   0.6666667  -0.1924501  -0.5843784), wk =   0.0185185
        k(   75) = (  -0.6666667   0.1924501  -0.5843784), wk =   0.0185185
        k(   76) = (   0.6666667  -0.1924501   0.8765677), wk =   0.0185185
        k(   77) = (   1.1666667  -0.4811252   0.0000000), wk =   0.0185185
        k(   78) = (  -0.1666667  -1.2509256   0.2921892), wk =   0.0185185
        k(   79) = (   1.1666667  -0.4811252  -0.2921892), wk =   0.0185185
        k(   80) = (  -1.1666667   0.4811252  -0.2921892), wk =   0.0185185
        k(   81) = (  -0.1666667  -1.2509256   0.5843784), wk =   0.0185185
        k(   82) = (   1.1666667  -0.4811252  -0.5843784), wk =   0.0185185
        k(   83) = (  -1.1666667   0.4811252  -0.5843784), wk =   0.0185185
        k(   84) = (   1.1666667  -0.4811252   0.8765677), wk =   0.0185185
        k(   85) = (  -1.3333333   0.9622504   0.0000000), wk =   0.0185185
        k(   86) = (  -0.1666667   1.6358258   0.2921892), wk =   0.0185185
        k(   87) = (  -1.3333333   0.9622504  -0.2921892), wk =   0.0185185
        k(   88) = (   1.3333333  -0.9622504  -0.2921892), wk =   0.0185185
        k(   89) = (  -0.1666667   1.6358258   0.5843784), wk =   0.0185185
        k(   90) = (  -1.3333333   0.9622504  -0.5843784), wk =   0.0185185
        k(   91) = (   1.3333333  -0.9622504  -0.5843784), wk =   0.0185185
        k(   92) = (  -1.3333333   0.9622504   0.8765677), wk =   0.0185185
        k(   93) = (  -0.3333333   0.3849002   0.0000000), wk =   0.0185185
        k(   94) = (  -0.1666667   0.4811252   0.2921892), wk =   0.0185185
        k(   95) = (  -0.3333333   0.3849002  -0.2921892), wk =   0.0185185
        k(   96) = (   0.3333333  -0.3849002  -0.2921892), wk =   0.0185185
        k(   97) = (  -0.1666667   0.4811252   0.5843784), wk =   0.0185185
        k(   98) = (  -0.3333333   0.3849002  -0.5843784), wk =   0.0185185
        k(   99) = (   0.3333333  -0.3849002  -0.5843784), wk =   0.0185185
        k(  100) = (  -0.3333333   0.3849002   0.8765677), wk =   0.0185185
        k(  101) = (  -0.3333333  -0.1924501   0.2921892), wk =   0.0185185
        k(  102) = (  -0.3333333  -0.1924501   0.5843784), wk =   0.0185185
        k(  103) = (   1.3333333  -0.3849002   0.0000000), wk =   0.0185185
        k(  104) = (  -0.3333333  -1.3471506   0.2921892), wk =   0.0185185
        k(  105) = (   1.3333333  -0.3849002  -0.2921892), wk =   0.0185185
        k(  106) = (  -1.3333333   0.3849002  -0.2921892), wk =   0.0185185
        k(  107) = (  -0.3333333  -1.3471506   0.5843784), wk =   0.0185185
        k(  108) = (   1.3333333  -0.3849002  -0.5843784), wk =   0.0185185
        k(  109) = (  -1.3333333   0.3849002  -0.5843784), wk =   0.0185185
        k(  110) = (   1.3333333  -0.3849002   0.8765677), wk =   0.0185185
        k(  111) = (   0.5000000  -0.8660254   0.2921892), wk =   0.0185185
        k(  112) = (   0.5000000  -0.8660254   0.5843784), wk =   0.0185185

                       cryst. coord.
        k(    1) = (   0.0000000   0.0000000   0.0000000), wk =   0.0092593
        k(    2) = (   0.0000000   0.0000000   0.1666667), wk =   0.0185185
        k(    3) = (   0.0000000   0.0000000   0.3333333), wk =   0.0185185
        k(    4) = (   0.0000000   0.0000000  -0.5000000), wk =   0.0092593
        k(    5) = (   0.0000000   0.1666667   0.0000000), wk =   0.0185185
        k(    6) = (   0.0000000   0.1666667   0.1666667), wk =   0.0185185
        k(    7) = (   0.0000000   0.1666667   0.3333333), wk =   0.0185185
        k(    8) = (   0.0000000   0.1666667  -0.5000000), wk =   0.0185185
        k(    9) = (   0.0000000   0.3333333   0.0000000), wk =   0.0185185
        k(   10) = (   0.0000000   0.3333333   0.1666667), wk =   0.0185185
        k(   11) = (   0.0000000   0.3333333   0.3333333), wk =   0.0185185
        k(   12) = (   0.0000000   0.3333333  -0.5000000), wk =   0.0185185
        k(   13) = (   0.0000000  -0.5000000   0.0000000), wk =   0.0092593
        k(   14) = (   0.0000000  -0.5000000   0.1666667), wk =   0.0185185
        k(   15) = (   0.0000000  -0.5000000   0.3333333), wk =   0.0185185
        k(   16) = (   0.0000000  -0.5000000  -0.5000000), wk =   0.0092593
        k(   17) = (   0.1666667  -0.0000000   0.0000000), wk =   0.0185185
        k(   18) = (   0.1666667  -0.0000000   0.1666667), wk =   0.0185185
        k(   19) = (   0.1666667  -0.0000000   0.3333333), wk =   0.0185185
        k(   20) = (   0.1666667  -0.0000000  -0.5000000), wk =   0.0185185
        k(   21) = (   0.1666667   0.1666667   0.0000000), wk =   0.0185185
        k(   22) = (   0.1666667   0.1666667   0.1666667), wk =   0.0185185
        k(   23) = (   0.1666667   0.1666667   0.3333333), wk =   0.0185185
        k(   24) = (   0.1666667   0.1666667  -0.5000000), wk =   0.0185185
        k(   25) = (   0.1666667   0.3333333   0.0000000), wk =   0.0185185
        k(   26) = (   0.1666667   0.3333333   0.1666667), wk =   0.0185185
        k(   27) = (   0.1666667   0.3333333   0.3333333), wk =   0.0185185
        k(   28) = (   0.1666667   0.3333333  -0.5000000), wk =   0.0185185
        k(   29) = (   0.1666667  -0.5000000   0.0000000), wk =   0.0185185
        k(   30) = (   0.1666667  -0.5000000   0.1666667), wk =   0.0185185
        k(   31) = (   0.1666667  -0.5000000   0.3333333), wk =   0.0185185
        k(   32) = (   0.1666667  -0.5000000  -0.5000000), wk =   0.0185185
        k(   33) = (   0.1666667  -0.1666667   0.0000000), wk =   0.0185185
        k(   34) = (   0.1666667  -0.1666667   0.1666667), wk =   0.0185185
        k(   35) = (   0.1666667  -0.1666667   0.3333333), wk =   0.0185185
        k(   36) = (   0.1666667  -0.1666667  -0.5000000), wk =   0.0185185
        k(   37) = (   0.3333333  -0.0000000   0.0000000), wk =   0.0185185
        k(   38) = (   0.3333333  -0.0000000   0.1666667), wk =   0.0185185
        k(   39) = (   0.3333333  -0.0000000   0.3333333), wk =   0.0185185
        k(   40) = (   0.3333333  -0.0000000  -0.5000000), wk =   0.0185185
        k(   41) = (   0.3333333   0.3333333   0.0000000), wk =   0.0185185
        k(   42) = (   0.3333333   0.3333333   0.1666667), wk =   0.0185185
        k(   43) = (   0.3333333   0.3333333   0.3333333), wk =   0.0185185
        k(   44) = (   0.3333333   0.3333333  -0.5000000), wk =   0.0185185
        k(   45) = (  -0.5000000   0.0000000   0.0000000), wk =   0.0092593
        k(   46) = (  -0.5000000   0.0000000   0.1666667), wk =   0.0185185
        k(   47) = (  -0.5000000   0.0000000   0.3333333), wk =   0.0185185
        k(   48) = (  -0.5000000   0.0000000  -0.5000000), wk =   0.0092593
        k(   49) = (  -0.5000000   0.3333333   0.0000000), wk =   0.0185185
        k(   50) = (  -0.5000000   0.3333333   0.1666667), wk =   0.0185185
        k(   51) = (  -0.5000000   0.3333333   0.3333333), wk =   0.0185185
        k(   52) = (  -0.5000000   0.3333333  -0.5000000), wk =   0.0185185
        k(   53) = (   0.5000000  -0.1666667   0.0000000), wk =   0.0185185
        k(   54) = (   0.0000000  -0.1666667   0.1666667), wk =   0.0185185
        k(   55) = (   0.5000000  -0.1666667  -0.1666667), wk =   0.0185185
        k(   56) = (  -0.5000000   0.1666667  -0.1666667), wk =   0.0185185
        k(   57) = (   0.0000000  -0.1666667   0.3333333), wk =   0.0185185
        k(   58) = (   0.5000000  -0.1666667  -0.3333333), wk =   0.0185185
        k(   59) = (  -0.5000000   0.1666667  -0.3333333), wk =   0.0185185
        k(   60) = (   0.5000000  -0.1666667   0.5000000), wk =   0.0185185
        k(   61) = (   0.0000000  -0.3333333   0.1666667), wk =   0.0185185
        k(   62) = (   0.0000000  -0.3333333   0.3333333), wk =   0.0185185
        k(   63) = (  -1.5000000   0.5000000   0.0000000), wk =   0.0092593
        k(   64) = (  -1.5000000   0.5000000  -0.1666667), wk =   0.0185185
        k(   65) = (  -1.5000000   0.5000000  -0.3333333), wk =   0.0185185
        k(   66) = (  -1.5000000   0.5000000   0.5000000), wk =   0.0092593
        k(   67) = (  -0.1666667   0.0000000   0.1666667), wk =   0.0185185
        k(   68) = (  -0.1666667   0.0000000   0.3333333), wk =   0.0185185
        k(   69) = (   0.6666667  -0.1666667   0.0000000), wk =   0.0185185
        k(   70) = (  -0.1666667  -0.1666667   0.1666667), wk =   0.0185185
        k(   71) = (   0.6666667  -0.1666667  -0.1666667), wk =   0.0185185
        k(   72) = (  -0.6666667   0.1666667  -0.1666667), wk =   0.0185185
        k(   73) = (  -0.1666667  -0.1666667   0.3333333), wk =   0.0185185
        k(   74) = (   0.6666667  -0.1666667  -0.3333333), wk =   0.0185185
        k(   75) = (  -0.6666667   0.1666667  -0.3333333), wk =   0.0185185
        k(   76) = (   0.6666667  -0.1666667   0.5000000), wk =   0.0185185
        k(   77) = (   1.1666667  -0.3333333   0.0000000), wk =   0.0185185
        k(   78) = (  -0.1666667  -0.3333333   0.1666667), wk =   0.0185185
        k(   79) = (   1.1666667  -0.3333333  -0.1666667), wk =   0.0185185
        k(   80) = (  -1.1666667   0.3333333  -0.1666667), wk =   0.0185185
        k(   81) = (  -0.1666667  -0.3333333   0.3333333), wk =   0.0185185
        k(   82) = (   1.1666667  -0.3333333  -0.3333333), wk =   0.0185185
        k(   83) = (  -1.1666667   0.3333333  -0.3333333), wk =   0.0185185
        k(   84) = (   1.1666667  -0.3333333   0.5000000), wk =   0.0185185
        k(   85) = (  -1.3333333   0.5000000   0.0000000), wk =   0.0185185
        k(   86) = (  -0.1666667   0.5000000   0.1666667), wk =   0.0185185
        k(   87) = (  -1.3333333   0.5000000  -0.1666667), wk =   0.0185185
        k(   88) = (   1.3333333  -0.5000000  -0.1666667), wk =   0.0185185
        k(   89) = (  -0.1666667   0.5000000   0.3333333), wk =   0.0185185
        k(   90) = (  -1.3333333   0.5000000  -0.3333333), wk =   0.0185185
        k(   91) = (   1.3333333  -0.5000000  -0.3333333), wk =   0.0185185
        k(   92) = (  -1.3333333   0.5000000   0.5000000), wk =   0.0185185
        k(   93) = (  -0.3333333   0.1666667   0.0000000), wk =   0.0185185
        k(   94) = (  -0.1666667   0.1666667   0.1666667), wk =   0.0185185
        k(   95) = (  -0.3333333   0.1666667  -0.1666667), wk =   0.0185185
        k(   96) = (   0.3333333  -0.1666667  -0.1666667), wk =   0.0185185
        k(   97) = (  -0.1666667   0.1666667   0.3333333), wk =   0.0185185
        k(   98) = (  -0.3333333   0.1666667  -0.3333333), wk =   0.0185185
        k(   99) = (   0.3333333  -0.1666667  -0.3333333), wk =   0.0185185
        k(  100) = (  -0.3333333   0.1666667   0.5000000), wk =   0.0185185
        k(  101) = (  -0.3333333   0.0000000   0.1666667), wk =   0.0185185
        k(  102) = (  -0.3333333   0.0000000   0.3333333), wk =   0.0185185
        k(  103) = (   1.3333333  -0.3333333   0.0000000), wk =   0.0185185
        k(  104) = (  -0.3333333  -0.3333333   0.1666667), wk =   0.0185185
        k(  105) = (   1.3333333  -0.3333333  -0.1666667), wk =   0.0185185
        k(  106) = (  -1.3333333   0.3333333  -0.1666667), wk =   0.0185185
        k(  107) = (  -0.3333333  -0.3333333   0.3333333), wk =   0.0185185
        k(  108) = (   1.3333333  -0.3333333  -0.3333333), wk =   0.0185185
        k(  109) = (  -1.3333333   0.3333333  -0.3333333), wk =   0.0185185
        k(  110) = (   1.3333333  -0.3333333   0.5000000), wk =   0.0185185
        k(  111) = (   0.5000000  -0.3333333   0.1666667), wk =   0.0185185
        k(  112) = (   0.5000000  -0.3333333   0.3333333), wk =   0.0185185

     Dense  grid:   110225 G-vectors     FFT dimensions: ( 120,  40,  64)

     Smooth grid:    38997 G-vectors     FFT dimensions: (  80,  25,  45)

     Dynamical RAM for                 wfc:       1.34 MB

     Dynamical RAM for     wfc (w. buffer):      20.08 MB

     Dynamical RAM for           str. fact:       1.12 MB

     Dynamical RAM for           local pot:       0.00 MB

     Dynamical RAM for          nlocal pot:       3.87 MB

     Dynamical RAM for                qrad:       3.21 MB

     Dynamical RAM for          rho,v,vnew:       4.10 MB

     Dynamical RAM for               rhoin:       1.37 MB

     Dynamical RAM for            rho*nmix:       8.97 MB

     Dynamical RAM for           G-vectors:       2.20 MB

     Dynamical RAM for          h,s,v(r/c):       0.53 MB

     Dynamical RAM for          <psi|beta>:       0.13 MB

     Dynamical RAM for                 psi:       2.68 MB

     Dynamical RAM for                hpsi:       2.68 MB

     Dynamical RAM for                spsi:       2.68 MB

     Dynamical RAM for      wfcinit/wfcrot:       4.01 MB

     Dynamical RAM for           addusdens:      13.94 MB

     Dynamical RAM for          addusforce:      14.46 MB

     Estimated static dynamical RAM per process >      41.66 MB

     Estimated max dynamical RAM per process >      65.09 MB

     Estimated total dynamical RAM >       1.34 GB

     Check: negative core charge=   -0.000002

     Initial potential from superposition of free atoms

     starting charge     107.9776, renormalised to     108.0000
     Starting wfcs are   78 randomized atomic wfcs

     total cpu time spent up to now is        6.6 secs

     per-process dynamical memory:    57.7 Mb

     Self-consistent Calculation

     iteration #  1     ecut=    50.00 Ry     beta= 0.30
     Davidson diagonalization with overlap

---- Real-time Memory Report at c_bands before calling an iterative solver
            83 MiB given to the printing process from OS
            56 MiB allocation reported by mallinfo(arena+hblkhd)
        103921 MiB available memory on the node where the printing process lives
------------------
     ethr =  1.00E-02,  avg # of iterations =  2.0

     total cpu time spent up to now is       14.9 secs

     total energy              =   -1084.24657716 Ry
     estimated scf accuracy    <       2.02913210 Ry

     iteration #  2     ecut=    50.00 Ry     beta= 0.30
     Davidson diagonalization with overlap

---- Real-time Memory Report at c_bands before calling an iterative solver
            99 MiB given to the printing process from OS
            69 MiB allocation reported by mallinfo(arena+hblkhd)
        103694 MiB available memory on the node where the printing process lives
------------------
     ethr =  1.88E-03,  avg # of iterations =  2.0

     total cpu time spent up to now is       24.5 secs

     total energy              =   -1084.40166903 Ry
     estimated scf accuracy    <       0.37558765 Ry

     iteration #  3     ecut=    50.00 Ry     beta= 0.30
     Davidson diagonalization with overlap

---- Real-time Memory Report at c_bands before calling an iterative solver
            99 MiB given to the printing process from OS
            69 MiB allocation reported by mallinfo(arena+hblkhd)
        103706 MiB available memory on the node where the printing process lives
------------------
     ethr =  3.48E-04,  avg # of iterations =  6.4

     total cpu time spent up to now is       40.6 secs

     total energy              =   -1084.62414515 Ry
     estimated scf accuracy    <       0.26271080 Ry

     iteration #  4     ecut=    50.00 Ry     beta= 0.30
     Davidson diagonalization with overlap

---- Real-time Memory Report at c_bands before calling an iterative solver
            99 MiB given to the printing process from OS
            70 MiB allocation reported by mallinfo(arena+hblkhd)
        103708 MiB available memory on the node where the printing process lives
------------------
     ethr =  2.43E-04,  avg # of iterations =  2.0

     total cpu time spent up to now is       48.9 secs

     total energy              =   -1084.61884644 Ry
     estimated scf accuracy    <       0.06699222 Ry

     iteration #  5     ecut=    50.00 Ry     beta= 0.30
     Davidson diagonalization with overlap

---- Real-time Memory Report at c_bands before calling an iterative solver
           100 MiB given to the printing process from OS
            70 MiB allocation reported by mallinfo(arena+hblkhd)
        103705 MiB available memory on the node where the printing process lives
------------------
     ethr =  6.20E-05,  avg # of iterations =  9.8

     total cpu time spent up to now is       71.9 secs

     total energy              =   -1084.85797902 Ry
     estimated scf accuracy    <       1.27979417 Ry

     iteration #  6     ecut=    50.00 Ry     beta= 0.30
     Davidson diagonalization with overlap

---- Real-time Memory Report at c_bands before calling an iterative solver
           100 MiB given to the printing process from OS
            70 MiB allocation reported by mallinfo(arena+hblkhd)
        103705 MiB available memory on the node where the printing process lives
------------------
     ethr =  6.20E-05,  avg # of iterations =  2.0

     total cpu time spent up to now is       80.6 secs

     total energy              =   -1084.43130400 Ry
     estimated scf accuracy    <       0.94691770 Ry

     iteration #  7     ecut=    50.00 Ry     beta= 0.30
     Davidson diagonalization with overlap

---- Real-time Memory Report at c_bands before calling an iterative solver
           100 MiB given to the printing process from OS
            71 MiB allocation reported by mallinfo(arena+hblkhd)
        103705 MiB available memory on the node where the printing process lives
------------------
     ethr =  6.20E-05,  avg # of iterations =  8.6

     total cpu time spent up to now is      101.3 secs

     total energy              =   -1084.66615013 Ry
     estimated scf accuracy    <       0.00591732 Ry

     iteration #  8     ecut=    50.00 Ry     beta= 0.30
     Davidson diagonalization with overlap

---- Real-time Memory Report at c_bands before calling an iterative solver
           101 MiB given to the printing process from OS
            71 MiB allocation reported by mallinfo(arena+hblkhd)
        103703 MiB available memory on the node where the printing process lives
------------------
     ethr =  5.48E-06,  avg # of iterations =  7.0

     total cpu time spent up to now is      118.0 secs

     total energy              =   -1084.66110972 Ry
     estimated scf accuracy    <       0.03640140 Ry

     iteration #  9     ecut=    50.00 Ry     beta= 0.30
     Davidson diagonalization with overlap

---- Real-time Memory Report at c_bands before calling an iterative solver
           101 MiB given to the printing process from OS
            72 MiB allocation reported by mallinfo(arena+hblkhd)
        103703 MiB available memory on the node where the printing process lives
------------------
     ethr =  5.48E-06,  avg # of iterations =  2.1

     total cpu time spent up to now is      127.0 secs

     total energy              =   -1084.65334846 Ry
     estimated scf accuracy    <       0.01804021 Ry

     iteration # 10     ecut=    50.00 Ry     beta= 0.30
     Davidson diagonalization with overlap

---- Real-time Memory Report at c_bands before calling an iterative solver
           102 MiB given to the printing process from OS
            72 MiB allocation reported by mallinfo(arena+hblkhd)
        103703 MiB available memory on the node where the printing process lives
------------------
     ethr =  5.48E-06,  avg # of iterations =  7.5

     total cpu time spent up to now is      144.7 secs

     total energy              =   -1084.66041126 Ry
     estimated scf accuracy    <       0.00173172 Ry

     iteration # 11     ecut=    50.00 Ry     beta= 0.30
     Davidson diagonalization with overlap

---- Real-time Memory Report at c_bands before calling an iterative solver
           102 MiB given to the printing process from OS
            72 MiB allocation reported by mallinfo(arena+hblkhd)
        103703 MiB available memory on the node where the printing process lives
------------------
     ethr =  1.60E-06,  avg # of iterations =  2.0

     total cpu time spent up to now is      153.2 secs

     total energy              =   -1084.66035051 Ry
     estimated scf accuracy    <       0.00070502 Ry

     iteration # 12     ecut=    50.00 Ry     beta= 0.30
     Davidson diagonalization with overlap

---- Real-time Memory Report at c_bands before calling an iterative solver
           102 MiB given to the printing process from OS
            72 MiB allocation reported by mallinfo(arena+hblkhd)
        103703 MiB available memory on the node where the printing process lives
------------------
     ethr =  6.53E-07,  avg # of iterations =  2.5

     total cpu time spent up to now is      162.9 secs

     total energy              =   -1084.66044362 Ry
     estimated scf accuracy    <       0.00017435 Ry

     iteration # 13     ecut=    50.00 Ry     beta= 0.30
     Davidson diagonalization with overlap

---- Real-time Memory Report at c_bands before calling an iterative solver
           102 MiB given to the printing process from OS
            72 MiB allocation reported by mallinfo(arena+hblkhd)
        103703 MiB available memory on the node where the printing process lives
------------------
     ethr =  1.61E-07,  avg # of iterations =  4.5

     total cpu time spent up to now is      174.9 secs

     total energy              =   -1084.66050769 Ry
     estimated scf accuracy    <       0.00002317 Ry

     iteration # 14     ecut=    50.00 Ry     beta= 0.30
     Davidson diagonalization with overlap

---- Real-time Memory Report at c_bands before calling an iterative solver
           102 MiB given to the printing process from OS
            72 MiB allocation reported by mallinfo(arena+hblkhd)
        103703 MiB available memory on the node where the printing process lives
------------------
     ethr =  2.15E-08,  avg # of iterations =  4.0

     total cpu time spent up to now is      186.3 secs

     total energy              =   -1084.66053353 Ry
     estimated scf accuracy    <       0.00003047 Ry

     iteration # 15     ecut=    50.00 Ry     beta= 0.30
     Davidson diagonalization with overlap

---- Real-time Memory Report at c_bands before calling an iterative solver
           102 MiB given to the printing process from OS
            72 MiB allocation reported by mallinfo(arena+hblkhd)
        103703 MiB available memory on the node where the printing process lives
------------------
     ethr =  2.15E-08,  avg # of iterations =  4.3

     total cpu time spent up to now is      198.2 secs

     total energy              =   -1084.66050601 Ry
     estimated scf accuracy    <       0.00010978 Ry

     iteration # 16     ecut=    50.00 Ry     beta= 0.30
     Davidson diagonalization with overlap

---- Real-time Memory Report at c_bands before calling an iterative solver
           102 MiB given to the printing process from OS
            72 MiB allocation reported by mallinfo(arena+hblkhd)
        103703 MiB available memory on the node where the printing process lives
------------------
     ethr =  2.15E-08,  avg # of iterations =  3.0

     total cpu time spent up to now is      207.5 secs

     total energy              =   -1084.66049740 Ry
     estimated scf accuracy    <       0.00004628 Ry

     iteration # 17     ecut=    50.00 Ry     beta= 0.30
     Davidson diagonalization with overlap

---- Real-time Memory Report at c_bands before calling an iterative solver
           102 MiB given to the printing process from OS
            72 MiB allocation reported by mallinfo(arena+hblkhd)
        103703 MiB available memory on the node where the printing process lives
------------------
     ethr =  2.15E-08,  avg # of iterations =  4.3

     total cpu time spent up to now is      219.9 secs

     total energy              =   -1084.66050199 Ry
     estimated scf accuracy    <       0.00000503 Ry

     iteration # 18     ecut=    50.00 Ry     beta= 0.30
     Davidson diagonalization with overlap

---- Real-time Memory Report at c_bands before calling an iterative solver
           102 MiB given to the printing process from OS
            72 MiB allocation reported by mallinfo(arena+hblkhd)
        103703 MiB available memory on the node where the printing process lives
------------------
     ethr =  4.66E-09,  avg # of iterations =  7.1

     total cpu time spent up to now is      236.9 secs

     total energy              =   -1084.66050610 Ry
     estimated scf accuracy    <       0.00000414 Ry

     iteration # 19     ecut=    50.00 Ry     beta= 0.30
     Davidson diagonalization with overlap

---- Real-time Memory Report at c_bands before calling an iterative solver
           102 MiB given to the printing process from OS
            72 MiB allocation reported by mallinfo(arena+hblkhd)
        103703 MiB available memory on the node where the printing process lives
------------------
     ethr =  3.84E-09,  avg # of iterations =  1.1

     total cpu time spent up to now is      244.6 secs

     total energy              =   -1084.66050457 Ry
     estimated scf accuracy    <       0.00000251 Ry

     iteration # 20     ecut=    50.00 Ry     beta= 0.30
     Davidson diagonalization with overlap

---- Real-time Memory Report at c_bands before calling an iterative solver
           102 MiB given to the printing process from OS
            72 MiB allocation reported by mallinfo(arena+hblkhd)
        103703 MiB available memory on the node where the printing process lives
------------------
     ethr =  2.32E-09,  avg # of iterations =  5.6

     total cpu time spent up to now is      258.8 secs

     total energy              =   -1084.66050569 Ry
     estimated scf accuracy    <       0.00000064 Ry

     iteration # 21     ecut=    50.00 Ry     beta= 0.30
     Davidson diagonalization with overlap

---- Real-time Memory Report at c_bands before calling an iterative solver
           102 MiB given to the printing process from OS
            72 MiB allocation reported by mallinfo(arena+hblkhd)
        103703 MiB available memory on the node where the printing process lives
------------------
     ethr =  5.89E-10,  avg # of iterations =  2.5

     total cpu time spent up to now is      268.1 secs

     total energy              =   -1084.66050565 Ry
     estimated scf accuracy    <       0.00000023 Ry

     iteration # 22     ecut=    50.00 Ry     beta= 0.30
     Davidson diagonalization with overlap

---- Real-time Memory Report at c_bands before calling an iterative solver
           102 MiB given to the printing process from OS
            72 MiB allocation reported by mallinfo(arena+hblkhd)
        103703 MiB available memory on the node where the printing process lives
------------------
     ethr =  2.09E-10,  avg # of iterations =  5.1

     total cpu time spent up to now is      281.4 secs

     End of self-consistent calculation

          k = 0.0000 0.0000 0.0000 (  4855 PWs)   bands (ev):

    -9.7306  -9.2669  -8.6454  -8.5858  -8.5127  -8.0896   2.5235   2.5995
     2.8104   2.9947   3.0570   3.1912   3.3402   3.3636   3.4881   3.5399
     3.6579   3.7414   3.7624   3.8213   4.0508   4.1363   4.1719   4.2824
     4.7823   4.8876   4.9540   5.0271   5.1549   5.1878   5.2609   5.2737
     5.3461   5.3593   5.4932   5.4937   5.6748   5.8103   5.9002   6.2587
     6.4342   7.6058   7.6496   7.7219   7.9136   8.8532   8.8878   9.1379
     9.2143   9.2478   9.3535   9.8598  10.0689  10.1173

     occupation numbers 
     1.0000   1.0000   1.0000   1.0000   1.0000   1.0000   1.0000   1.0000
     1.0000   1.0000   1.0000   1.0000   1.0000   1.0000   1.0000   1.0000
     1.0000   1.0000   1.0000   1.0000   1.0000   1.0000   1.0000   1.0000
     1.0000   1.0000   1.0000   1.0000   1.0000   1.0000   1.0000   1.0000
     1.0000   1.0000   1.0000   1.0000   1.0000   1.0000   1.0000   1.0000
     1.0000   1.0000   1.0000   1.0000   1.0000   1.0000   1.0000   1.0000
     1.0000   1.0000   1.0000   1.0000   1.0000   1.0000

          k = 0.0000 0.0000 0.2922 (  4862 PWs)   bands (ev):

    -9.6866  -9.2529  -8.6424  -8.5951  -8.5355  -8.1259   2.4950   2.5681
     2.7613   2.9162   2.9468   3.1954   3.2329   3.3355   3.4859   3.5486
     3.6477   3.7441   3.7603   3.8416   3.9921   4.0790   4.1311   4.2412
     4.8341   4.9196   4.9686   5.0878   5.1649   5.2411   5.2581   5.2804
     5.3470   5.4192   5.4790   5.5188   5.8439   5.9838   6.0934   6.4459
     6.5277   7.5238   7.5713   7.8261   8.0113   8.8144   8.8647   9.1451
     9.1966   9.2621   9.2842   9.3141  10.0126  10.0549

     occupation numbers 
     1.0000   1.0000   1.0000   1.0000   1.0000   1.0000   1.0000   1.0000
     1.0000   1.0000   1.0000   1.0000   1.0000   1.0000   1.0000   1.0000
     1.0000   1.0000   1.0000   1.0000   1.0000   1.0000   1.0000   1.0000
     1.0000   1.0000   1.0000   1.0000   1.0000   1.0000   1.0000   1.0000
     1.0000   1.0000   1.0000   1.0000   1.0000   1.0000   1.0000   1.0000
     1.0000   1.0000   1.0000   1.0000   1.0000   1.0000   1.0000   1.0000
     1.0000   1.0000   1.0000   1.0000   1.0000   1.0000

          k = 0.0000 0.0000 0.5844 (  4882 PWs)   bands (ev):

    -9.5783  -9.2367  -8.6968  -8.6312  -8.4863  -8.2244   2.4339   2.5209
     2.6427   2.7147   2.8350   3.0382   3.2212   3.3508   3.4744   3.5066
     3.6455   3.7477   3.7919   3.8945   3.9223   3.9845   4.0361   4.1377
     4.9324   4.9944   5.0447   5.1735   5.1915   5.2105   5.2492   5.3009
     5.3275   5.3763   5.4297   5.4491   6.3120   6.4364   6.6194   6.7244
     6.8735   7.4929   7.5603   8.0906   8.2576   8.3671   8.5809   8.7020
     8.9213   9.0307   9.3734   9.4293   9.8602   9.8839

     occupation numbers 
     1.0000   1.0000   1.0000   1.0000   1.0000   1.0000   1.0000   1.0000
     1.0000   1.0000   1.0000   1.0000   1.0000   1.0000   1.0000   1.0000
     1.0000   1.0000   1.0000   1.0000   1.0000   1.0000   1.0000   1.0000
     1.0000   1.0000   1.0000   1.0000   1.0000   1.0000   1.0000   1.0000
     1.0000   1.0000   1.0000   1.0000   1.0000   1.0000   1.0000   1.0000
     1.0000   1.0000   1.0000   1.0000   1.0000   1.0000   1.0000   1.0000
     1.0000   1.0000   1.0000   1.0000   1.0000   1.0000

          k = 0.0000 0.0000-0.8766 (  4910 PWs)   bands (ev):

    -9.5032  -9.2469  -8.7127  -8.6835  -8.3651  -8.3499   2.4033   2.5028
     2.5721   2.6160   2.8690   2.8954   3.2329   3.3811   3.4501   3.4766
     3.6503   3.7508   3.8539   3.8918   3.9182   3.9360   4.0047   4.0408
     4.9963   5.0091   5.1571   5.1865   5.1963   5.2211   5.2464   5.2791
     5.3013   5.3369   5.3590   5.4260   6.5783   6.6669   6.7340   6.8539
     7.3808   7.5131   7.9893   8.0275   8.0983   8.1759   8.3228   8.4833
     8.7354   8.8051   9.5579   9.5947   9.6903   9.7030

     occupation numbers 
     1.0000   1.0000   1.0000   1.0000   1.0000   1.0000   1.0000   1.0000
     1.0000   1.0000   1.0000   1.0000   1.0000   1.0000   1.0000   1.0000
     1.0000   1.0000   1.0000   1.0000   1.0000   1.0000   1.0000   1.0000
     1.0000   1.0000   1.0000   1.0000   1.0000   1.0000   1.0000   1.0000
     1.0000   1.0000   1.0000   1.0000   1.0000   1.0000   1.0000   1.0000
     1.0000   1.0000   1.0000   1.0000   1.0000   1.0000   1.0000   1.0000
     1.0000   1.0000   1.0000   1.0000   1.0000   1.0000

          k = 0.0000 0.5774 0.0000 (  4880 PWs)   bands (ev):

    -9.5560  -9.2211  -8.5970  -8.4903  -8.4107  -8.0613   2.7145   2.7887
     2.9112   3.0044   3.0981   3.1529   3.3324   3.4043   3.4902   3.5705
     3.6632   3.7795   3.8051   3.8577   3.9912   4.0359   4.2573   4.4149
     4.8094   4.8466   4.9650   5.0061   5.0768   5.1014   5.2897   5.3347
     5.3882   5.4316   5.5270   5.5678   5.6505   5.7579   5.8531   6.3448
     6.6582   7.0182   7.0753   7.5449   8.0582   8.2115   8.2971   8.6567
     8.7759   8.9461   9.1916   9.3092   9.6709   9.8900

     occupation numbers 
     1.0000   1.0000   1.0000   1.0000   1.0000   1.0000   1.0000   1.0000
     1.0000   1.0000   1.0000   1.0000   1.0000   1.0000   1.0000   1.0000
     1.0000   1.0000   1.0000   1.0000   1.0000   1.0000   1.0000   1.0000
     1.0000   1.0000   1.0000   1.0000   1.0000   1.0000   1.0000   1.0000
     1.0000   1.0000   1.0000   1.0000   1.0000   1.0000   1.0000   1.0000
     1.0000   1.0000   1.0000   1.0000   1.0000   1.0000   1.0000   1.0000
     1.0000   1.0000   1.0000   1.0000   1.0000   1.0000

          k = 0.0000 0.5774 0.2922 (  4884 PWs)   bands (ev):

    -9.5218  -9.1960  -8.6152  -8.5154  -8.3987  -8.0918   2.6658   2.7295
     2.8239   2.9714   3.0141   3.0912   3.3251   3.3865   3.4643   3.5613
     3.6501   3.7388   3.7902   3.8183   3.9660   4.0263   4.2337   4.3648
     4.8423   4.8792   4.9911   5.0848   5.1292   5.1870   5.2779   5.3104
     5.3833   5.4440   5.5193   5.6400   5.7404   5.8851   6.0669   6.4550
     6.7343   7.1348   7.1857   7.5661   8.0466   8.2403   8.3356   8.5708
     8.7805   8.8610   9.1197   9.2018   9.5300   9.8168

     occupation numbers 
     1.0000   1.0000   1.0000   1.0000   1.0000   1.0000   1.0000   1.0000
     1.0000   1.0000   1.0000   1.0000   1.0000   1.0000   1.0000   1.0000
     1.0000   1.0000   1.0000   1.0000   1.0000   1.0000   1.0000   1.0000
     1.0000   1.0000   1.0000   1.0000   1.0000   1.0000   1.0000   1.0000
     1.0000   1.0000   1.0000   1.0000   1.0000   1.0000   1.0000   1.0000
     1.0000   1.0000   1.0000   1.0000   1.0000   1.0000   1.0000   1.0000
     1.0000   1.0000   1.0000   1.0000   1.0000   1.0000

          k = 0.0000 0.5774 0.5844 (  4891 PWs)   bands (ev):

    -9.4414  -9.1431  -8.6572  -8.5858  -8.3475  -8.1694   2.5719   2.6149
     2.7069   2.8116   2.8621   2.9706   3.3255   3.3992   3.4685   3.5718
     3.6302   3.6898   3.7537   3.7699   3.9256   3.9857   4.1910   4.2455
     4.9357   4.9660   5.0795   5.1596   5.1738   5.2297   5.2600   5.2797
     5.3704   5.4020   5.4906   5.6082   5.9020   6.3296   6.5401   6.7307
     7.1151   7.4248   7.4928   7.5816   8.0467   8.1679   8.2880   8.4564
     8.5654   8.8116   8.9194   9.0725   9.1924   9.6172

     occupation numbers 
     1.0000   1.0000   1.0000   1.0000   1.0000   1.0000   1.0000   1.0000
     1.0000   1.0000   1.0000   1.0000   1.0000   1.0000   1.0000   1.0000
     1.0000   1.0000   1.0000   1.0000   1.0000   1.0000   1.0000   1.0000
     1.0000   1.0000   1.0000   1.0000   1.0000   1.0000   1.0000   1.0000
     1.0000   1.0000   1.0000   1.0000   1.0000   1.0000   1.0000   1.0000
     1.0000   1.0000   1.0000   1.0000   1.0000   1.0000   1.0000   1.0000
     1.0000   1.0000   1.0000   1.0000   1.0000   1.0000

          k = 0.0000 0.5774-0.8766 (  4870 PWs)   bands (ev):

    -9.3917  -9.1173  -8.6681  -8.6422  -8.2689  -8.2589   2.5221   2.5655
     2.6724   2.7129   2.8058   2.8919   3.3434   3.4214   3.4840   3.5579
     3.6357   3.7029   3.7171   3.7523   3.8969   3.9609   4.1566   4.1910
     5.0013   5.0226   5.1505   5.1615   5.1943   5.2035   5.2639   5.2970
     5.3279   5.3528   5.5122   5.5285   6.1202   6.1743   7.0692   7.1517
     7.4172   7.5168   7.5331   7.6374   8.0561   8.0917   8.2031   8.2379
     8.5646   8.6408   8.7952   8.8742   9.2938   9.3854

     occupation numbers 
     1.0000   1.0000   1.0000   1.0000   1.0000   1.0000   1.0000   1.0000
     1.0000   1.0000   1.0000   1.0000   1.0000   1.0000   1.0000   1.0000
     1.0000   1.0000   1.0000   1.0000   1.0000   1.0000   1.0000   1.0000
     1.0000   1.0000   1.0000   1.0000   1.0000   1.0000   1.0000   1.0000
     1.0000   1.0000   1.0000   1.0000   1.0000   1.0000   1.0000   1.0000
     1.0000   1.0000   1.0000   1.0000   1.0000   1.0000   1.0000   1.0000
     1.0000   1.0000   1.0000   1.0000   1.0000   1.0000

          k = 0.0000 1.1547 0.0000 (  4846 PWs)   bands (ev):

    -9.2450  -8.9874  -8.5033  -8.3371  -8.2097  -8.0285   2.5639   2.6716
     3.0181   3.0626   3.1472   3.3656   3.4788   3.5407   3.6544   3.7663
     3.8433   3.8856   3.9380   4.0467   4.1172   4.1775   4.4367   4.4584
     4.7966   4.8752   4.8990   5.0075   5.0907   5.1312   5.1940   5.2656
     5.3351   5.3539   5.4364   5.4609   5.7719   5.8247   5.9421   6.2119
     6.2816   6.4129   6.4422   7.5642   7.6122   7.6405   7.7584   7.9063
     7.9276   8.0159   8.8724   9.0742   9.3222   9.4579

     occupation numbers 
     1.0000   1.0000   1.0000   1.0000   1.0000   1.0000   1.0000   1.0000
     1.0000   1.0000   1.0000   1.0000   1.0000   1.0000   1.0000   1.0000
     1.0000   1.0000   1.0000   1.0000   1.0000   1.0000   1.0000   1.0000
     1.0000   1.0000   1.0000   1.0000   1.0000   1.0000   1.0000   1.0000
     1.0000   1.0000   1.0000   1.0000   1.0000   1.0000   1.0000   1.0000
     1.0000   1.0000   1.0000   1.0000   1.0000   1.0000   1.0000   1.0000
     1.0000   1.0000   1.0000   1.0000   1.0000   1.0000

          k = 0.0000 1.1547 0.2922 (  4867 PWs)   bands (ev):

    -9.2291  -8.9656  -8.5011  -8.3564  -8.2034  -8.0478   2.5341   2.6410
     2.8964   2.9647   3.1346   3.3189   3.4012   3.5097   3.6067   3.7137
     3.7703   3.8647   3.9082   4.0139   4.0868   4.1256   4.4130   4.4571
     4.8496   4.9002   4.9664   5.0451   5.1418   5.1991   5.2377   5.2977
     5.3508   5.3722   5.4557   5.4917   5.9358   5.9817   6.1556   6.1658
     6.2347   6.5186   6.5408   7.5184   7.5505   7.7517   7.8049   7.8790
     8.0278   8.0914   8.8565   9.0334   9.2381   9.3625

     occupation numbers 
     1.0000   1.0000   1.0000   1.0000   1.0000   1.0000   1.0000   1.0000
     1.0000   1.0000   1.0000   1.0000   1.0000   1.0000   1.0000   1.0000
     1.0000   1.0000   1.0000   1.0000   1.0000   1.0000   1.0000   1.0000
     1.0000   1.0000   1.0000   1.0000   1.0000   1.0000   1.0000   1.0000
     1.0000   1.0000   1.0000   1.0000   1.0000   1.0000   1.0000   1.0000
     1.0000   1.0000   1.0000   1.0000   1.0000   1.0000   1.0000   1.0000
     1.0000   1.0000   1.0000   1.0000   1.0000   1.0000

          k = 0.0000 1.1547 0.5844 (  4890 PWs)   bands (ev):

    -9.1957  -8.9132  -8.4966  -8.4087  -8.1809  -8.0934   2.4785   2.5483
     2.7010   2.7615   3.1227   3.1957   3.2821   3.4627   3.5757   3.6650
     3.7268   3.8031   3.8468   3.9604   3.9868   4.0281   4.4177   4.4503
     4.9054   4.9801   5.0377   5.0914   5.1869   5.2365   5.2747   5.2882
     5.3857   5.4305   5.5608   5.5940   6.0014   6.0506   6.3411   6.3930
     6.5415   6.7799   6.8416   7.3916   7.5300   7.5746   8.0540   8.1363
     8.2879   8.3694   8.6503   8.7771   9.0016   9.1027

     occupation numbers 
     1.0000   1.0000   1.0000   1.0000   1.0000   1.0000   1.0000   1.0000
     1.0000   1.0000   1.0000   1.0000   1.0000   1.0000   1.0000   1.0000
     1.0000   1.0000   1.0000   1.0000   1.0000   1.0000   1.0000   1.0000
     1.0000   1.0000   1.0000   1.0000   1.0000   1.0000   1.0000   1.0000
     1.0000   1.0000   1.0000   1.0000   1.0000   1.0000   1.0000   1.0000
     1.0000   1.0000   1.0000   1.0000   1.0000   1.0000   1.0000   1.0000
     1.0000   1.0000   1.0000   1.0000   1.0000   1.0000

          k = 0.0000 1.1547-0.8766 (  4888 PWs)   bands (ev):

    -9.1782  -8.8804  -8.4903  -8.4475  -8.1466  -8.1381   2.4516   2.4932
     2.6136   2.6743   3.0827   3.1247   3.3191   3.3723   3.5848   3.6657
     3.7534   3.7766   3.8691   3.8890   3.9300   3.9537   4.4212   4.4476
     4.9280   5.0172   5.0816   5.1360   5.1920   5.2157   5.2788   5.3135
     5.3297   5.3809   5.7441   5.8208   5.8435   5.8722   6.6184   6.7035
     6.7265   6.7993   6.8922   6.9972   7.9315   8.0041   8.0995   8.2169
     8.2885   8.3819   8.5984   8.6972   8.7320   8.7806

     occupation numbers 
     1.0000   1.0000   1.0000   1.0000   1.0000   1.0000   1.0000   1.0000
     1.0000   1.0000   1.0000   1.0000   1.0000   1.0000   1.0000   1.0000
     1.0000   1.0000   1.0000   1.0000   1.0000   1.0000   1.0000   1.0000
     1.0000   1.0000   1.0000   1.0000   1.0000   1.0000   1.0000   1.0000
     1.0000   1.0000   1.0000   1.0000   1.0000   1.0000   1.0000   1.0000
     1.0000   1.0000   1.0000   1.0000   1.0000   1.0000   1.0000   1.0000
     1.0000   1.0000   1.0000   1.0000   1.0000   1.0000

          k = 0.0000-1.7321 0.0000 (  4862 PWs)   bands (ev):

    -9.0970  -8.8002  -8.5090  -8.2175  -8.0839  -8.0691   2.5837   2.7424
     2.8383   3.0072   3.1412   3.3521   3.4246   3.4948   3.5724   3.7204
     3.8198   3.8959   4.0064   4.1402   4.2976   4.3255   4.3608   4.4183
     4.8592   4.9237   4.9567   5.1035   5.1395   5.2502   5.3495   5.4586
     5.4821   5.5940   5.6666   5.6861   5.8010   5.8332   5.9763   6.0291
     6.2994   6.3411   6.6633   6.7129   6.8138   7.0995   7.1362   7.4521
     8.2125   8.3400   8.5181   8.7416   8.7871   9.1482

     occupation numbers 
     1.0000   1.0000   1.0000   1.0000   1.0000   1.0000   1.0000   1.0000
     1.0000   1.0000   1.0000   1.0000   1.0000   1.0000   1.0000   1.0000
     1.0000   1.0000   1.0000   1.0000   1.0000   1.0000   1.0000   1.0000
     1.0000   1.0000   1.0000   1.0000   1.0000   1.0000   1.0000   1.0000
     1.0000   1.0000   1.0000   1.0000   1.0000   1.0000   1.0000   1.0000
     1.0000   1.0000   1.0000   1.0000   1.0000   1.0000   1.0000   1.0000
     1.0000   1.0000   1.0000   1.0000   1.0000   1.0000

          k = 0.0000-1.7321 0.2922 (  4854 PWs)   bands (ev):

    -9.0901  -8.7906  -8.4881  -8.2337  -8.0866  -8.0745   2.5349   2.6812
     2.7748   2.8999   3.0898   3.2955   3.4029   3.4441   3.5989   3.6807
     3.8422   3.8704   3.9902   4.1062   4.2231   4.2901   4.3091   4.3454
     4.9244   4.9601   5.0413   5.1557   5.2337   5.2859   5.3552   5.4471
     5.4865   5.5911   5.6813   5.7091   5.7859   5.7939   5.9351   6.0050
     6.4217   6.4587   6.7678   6.8287   6.9828   7.2209   7.2617   7.5845
     8.2556   8.3334   8.5444   8.6684   8.7198   9.0485

     occupation numbers 
     1.0000   1.0000   1.0000   1.0000   1.0000   1.0000   1.0000   1.0000
     1.0000   1.0000   1.0000   1.0000   1.0000   1.0000   1.0000   1.0000
     1.0000   1.0000   1.0000   1.0000   1.0000   1.0000   1.0000   1.0000
     1.0000   1.0000   1.0000   1.0000   1.0000   1.0000   1.0000   1.0000
     1.0000   1.0000   1.0000   1.0000   1.0000   1.0000   1.0000   1.0000
     1.0000   1.0000   1.0000   1.0000   1.0000   1.0000   1.0000   1.0000
     1.0000   1.0000   1.0000   1.0000   1.0000   1.0000

          k = 0.0000-1.7321 0.5844 (  4876 PWs)   bands (ev):

    -9.0763  -8.7709  -8.4333  -8.2791  -8.0924  -8.0860   2.4329   2.5533
     2.6541   2.7259   2.9945   3.0787   3.4156   3.4608   3.6385   3.6834
     3.7609   3.8661   3.9546   4.0478   4.1296   4.1947   4.2184   4.2824
     5.0252   5.0808   5.1412   5.2450   5.2714   5.3338   5.3809   5.4281
     5.4891   5.5699   5.5997   5.6318   5.8551   5.9115   5.9681   5.9979
     6.3887   6.4160   7.1235   7.2071   7.4956   7.6273   7.6381   7.9107
     8.1286   8.2185   8.4463   8.5461   8.6169   8.7861

     occupation numbers 
     1.0000   1.0000   1.0000   1.0000   1.0000   1.0000   1.0000   1.0000
     1.0000   1.0000   1.0000   1.0000   1.0000   1.0000   1.0000   1.0000
     1.0000   1.0000   1.0000   1.0000   1.0000   1.0000   1.0000   1.0000
     1.0000   1.0000   1.0000   1.0000   1.0000   1.0000   1.0000   1.0000
     1.0000   1.0000   1.0000   1.0000   1.0000   1.0000   1.0000   1.0000
     1.0000   1.0000   1.0000   1.0000   1.0000   1.0000   1.0000   1.0000
     1.0000   1.0000   1.0000   1.0000   1.0000   1.0000

          k = 0.0000-1.7321-0.8766 (  4868 PWs)   bands (ev):

    -9.0693  -8.7606  -8.3820  -8.3257  -8.0958  -8.0917   2.3812   2.4900
     2.5952   2.6514   2.9535   2.9750   3.4476   3.4767   3.6252   3.6795
     3.7752   3.8492   3.9580   3.9692   4.0969   4.1443   4.1906   4.2617
     5.1044   5.1292   5.1911   5.2244   5.3043   5.3725   5.3895   5.4310
     5.4793   5.5004   5.5760   5.5966   5.8452   5.9146   6.1085   6.1442
     6.2627   6.2803   7.4665   7.5946   7.6859   7.7142   7.9893   8.0761
     8.1474   8.2941   8.3146   8.3503   8.4285   8.4899

     occupation numbers 
     1.0000   1.0000   1.0000   1.0000   1.0000   1.0000   1.0000   1.0000
     1.0000   1.0000   1.0000   1.0000   1.0000   1.0000   1.0000   1.0000
     1.0000   1.0000   1.0000   1.0000   1.0000   1.0000   1.0000   1.0000
     1.0000   1.0000   1.0000   1.0000   1.0000   1.0000   1.0000   1.0000
     1.0000   1.0000   1.0000   1.0000   1.0000   1.0000   1.0000   1.0000
     1.0000   1.0000   1.0000   1.0000   1.0000   1.0000   1.0000   1.0000
     1.0000   1.0000   1.0000   1.0000   1.0000   1.0000

          k = 0.1667 0.0962 0.0000 (  4869 PWs)   bands (ev):

    -9.7131  -9.2977  -8.6696  -8.5427  -8.5161  -8.0912   2.5403   2.6310
     2.8332   2.9767   3.0586   3.1939   3.3019   3.3841   3.4744   3.5181
     3.6207   3.7448   3.7685   3.8184   3.9963   4.0676   4.1748   4.3493
     4.7877   4.9470   4.9535   5.0093   5.1408   5.2399   5.2648   5.3006
     5.3583   5.3623   5.4954   5.5218   5.6437   5.7663   5.8611   6.0615
     6.8609   7.2333   7.5370   8.0601   8.1209   8.5735   8.9789   9.1315
     9.1489   9.2120   9.4802   9.8283   9.8748  10.0477

     occupation numbers 
     1.0000   1.0000   1.0000   1.0000   1.0000   1.0000   1.0000   1.0000
     1.0000   1.0000   1.0000   1.0000   1.0000   1.0000   1.0000   1.0000
     1.0000   1.0000   1.0000   1.0000   1.0000   1.0000   1.0000   1.0000
     1.0000   1.0000   1.0000   1.0000   1.0000   1.0000   1.0000   1.0000
     1.0000   1.0000   1.0000   1.0000   1.0000   1.0000   1.0000   1.0000
     1.0000   1.0000   1.0000   1.0000   1.0000   1.0000   1.0000   1.0000
     1.0000   1.0000   1.0000   1.0000   1.0000   1.0000

          k = 0.1667 0.0962 0.2922 (  4880 PWs)   bands (ev):

    -9.6710  -9.2756  -8.6882  -8.5643  -8.5120  -8.1269   2.5070   2.5923
     2.7763   2.9070   2.9454   3.1975   3.2405   3.3043   3.4886   3.5509
     3.6015   3.7517   3.7568   3.8390   3.9479   4.0378   4.1306   4.3008
     4.8383   4.9574   4.9720   5.0800   5.1582   5.2457   5.2843   5.3099
     5.3480   5.4243   5.4834   5.5318   5.7584   5.9424   6.0378   6.2880
     6.9463   7.2125   7.6561   7.9574   8.2053   8.5989   8.9993   9.0416
     9.1171   9.2211   9.2959   9.4018   9.9265   9.9911

     occupation numbers 
     1.0000   1.0000   1.0000   1.0000   1.0000   1.0000   1.0000   1.0000
     1.0000   1.0000   1.0000   1.0000   1.0000   1.0000   1.0000   1.0000
     1.0000   1.0000   1.0000   1.0000   1.0000   1.0000   1.0000   1.0000
     1.0000   1.0000   1.0000   1.0000   1.0000   1.0000   1.0000   1.0000
     1.0000   1.0000   1.0000   1.0000   1.0000   1.0000   1.0000   1.0000
     1.0000   1.0000   1.0000   1.0000   1.0000   1.0000   1.0000   1.0000
     1.0000   1.0000   1.0000   1.0000   1.0000   1.0000

          k = 0.1667 0.0962 0.5844 (  4882 PWs)   bands (ev):

    -9.5681  -9.2395  -8.7355  -8.6417  -8.4480  -8.2203   2.4364   2.5369
     2.6418   2.7065   2.8526   3.0478   3.2237   3.3310   3.4787   3.5117
     3.6114   3.7268   3.7779   3.8944   3.9231   3.9645   4.0458   4.1772
     4.9351   4.9933   5.0714   5.1660   5.1880   5.2327   5.2458   5.3098
     5.3369   5.3718   5.4433   5.4564   6.0677   6.4034   6.5450   6.7045
     7.1968   7.4485   7.7848   7.9563   8.3251   8.4097   8.5323   8.7514
     8.8519   9.1615   9.2553   9.3895   9.7637   9.8362

     occupation numbers 
     1.0000   1.0000   1.0000   1.0000   1.0000   1.0000   1.0000   1.0000
     1.0000   1.0000   1.0000   1.0000   1.0000   1.0000   1.0000   1.0000
     1.0000   1.0000   1.0000   1.0000   1.0000   1.0000   1.0000   1.0000
     1.0000   1.0000   1.0000   1.0000   1.0000   1.0000   1.0000   1.0000
     1.0000   1.0000   1.0000   1.0000   1.0000   1.0000   1.0000   1.0000
     1.0000   1.0000   1.0000   1.0000   1.0000   1.0000   1.0000   1.0000
     1.0000   1.0000   1.0000   1.0000   1.0000   1.0000

          k = 0.1667 0.0962-0.8766 (  4906 PWs)   bands (ev):

    -9.4980  -9.2368  -8.7358  -8.7110  -8.3454  -8.3338   2.4033   2.5042
     2.5732   2.6237   2.8812   2.9044   3.2358   3.3739   3.4385   3.4877
     3.6296   3.7034   3.8231   3.8784   3.9416   3.9650   4.0286   4.0505
     5.0015   5.0097   5.1533   5.1894   5.2035   5.2267   5.2524   5.2877
     5.3058   5.3505   5.3641   5.4331   6.2962   6.3155   7.0738   7.1159
     7.4184   7.5254   8.0086   8.0521   8.1305   8.2018   8.2532   8.3991
     8.8335   8.9224   9.4459   9.5462   9.5778   9.6680

     occupation numbers 
     1.0000   1.0000   1.0000   1.0000   1.0000   1.0000   1.0000   1.0000
     1.0000   1.0000   1.0000   1.0000   1.0000   1.0000   1.0000   1.0000
     1.0000   1.0000   1.0000   1.0000   1.0000   1.0000   1.0000   1.0000
     1.0000   1.0000   1.0000   1.0000   1.0000   1.0000   1.0000   1.0000
     1.0000   1.0000   1.0000   1.0000   1.0000   1.0000   1.0000   1.0000
     1.0000   1.0000   1.0000   1.0000   1.0000   1.0000   1.0000   1.0000
     1.0000   1.0000   1.0000   1.0000   1.0000   1.0000

          k = 0.1667 0.6736 0.0000 (  4885 PWs)   bands (ev):

    -9.5210  -9.2714  -8.6023  -8.5040  -8.3692  -8.0681   2.7395   2.8052
     2.9021   3.0126   3.1101   3.1665   3.3349   3.4067   3.4915   3.5796
     3.6651   3.7475   3.8062   3.8422   3.9425   3.9822   4.2431   4.4706
     4.8192   4.8478   4.9615   5.0618   5.0872   5.1372   5.2838   5.3246
     5.3519   5.4462   5.4840   5.5128   5.6418   5.7059   5.9375   6.2957
     6.3559   7.1980   7.4126   7.7522   7.9781   8.0242   8.4097   8.5148
     8.6386   8.8156   9.3528   9.5368   9.6039   9.7681

     occupation numbers 
     1.0000   1.0000   1.0000   1.0000   1.0000   1.0000   1.0000   1.0000
     1.0000   1.0000   1.0000   1.0000   1.0000   1.0000   1.0000   1.0000
     1.0000   1.0000   1.0000   1.0000   1.0000   1.0000   1.0000   1.0000
     1.0000   1.0000   1.0000   1.0000   1.0000   1.0000   1.0000   1.0000
     1.0000   1.0000   1.0000   1.0000   1.0000   1.0000   1.0000   1.0000
     1.0000   1.0000   1.0000   1.0000   1.0000   1.0000   1.0000   1.0000
     1.0000   1.0000   1.0000   1.0000   1.0000   1.0000

          k = 0.1667 0.6736 0.2922 (  4881 PWs)   bands (ev):

    -9.4913  -9.2371  -8.6233  -8.5323  -8.3582  -8.0962   2.6945   2.7363
     2.8265   2.9530   3.0230   3.0943   3.3418   3.3950   3.4540   3.5450
     3.6769   3.7324   3.7809   3.8230   3.9282   3.9733   4.2421   4.4289
     4.8648   4.8791   5.0102   5.0894   5.1158   5.1985   5.2664   5.3069
     5.3801   5.4346   5.4931   5.5116   5.8387   5.8962   6.0395   6.2572
     6.5502   7.3535   7.5012   7.8301   7.9825   8.0650   8.3810   8.4445
     8.6062   8.7823   9.2459   9.4070   9.5008   9.6954

     occupation numbers 
     1.0000   1.0000   1.0000   1.0000   1.0000   1.0000   1.0000   1.0000
     1.0000   1.0000   1.0000   1.0000   1.0000   1.0000   1.0000   1.0000
     1.0000   1.0000   1.0000   1.0000   1.0000   1.0000   1.0000   1.0000
     1.0000   1.0000   1.0000   1.0000   1.0000   1.0000   1.0000   1.0000
     1.0000   1.0000   1.0000   1.0000   1.0000   1.0000   1.0000   1.0000
     1.0000   1.0000   1.0000   1.0000   1.0000   1.0000   1.0000   1.0000
     1.0000   1.0000   1.0000   1.0000   1.0000   1.0000

          k = 0.1667 0.6736 0.5844 (  4889 PWs)   bands (ev):

    -9.4240  -9.1547  -8.6735  -8.6111  -8.3155  -8.1652   2.5788   2.6211
     2.7258   2.8015   2.8586   2.9591   3.3530   3.4098   3.4581   3.5495
     3.6726   3.6873   3.7489   3.7751   3.8781   3.9401   4.2322   4.3172
     4.9492   4.9658   5.0908   5.1509   5.1626   5.2174   5.2470   5.2671
     5.3633   5.3930   5.5299   5.6002   5.8315   6.0808   6.5524   6.7227
     7.0093   7.6509   7.7247   7.8653   7.9497   8.0146   8.2324   8.3665
     8.6486   8.8750   8.9087   9.0333   9.2522   9.4854

     occupation numbers 
     1.0000   1.0000   1.0000   1.0000   1.0000   1.0000   1.0000   1.0000
     1.0000   1.0000   1.0000   1.0000   1.0000   1.0000   1.0000   1.0000
     1.0000   1.0000   1.0000   1.0000   1.0000   1.0000   1.0000   1.0000
     1.0000   1.0000   1.0000   1.0000   1.0000   1.0000   1.0000   1.0000
     1.0000   1.0000   1.0000   1.0000   1.0000   1.0000   1.0000   1.0000
     1.0000   1.0000   1.0000   1.0000   1.0000   1.0000   1.0000   1.0000
     1.0000   1.0000   1.0000   1.0000   1.0000   1.0000

          k = 0.1667 0.6736-0.8766 (  4874 PWs)   bands (ev):

    -9.3849  -9.1016  -8.7008  -8.6681  -8.2504  -8.2411   2.5189   2.5748
     2.6842   2.7228   2.7886   2.8875   3.3683   3.4385   3.4677   3.5633
     3.6407   3.6953   3.7289   3.7712   3.8336   3.9050   4.2305   4.2539
     5.0057   5.0232   5.1349   5.1584   5.1801   5.1897   5.2579   5.2839
     5.3263   5.3341   5.5941   5.6085   5.8892   5.9506   7.1805   7.3227
     7.4143   7.4601   7.5280   7.5841   8.1296   8.1714   8.2815   8.3342
     8.5123   8.5630   8.8915   8.9941   9.1592   9.2373

     occupation numbers 
     1.0000   1.0000   1.0000   1.0000   1.0000   1.0000   1.0000   1.0000
     1.0000   1.0000   1.0000   1.0000   1.0000   1.0000   1.0000   1.0000
     1.0000   1.0000   1.0000   1.0000   1.0000   1.0000   1.0000   1.0000
     1.0000   1.0000   1.0000   1.0000   1.0000   1.0000   1.0000   1.0000
     1.0000   1.0000   1.0000   1.0000   1.0000   1.0000   1.0000   1.0000
     1.0000   1.0000   1.0000   1.0000   1.0000   1.0000   1.0000   1.0000
     1.0000   1.0000   1.0000   1.0000   1.0000   1.0000

          k = 0.1667 1.2509 0.0000 (  4851 PWs)   bands (ev):

    -9.2514  -8.9791  -8.5018  -8.3326  -8.2206  -8.0253   2.5833   2.6965
     3.0025   3.0668   3.1604   3.3534   3.4613   3.5135   3.6277   3.6716
     3.8246   3.8976   3.9407   4.0722   4.1177   4.1921   4.3623   4.4826
     4.7986   4.8836   4.9215   5.0196   5.0975   5.1867   5.2446   5.2852
     5.3346   5.3886   5.4505   5.5058   5.7562   5.8363   5.9730   6.1277
     6.2349   6.3919   6.6745   7.3224   7.4163   7.6794   7.7872   7.8884
     8.0002   8.1639   8.8020   9.1184   9.2444   9.4414

     occupation numbers 
     1.0000   1.0000   1.0000   1.0000   1.0000   1.0000   1.0000   1.0000
     1.0000   1.0000   1.0000   1.0000   1.0000   1.0000   1.0000   1.0000
     1.0000   1.0000   1.0000   1.0000   1.0000   1.0000   1.0000   1.0000
     1.0000   1.0000   1.0000   1.0000   1.0000   1.0000   1.0000   1.0000
     1.0000   1.0000   1.0000   1.0000   1.0000   1.0000   1.0000   1.0000
     1.0000   1.0000   1.0000   1.0000   1.0000   1.0000   1.0000   1.0000
     1.0000   1.0000   1.0000   1.0000   1.0000   1.0000

          k = 0.1667 1.2509 0.2922 (  4871 PWs)   bands (ev):

    -9.2340  -8.9602  -8.4976  -8.3520  -8.2152  -8.0441   2.5560   2.6589
     2.8746   2.9960   3.1184   3.3086   3.3688   3.4760   3.6050   3.6727
     3.7778   3.8288   3.9351   4.0284   4.0804   4.1397   4.3638   4.4340
     4.8571   4.9195   5.0005   5.0413   5.1499   5.2163   5.2877   5.3138
     5.3572   5.4024   5.4826   5.5154   5.9162   5.9720   6.0975   6.1717
     6.3361   6.3837   6.7679   7.3482   7.4786   7.7326   7.7928   7.9012
     8.0579   8.1684   8.7920   9.0681   9.1579   9.3479

     occupation numbers 
     1.0000   1.0000   1.0000   1.0000   1.0000   1.0000   1.0000   1.0000
     1.0000   1.0000   1.0000   1.0000   1.0000   1.0000   1.0000   1.0000
     1.0000   1.0000   1.0000   1.0000   1.0000   1.0000   1.0000   1.0000
     1.0000   1.0000   1.0000   1.0000   1.0000   1.0000   1.0000   1.0000
     1.0000   1.0000   1.0000   1.0000   1.0000   1.0000   1.0000   1.0000
     1.0000   1.0000   1.0000   1.0000   1.0000   1.0000   1.0000   1.0000
     1.0000   1.0000   1.0000   1.0000   1.0000   1.0000

          k = 0.1667 1.2509 0.5844 (  4877 PWs)   bands (ev):

    -9.1980  -8.9133  -8.4906  -8.4052  -8.1906  -8.0905   2.4959   2.5597
     2.6973   2.7820   3.0639   3.1456   3.3323   3.4618   3.5879   3.6396
     3.7116   3.7736   3.8553   3.9715   3.9927   4.0513   4.3757   4.3957
     4.9304   4.9939   5.0824   5.1051   5.1797   5.2439   5.2943   5.3062
     5.3884   5.4377   5.5571   5.6361   5.8965   6.1152   6.2627   6.5003
     6.5429   6.7073   7.0035   7.4376   7.5039   7.6235   7.9568   8.1209
     8.2417   8.3752   8.6271   8.7841   8.9100   9.0934

     occupation numbers 
     1.0000   1.0000   1.0000   1.0000   1.0000   1.0000   1.0000   1.0000
     1.0000   1.0000   1.0000   1.0000   1.0000   1.0000   1.0000   1.0000
     1.0000   1.0000   1.0000   1.0000   1.0000   1.0000   1.0000   1.0000
     1.0000   1.0000   1.0000   1.0000   1.0000   1.0000   1.0000   1.0000
     1.0000   1.0000   1.0000   1.0000   1.0000   1.0000   1.0000   1.0000
     1.0000   1.0000   1.0000   1.0000   1.0000   1.0000   1.0000   1.0000
     1.0000   1.0000   1.0000   1.0000   1.0000   1.0000

          k = 0.1667 1.2509-0.8766 (  4872 PWs)   bands (ev):

    -9.1793  -8.8831  -8.4842  -8.4444  -8.1485  -8.1414   2.4551   2.5126
     2.6308   2.6770   3.0213   3.0736   3.3679   3.4064   3.5857   3.6431
     3.7075   3.7611   3.8533   3.9150   3.9531   3.9809   4.3731   4.3930
     4.9634   5.0421   5.1062   5.1528   5.1955   5.2180   5.2956   5.3231
     5.3399   5.3877   5.7130   5.7368   5.8867   5.9350   6.4723   6.5581
     6.8845   6.9393   6.9857   7.0878   7.9245   7.9888   8.0763   8.2055
     8.3007   8.3764   8.5178   8.5647   8.7090   8.7884

     occupation numbers 
     1.0000   1.0000   1.0000   1.0000   1.0000   1.0000   1.0000   1.0000
     1.0000   1.0000   1.0000   1.0000   1.0000   1.0000   1.0000   1.0000
     1.0000   1.0000   1.0000   1.0000   1.0000   1.0000   1.0000   1.0000
     1.0000   1.0000   1.0000   1.0000   1.0000   1.0000   1.0000   1.0000
     1.0000   1.0000   1.0000   1.0000   1.0000   1.0000   1.0000   1.0000
     1.0000   1.0000   1.0000   1.0000   1.0000   1.0000   1.0000   1.0000
     1.0000   1.0000   1.0000   1.0000   1.0000   1.0000

          k = 0.1667-1.6358 0.0000 (  4858 PWs)   bands (ev):

    -9.0970  -8.8002  -8.5091  -8.2175  -8.0838  -8.0691   2.5835   2.7393
     2.8695   2.9688   3.1754   3.2782   3.4603   3.4955   3.5880   3.7089
     3.8510   3.8921   3.9975   4.1379   4.2991   4.3262   4.3647   4.4101
     4.8207   4.8951   5.0091   5.1198   5.1580   5.2481   5.3246   5.4655
     5.4891   5.5950   5.6558   5.6829   5.7963   5.8478   5.9470   6.0826
     6.1744   6.4615   6.6301   6.7546   6.7977   6.9839   7.2729   7.4113
     8.2174   8.3432   8.5328   8.6372   8.9050   9.1113

     occupation numbers 
     1.0000   1.0000   1.0000   1.0000   1.0000   1.0000   1.0000   1.0000
     1.0000   1.0000   1.0000   1.0000   1.0000   1.0000   1.0000   1.0000
     1.0000   1.0000   1.0000   1.0000   1.0000   1.0000   1.0000   1.0000
     1.0000   1.0000   1.0000   1.0000   1.0000   1.0000   1.0000   1.0000
     1.0000   1.0000   1.0000   1.0000   1.0000   1.0000   1.0000   1.0000
     1.0000   1.0000   1.0000   1.0000   1.0000   1.0000   1.0000   1.0000
     1.0000   1.0000   1.0000   1.0000   1.0000   1.0000

          k = 0.1667-1.6358 0.2922 (  4852 PWs)   bands (ev):

    -9.0901  -8.7906  -8.4881  -8.2338  -8.0866  -8.0746   2.5367   2.6749
     2.8085   2.8588   3.1307   3.2308   3.4184   3.4808   3.5955   3.6452
     3.8483   3.9083   3.9843   4.1042   4.2207   4.2795   4.3120   4.3402
     4.8818   4.9957   5.0957   5.1199   5.2303   5.2929   5.3339   5.4516
     5.5012   5.5876   5.6362   5.7173   5.8064   5.8239   5.8779   6.0921
     6.2563   6.5736   6.7571   6.8935   6.9855   7.0707   7.4026   7.5376
     8.2572   8.3236   8.5475   8.6161   8.8144   9.0088

     occupation numbers 
     1.0000   1.0000   1.0000   1.0000   1.0000   1.0000   1.0000   1.0000
     1.0000   1.0000   1.0000   1.0000   1.0000   1.0000   1.0000   1.0000
     1.0000   1.0000   1.0000   1.0000   1.0000   1.0000   1.0000   1.0000
     1.0000   1.0000   1.0000   1.0000   1.0000   1.0000   1.0000   1.0000
     1.0000   1.0000   1.0000   1.0000   1.0000   1.0000   1.0000   1.0000
     1.0000   1.0000   1.0000   1.0000   1.0000   1.0000   1.0000   1.0000
     1.0000   1.0000   1.0000   1.0000   1.0000   1.0000

          k = 0.1667-1.6358 0.5844 (  4869 PWs)   bands (ev):

    -9.0763  -8.7709  -8.4333  -8.2791  -8.0925  -8.0859   2.4394   2.5464
     2.6728   2.6949   3.0262   3.0706   3.3855   3.4784   3.6217   3.6666
     3.8033   3.8870   3.9440   4.0326   4.1355   4.1972   4.2076   4.2809
     5.0116   5.1141   5.1591   5.2026   5.2756   5.3349   5.3734   5.4284
     5.5096   5.5587   5.5861   5.6372   5.8358   5.8999   5.9958   6.0655
     6.2283   6.5455   7.0114   7.3561   7.4418   7.5333   7.7627   7.8660
     8.0998   8.2701   8.4403   8.5499   8.6347   8.7523

     occupation numbers 
     1.0000   1.0000   1.0000   1.0000   1.0000   1.0000   1.0000   1.0000
     1.0000   1.0000   1.0000   1.0000   1.0000   1.0000   1.0000   1.0000
     1.0000   1.0000   1.0000   1.0000   1.0000   1.0000   1.0000   1.0000
     1.0000   1.0000   1.0000   1.0000   1.0000   1.0000   1.0000   1.0000
     1.0000   1.0000   1.0000   1.0000   1.0000   1.0000   1.0000   1.0000
     1.0000   1.0000   1.0000   1.0000   1.0000   1.0000   1.0000   1.0000
     1.0000   1.0000   1.0000   1.0000   1.0000   1.0000

          k = 0.1667-1.6358-0.8766 (  4884 PWs)   bands (ev):

    -9.0693  -8.7606  -8.3821  -8.3257  -8.0958  -8.0916   2.3913   2.4802
     2.6058   2.6289   2.9676   2.9837   3.4257   3.4560   3.6469   3.6997
     3.7873   3.8303   3.9589   3.9729   4.0946   4.1427   4.1879   4.2582
     5.1076   5.1296   5.1928   5.2250   5.3042   5.3517   5.3999   5.4171
     5.4891   5.5118   5.5696   5.5991   5.8715   5.9461   6.0268   6.0675
     6.3126   6.3640   7.3468   7.4809   7.7860   7.8970   7.9860   8.0637
     8.1691   8.2478   8.3023   8.3227   8.4261   8.4898

     occupation numbers 
     1.0000   1.0000   1.0000   1.0000   1.0000   1.0000   1.0000   1.0000
     1.0000   1.0000   1.0000   1.0000   1.0000   1.0000   1.0000   1.0000
     1.0000   1.0000   1.0000   1.0000   1.0000   1.0000   1.0000   1.0000
     1.0000   1.0000   1.0000   1.0000   1.0000   1.0000   1.0000   1.0000
     1.0000   1.0000   1.0000   1.0000   1.0000   1.0000   1.0000   1.0000
     1.0000   1.0000   1.0000   1.0000   1.0000   1.0000   1.0000   1.0000
     1.0000   1.0000   1.0000   1.0000   1.0000   1.0000

          k = 0.1667-0.4811 0.0000 (  4880 PWs)   bands (ev):

    -9.5829  -9.1783  -8.5772  -8.4914  -8.4508  -8.0562   2.6941   2.7728
     2.9290   2.9844   3.0827   3.1353   3.3307   3.4005   3.4950   3.5670
     3.6540   3.8054   3.8372   3.8614   4.0489   4.1299   4.2401   4.3138
     4.7880   4.8203   4.9738   4.9921   5.0542   5.1128   5.2916   5.3384
     5.3926   5.4556   5.5261   5.5902   5.6607   5.8633   5.9153   6.3537
     6.6324   6.9352   7.1862   7.2870   7.6952   8.3916   8.5961   8.7733
     8.8158   8.9623   9.0294   9.1844   9.7150   9.9280

     occupation numbers 
     1.0000   1.0000   1.0000   1.0000   1.0000   1.0000   1.0000   1.0000
     1.0000   1.0000   1.0000   1.0000   1.0000   1.0000   1.0000   1.0000
     1.0000   1.0000   1.0000   1.0000   1.0000   1.0000   1.0000   1.0000
     1.0000   1.0000   1.0000   1.0000   1.0000   1.0000   1.0000   1.0000
     1.0000   1.0000   1.0000   1.0000   1.0000   1.0000   1.0000   1.0000
     1.0000   1.0000   1.0000   1.0000   1.0000   1.0000   1.0000   1.0000
     1.0000   1.0000   1.0000   1.0000   1.0000   1.0000

          k = 0.1667-0.4811 0.2922 (  4873 PWs)   bands (ev):

    -9.5446  -9.1633  -8.5732  -8.5186  -8.4533  -8.0865   2.6699   2.7010
     2.8743   2.9039   2.9941   3.0638   3.3040   3.4040   3.5312   3.5695
     3.6311   3.7637   3.8087   3.8500   3.9719   4.0753   4.1891   4.2539
     4.8307   4.8725   4.9911   5.0869   5.1512   5.1721   5.2837   5.3262
     5.3809   5.4850   5.5148   5.6377   5.8373   5.9805   6.0679   6.5722
     6.7632   7.0380   7.1786   7.2984   7.6769   8.4407   8.5726   8.7273
     8.7919   8.8917   8.9672   9.0563   9.5777   9.8573

     occupation numbers 
     1.0000   1.0000   1.0000   1.0000   1.0000   1.0000   1.0000   1.0000
     1.0000   1.0000   1.0000   1.0000   1.0000   1.0000   1.0000   1.0000
     1.0000   1.0000   1.0000   1.0000   1.0000   1.0000   1.0000   1.0000
     1.0000   1.0000   1.0000   1.0000   1.0000   1.0000   1.0000   1.0000
     1.0000   1.0000   1.0000   1.0000   1.0000   1.0000   1.0000   1.0000
     1.0000   1.0000   1.0000   1.0000   1.0000   1.0000   1.0000   1.0000
     1.0000   1.0000   1.0000   1.0000   1.0000   1.0000

          k = 0.1667-0.4811 0.5844 (  4887 PWs)   bands (ev):

    -9.4547  -9.1377  -8.6049  -8.5822  -8.3955  -8.1700   2.5771   2.6106
     2.7273   2.7658   2.8626   2.9426   3.3134   3.4025   3.5180   3.5526
     3.6594   3.7085   3.7411   3.7804   3.9452   4.0344   4.0991   4.1720
     4.9300   4.9786   5.0761   5.1492   5.1996   5.2092   5.2890   5.3219
     5.3471   5.4401   5.4618   5.5263   6.1692   6.4456   6.6441   6.7533
     7.0594   7.3104   7.3763   7.4306   7.8145   8.2263   8.4109   8.5026
     8.6824   8.7109   8.7702   9.0896   9.3020   9.6612

     occupation numbers 
     1.0000   1.0000   1.0000   1.0000   1.0000   1.0000   1.0000   1.0000
     1.0000   1.0000   1.0000   1.0000   1.0000   1.0000   1.0000   1.0000
     1.0000   1.0000   1.0000   1.0000   1.0000   1.0000   1.0000   1.0000
     1.0000   1.0000   1.0000   1.0000   1.0000   1.0000   1.0000   1.0000
     1.0000   1.0000   1.0000   1.0000   1.0000   1.0000   1.0000   1.0000
     1.0000   1.0000   1.0000   1.0000   1.0000   1.0000   1.0000   1.0000
     1.0000   1.0000   1.0000   1.0000   1.0000   1.0000

          k = 0.1667-0.4811-0.8766 (  4888 PWs)   bands (ev):

    -9.3983  -9.1314  -8.6356  -8.6129  -8.2907  -8.2785   2.5265   2.5653
     2.6604   2.6957   2.8170   2.8951   3.3222   3.4127   3.4922   3.5486
     3.6398   3.6994   3.7237   3.7514   3.9537   4.0186   4.0749   4.1220
     4.9992   5.0259   5.1589   5.1655   5.2074   5.2163   5.2761   5.3194
     5.3276   5.3760   5.4253   5.4669   6.4512   6.4879   6.8224   6.8686
     7.4118   7.5302   7.6292   7.7435   7.9405   7.9691   8.1845   8.2309
     8.4351   8.4761   8.9205   9.0120   9.3314   9.4324

     occupation numbers 
     1.0000   1.0000   1.0000   1.0000   1.0000   1.0000   1.0000   1.0000
     1.0000   1.0000   1.0000   1.0000   1.0000   1.0000   1.0000   1.0000
     1.0000   1.0000   1.0000   1.0000   1.0000   1.0000   1.0000   1.0000
     1.0000   1.0000   1.0000   1.0000   1.0000   1.0000   1.0000   1.0000
     1.0000   1.0000   1.0000   1.0000   1.0000   1.0000   1.0000   1.0000
     1.0000   1.0000   1.0000   1.0000   1.0000   1.0000   1.0000   1.0000
     1.0000   1.0000   1.0000   1.0000   1.0000   1.0000

          k = 0.3333 0.1925 0.0000 (  4893 PWs)   bands (ev):

    -9.6692  -9.3670  -8.6787  -8.5552  -8.4634  -8.0958   2.5871   2.7105
     2.8424   2.9748   3.0547   3.1942   3.2348   3.3720   3.4420   3.5148
     3.5680   3.6966   3.7585   3.8174   3.9697   4.0005   4.1584   4.4254
     4.8212   4.9352   4.9581   5.0282   5.1237   5.2611   5.3202   5.3432
     5.3692   5.3992   5.5007   5.5645   5.6109   5.6786   5.7830   6.0900
     6.9034   7.3533   7.4515   8.2934   8.4100   8.4714   8.6529   9.0154
     9.0682   9.3917   9.4519   9.6474   9.7861   9.9804

     occupation numbers 
     1.0000   1.0000   1.0000   1.0000   1.0000   1.0000   1.0000   1.0000
     1.0000   1.0000   1.0000   1.0000   1.0000   1.0000   1.0000   1.0000
     1.0000   1.0000   1.0000   1.0000   1.0000   1.0000   1.0000   1.0000
     1.0000   1.0000   1.0000   1.0000   1.0000   1.0000   1.0000   1.0000
     1.0000   1.0000   1.0000   1.0000   1.0000   1.0000   1.0000   1.0000
     1.0000   1.0000   1.0000   1.0000   1.0000   1.0000   1.0000   1.0000
     1.0000   1.0000   1.0000   1.0000   1.0000   1.0000

          k = 0.3333 0.1925 0.2922 (  4888 PWs)   bands (ev):

    -9.6318  -9.3321  -8.7066  -8.5882  -8.4499  -8.1283   2.5411   2.6490
     2.7758   2.8850   2.9765   3.1978   3.2135   3.2846   3.4767   3.5162
     3.5761   3.6950   3.7489   3.8408   3.9438   3.9803   4.1287   4.3684
     4.8612   4.9546   5.0121   5.0775   5.1423   5.2519   5.3258   5.3358
     5.3623   5.4278   5.4896   5.5579   5.6797   5.8584   6.0247   6.1837
     7.0256   7.4717   7.5392   8.3472   8.3750   8.4616   8.7052   8.9496
     9.0696   9.1015   9.3508   9.5691   9.6965   9.9203

     occupation numbers 
     1.0000   1.0000   1.0000   1.0000   1.0000   1.0000   1.0000   1.0000
     1.0000   1.0000   1.0000   1.0000   1.0000   1.0000   1.0000   1.0000
     1.0000   1.0000   1.0000   1.0000   1.0000   1.0000   1.0000   1.0000
     1.0000   1.0000   1.0000   1.0000   1.0000   1.0000   1.0000   1.0000
     1.0000   1.0000   1.0000   1.0000   1.0000   1.0000   1.0000   1.0000
     1.0000   1.0000   1.0000   1.0000   1.0000   1.0000   1.0000   1.0000
     1.0000   1.0000   1.0000   1.0000   1.0000   1.0000

          k = 0.3333 0.1925 0.5844 (  4907 PWs)   bands (ev):

    -9.5431  -9.2550  -8.7691  -8.6785  -8.3961  -8.2103   2.4473   2.5607
     2.6324   2.7040   2.9038   3.0432   3.2282   3.3115   3.4588   3.5153
     3.5833   3.6679   3.7448   3.8872   3.9209   3.9684   4.0670   4.2243
     4.9478   4.9908   5.1095   5.1638   5.1808   5.2444   5.2773   5.3143
     5.3575   5.3686   5.4630   5.4784   5.8577   6.1025   6.5484   6.7273
     7.4818   7.6956   7.8155   8.1150   8.2759   8.4265   8.5139   8.8468
     8.8727   8.9653   9.2532   9.3777   9.4885   9.7561

     occupation numbers 
     1.0000   1.0000   1.0000   1.0000   1.0000   1.0000   1.0000   1.0000
     1.0000   1.0000   1.0000   1.0000   1.0000   1.0000   1.0000   1.0000
     1.0000   1.0000   1.0000   1.0000   1.0000   1.0000   1.0000   1.0000
     1.0000   1.0000   1.0000   1.0000   1.0000   1.0000   1.0000   1.0000
     1.0000   1.0000   1.0000   1.0000   1.0000   1.0000   1.0000   1.0000
     1.0000   1.0000   1.0000   1.0000   1.0000   1.0000   1.0000   1.0000
     1.0000   1.0000   1.0000   1.0000   1.0000   1.0000

          k = 0.3333 0.1925-0.8766 (  4894 PWs)   bands (ev):

    -9.4872  -9.2142  -8.7832  -8.7568  -8.3135  -8.3048   2.4033   2.5077
     2.5755   2.6387   2.9052   2.9263   3.2415   3.3539   3.4188   3.5147
     3.5947   3.6414   3.7573   3.8512   3.9829   4.0084   4.0595   4.0669
     5.0091   5.0131   5.1507   5.1815   5.2233   5.2425   5.2595   5.2871
     5.3610   5.3733   5.3864   5.4480   5.9782   6.0237   7.2214   7.3901
     7.5140   7.5619   8.0372   8.0915   8.1459   8.2573   8.3346   8.3850
     9.0073   9.1029   9.1566   9.2527   9.4707   9.5740

     occupation numbers 
     1.0000   1.0000   1.0000   1.0000   1.0000   1.0000   1.0000   1.0000
     1.0000   1.0000   1.0000   1.0000   1.0000   1.0000   1.0000   1.0000
     1.0000   1.0000   1.0000   1.0000   1.0000   1.0000   1.0000   1.0000
     1.0000   1.0000   1.0000   1.0000   1.0000   1.0000   1.0000   1.0000
     1.0000   1.0000   1.0000   1.0000   1.0000   1.0000   1.0000   1.0000
     1.0000   1.0000   1.0000   1.0000   1.0000   1.0000   1.0000   1.0000
     1.0000   1.0000   1.0000   1.0000   1.0000   1.0000

          k = 0.3333 1.3472 0.0000 (  4864 PWs)   bands (ev):

    -9.2632  -8.9636  -8.4975  -8.3221  -8.2454  -8.0187   2.6361   2.7580
     2.9783   3.0456   3.1838   3.3167   3.3659   3.4765   3.5935   3.6140
     3.7694   3.8971   3.9504   4.0726   4.1333   4.2163   4.3234   4.4348
     4.8205   4.8653   4.9534   5.0278   5.1168   5.1890   5.3223   5.3828
     5.4075   5.4254   5.4986   5.6195   5.7424   5.8009   5.9742   6.1565
     6.2379   6.4875   6.9376   7.0566   7.1916   7.3097   7.7013   8.0667
     8.1300   8.4474   8.6316   9.0044   9.2324   9.3895

     occupation numbers 
     1.0000   1.0000   1.0000   1.0000   1.0000   1.0000   1.0000   1.0000
     1.0000   1.0000   1.0000   1.0000   1.0000   1.0000   1.0000   1.0000
     1.0000   1.0000   1.0000   1.0000   1.0000   1.0000   1.0000   1.0000
     1.0000   1.0000   1.0000   1.0000   1.0000   1.0000   1.0000   1.0000
     1.0000   1.0000   1.0000   1.0000   1.0000   1.0000   1.0000   1.0000
     1.0000   1.0000   1.0000   1.0000   1.0000   1.0000   1.0000   1.0000
     1.0000   1.0000   1.0000   1.0000   1.0000   1.0000

          k = 0.3333 1.3472 0.2922 (  4866 PWs)   bands (ev):

    -9.2438  -8.9490  -8.4909  -8.3430  -8.2384  -8.0379   2.6066   2.7056
     2.8709   2.9948   3.0898   3.2231   3.3741   3.4267   3.5723   3.6167
     3.7683   3.8284   3.9345   4.0400   4.1006   4.1636   4.3061   4.3649
     4.8711   4.9119   5.0181   5.0864   5.1720   5.2182   5.3244   5.3560
     5.4402   5.4615   5.5325   5.6018   5.8251   5.9122   6.0419   6.3081
     6.3839   6.4913   7.0110   7.1560   7.2493   7.4549   7.7277   8.0491
     8.1300   8.4112   8.6356   8.9158   9.1670   9.2929

     occupation numbers 
     1.0000   1.0000   1.0000   1.0000   1.0000   1.0000   1.0000   1.0000
     1.0000   1.0000   1.0000   1.0000   1.0000   1.0000   1.0000   1.0000
     1.0000   1.0000   1.0000   1.0000   1.0000   1.0000   1.0000   1.0000
     1.0000   1.0000   1.0000   1.0000   1.0000   1.0000   1.0000   1.0000
     1.0000   1.0000   1.0000   1.0000   1.0000   1.0000   1.0000   1.0000
     1.0000   1.0000   1.0000   1.0000   1.0000   1.0000   1.0000   1.0000
     1.0000   1.0000   1.0000   1.0000   1.0000   1.0000

          k = 0.3333 1.3472 0.5844 (  4865 PWs)   bands (ev):

    -9.2028  -8.9122  -8.4803  -8.3982  -8.2069  -8.0874   2.5296   2.5904
     2.7171   2.8013   2.9875   3.0432   3.3911   3.4416   3.5653   3.6180
     3.6948   3.7814   3.8365   3.9734   4.0370   4.0952   4.2827   4.3018
     4.9563   5.0014   5.1176   5.1578   5.2056   5.2469   5.3181   5.3441
     5.4169   5.4818   5.5433   5.6875   5.8125   6.0752   6.2396   6.4813
     6.6384   6.8236   7.2268   7.4185   7.5395   7.6875   7.7716   7.9822
     8.2545   8.4175   8.5198   8.6713   8.8724   9.0360

     occupation numbers 
     1.0000   1.0000   1.0000   1.0000   1.0000   1.0000   1.0000   1.0000
     1.0000   1.0000   1.0000   1.0000   1.0000   1.0000   1.0000   1.0000
     1.0000   1.0000   1.0000   1.0000   1.0000   1.0000   1.0000   1.0000
     1.0000   1.0000   1.0000   1.0000   1.0000   1.0000   1.0000   1.0000
     1.0000   1.0000   1.0000   1.0000   1.0000   1.0000   1.0000   1.0000
     1.0000   1.0000   1.0000   1.0000   1.0000   1.0000   1.0000   1.0000
     1.0000   1.0000   1.0000   1.0000   1.0000   1.0000

          k = 0.3333 1.3472-0.8766 (  4872 PWs)   bands (ev):

    -9.1813  -8.8883  -8.4728  -8.4374  -8.1531  -8.1475   2.4772   2.5379
     2.6654   2.6972   2.9256   2.9799   3.4205   3.4398   3.5786   3.6335
     3.6570   3.7316   3.8514   3.9171   4.0007   4.0402   4.2652   4.2955
     5.0036   5.0654   5.1585   5.1955   5.2066   5.2259   5.3113   5.3473
     5.3881   5.4270   5.6166   5.6379   5.9862   6.0330   6.2984   6.3757
     7.0595   7.1124   7.2234   7.3259   7.8466   7.9016   8.0600   8.1373
     8.2820   8.3166   8.3771   8.4292   8.6684   8.7360

     occupation numbers 
     1.0000   1.0000   1.0000   1.0000   1.0000   1.0000   1.0000   1.0000
     1.0000   1.0000   1.0000   1.0000   1.0000   1.0000   1.0000   1.0000
     1.0000   1.0000   1.0000   1.0000   1.0000   1.0000   1.0000   1.0000
     1.0000   1.0000   1.0000   1.0000   1.0000   1.0000   1.0000   1.0000
     1.0000   1.0000   1.0000   1.0000   1.0000   1.0000   1.0000   1.0000
     1.0000   1.0000   1.0000   1.0000   1.0000   1.0000   1.0000   1.0000
     1.0000   1.0000   1.0000   1.0000   1.0000   1.0000

          k =-0.5000-0.2887 0.0000 (  4908 PWs)   bands (ev):

    -9.6388  -9.4095  -8.6753  -8.5702  -8.4360  -8.0989   2.6229   2.7774
     2.8023   2.9866   3.0683   3.1632   3.2126   3.3392   3.4617   3.4976
     3.5422   3.6645   3.7643   3.8175   3.9284   4.0157   4.1480   4.4539
     4.8438   4.9242   4.9454   5.0398   5.1175   5.2632   5.3335   5.3597
     5.3740   5.4193   5.5032   5.5134   5.5770   5.7047   5.9156   6.0278
     6.7729   7.2916   7.9689   8.0615   8.2935   8.5453   8.8544   8.9296
     9.0242   9.0902   9.5287   9.7297   9.7410   9.9210

     occupation numbers 
     1.0000   1.0000   1.0000   1.0000   1.0000   1.0000   1.0000   1.0000
     1.0000   1.0000   1.0000   1.0000   1.0000   1.0000   1.0000   1.0000
     1.0000   1.0000   1.0000   1.0000   1.0000   1.0000   1.0000   1.0000
     1.0000   1.0000   1.0000   1.0000   1.0000   1.0000   1.0000   1.0000
     1.0000   1.0000   1.0000   1.0000   1.0000   1.0000   1.0000   1.0000
     1.0000   1.0000   1.0000   1.0000   1.0000   1.0000   1.0000   1.0000
     1.0000   1.0000   1.0000   1.0000   1.0000   1.0000

          k =-0.5000-0.2887 0.2922 (  4880 PWs)   bands (ev):

    -9.6048  -9.3688  -8.7006  -8.6079  -8.4253  -8.1288   2.5667   2.6934
     2.7417   2.8722   3.0344   3.1380   3.2164   3.2966   3.4319   3.5210
     3.5729   3.6615   3.7495   3.8422   3.9104   4.0035   4.1198   4.3936
     4.8794   4.9514   5.0027   5.0978   5.1345   5.2572   5.3222   5.3421
     5.3749   5.4210   5.4910   5.5085   5.7789   5.8732   6.0278   6.0362
     7.0010   7.4225   8.0327   8.1358   8.3480   8.5894   8.7398   8.8191
     8.9569   9.0042   9.4866   9.5199   9.6715   9.8570

     occupation numbers 
     1.0000   1.0000   1.0000   1.0000   1.0000   1.0000   1.0000   1.0000
     1.0000   1.0000   1.0000   1.0000   1.0000   1.0000   1.0000   1.0000
     1.0000   1.0000   1.0000   1.0000   1.0000   1.0000   1.0000   1.0000
     1.0000   1.0000   1.0000   1.0000   1.0000   1.0000   1.0000   1.0000
     1.0000   1.0000   1.0000   1.0000   1.0000   1.0000   1.0000   1.0000
     1.0000   1.0000   1.0000   1.0000   1.0000   1.0000   1.0000   1.0000
     1.0000   1.0000   1.0000   1.0000   1.0000   1.0000

          k =-0.5000-0.2887 0.5844 (  4914 PWs)   bands (ev):

    -9.5273  -9.2690  -8.7663  -8.7076  -8.3771  -8.2041   2.4560   2.5666
     2.6241   2.7106   2.9616   3.0010   3.2327   3.3216   3.4133   3.5305
     3.5880   3.6352   3.7259   3.8645   3.9248   3.9958   4.0672   4.2418
     4.9583   4.9899   5.1084   5.1662   5.1932   5.2470   5.2971   5.3154
     5.3621   5.3799   5.4673   5.4838   5.8438   5.9143   6.5498   6.7245
     7.5249   7.7490   8.0829   8.1665   8.3065   8.3943   8.5234   8.6257
     8.9449   9.0579   9.1657   9.2525   9.4834   9.6832

     occupation numbers 
     1.0000   1.0000   1.0000   1.0000   1.0000   1.0000   1.0000   1.0000
     1.0000   1.0000   1.0000   1.0000   1.0000   1.0000   1.0000   1.0000
     1.0000   1.0000   1.0000   1.0000   1.0000   1.0000   1.0000   1.0000
     1.0000   1.0000   1.0000   1.0000   1.0000   1.0000   1.0000   1.0000
     1.0000   1.0000   1.0000   1.0000   1.0000   1.0000   1.0000   1.0000
     1.0000   1.0000   1.0000   1.0000   1.0000   1.0000   1.0000   1.0000
     1.0000   1.0000   1.0000   1.0000   1.0000   1.0000

          k =-0.5000-0.2887-0.8766 (  4864 PWs)   bands (ev):

    -9.4815  -9.2013  -8.8083  -8.7764  -8.3000  -8.2914   2.4035   2.5097
     2.5768   2.6462   2.9166   2.9400   3.2442   3.3404   3.4110   3.5309
     3.5795   3.6198   3.7214   3.8390   3.9985   4.0269   4.0695   4.0759
     5.0103   5.0172   5.1503   5.1786   5.2263   5.2548   5.2619   5.2868
     5.3793   5.4063   5.4222   5.4557   5.8331   5.9002   7.2504   7.4573
     7.5717   7.5768   8.0452   8.0902   8.1211   8.2345   8.5499   8.6590
     8.8469   8.9431   9.1273   9.2326   9.4035   9.4922

     occupation numbers 
     1.0000   1.0000   1.0000   1.0000   1.0000   1.0000   1.0000   1.0000
     1.0000   1.0000   1.0000   1.0000   1.0000   1.0000   1.0000   1.0000
     1.0000   1.0000   1.0000   1.0000   1.0000   1.0000   1.0000   1.0000
     1.0000   1.0000   1.0000   1.0000   1.0000   1.0000   1.0000   1.0000
     1.0000   1.0000   1.0000   1.0000   1.0000   1.0000   1.0000   1.0000
     1.0000   1.0000   1.0000   1.0000   1.0000   1.0000   1.0000   1.0000
     1.0000   1.0000   1.0000   1.0000   1.0000   1.0000

          k =-0.5000 0.8660 0.0000 (  4857 PWs)   bands (ev):

    -9.2687  -8.9561  -8.4946  -8.3148  -8.2607  -8.0155   2.6738   2.8048
     2.9591   3.0088   3.2102   3.2697   3.3148   3.4728   3.5799   3.6220
     3.7244   3.9049   3.9566   4.0510   4.1382   4.2320   4.3323   4.3946
     4.8381   4.8570   4.9636   5.0308   5.1064   5.1851   5.3270   5.4014
     5.4376   5.5142   5.5586   5.6710   5.7173   5.7773   5.8841   6.2820
     6.3269   6.6449   6.7924   7.0426   7.0837   7.1763   7.5663   8.1435
     8.3655   8.3928   8.6983   8.7830   9.2707   9.3517

     occupation numbers 
     1.0000   1.0000   1.0000   1.0000   1.0000   1.0000   1.0000   1.0000
     1.0000   1.0000   1.0000   1.0000   1.0000   1.0000   1.0000   1.0000
     1.0000   1.0000   1.0000   1.0000   1.0000   1.0000   1.0000   1.0000
     1.0000   1.0000   1.0000   1.0000   1.0000   1.0000   1.0000   1.0000
     1.0000   1.0000   1.0000   1.0000   1.0000   1.0000   1.0000   1.0000
     1.0000   1.0000   1.0000   1.0000   1.0000   1.0000   1.0000   1.0000
     1.0000   1.0000   1.0000   1.0000   1.0000   1.0000

          k =-0.5000 0.8660 0.2922 (  4871 PWs)   bands (ev):

    -9.2485  -8.9431  -8.4875  -8.3382  -8.2500  -8.0352   2.6343   2.7420
     2.9049   2.9423   3.0595   3.1879   3.3798   3.4167   3.5351   3.6093
     3.7539   3.8575   3.9113   4.0419   4.1147   4.1812   4.2850   4.3250
     4.8839   4.8974   5.0223   5.1030   5.1784   5.2167   5.3288   5.3833
     5.4429   5.5052   5.6450   5.6920   5.7361   5.7875   6.0358   6.3915
     6.4583   6.7061   6.8717   7.1576   7.1991   7.2838   7.6090   8.1118
     8.3638   8.4032   8.6275   8.7133   9.1962   9.2542

     occupation numbers 
     1.0000   1.0000   1.0000   1.0000   1.0000   1.0000   1.0000   1.0000
     1.0000   1.0000   1.0000   1.0000   1.0000   1.0000   1.0000   1.0000
     1.0000   1.0000   1.0000   1.0000   1.0000   1.0000   1.0000   1.0000
     1.0000   1.0000   1.0000   1.0000   1.0000   1.0000   1.0000   1.0000
     1.0000   1.0000   1.0000   1.0000   1.0000   1.0000   1.0000   1.0000
     1.0000   1.0000   1.0000   1.0000   1.0000   1.0000   1.0000   1.0000
     1.0000   1.0000   1.0000   1.0000   1.0000   1.0000

          k =-0.5000 0.8660 0.5844 (  4872 PWs)   bands (ev):

    -9.2054  -8.9112  -8.4758  -8.3949  -8.2136  -8.0868   2.5446   2.6089
     2.7610   2.7934   2.9326   3.0006   3.4132   3.4268   3.5423   3.6043
     3.7134   3.7954   3.8105   3.9779   4.0712   4.1385   4.1995   4.2618
     4.9675   4.9949   5.1213   5.1827   5.2277   5.2505   5.3240   5.3674
     5.4402   5.4891   5.5776   5.6430   5.8918   5.9328   6.3345   6.3901
     6.6613   7.0912   7.2194   7.4316   7.5183   7.6087   7.6807   8.1249
     8.2013   8.3215   8.5169   8.5845   8.8864   8.9961

     occupation numbers 
     1.0000   1.0000   1.0000   1.0000   1.0000   1.0000   1.0000   1.0000
     1.0000   1.0000   1.0000   1.0000   1.0000   1.0000   1.0000   1.0000
     1.0000   1.0000   1.0000   1.0000   1.0000   1.0000   1.0000   1.0000
     1.0000   1.0000   1.0000   1.0000   1.0000   1.0000   1.0000   1.0000
     1.0000   1.0000   1.0000   1.0000   1.0000   1.0000   1.0000   1.0000
     1.0000   1.0000   1.0000   1.0000   1.0000   1.0000   1.0000   1.0000
     1.0000   1.0000   1.0000   1.0000   1.0000   1.0000

          k =-0.5000 0.8660-0.8766 (  4872 PWs)   bands (ev):

    -9.1824  -8.8907  -8.4677  -8.4333  -8.1560  -8.1501   2.4979   2.5416
     2.6763   2.7313   2.8792   2.9253   3.4272   3.4438   3.5914   3.6078
     3.6793   3.7053   3.8574   3.9102   4.0287   4.0988   4.1764   4.2487
     5.0116   5.0730   5.1836   5.1983   5.2202   5.2453   5.3101   5.3576
     5.4508   5.4944   5.5223   5.5690   6.0830   6.1286   6.1870   6.2394
     7.1282   7.1884   7.4910   7.5995   7.6383   7.7096   8.0403   8.1011
     8.2056   8.2882   8.3576   8.4100   8.6494   8.7010

     occupation numbers 
     1.0000   1.0000   1.0000   1.0000   1.0000   1.0000   1.0000   1.0000
     1.0000   1.0000   1.0000   1.0000   1.0000   1.0000   1.0000   1.0000
     1.0000   1.0000   1.0000   1.0000   1.0000   1.0000   1.0000   1.0000
     1.0000   1.0000   1.0000   1.0000   1.0000   1.0000   1.0000   1.0000
     1.0000   1.0000   1.0000   1.0000   1.0000   1.0000   1.0000   1.0000
     1.0000   1.0000   1.0000   1.0000   1.0000   1.0000   1.0000   1.0000
     1.0000   1.0000   1.0000   1.0000   1.0000   1.0000

          k = 0.5000-0.2887 0.0000 (  4880 PWs)   bands (ev):

    -9.5559  -9.2212  -8.5992  -8.4877  -8.4106  -8.0619   2.7181   2.7856
     2.9249   3.0046   3.0801   3.1490   3.3189   3.4102   3.5241   3.5330
     3.6872   3.7633   3.8100   3.8787   3.9690   4.0473   4.2506   4.4180
     4.7925   4.8834   4.9617   5.0119   5.0623   5.1041   5.2833   5.3398
     5.3839   5.4208   5.5244   5.5536   5.6611   5.7733   5.8496   6.3393
     6.6672   7.0017   7.0946   7.5325   8.0273   8.2487   8.3104   8.6651
     8.7630   8.9161   9.1980   9.3395   9.6672   9.8767

     occupation numbers 
     1.0000   1.0000   1.0000   1.0000   1.0000   1.0000   1.0000   1.0000
     1.0000   1.0000   1.0000   1.0000   1.0000   1.0000   1.0000   1.0000
     1.0000   1.0000   1.0000   1.0000   1.0000   1.0000   1.0000   1.0000
     1.0000   1.0000   1.0000   1.0000   1.0000   1.0000   1.0000   1.0000
     1.0000   1.0000   1.0000   1.0000   1.0000   1.0000   1.0000   1.0000
     1.0000   1.0000   1.0000   1.0000   1.0000   1.0000   1.0000   1.0000
     1.0000   1.0000   1.0000   1.0000   1.0000   1.0000

          k = 0.0000-0.5774 0.2922 (  4884 PWs)   bands (ev):

    -9.5203  -9.1977  -8.6028  -8.5236  -8.4056  -8.0891   2.6911   2.7093
     2.8693   2.9062   3.0056   3.0620   3.3168   3.4203   3.5053   3.5630
     3.6592   3.7597   3.7809   3.8413   3.9363   4.0158   4.2084   4.3387
     4.8617   4.8816   4.9863   5.0796   5.1400   5.1675   5.2760   5.3218
     5.3943   5.4652   5.5038   5.6469   5.7472   5.9018   6.0575   6.4543
     6.7447   7.1277   7.1753   7.5682   8.0496   8.2428   8.3092   8.5890
     8.7659   8.8520   9.1311   9.2138   9.5194   9.8202

     occupation numbers 
     1.0000   1.0000   1.0000   1.0000   1.0000   1.0000   1.0000   1.0000
     1.0000   1.0000   1.0000   1.0000   1.0000   1.0000   1.0000   1.0000
     1.0000   1.0000   1.0000   1.0000   1.0000   1.0000   1.0000   1.0000
     1.0000   1.0000   1.0000   1.0000   1.0000   1.0000   1.0000   1.0000
     1.0000   1.0000   1.0000   1.0000   1.0000   1.0000   1.0000   1.0000
     1.0000   1.0000   1.0000   1.0000   1.0000   1.0000   1.0000   1.0000
     1.0000   1.0000   1.0000   1.0000   1.0000   1.0000

          k = 0.5000-0.2887-0.2922 (  4884 PWs)   bands (ev):

    -9.5206  -9.1993  -8.6048  -8.5188  -8.4050  -8.0905   2.6879   2.7023
     2.8899   2.9223   2.9766   3.0836   3.3527   3.3926   3.4947   3.5159
     3.6685   3.7346   3.7746   3.8352   3.9791   4.0336   4.2180   4.3617
     4.8485   4.8873   5.0053   5.0783   5.1183   5.1638   5.2687   5.3326
     5.3773   5.4403   5.4965   5.6485   5.7463   5.9096   6.0528   6.4517
     6.7458   7.1085   7.2145   7.5592   8.0259   8.2755   8.3456   8.5711
     8.7443   8.8458   9.1259   9.2262   9.5410   9.8046

     occupation numbers 
     1.0000   1.0000   1.0000   1.0000   1.0000   1.0000   1.0000   1.0000
     1.0000   1.0000   1.0000   1.0000   1.0000   1.0000   1.0000   1.0000
     1.0000   1.0000   1.0000   1.0000   1.0000   1.0000   1.0000   1.0000
     1.0000   1.0000   1.0000   1.0000   1.0000   1.0000   1.0000   1.0000
     1.0000   1.0000   1.0000   1.0000   1.0000   1.0000   1.0000   1.0000
     1.0000   1.0000   1.0000   1.0000   1.0000   1.0000   1.0000   1.0000
     1.0000   1.0000   1.0000   1.0000   1.0000   1.0000

          k =-0.5000 0.2887-0.2922 (  4884 PWs)   bands (ev):

    -9.5214  -9.1944  -8.6180  -8.5155  -8.3981  -8.0917   2.6829   2.7313
     2.8242   2.9410   3.0123   3.0692   3.2831   3.4121   3.5181   3.5718
     3.6622   3.7469   3.8006   3.8404   3.9297   4.0043   4.2191   4.3387
     4.8328   4.9051   5.0013   5.0913   5.1348   5.1842   5.2801   5.3155
     5.3840   5.4386   5.5250   5.6232   5.7374   5.9122   6.0698   6.4543
     6.7445   7.1114   7.1924   7.5605   8.0133   8.2770   8.3284   8.6096
     8.7431   8.8315   9.1412   9.2204   9.5231   9.8063

     occupation numbers 
     1.0000   1.0000   1.0000   1.0000   1.0000   1.0000   1.0000   1.0000
     1.0000   1.0000   1.0000   1.0000   1.0000   1.0000   1.0000   1.0000
     1.0000   1.0000   1.0000   1.0000   1.0000   1.0000   1.0000   1.0000
     1.0000   1.0000   1.0000   1.0000   1.0000   1.0000   1.0000   1.0000
     1.0000   1.0000   1.0000   1.0000   1.0000   1.0000   1.0000   1.0000
     1.0000   1.0000   1.0000   1.0000   1.0000   1.0000   1.0000   1.0000
     1.0000   1.0000   1.0000   1.0000   1.0000   1.0000

          k = 0.0000-0.5774 0.5844 (  4891 PWs)   bands (ev):

    -9.4393  -9.1463  -8.6354  -8.6032  -8.3565  -8.1640   2.5775   2.6175
     2.7419   2.7695   2.8559   2.9368   3.3373   3.4197   3.4893   3.5558
     3.6662   3.7009   3.7417   3.7919   3.8974   3.9804   4.1504   4.2441
     4.9464   4.9780   5.0764   5.1385   5.1919   5.2020   5.2712   5.3019
     5.3534   5.4064   5.4944   5.6162   5.8889   6.3354   6.5857   6.7296
     7.1262   7.3843   7.5110   7.5731   8.0240   8.2069   8.2614   8.4394
     8.5571   8.8281   8.9328   9.0589   9.1879   9.6236

     occupation numbers 
     1.0000   1.0000   1.0000   1.0000   1.0000   1.0000   1.0000   1.0000
     1.0000   1.0000   1.0000   1.0000   1.0000   1.0000   1.0000   1.0000
     1.0000   1.0000   1.0000   1.0000   1.0000   1.0000   1.0000   1.0000
     1.0000   1.0000   1.0000   1.0000   1.0000   1.0000   1.0000   1.0000
     1.0000   1.0000   1.0000   1.0000   1.0000   1.0000   1.0000   1.0000
     1.0000   1.0000   1.0000   1.0000   1.0000   1.0000   1.0000   1.0000
     1.0000   1.0000   1.0000   1.0000   1.0000   1.0000

          k = 0.5000-0.2887-0.5844 (  4891 PWs)   bands (ev):

    -9.4397  -9.1483  -8.6370  -8.5981  -8.3557  -8.1655   2.5732   2.6213
     2.7465   2.7800   2.8370   2.9561   3.3452   3.4363   3.4746   3.5134
     3.6392   3.7024   3.7430   3.7841   3.9418   3.9723   4.1764   4.2546
     4.9517   4.9676   5.0821   5.1480   5.1795   5.2000   5.2583   5.3131
     5.3477   5.3980   5.4853   5.6141   5.8889   6.3481   6.5661   6.7006
     7.1302   7.3837   7.5185   7.5918   8.0219   8.2280   8.2700   8.4443
     8.5385   8.8420   8.9068   9.0538   9.2232   9.6062

     occupation numbers 
     1.0000   1.0000   1.0000   1.0000   1.0000   1.0000   1.0000   1.0000
     1.0000   1.0000   1.0000   1.0000   1.0000   1.0000   1.0000   1.0000
     1.0000   1.0000   1.0000   1.0000   1.0000   1.0000   1.0000   1.0000
     1.0000   1.0000   1.0000   1.0000   1.0000   1.0000   1.0000   1.0000
     1.0000   1.0000   1.0000   1.0000   1.0000   1.0000   1.0000   1.0000
     1.0000   1.0000   1.0000   1.0000   1.0000   1.0000   1.0000   1.0000
     1.0000   1.0000   1.0000   1.0000   1.0000   1.0000

          k =-0.5000 0.2887-0.5844 (  4891 PWs)   bands (ev):

    -9.4410  -9.1410  -8.6592  -8.5873  -8.3473  -8.1688   2.5858   2.6293
     2.7019   2.7809   2.8625   2.9436   3.3097   3.4241   3.5005   3.5873
     3.6194   3.7063   3.7660   3.7997   3.8912   3.9528   4.1753   4.2411
     4.9343   4.9747   5.0858   5.1546   5.1877   5.2232   5.2586   5.2938
     5.3553   5.4000   5.4913   5.6090   5.8921   6.3399   6.5786   6.7336
     7.1170   7.4206   7.4946   7.5627   8.0184   8.1880   8.2623   8.4833
     8.5504   8.8304   8.9204   9.0385   9.2158   9.6109

     occupation numbers 
     1.0000   1.0000   1.0000   1.0000   1.0000   1.0000   1.0000   1.0000
     1.0000   1.0000   1.0000   1.0000   1.0000   1.0000   1.0000   1.0000
     1.0000   1.0000   1.0000   1.0000   1.0000   1.0000   1.0000   1.0000
     1.0000   1.0000   1.0000   1.0000   1.0000   1.0000   1.0000   1.0000
     1.0000   1.0000   1.0000   1.0000   1.0000   1.0000   1.0000   1.0000
     1.0000   1.0000   1.0000   1.0000   1.0000   1.0000   1.0000   1.0000
     1.0000   1.0000   1.0000   1.0000   1.0000   1.0000

          k = 0.5000-0.2887 0.8766 (  4870 PWs)   bands (ev):

    -9.3917  -9.1175  -8.6664  -8.6438  -8.2685  -8.2593   2.5236   2.5844
     2.6735   2.6955   2.7916   2.8938   3.3391   3.4551   3.4793   3.5401
     3.6234   3.6856   3.7461   3.7730   3.8940   3.9337   4.1673   4.1958
     5.0091   5.0196   5.1451   5.1634   5.1995   5.2041   5.2722   5.2885
     5.3208   5.3447   5.5023   5.5364   6.1324   6.1628   7.0886   7.1555
     7.3914   7.5105   7.5505   7.6324   8.0511   8.0861   8.2151   8.2547
     8.5369   8.6076   8.8260   8.9162   9.2643   9.3869

     occupation numbers 
     1.0000   1.0000   1.0000   1.0000   1.0000   1.0000   1.0000   1.0000
     1.0000   1.0000   1.0000   1.0000   1.0000   1.0000   1.0000   1.0000
     1.0000   1.0000   1.0000   1.0000   1.0000   1.0000   1.0000   1.0000
     1.0000   1.0000   1.0000   1.0000   1.0000   1.0000   1.0000   1.0000
     1.0000   1.0000   1.0000   1.0000   1.0000   1.0000   1.0000   1.0000
     1.0000   1.0000   1.0000   1.0000   1.0000   1.0000   1.0000   1.0000
     1.0000   1.0000   1.0000   1.0000   1.0000   1.0000

          k = 0.0000-1.1547 0.2922 (  4867 PWs)   bands (ev):

    -9.2292  -8.9622  -8.5037  -8.3588  -8.2040  -8.0458   2.5318   2.6316
     2.9009   2.9650   3.1245   3.3272   3.3939   3.5748   3.6160   3.6981
     3.7887   3.8151   3.9030   4.0074   4.0658   4.1147   4.4251   4.4610
     4.8463   4.9030   4.9457   5.0513   5.1497   5.2128   5.2627   5.2981
     5.3409   5.3631   5.4758   5.4902   5.9465   6.0127   6.0830   6.2021
     6.2291   6.5084   6.5369   7.5491   7.5689   7.7385   7.7854   7.8804
     8.0236   8.0883   8.8470   9.0299   9.2357   9.3653

     occupation numbers 
     1.0000   1.0000   1.0000   1.0000   1.0000   1.0000   1.0000   1.0000
     1.0000   1.0000   1.0000   1.0000   1.0000   1.0000   1.0000   1.0000
     1.0000   1.0000   1.0000   1.0000   1.0000   1.0000   1.0000   1.0000
     1.0000   1.0000   1.0000   1.0000   1.0000   1.0000   1.0000   1.0000
     1.0000   1.0000   1.0000   1.0000   1.0000   1.0000   1.0000   1.0000
     1.0000   1.0000   1.0000   1.0000   1.0000   1.0000   1.0000   1.0000
     1.0000   1.0000   1.0000   1.0000   1.0000   1.0000

          k = 0.0000-1.1547 0.5844 (  4890 PWs)   bands (ev):

    -9.1958  -8.9089  -8.5004  -8.4107  -8.1826  -8.0903   2.4705   2.5494
     2.6956   2.7662   3.1156   3.1968   3.2844   3.4972   3.5958   3.6377
     3.7389   3.7913   3.8759   3.9329   3.9720   4.0071   4.4215   4.4535
     4.9019   4.9893   5.0292   5.0802   5.1817   5.2522   5.2818   5.3029
     5.3832   5.4237   5.5613   5.6007   5.9873   6.0418   6.3558   6.4552
     6.5217   6.7612   6.8136   7.4000   7.5455   7.6141   8.0231   8.1375
     8.2809   8.3572   8.6315   8.7819   9.0015   9.1078

     occupation numbers 
     1.0000   1.0000   1.0000   1.0000   1.0000   1.0000   1.0000   1.0000
     1.0000   1.0000   1.0000   1.0000   1.0000   1.0000   1.0000   1.0000
     1.0000   1.0000   1.0000   1.0000   1.0000   1.0000   1.0000   1.0000
     1.0000   1.0000   1.0000   1.0000   1.0000   1.0000   1.0000   1.0000
     1.0000   1.0000   1.0000   1.0000   1.0000   1.0000   1.0000   1.0000
     1.0000   1.0000   1.0000   1.0000   1.0000   1.0000   1.0000   1.0000
     1.0000   1.0000   1.0000   1.0000   1.0000   1.0000

          k =-1.5000 0.8660 0.0000 (  4862 PWs)   bands (ev):

    -9.0970  -8.8001  -8.5092  -8.2176  -8.0837  -8.0692   2.5920   2.7512
     2.8203   3.0140   3.1319   3.3706   3.4168   3.4771   3.5633   3.7593
     3.7761   3.9532   3.9952   4.1228   4.2880   4.3391   4.3633   4.3901
     4.8738   4.9237   4.9918   5.0809   5.1342   5.2373   5.3507   5.4619
     5.5002   5.5789   5.6448   5.7101   5.7936   5.9039   5.9396   5.9892
     6.2685   6.3616   6.6652   6.7541   6.7893   7.1103   7.1405   7.4465
     8.2447   8.2841   8.5174   8.7579   8.8077   9.1299

     occupation numbers 
     1.0000   1.0000   1.0000   1.0000   1.0000   1.0000   1.0000   1.0000
     1.0000   1.0000   1.0000   1.0000   1.0000   1.0000   1.0000   1.0000
     1.0000   1.0000   1.0000   1.0000   1.0000   1.0000   1.0000   1.0000
     1.0000   1.0000   1.0000   1.0000   1.0000   1.0000   1.0000   1.0000
     1.0000   1.0000   1.0000   1.0000   1.0000   1.0000   1.0000   1.0000
     1.0000   1.0000   1.0000   1.0000   1.0000   1.0000   1.0000   1.0000
     1.0000   1.0000   1.0000   1.0000   1.0000   1.0000

          k =-1.5000 0.8660-0.2922 (  4854 PWs)   bands (ev):

    -9.0901  -8.7905  -8.4883  -8.2338  -8.0863  -8.0747   2.5457   2.6826
     2.7488   2.9320   3.0785   3.2695   3.4126   3.4378   3.5910   3.7258
     3.7780   3.9496   3.9937   4.0736   4.2366   4.2834   4.3004   4.3278
     4.9254   4.9783   5.0518   5.1553   5.2182   5.2811   5.3567   5.4506
     5.5012   5.5722   5.6560   5.7224   5.7884   5.8284   5.9239   5.9779
     6.4287   6.4660   6.7622   6.8257   6.9801   7.2330   7.2803   7.5740
     8.2449   8.3231   8.5473   8.6597   8.7587   9.0282

     occupation numbers 
     1.0000   1.0000   1.0000   1.0000   1.0000   1.0000   1.0000   1.0000
     1.0000   1.0000   1.0000   1.0000   1.0000   1.0000   1.0000   1.0000
     1.0000   1.0000   1.0000   1.0000   1.0000   1.0000   1.0000   1.0000
     1.0000   1.0000   1.0000   1.0000   1.0000   1.0000   1.0000   1.0000
     1.0000   1.0000   1.0000   1.0000   1.0000   1.0000   1.0000   1.0000
     1.0000   1.0000   1.0000   1.0000   1.0000   1.0000   1.0000   1.0000
     1.0000   1.0000   1.0000   1.0000   1.0000   1.0000

          k =-1.5000 0.8660-0.5844 (  4876 PWs)   bands (ev):

    -9.0763  -8.7708  -8.4335  -8.2791  -8.0921  -8.0862   2.4464   2.5402
     2.6271   2.7726   2.9828   3.0611   3.4180   3.4453   3.6263   3.7179
     3.7638   3.8947   3.9784   4.0212   4.1237   4.1812   4.2197   4.2640
     5.0306   5.0848   5.1452   5.2470   5.2621   5.3345   5.3815   5.4437
     5.4971   5.5517   5.5892   5.6319   5.8403   5.9138   5.9542   6.0261
     6.3676   6.4495   7.1160   7.1773   7.5194   7.6049   7.7043   7.8887
     8.0906   8.2318   8.4489   8.5497   8.6479   8.7566

     occupation numbers 
     1.0000   1.0000   1.0000   1.0000   1.0000   1.0000   1.0000   1.0000
     1.0000   1.0000   1.0000   1.0000   1.0000   1.0000   1.0000   1.0000
     1.0000   1.0000   1.0000   1.0000   1.0000   1.0000   1.0000   1.0000
     1.0000   1.0000   1.0000   1.0000   1.0000   1.0000   1.0000   1.0000
     1.0000   1.0000   1.0000   1.0000   1.0000   1.0000   1.0000   1.0000
     1.0000   1.0000   1.0000   1.0000   1.0000   1.0000   1.0000   1.0000
     1.0000   1.0000   1.0000   1.0000   1.0000   1.0000

          k =-1.5000 0.8660 0.8766 (  4868 PWs)   bands (ev):

    -9.0693  -8.7606  -8.3822  -8.3257  -8.0957  -8.0916   2.3947   2.4714
     2.5736   2.6961   2.9382   2.9659   3.4341   3.4701   3.6174   3.7074
     3.8040   3.8906   3.9091   3.9955   4.0810   4.1299   4.1907   4.2443
     5.1181   5.1211   5.1864   5.2223   5.3223   5.3638   5.3847   5.4389
     5.4901   5.5080   5.5468   5.5956   5.8399   5.9141   6.0992   6.1622
     6.2691   6.2852   7.4192   7.6209   7.6519   7.7663   7.9893   8.0875
     8.1746   8.2512   8.2979   8.3690   8.4369   8.4798

     occupation numbers 
     1.0000   1.0000   1.0000   1.0000   1.0000   1.0000   1.0000   1.0000
     1.0000   1.0000   1.0000   1.0000   1.0000   1.0000   1.0000   1.0000
     1.0000   1.0000   1.0000   1.0000   1.0000   1.0000   1.0000   1.0000
     1.0000   1.0000   1.0000   1.0000   1.0000   1.0000   1.0000   1.0000
     1.0000   1.0000   1.0000   1.0000   1.0000   1.0000   1.0000   1.0000
     1.0000   1.0000   1.0000   1.0000   1.0000   1.0000   1.0000   1.0000
     1.0000   1.0000   1.0000   1.0000   1.0000   1.0000

          k =-0.1667-0.0962 0.2922 (  4880 PWs)   bands (ev):

    -9.6701  -9.2791  -8.6720  -8.5719  -8.5199  -8.1250   2.5083   2.5908
     2.7753   2.9047   2.9465   3.2021   3.2361   3.3234   3.4732   3.5211
     3.6296   3.7289   3.7646   3.8403   3.9809   4.0345   4.1200   4.3003
     4.8411   4.9615   4.9711   5.0820   5.1514   5.2440   5.2635   5.2974
     5.3526   5.4263   5.4804   5.5397   5.8122   5.9092   6.0307   6.2837
     6.9507   7.2292   7.6478   7.9557   8.2087   8.5885   8.9876   9.0532
     9.1164   9.2198   9.2972   9.4084   9.9256   9.9915

     occupation numbers 
     1.0000   1.0000   1.0000   1.0000   1.0000   1.0000   1.0000   1.0000
     1.0000   1.0000   1.0000   1.0000   1.0000   1.0000   1.0000   1.0000
     1.0000   1.0000   1.0000   1.0000   1.0000   1.0000   1.0000   1.0000
     1.0000   1.0000   1.0000   1.0000   1.0000   1.0000   1.0000   1.0000
     1.0000   1.0000   1.0000   1.0000   1.0000   1.0000   1.0000   1.0000
     1.0000   1.0000   1.0000   1.0000   1.0000   1.0000   1.0000   1.0000
     1.0000   1.0000   1.0000   1.0000   1.0000   1.0000

          k =-0.1667-0.0962 0.5844 (  4882 PWs)   bands (ev):

    -9.5663  -9.2452  -8.7143  -8.6533  -8.4577  -8.2163   2.4402   2.5250
     2.6419   2.7212   2.8528   3.0351   3.2244   3.3516   3.4588   3.5001
     3.6300   3.7149   3.7790   3.8969   3.9448   3.9674   4.0295   4.1767
     4.9423   4.9932   5.0668   5.1704   5.1914   5.2138   5.2534   5.3037
     5.3384   5.3726   5.4432   5.4537   6.0657   6.3964   6.5694   6.6995
     7.1820   7.4704   7.7666   7.9567   8.3620   8.4043   8.5025   8.7797
     8.8267   9.1544   9.2551   9.3983   9.7651   9.8350

     occupation numbers 
     1.0000   1.0000   1.0000   1.0000   1.0000   1.0000   1.0000   1.0000
     1.0000   1.0000   1.0000   1.0000   1.0000   1.0000   1.0000   1.0000
     1.0000   1.0000   1.0000   1.0000   1.0000   1.0000   1.0000   1.0000
     1.0000   1.0000   1.0000   1.0000   1.0000   1.0000   1.0000   1.0000
     1.0000   1.0000   1.0000   1.0000   1.0000   1.0000   1.0000   1.0000
     1.0000   1.0000   1.0000   1.0000   1.0000   1.0000   1.0000   1.0000
     1.0000   1.0000   1.0000   1.0000   1.0000   1.0000

          k = 0.6667-0.1925 0.0000 (  4885 PWs)   bands (ev):

    -9.5209  -9.2715  -8.6032  -8.5030  -8.3689  -8.0684   2.7412   2.8029
     2.9099   3.0119   3.1081   3.1564   3.3243   3.4146   3.5055   3.5638
     3.6726   3.7567   3.7988   3.8478   3.9419   3.9816   4.2373   4.4730
     4.8079   4.8662   4.9633   5.0574   5.0877   5.1428   5.2798   5.3292
     5.3413   5.4351   5.4794   5.5224   5.6404   5.7127   5.9363   6.2962
     6.3577   7.1899   7.4274   7.7369   7.9641   8.0422   8.4145   8.5229
     8.6418   8.7977   9.3568   9.5611   9.5963   9.7521

     occupation numbers 
     1.0000   1.0000   1.0000   1.0000   1.0000   1.0000   1.0000   1.0000
     1.0000   1.0000   1.0000   1.0000   1.0000   1.0000   1.0000   1.0000
     1.0000   1.0000   1.0000   1.0000   1.0000   1.0000   1.0000   1.0000
     1.0000   1.0000   1.0000   1.0000   1.0000   1.0000   1.0000   1.0000
     1.0000   1.0000   1.0000   1.0000   1.0000   1.0000   1.0000   1.0000
     1.0000   1.0000   1.0000   1.0000   1.0000   1.0000   1.0000   1.0000
     1.0000   1.0000   1.0000   1.0000   1.0000   1.0000

          k =-0.1667-0.6736 0.2922 (  4881 PWs)   bands (ev):

    -9.4904  -9.2370  -8.6181  -8.5378  -8.3612  -8.0942   2.7064   2.7341
     2.8394   2.9249   3.0143   3.0664   3.3279   3.4152   3.4899   3.5747
     3.6791   3.7465   3.7809   3.8182   3.9245   3.9559   4.2144   4.4006
     4.8710   4.8963   4.9964   5.0873   5.1380   5.1767   5.2730   5.3105
     5.3948   5.4407   5.4856   5.5193   5.8511   5.8966   6.0472   6.2576
     6.5515   7.3527   7.4901   7.8024   8.0023   8.0588   8.3806   8.4790
     8.5758   8.7735   9.2570   9.4240   9.4794   9.6958

     occupation numbers 
     1.0000   1.0000   1.0000   1.0000   1.0000   1.0000   1.0000   1.0000
     1.0000   1.0000   1.0000   1.0000   1.0000   1.0000   1.0000   1.0000
     1.0000   1.0000   1.0000   1.0000   1.0000   1.0000   1.0000   1.0000
     1.0000   1.0000   1.0000   1.0000   1.0000   1.0000   1.0000   1.0000
     1.0000   1.0000   1.0000   1.0000   1.0000   1.0000   1.0000   1.0000
     1.0000   1.0000   1.0000   1.0000   1.0000   1.0000   1.0000   1.0000
     1.0000   1.0000   1.0000   1.0000   1.0000   1.0000

          k = 0.6667-0.1925-0.2922 (  4881 PWs)   bands (ev):

    -9.4905  -9.2389  -8.6186  -8.5343  -8.3607  -8.0954   2.7085   2.7187
     2.8628   2.9234   3.0027   3.0948   3.3517   3.4036   3.4675   3.5268
     3.6699   3.7426   3.7801   3.8248   3.9353   3.9749   4.2338   4.4283
     4.8627   4.8889   5.0189   5.0867   5.1183   5.1767   5.2648   5.3125
     5.3690   5.4309   5.4840   5.5287   5.8430   5.9019   6.0356   6.2562
     6.5530   7.3422   7.5222   7.8062   7.9832   8.0852   8.3666   8.4790
     8.5795   8.7736   9.2489   9.4074   9.5243   9.6780

     occupation numbers 
     1.0000   1.0000   1.0000   1.0000   1.0000   1.0000   1.0000   1.0000
     1.0000   1.0000   1.0000   1.0000   1.0000   1.0000   1.0000   1.0000
     1.0000   1.0000   1.0000   1.0000   1.0000   1.0000   1.0000   1.0000
     1.0000   1.0000   1.0000   1.0000   1.0000   1.0000   1.0000   1.0000
     1.0000   1.0000   1.0000   1.0000   1.0000   1.0000   1.0000   1.0000
     1.0000   1.0000   1.0000   1.0000   1.0000   1.0000   1.0000   1.0000
     1.0000   1.0000   1.0000   1.0000   1.0000   1.0000

          k =-0.6667 0.1925-0.2922 (  4881 PWs)   bands (ev):

    -9.4912  -9.2352  -8.6249  -8.5338  -8.3579  -8.0957   2.7018   2.7514
     2.8126   2.9415   3.0224   3.0653   3.3041   3.4132   3.4997   3.5796
     3.6968   3.7205   3.7861   3.8315   3.9200   3.9464   4.2180   4.4020
     4.8537   4.9096   5.0042   5.0923   5.1305   5.1991   5.2742   5.3094
     5.3950   5.4074   5.4924   5.5184   5.8376   5.9103   6.0512   6.2595
     6.5500   7.3453   7.4976   7.8038   7.9853   8.0605   8.3991   8.4740
     8.5968   8.7494   9.2660   9.4047   9.5072   9.6794

     occupation numbers 
     1.0000   1.0000   1.0000   1.0000   1.0000   1.0000   1.0000   1.0000
     1.0000   1.0000   1.0000   1.0000   1.0000   1.0000   1.0000   1.0000
     1.0000   1.0000   1.0000   1.0000   1.0000   1.0000   1.0000   1.0000
     1.0000   1.0000   1.0000   1.0000   1.0000   1.0000   1.0000   1.0000
     1.0000   1.0000   1.0000   1.0000   1.0000   1.0000   1.0000   1.0000
     1.0000   1.0000   1.0000   1.0000   1.0000   1.0000   1.0000   1.0000
     1.0000   1.0000   1.0000   1.0000   1.0000   1.0000

          k =-0.1667-0.6736 0.5844 (  4889 PWs)   bands (ev):

    -9.4230  -9.1548  -8.6632  -8.6218  -8.3197  -8.1617   2.5828   2.6260
     2.7399   2.7838   2.8461   2.9355   3.3581   3.4322   3.4615   3.5718
     3.6563   3.7164   3.7634   3.7755   3.8752   3.9098   4.2021   4.3069
     4.9561   4.9780   5.0851   5.1368   5.1816   5.2004   5.2573   5.2798
     5.3564   5.3892   5.5290   5.6080   5.8245   6.0859   6.5775   6.7544
     7.0002   7.6234   7.7357   7.8595   7.8928   8.0363   8.2530   8.3841
     8.6159   8.8728   8.9246   9.0191   9.2575   9.4902

     occupation numbers 
     1.0000   1.0000   1.0000   1.0000   1.0000   1.0000   1.0000   1.0000
     1.0000   1.0000   1.0000   1.0000   1.0000   1.0000   1.0000   1.0000
     1.0000   1.0000   1.0000   1.0000   1.0000   1.0000   1.0000   1.0000
     1.0000   1.0000   1.0000   1.0000   1.0000   1.0000   1.0000   1.0000
     1.0000   1.0000   1.0000   1.0000   1.0000   1.0000   1.0000   1.0000
     1.0000   1.0000   1.0000   1.0000   1.0000   1.0000   1.0000   1.0000
     1.0000   1.0000   1.0000   1.0000   1.0000   1.0000

          k = 0.6667-0.1925-0.5844 (  4889 PWs)   bands (ev):

    -9.4230  -9.1576  -8.6630  -8.6181  -8.3192  -8.1631   2.5772   2.6278
     2.7537   2.7790   2.8399   2.9557   3.3641   3.4258   3.4622   3.5267
     3.6545   3.7050   3.7473   3.7870   3.8827   3.9321   4.2282   4.3194
     4.9559   4.9705   5.0935   5.1428   5.1679   5.1986   5.2471   5.2797
     5.3504   5.3911   5.5265   5.6140   5.8129   6.0965   6.5615   6.7116
     7.0133   7.6250   7.7590   7.8774   7.9016   8.0529   8.2267   8.3636
     8.6410   8.8653   8.9403   9.0006   9.2849   9.4685

     occupation numbers 
     1.0000   1.0000   1.0000   1.0000   1.0000   1.0000   1.0000   1.0000
     1.0000   1.0000   1.0000   1.0000   1.0000   1.0000   1.0000   1.0000
     1.0000   1.0000   1.0000   1.0000   1.0000   1.0000   1.0000   1.0000
     1.0000   1.0000   1.0000   1.0000   1.0000   1.0000   1.0000   1.0000
     1.0000   1.0000   1.0000   1.0000   1.0000   1.0000   1.0000   1.0000
     1.0000   1.0000   1.0000   1.0000   1.0000   1.0000   1.0000   1.0000
     1.0000   1.0000   1.0000   1.0000   1.0000   1.0000

          k =-0.6667 0.1925-0.5844 (  4889 PWs)   bands (ev):

    -9.4240  -9.1519  -8.6754  -8.6131  -8.3155  -8.1643   2.5857   2.6363
     2.7124   2.7900   2.8572   2.9348   3.3396   3.4292   3.4777   3.5808
     3.6560   3.6997   3.7627   3.8007   3.8771   3.8877   4.2103   4.3076
     4.9491   4.9752   5.0880   5.1493   5.1770   5.2169   5.2527   5.2716
     5.3563   5.3879   5.5216   5.6025   5.8353   6.0814   6.5777   6.7573
     6.9970   7.6256   7.7358   7.8382   7.9338   8.0230   8.2219   8.3950
     8.6474   8.8620   8.9245   9.0024   9.2803   9.4756

     occupation numbers 
     1.0000   1.0000   1.0000   1.0000   1.0000   1.0000   1.0000   1.0000
     1.0000   1.0000   1.0000   1.0000   1.0000   1.0000   1.0000   1.0000
     1.0000   1.0000   1.0000   1.0000   1.0000   1.0000   1.0000   1.0000
     1.0000   1.0000   1.0000   1.0000   1.0000   1.0000   1.0000   1.0000
     1.0000   1.0000   1.0000   1.0000   1.0000   1.0000   1.0000   1.0000
     1.0000   1.0000   1.0000   1.0000   1.0000   1.0000   1.0000   1.0000
     1.0000   1.0000   1.0000   1.0000   1.0000   1.0000

          k = 0.6667-0.1925 0.8766 (  4874 PWs)   bands (ev):

    -9.3849  -9.1017  -8.7001  -8.6686  -8.2502  -8.2413   2.5195   2.5847
     2.6850   2.7132   2.7818   2.8887   3.3652   3.4550   3.4667   3.5535
     3.6381   3.6848   3.7416   3.7866   3.8339   3.8873   4.2328   4.2575
     5.0111   5.0206   5.1333   5.1574   5.1828   5.1894   5.2607   5.2816
     5.3211   5.3317   5.5877   5.6113   5.8966   5.9470   7.1921   7.3496
     7.3625   7.4712   7.5280   7.5874   8.1289   8.1835   8.2671   8.3446
     8.4986   8.5521   8.9360   9.0025   9.1214   9.2401

     occupation numbers 
     1.0000   1.0000   1.0000   1.0000   1.0000   1.0000   1.0000   1.0000
     1.0000   1.0000   1.0000   1.0000   1.0000   1.0000   1.0000   1.0000
     1.0000   1.0000   1.0000   1.0000   1.0000   1.0000   1.0000   1.0000
     1.0000   1.0000   1.0000   1.0000   1.0000   1.0000   1.0000   1.0000
     1.0000   1.0000   1.0000   1.0000   1.0000   1.0000   1.0000   1.0000
     1.0000   1.0000   1.0000   1.0000   1.0000   1.0000   1.0000   1.0000
     1.0000   1.0000   1.0000   1.0000   1.0000   1.0000

          k = 1.1667-0.4811 0.0000 (  4851 PWs)   bands (ev):

    -9.2515  -8.9790  -8.5009  -8.3338  -8.2211  -8.0245   2.5861   2.6956
     3.0053   3.0547   3.1725   3.3432   3.4610   3.5083   3.6546   3.6958
     3.7916   3.9001   3.9404   4.0467   4.1074   4.2141   4.3542   4.4866
     4.8023   4.8800   4.9083   5.0235   5.1245   5.1794   5.2347   5.2868
     5.3519   5.4008   5.4466   5.4928   5.7595   5.8499   5.9514   6.1368
     6.2166   6.3898   6.6843   7.3261   7.4180   7.6631   7.7832   7.8813
     8.0316   8.1652   8.7855   9.1295   9.2332   9.4482

     occupation numbers 
     1.0000   1.0000   1.0000   1.0000   1.0000   1.0000   1.0000   1.0000
     1.0000   1.0000   1.0000   1.0000   1.0000   1.0000   1.0000   1.0000
     1.0000   1.0000   1.0000   1.0000   1.0000   1.0000   1.0000   1.0000
     1.0000   1.0000   1.0000   1.0000   1.0000   1.0000   1.0000   1.0000
     1.0000   1.0000   1.0000   1.0000   1.0000   1.0000   1.0000   1.0000
     1.0000   1.0000   1.0000   1.0000   1.0000   1.0000   1.0000   1.0000
     1.0000   1.0000   1.0000   1.0000   1.0000   1.0000

          k =-0.1667-1.2509 0.2922 (  4871 PWs)   bands (ev):

    -9.2344  -8.9559  -8.5021  -8.3547  -8.2131  -8.0433   2.5453   2.6589
     2.9212   2.9401   3.1302   3.2620   3.4205   3.5423   3.5942   3.6820
     3.7412   3.8147   3.9104   4.0340   4.0575   4.1424   4.3621   4.4511
     4.8582   4.8886   4.9886   5.0798   5.1768   5.2058   5.2730   5.3421
     5.3745   5.3837   5.4764   5.5275   5.9296   5.9633   6.1066   6.1671
     6.3242   6.3783   6.7639   7.3490   7.5006   7.7144   7.7709   7.9309
     8.0547   8.1648   8.8034   9.0332   9.1687   9.3478

     occupation numbers 
     1.0000   1.0000   1.0000   1.0000   1.0000   1.0000   1.0000   1.0000
     1.0000   1.0000   1.0000   1.0000   1.0000   1.0000   1.0000   1.0000
     1.0000   1.0000   1.0000   1.0000   1.0000   1.0000   1.0000   1.0000
     1.0000   1.0000   1.0000   1.0000   1.0000   1.0000   1.0000   1.0000
     1.0000   1.0000   1.0000   1.0000   1.0000   1.0000   1.0000   1.0000
     1.0000   1.0000   1.0000   1.0000   1.0000   1.0000   1.0000   1.0000
     1.0000   1.0000   1.0000   1.0000   1.0000   1.0000

          k = 1.1667-0.4811-0.2922 (  4871 PWs)   bands (ev):

    -9.2345  -8.9591  -8.4984  -8.3536  -8.2133  -8.0443   2.5500   2.6662
     2.9043   2.9576   3.1385   3.2609   3.4148   3.4970   3.5621   3.6916
     3.7466   3.8796   3.8973   4.0363   4.0745   4.1630   4.3313   4.4428
     4.8599   4.8960   4.9959   5.0722   5.1627   5.1962   5.2880   5.3284
     5.3909   5.4006   5.4451   5.5259   5.9048   5.9815   6.0921   6.1790
     6.3266   6.3808   6.7767   7.3428   7.4778   7.6967   7.8024   7.9011
     8.0911   8.1722   8.7910   9.0492   9.1643   9.3507

     occupation numbers 
     1.0000   1.0000   1.0000   1.0000   1.0000   1.0000   1.0000   1.0000
     1.0000   1.0000   1.0000   1.0000   1.0000   1.0000   1.0000   1.0000
     1.0000   1.0000   1.0000   1.0000   1.0000   1.0000   1.0000   1.0000
     1.0000   1.0000   1.0000   1.0000   1.0000   1.0000   1.0000   1.0000
     1.0000   1.0000   1.0000   1.0000   1.0000   1.0000   1.0000   1.0000
     1.0000   1.0000   1.0000   1.0000   1.0000   1.0000   1.0000   1.0000
     1.0000   1.0000   1.0000   1.0000   1.0000   1.0000

          k =-1.1667 0.4811-0.2922 (  4871 PWs)   bands (ev):

    -9.2341  -8.9569  -8.4994  -8.3551  -8.2166  -8.0415   2.5544   2.6519
     2.8737   2.9935   3.1209   3.3020   3.3680   3.5380   3.6031   3.6856
     3.7423   3.8455   3.9029   4.0086   4.0714   4.1406   4.3467   4.4509
     4.8450   4.9182   4.9885   5.0611   5.1516   5.2488   5.2793   5.3198
     5.3649   5.4158   5.4881   5.5128   5.9081   5.9835   6.0918   6.1719
     6.3337   6.3604   6.7717   7.3733   7.4824   7.7265   7.7835   7.8742
     8.0940   8.1626   8.7731   9.0869   9.1280   9.3580

     occupation numbers 
     1.0000   1.0000   1.0000   1.0000   1.0000   1.0000   1.0000   1.0000
     1.0000   1.0000   1.0000   1.0000   1.0000   1.0000   1.0000   1.0000
     1.0000   1.0000   1.0000   1.0000   1.0000   1.0000   1.0000   1.0000
     1.0000   1.0000   1.0000   1.0000   1.0000   1.0000   1.0000   1.0000
     1.0000   1.0000   1.0000   1.0000   1.0000   1.0000   1.0000   1.0000
     1.0000   1.0000   1.0000   1.0000   1.0000   1.0000   1.0000   1.0000
     1.0000   1.0000   1.0000   1.0000   1.0000   1.0000

          k =-0.1667-1.2509 0.5844 (  4877 PWs)   bands (ev):

    -9.1984  -8.9079  -8.4971  -8.4070  -8.1882  -8.0900   2.4771   2.5724
     2.7232   2.7508   3.0875   3.1163   3.3436   3.4835   3.5953   3.6393
     3.7255   3.7418   3.8907   3.9510   3.9692   4.0384   4.3640   4.4161
     4.9319   4.9807   5.0606   5.1086   5.2117   5.2521   5.2755   5.3210
     5.3936   5.4371   5.5541   5.6441   5.8858   6.1153   6.2898   6.4958
     6.5663   6.6755   6.9923   7.4435   7.4980   7.6685   7.9470   8.1144
     8.2426   8.3485   8.6335   8.7661   8.9173   9.0929

     occupation numbers 
     1.0000   1.0000   1.0000   1.0000   1.0000   1.0000   1.0000   1.0000
     1.0000   1.0000   1.0000   1.0000   1.0000   1.0000   1.0000   1.0000
     1.0000   1.0000   1.0000   1.0000   1.0000   1.0000   1.0000   1.0000
     1.0000   1.0000   1.0000   1.0000   1.0000   1.0000   1.0000   1.0000
     1.0000   1.0000   1.0000   1.0000   1.0000   1.0000   1.0000   1.0000
     1.0000   1.0000   1.0000   1.0000   1.0000   1.0000   1.0000   1.0000
     1.0000   1.0000   1.0000   1.0000   1.0000   1.0000

          k = 1.1667-0.4811-0.5844 (  4877 PWs)   bands (ev):

    -9.1984  -8.9119  -8.4926  -8.4057  -8.1873  -8.0921   2.4849   2.5680
     2.7094   2.7799   3.0900   3.1048   3.3410   3.4611   3.5475   3.6820
     3.6941   3.8038   3.8402   3.9734   4.0053   4.0558   4.3381   4.4049
     4.9398   4.9747   5.0695   5.1155   5.2184   5.2339   5.2805   5.3066
     5.4083   5.4383   5.5423   5.6448   5.9008   6.1049   6.2749   6.4566
     6.5790   6.6901   7.0229   7.4207   7.4804   7.6585   7.9612   8.1038
     8.2505   8.3740   8.6331   8.7812   8.9043   9.0966

     occupation numbers 
     1.0000   1.0000   1.0000   1.0000   1.0000   1.0000   1.0000   1.0000
     1.0000   1.0000   1.0000   1.0000   1.0000   1.0000   1.0000   1.0000
     1.0000   1.0000   1.0000   1.0000   1.0000   1.0000   1.0000   1.0000
     1.0000   1.0000   1.0000   1.0000   1.0000   1.0000   1.0000   1.0000
     1.0000   1.0000   1.0000   1.0000   1.0000   1.0000   1.0000   1.0000
     1.0000   1.0000   1.0000   1.0000   1.0000   1.0000   1.0000   1.0000
     1.0000   1.0000   1.0000   1.0000   1.0000   1.0000

          k =-1.1667 0.4811-0.5844 (  4877 PWs)   bands (ev):

    -9.1980  -8.9092  -8.4943  -8.4071  -8.1930  -8.0869   2.4876   2.5625
     2.6834   2.8015   3.0589   3.1354   3.3339   3.4820   3.6103   3.6292
     3.7013   3.7909   3.8736   3.9591   3.9785   4.0333   4.3383   4.4132
     4.9223   5.0006   5.0795   5.1057   5.1798   5.2560   5.3040   5.3108
     5.3930   5.4328   5.5591   5.6471   5.8902   6.1008   6.2794   6.4865
     6.5834   6.6737   7.0012   7.4358   7.5324   7.6570   7.9543   8.0674
     8.2336   8.3882   8.6052   8.8111   8.8791   9.1070

     occupation numbers 
     1.0000   1.0000   1.0000   1.0000   1.0000   1.0000   1.0000   1.0000
     1.0000   1.0000   1.0000   1.0000   1.0000   1.0000   1.0000   1.0000
     1.0000   1.0000   1.0000   1.0000   1.0000   1.0000   1.0000   1.0000
     1.0000   1.0000   1.0000   1.0000   1.0000   1.0000   1.0000   1.0000
     1.0000   1.0000   1.0000   1.0000   1.0000   1.0000   1.0000   1.0000
     1.0000   1.0000   1.0000   1.0000   1.0000   1.0000   1.0000   1.0000
     1.0000   1.0000   1.0000   1.0000   1.0000   1.0000

          k = 1.1667-0.4811 0.8766 (  4872 PWs)   bands (ev):

    -9.1793  -8.8830  -8.4852  -8.4436  -8.1492  -8.1406   2.4586   2.5036
     2.6168   2.7076   3.0206   3.0566   3.3659   3.4086   3.5723   3.6593
     3.7218   3.7480   3.8735   3.9052   3.9660   3.9776   4.3438   4.3934
     4.9648   5.0369   5.1082   5.1625   5.1991   5.2202   5.2899   5.3249
     5.3455   5.3921   5.7065   5.7374   5.8763   5.9485   6.4978   6.5168
     6.8557   6.9594   7.0070   7.0870   7.9266   8.0029   8.1067   8.1715
     8.2784   8.3728   8.4866   8.5829   8.7356   8.7862

     occupation numbers 
     1.0000   1.0000   1.0000   1.0000   1.0000   1.0000   1.0000   1.0000
     1.0000   1.0000   1.0000   1.0000   1.0000   1.0000   1.0000   1.0000
     1.0000   1.0000   1.0000   1.0000   1.0000   1.0000   1.0000   1.0000
     1.0000   1.0000   1.0000   1.0000   1.0000   1.0000   1.0000   1.0000
     1.0000   1.0000   1.0000   1.0000   1.0000   1.0000   1.0000   1.0000
     1.0000   1.0000   1.0000   1.0000   1.0000   1.0000   1.0000   1.0000
     1.0000   1.0000   1.0000   1.0000   1.0000   1.0000

          k =-1.3333 0.9623 0.0000 (  4858 PWs)   bands (ev):

    -9.0970  -8.8001  -8.5092  -8.2175  -8.0837  -8.0692   2.5875   2.7425
     2.8593   2.9747   3.1664   3.2881   3.4660   3.4797   3.5830   3.7227
     3.8247   3.9343   3.9897   4.1295   4.2936   4.3340   4.3676   4.3934
     4.8326   4.8926   5.0213   5.1188   5.1513   5.2361   5.3288   5.4662
     5.4991   5.5859   5.6429   5.7028   5.7859   5.8859   5.9242   6.0585
     6.1816   6.4465   6.6531   6.7510   6.8051   6.9777   7.2849   7.4032
     8.2311   8.3159   8.5313   8.6489   8.9191   9.0977

     occupation numbers 
     1.0000   1.0000   1.0000   1.0000   1.0000   1.0000   1.0000   1.0000
     1.0000   1.0000   1.0000   1.0000   1.0000   1.0000   1.0000   1.0000
     1.0000   1.0000   1.0000   1.0000   1.0000   1.0000   1.0000   1.0000
     1.0000   1.0000   1.0000   1.0000   1.0000   1.0000   1.0000   1.0000
     1.0000   1.0000   1.0000   1.0000   1.0000   1.0000   1.0000   1.0000
     1.0000   1.0000   1.0000   1.0000   1.0000   1.0000   1.0000   1.0000
     1.0000   1.0000   1.0000   1.0000   1.0000   1.0000

          k =-0.1667 1.6358 0.2922 (  4852 PWs)   bands (ev):

    -9.0901  -8.7906  -8.4882  -8.2337  -8.0865  -8.0746   2.5372   2.6804
     2.7940   2.8705   3.1228   3.2209   3.4217   3.4834   3.6159   3.6714
     3.8332   3.8694   3.9884   4.0976   4.2328   4.2903   4.3104   4.3354
     4.8849   5.0155   5.0353   5.1712   5.2246   5.2984   5.3276   5.4572
     5.4896   5.5981   5.6394   5.7224   5.7764   5.8129   5.9020   6.1047
     6.2474   6.5783   6.7793   6.8609   6.9898   7.0421   7.4106   7.5519
     8.2528   8.3514   8.5472   8.5947   8.8119   9.0126

     occupation numbers 
     1.0000   1.0000   1.0000   1.0000   1.0000   1.0000   1.0000   1.0000
     1.0000   1.0000   1.0000   1.0000   1.0000   1.0000   1.0000   1.0000
     1.0000   1.0000   1.0000   1.0000   1.0000   1.0000   1.0000   1.0000
     1.0000   1.0000   1.0000   1.0000   1.0000   1.0000   1.0000   1.0000
     1.0000   1.0000   1.0000   1.0000   1.0000   1.0000   1.0000   1.0000
     1.0000   1.0000   1.0000   1.0000   1.0000   1.0000   1.0000   1.0000
     1.0000   1.0000   1.0000   1.0000   1.0000   1.0000

          k =-1.3333 0.9623-0.2922 (  4852 PWs)   bands (ev):

    -9.0901  -8.7905  -8.4882  -8.2338  -8.0865  -8.0747   2.5419   2.6767
     2.7772   2.8946   3.1240   3.2179   3.4218   3.4710   3.5858   3.6840
     3.8142   3.9484   3.9826   4.0880   4.2286   4.2798   4.3031   4.3325
     4.8861   5.0164   5.0505   5.1614   5.2185   5.2955   5.3294   5.4560
     5.5052   5.5773   5.6226   5.7301   5.8028   5.8389   5.8654   6.0911
     6.2541   6.5732   6.7885   6.8514   6.9802   7.0955   7.4132   7.5280
     8.2475   8.3232   8.5536   8.6139   8.8312   8.9943

     occupation numbers 
     1.0000   1.0000   1.0000   1.0000   1.0000   1.0000   1.0000   1.0000
     1.0000   1.0000   1.0000   1.0000   1.0000   1.0000   1.0000   1.0000
     1.0000   1.0000   1.0000   1.0000   1.0000   1.0000   1.0000   1.0000
     1.0000   1.0000   1.0000   1.0000   1.0000   1.0000   1.0000   1.0000
     1.0000   1.0000   1.0000   1.0000   1.0000   1.0000   1.0000   1.0000
     1.0000   1.0000   1.0000   1.0000   1.0000   1.0000   1.0000   1.0000
     1.0000   1.0000   1.0000   1.0000   1.0000   1.0000

          k = 1.3333-0.9623-0.2922 (  4852 PWs)   bands (ev):

    -9.0901  -8.7905  -8.4883  -8.2337  -8.0864  -8.0747   2.5425   2.6791
     2.7832   2.8809   3.1227   3.2139   3.4273   3.4750   3.6123   3.6754
     3.8121   3.9151   3.9897   4.0820   4.2398   4.2810   4.3154   4.3220
     4.8879   4.9977   5.1040   5.1271   5.2195   5.2857   5.3391   5.4541
     5.5046   5.5819   5.6486   5.7091   5.7809   5.8418   5.8878   6.0713
     6.2733   6.5714   6.7835   6.8611   6.9833   7.0501   7.4288   7.5381
     8.2509   8.3425   8.5414   8.6034   8.8318   8.9966

     occupation numbers 
     1.0000   1.0000   1.0000   1.0000   1.0000   1.0000   1.0000   1.0000
     1.0000   1.0000   1.0000   1.0000   1.0000   1.0000   1.0000   1.0000
     1.0000   1.0000   1.0000   1.0000   1.0000   1.0000   1.0000   1.0000
     1.0000   1.0000   1.0000   1.0000   1.0000   1.0000   1.0000   1.0000
     1.0000   1.0000   1.0000   1.0000   1.0000   1.0000   1.0000   1.0000
     1.0000   1.0000   1.0000   1.0000   1.0000   1.0000   1.0000   1.0000
     1.0000   1.0000   1.0000   1.0000   1.0000   1.0000

          k =-0.1667 1.6358 0.5844 (  4869 PWs)   bands (ev):

    -9.0763  -8.7708  -8.4334  -8.2791  -8.0922  -8.0861   2.4416   2.5452
     2.6672   2.7029   3.0150   3.0679   3.3893   3.4911   3.6336   3.6935
     3.7586   3.8502   3.9714   4.0533   4.1196   4.1912   4.2227   4.2749
     5.0151   5.1001   5.1501   5.2405   5.2678   5.3232   5.3741   5.4453
     5.4858   5.5693   5.5884   5.6378   5.8319   5.8958   5.9976   6.0736
     6.2175   6.5570   7.0281   7.3127   7.4458   7.5093   7.7714   7.8977
     8.0943   8.3011   8.4566   8.5010   8.6323   8.7607

     occupation numbers 
     1.0000   1.0000   1.0000   1.0000   1.0000   1.0000   1.0000   1.0000
     1.0000   1.0000   1.0000   1.0000   1.0000   1.0000   1.0000   1.0000
     1.0000   1.0000   1.0000   1.0000   1.0000   1.0000   1.0000   1.0000
     1.0000   1.0000   1.0000   1.0000   1.0000   1.0000   1.0000   1.0000
     1.0000   1.0000   1.0000   1.0000   1.0000   1.0000   1.0000   1.0000
     1.0000   1.0000   1.0000   1.0000   1.0000   1.0000   1.0000   1.0000
     1.0000   1.0000   1.0000   1.0000   1.0000   1.0000

          k =-1.3333 0.9623-0.5844 (  4869 PWs)   bands (ev):

    -9.0763  -8.7708  -8.4334  -8.2791  -8.0923  -8.0860   2.4470   2.5390
     2.6411   2.7372   3.0183   3.0611   3.3864   3.4724   3.6158   3.6938
     3.7874   3.9069   3.9590   4.0185   4.1318   4.1884   4.2106   4.2719
     5.0174   5.1082   5.1507   5.2230   5.2736   5.3284   5.3734   5.4482
     5.5081   5.5454   5.5741   5.6407   5.8195   5.9007   6.0091   6.0866
     6.2086   6.5543   7.0198   7.2871   7.4750   7.5758   7.7690   7.8468
     8.0828   8.2780   8.4661   8.5159   8.6696   8.7286

     occupation numbers 
     1.0000   1.0000   1.0000   1.0000   1.0000   1.0000   1.0000   1.0000
     1.0000   1.0000   1.0000   1.0000   1.0000   1.0000   1.0000   1.0000
     1.0000   1.0000   1.0000   1.0000   1.0000   1.0000   1.0000   1.0000
     1.0000   1.0000   1.0000   1.0000   1.0000   1.0000   1.0000   1.0000
     1.0000   1.0000   1.0000   1.0000   1.0000   1.0000   1.0000   1.0000
     1.0000   1.0000   1.0000   1.0000   1.0000   1.0000   1.0000   1.0000
     1.0000   1.0000   1.0000   1.0000   1.0000   1.0000

          k = 1.3333-0.9623-0.5844 (  4869 PWs)   bands (ev):

    -9.0763  -8.7708  -8.4335  -8.2791  -8.0921  -8.0862   2.4487   2.5391
     2.6448   2.7306   3.0181   3.0553   3.3902   3.4795   3.6284   3.6963
     3.7850   3.8564   3.9815   4.0407   4.1174   4.1849   4.2221   4.2662
     5.0139   5.1086   5.1688   5.2111   5.2669   5.3295   5.3765   5.4372
     5.5040   5.5591   5.5907   5.6342   5.8447   5.8871   5.9727   6.0847
     6.2298   6.5609   7.0123   7.3155   7.4544   7.5075   7.8013   7.8781
     8.0829   8.3014   8.4189   8.5570   8.6338   8.7425

     occupation numbers 
     1.0000   1.0000   1.0000   1.0000   1.0000   1.0000   1.0000   1.0000
     1.0000   1.0000   1.0000   1.0000   1.0000   1.0000   1.0000   1.0000
     1.0000   1.0000   1.0000   1.0000   1.0000   1.0000   1.0000   1.0000
     1.0000   1.0000   1.0000   1.0000   1.0000   1.0000   1.0000   1.0000
     1.0000   1.0000   1.0000   1.0000   1.0000   1.0000   1.0000   1.0000
     1.0000   1.0000   1.0000   1.0000   1.0000   1.0000   1.0000   1.0000
     1.0000   1.0000   1.0000   1.0000   1.0000   1.0000

          k =-1.3333 0.9623 0.8766 (  4884 PWs)   bands (ev):

    -9.0693  -8.7606  -8.3822  -8.3257  -8.0958  -8.0916   2.3994   2.4699
     2.5830   2.6617   2.9615   2.9786   3.4209   3.4521   3.6405   3.7152
     3.7993   3.8464   3.9376   3.9895   4.0866   4.1355   4.1879   4.2497
     5.1134   5.1267   5.1895   5.2253   5.3127   5.3472   5.3955   5.4240
     5.4902   5.5242   5.5499   5.5990   5.8672   5.9445   6.0290   6.0727
     6.3151   6.3675   7.3359   7.4750   7.7941   7.9197   7.9644   8.0774
     8.1819   8.2515   8.2614   8.3371   8.4302   8.4859

     occupation numbers 
     1.0000   1.0000   1.0000   1.0000   1.0000   1.0000   1.0000   1.0000
     1.0000   1.0000   1.0000   1.0000   1.0000   1.0000   1.0000   1.0000
     1.0000   1.0000   1.0000   1.0000   1.0000   1.0000   1.0000   1.0000
     1.0000   1.0000   1.0000   1.0000   1.0000   1.0000   1.0000   1.0000
     1.0000   1.0000   1.0000   1.0000   1.0000   1.0000   1.0000   1.0000
     1.0000   1.0000   1.0000   1.0000   1.0000   1.0000   1.0000   1.0000
     1.0000   1.0000   1.0000   1.0000   1.0000   1.0000

          k =-0.3333 0.3849 0.0000 (  4880 PWs)   bands (ev):

    -9.5829  -9.1783  -8.5791  -8.4881  -8.4520  -8.0565   2.6958   2.7716
     2.9383   2.9797   3.0731   3.1377   3.3243   3.4025   3.5065   3.5496
     3.6720   3.7917   3.8286   3.8848   4.0298   4.1443   4.2469   4.3055
     4.7801   4.8346   4.9700   5.0027   5.0451   5.1125   5.2887   5.3413
     5.3878   5.4546   5.5290   5.5826   5.6619   5.8605   5.9270   6.3390
     6.6454   6.9430   7.2040   7.2516   7.6989   8.3970   8.6158   8.7523
     8.8130   8.9716   9.0025   9.2111   9.7138   9.9223

     occupation numbers 
     1.0000   1.0000   1.0000   1.0000   1.0000   1.0000   1.0000   1.0000
     1.0000   1.0000   1.0000   1.0000   1.0000   1.0000   1.0000   1.0000
     1.0000   1.0000   1.0000   1.0000   1.0000   1.0000   1.0000   1.0000
     1.0000   1.0000   1.0000   1.0000   1.0000   1.0000   1.0000   1.0000
     1.0000   1.0000   1.0000   1.0000   1.0000   1.0000   1.0000   1.0000
     1.0000   1.0000   1.0000   1.0000   1.0000   1.0000   1.0000   1.0000
     1.0000   1.0000   1.0000   1.0000   1.0000   1.0000

          k =-0.1667 0.4811 0.2922 (  4873 PWs)   bands (ev):

    -9.5456  -9.1630  -8.5835  -8.5107  -8.4484  -8.0882   2.6518   2.7047
     2.8534   2.9524   2.9999   3.0854   3.3242   3.3806   3.4728   3.5713
     3.6372   3.7513   3.7980   3.8150   4.0349   4.0856   4.1938   4.2766
     4.8302   4.8584   4.9950   5.0826   5.1480   5.1739   5.2882   5.3178
     5.3722   5.4598   5.5351   5.6288   5.8296   5.9583   6.0952   6.5675
     6.7647   7.0267   7.2012   7.2992   7.6718   8.4449   8.5939   8.7123
     8.8017   8.9062   8.9471   9.0475   9.5854   9.8549

     occupation numbers 
     1.0000   1.0000   1.0000   1.0000   1.0000   1.0000   1.0000   1.0000
     1.0000   1.0000   1.0000   1.0000   1.0000   1.0000   1.0000   1.0000
     1.0000   1.0000   1.0000   1.0000   1.0000   1.0000   1.0000   1.0000
     1.0000   1.0000   1.0000   1.0000   1.0000   1.0000   1.0000   1.0000
     1.0000   1.0000   1.0000   1.0000   1.0000   1.0000   1.0000   1.0000
     1.0000   1.0000   1.0000   1.0000   1.0000   1.0000   1.0000   1.0000
     1.0000   1.0000   1.0000   1.0000   1.0000   1.0000

          k =-0.3333 0.3849-0.2922 (  4873 PWs)   bands (ev):

    -9.5451  -9.1617  -8.5863  -8.5095  -8.4493  -8.0878   2.6670   2.7088
     2.8507   2.9242   2.9938   3.0707   3.2897   3.4028   3.5326   3.5728
     3.6342   3.7589   3.8060   3.8622   3.9605   4.0744   4.2018   4.2477
     4.8201   4.8822   4.9961   5.0947   5.1499   5.1738   5.2865   5.3237
     5.3755   5.4646   5.5420   5.6288   5.8177   5.9805   6.0866   6.5641
     6.7710   7.0389   7.1860   7.2832   7.6739   8.4482   8.5997   8.7319
     8.7545   8.8867   8.9641   9.0724   9.5794   9.8510

     occupation numbers 
     1.0000   1.0000   1.0000   1.0000   1.0000   1.0000   1.0000   1.0000
     1.0000   1.0000   1.0000   1.0000   1.0000   1.0000   1.0000   1.0000
     1.0000   1.0000   1.0000   1.0000   1.0000   1.0000   1.0000   1.0000
     1.0000   1.0000   1.0000   1.0000   1.0000   1.0000   1.0000   1.0000
     1.0000   1.0000   1.0000   1.0000   1.0000   1.0000   1.0000   1.0000
     1.0000   1.0000   1.0000   1.0000   1.0000   1.0000   1.0000   1.0000
     1.0000   1.0000   1.0000   1.0000   1.0000   1.0000

          k = 0.3333-0.3849-0.2922 (  4873 PWs)   bands (ev):

    -9.5451  -9.1646  -8.5749  -8.5143  -8.4529  -8.0875   2.6625   2.6926
     2.8880   2.9242   2.9871   3.0770   3.3404   3.3806   3.4814   3.5469
     3.6689   3.7307   3.7842   3.8335   4.0332   4.1171   4.1683   4.2740
     4.8376   4.8564   5.0002   5.0801   5.1383   5.1701   5.2811   5.3306
     5.3689   5.4704   5.5114   5.6351   5.8223   5.9990   6.0664   6.5639
     6.7707   7.0433   7.1988   7.2816   7.6759   8.4509   8.6101   8.7097
     8.7788   8.8790   8.9499   9.0770   9.5904   9.8498

     occupation numbers 
     1.0000   1.0000   1.0000   1.0000   1.0000   1.0000   1.0000   1.0000
     1.0000   1.0000   1.0000   1.0000   1.0000   1.0000   1.0000   1.0000
     1.0000   1.0000   1.0000   1.0000   1.0000   1.0000   1.0000   1.0000
     1.0000   1.0000   1.0000   1.0000   1.0000   1.0000   1.0000   1.0000
     1.0000   1.0000   1.0000   1.0000   1.0000   1.0000   1.0000   1.0000
     1.0000   1.0000   1.0000   1.0000   1.0000   1.0000   1.0000   1.0000
     1.0000   1.0000   1.0000   1.0000   1.0000   1.0000

          k =-0.1667 0.4811 0.5844 (  4887 PWs)   bands (ev):

    -9.4561  -9.1368  -8.6193  -8.5700  -8.3895  -8.1731   2.5694   2.6024
     2.7189   2.7949   2.8579   2.9764   3.3125   3.3960   3.4750   3.5833
     3.6102   3.6822   3.7565   3.7773   3.9836   4.0329   4.1235   4.1775
     4.9301   4.9670   5.0749   5.1648   5.1834   5.2236   5.2853   5.3051
     5.3594   5.4189   5.4763   5.5206   6.1807   6.4175   6.6725   6.6982
     7.0799   7.2803   7.3621   7.4959   7.7945   8.2563   8.3876   8.5579
     8.6608   8.6890   8.7666   9.1065   9.2975   9.6570

     occupation numbers 
     1.0000   1.0000   1.0000   1.0000   1.0000   1.0000   1.0000   1.0000
     1.0000   1.0000   1.0000   1.0000   1.0000   1.0000   1.0000   1.0000
     1.0000   1.0000   1.0000   1.0000   1.0000   1.0000   1.0000   1.0000
     1.0000   1.0000   1.0000   1.0000   1.0000   1.0000   1.0000   1.0000
     1.0000   1.0000   1.0000   1.0000   1.0000   1.0000   1.0000   1.0000
     1.0000   1.0000   1.0000   1.0000   1.0000   1.0000   1.0000   1.0000
     1.0000   1.0000   1.0000   1.0000   1.0000   1.0000

          k =-0.3333 0.3849-0.5844 (  4887 PWs)   bands (ev):

    -9.4555  -9.1353  -8.6209  -8.5713  -8.3898  -8.1723   2.5833   2.6112
     2.7149   2.7694   2.8603   2.9493   3.3011   3.4076   3.5149   3.5758
     3.6253   3.7241   3.7367   3.7965   3.9361   4.0145   4.1287   4.1641
     4.9253   4.9772   5.0805   5.1568   5.1979   5.2165   5.2823   5.3176
     5.3489   5.4276   5.4763   5.5213   6.1587   6.4718   6.6565   6.7053
     7.1008   7.2759   7.3656   7.4630   7.7946   8.2374   8.4006   8.5455
     8.6423   8.6996   8.7923   9.0813   9.3119   9.6548

     occupation numbers 
     1.0000   1.0000   1.0000   1.0000   1.0000   1.0000   1.0000   1.0000
     1.0000   1.0000   1.0000   1.0000   1.0000   1.0000   1.0000   1.0000
     1.0000   1.0000   1.0000   1.0000   1.0000   1.0000   1.0000   1.0000
     1.0000   1.0000   1.0000   1.0000   1.0000   1.0000   1.0000   1.0000
     1.0000   1.0000   1.0000   1.0000   1.0000   1.0000   1.0000   1.0000
     1.0000   1.0000   1.0000   1.0000   1.0000   1.0000   1.0000   1.0000
     1.0000   1.0000   1.0000   1.0000   1.0000   1.0000

          k = 0.3333-0.3849-0.5844 (  4887 PWs)   bands (ev):

    -9.4553  -9.1392  -8.6061  -8.5783  -8.3946  -8.1713   2.5727   2.6018
     2.7439   2.7713   2.8520   2.9658   3.3220   3.4138   3.4740   3.5436
     3.6503   3.6702   3.7476   3.7854   3.9901   4.0405   4.1003   4.1868
     4.9373   4.9666   5.0762   5.1600   5.1851   5.2118   5.2812   5.3254
     5.3508   5.4276   5.4531   5.5287   6.1668   6.4472   6.6401   6.7257
     7.0609   7.3201   7.3379   7.4897   7.7988   8.2576   8.4070   8.5180
     8.6512   8.6982   8.7893   9.0982   9.3066   9.6524

     occupation numbers 
     1.0000   1.0000   1.0000   1.0000   1.0000   1.0000   1.0000   1.0000
     1.0000   1.0000   1.0000   1.0000   1.0000   1.0000   1.0000   1.0000
     1.0000   1.0000   1.0000   1.0000   1.0000   1.0000   1.0000   1.0000
     1.0000   1.0000   1.0000   1.0000   1.0000   1.0000   1.0000   1.0000
     1.0000   1.0000   1.0000   1.0000   1.0000   1.0000   1.0000   1.0000
     1.0000   1.0000   1.0000   1.0000   1.0000   1.0000   1.0000   1.0000
     1.0000   1.0000   1.0000   1.0000   1.0000   1.0000

          k =-0.3333 0.3849 0.8766 (  4888 PWs)   bands (ev):

    -9.3983  -9.1315  -8.6346  -8.6139  -8.2905  -8.2788   2.5275   2.5743
     2.6606   2.6877   2.8097   2.8960   3.3205   3.4283   3.4887   3.5414
     3.6353   3.6860   3.7431   3.7590   3.9490   3.9977   4.0931   4.1232
     5.0017   5.0255   5.1554   5.1674   5.2097   5.2176   5.2832   5.3054
     5.3335   5.3654   5.4244   5.4713   6.4586   6.4751   6.8189   6.8868
     7.3984   7.5332   7.6429   7.7317   7.9282   7.9727   8.1967   8.2465
     8.4307   8.4526   8.9335   9.0221   9.3185   9.4324

     occupation numbers 
     1.0000   1.0000   1.0000   1.0000   1.0000   1.0000   1.0000   1.0000
     1.0000   1.0000   1.0000   1.0000   1.0000   1.0000   1.0000   1.0000
     1.0000   1.0000   1.0000   1.0000   1.0000   1.0000   1.0000   1.0000
     1.0000   1.0000   1.0000   1.0000   1.0000   1.0000   1.0000   1.0000
     1.0000   1.0000   1.0000   1.0000   1.0000   1.0000   1.0000   1.0000
     1.0000   1.0000   1.0000   1.0000   1.0000   1.0000   1.0000   1.0000
     1.0000   1.0000   1.0000   1.0000   1.0000   1.0000

          k =-0.3333-0.1925 0.2922 (  4888 PWs)   bands (ev):

    -9.6304  -9.3357  -8.6942  -8.5942  -8.4560  -8.1263   2.5429   2.6490
     2.7663   2.8951   2.9704   3.1991   3.2267   3.2913   3.4332   3.5231
     3.5960   3.6840   3.7530   3.8405   3.9496   3.9937   4.1203   4.3679
     4.8663   4.9554   5.0008   5.0955   5.1380   5.2595   5.2849   5.3314
     5.3658   5.4245   5.4864   5.5768   5.6861   5.8740   6.0135   6.1750
     7.0405   7.4740   7.5340   8.3416   8.3709   8.4850   8.6781   8.9486
     9.0647   9.1094   9.3608   9.5645   9.7004   9.9189

     occupation numbers 
     1.0000   1.0000   1.0000   1.0000   1.0000   1.0000   1.0000   1.0000
     1.0000   1.0000   1.0000   1.0000   1.0000   1.0000   1.0000   1.0000
     1.0000   1.0000   1.0000   1.0000   1.0000   1.0000   1.0000   1.0000
     1.0000   1.0000   1.0000   1.0000   1.0000   1.0000   1.0000   1.0000
     1.0000   1.0000   1.0000   1.0000   1.0000   1.0000   1.0000   1.0000
     1.0000   1.0000   1.0000   1.0000   1.0000   1.0000   1.0000   1.0000
     1.0000   1.0000   1.0000   1.0000   1.0000   1.0000

          k =-0.3333-0.1925 0.5844 (  4907 PWs)   bands (ev):

    -9.5409  -9.2614  -8.7471  -8.6928  -8.4037  -8.2061   2.4513   2.5459
     2.6333   2.7200   2.9085   3.0241   3.2309   3.3409   3.4152   3.5210
     3.6051   3.6556   3.7470   3.8810   3.9290   3.9854   4.0528   4.2239
     4.9552   4.9909   5.0961   5.1669   5.1973   5.2466   5.2595   5.3122
     5.3534   5.3750   5.4598   5.4815   5.8297   6.1358   6.5479   6.7210
     7.5031   7.6706   7.8104   8.1193   8.3283   8.3683   8.5413   8.8258
     8.8884   8.9502   9.2423   9.3871   9.4992   9.7526

     occupation numbers 
     1.0000   1.0000   1.0000   1.0000   1.0000   1.0000   1.0000   1.0000
     1.0000   1.0000   1.0000   1.0000   1.0000   1.0000   1.0000   1.0000
     1.0000   1.0000   1.0000   1.0000   1.0000   1.0000   1.0000   1.0000
     1.0000   1.0000   1.0000   1.0000   1.0000   1.0000   1.0000   1.0000
     1.0000   1.0000   1.0000   1.0000   1.0000   1.0000   1.0000   1.0000
     1.0000   1.0000   1.0000   1.0000   1.0000   1.0000   1.0000   1.0000
     1.0000   1.0000   1.0000   1.0000   1.0000   1.0000

          k = 1.3333-0.3849 0.0000 (  4864 PWs)   bands (ev):

    -9.2633  -8.9634  -8.4965  -8.3237  -8.2456  -8.0181   2.6403   2.7557
     2.9754   3.0448   3.1904   3.3133   3.3577   3.4835   3.5849   3.6498
     3.7456   3.9027   3.9551   4.0431   4.1163   4.2544   4.3153   4.4304
     4.8170   4.8785   4.9415   5.0262   5.1199   5.1880   5.3173   5.3795
     5.4119   5.4562   5.4924   5.6197   5.7329   5.8233   5.9558   6.1508
     6.2232   6.4985   6.9416   7.0758   7.1756   7.2975   7.7032   8.0519
     8.1624   8.4578   8.6098   8.9960   9.2363   9.3938

     occupation numbers 
     1.0000   1.0000   1.0000   1.0000   1.0000   1.0000   1.0000   1.0000
     1.0000   1.0000   1.0000   1.0000   1.0000   1.0000   1.0000   1.0000
     1.0000   1.0000   1.0000   1.0000   1.0000   1.0000   1.0000   1.0000
     1.0000   1.0000   1.0000   1.0000   1.0000   1.0000   1.0000   1.0000
     1.0000   1.0000   1.0000   1.0000   1.0000   1.0000   1.0000   1.0000
     1.0000   1.0000   1.0000   1.0000   1.0000   1.0000   1.0000   1.0000
     1.0000   1.0000   1.0000   1.0000   1.0000   1.0000

          k =-0.3333-1.3472 0.2922 (  4866 PWs)   bands (ev):

    -9.2438  -8.9451  -8.4955  -8.3453  -8.2362  -8.0372   2.5909   2.7176
     2.8959   2.9475   3.1250   3.1694   3.4034   3.4821   3.5849   3.6464
     3.6935   3.8099   3.9292   4.0336   4.0887   4.1790   4.2950   4.3832
     4.8742   4.8822   5.0186   5.1186   5.1943   5.2045   5.3109   5.3960
     5.4119   5.4726   5.5269   5.6203   5.8283   5.8994   6.0535   6.2918
     6.3975   6.4754   7.0175   7.1447   7.2751   7.4353   7.7047   8.0869
     8.1252   8.3968   8.6603   8.8892   9.1600   9.2950

     occupation numbers 
     1.0000   1.0000   1.0000   1.0000   1.0000   1.0000   1.0000   1.0000
     1.0000   1.0000   1.0000   1.0000   1.0000   1.0000   1.0000   1.0000
     1.0000   1.0000   1.0000   1.0000   1.0000   1.0000   1.0000   1.0000
     1.0000   1.0000   1.0000   1.0000   1.0000   1.0000   1.0000   1.0000
     1.0000   1.0000   1.0000   1.0000   1.0000   1.0000   1.0000   1.0000
     1.0000   1.0000   1.0000   1.0000   1.0000   1.0000   1.0000   1.0000
     1.0000   1.0000   1.0000   1.0000   1.0000   1.0000

          k = 1.3333-0.3849-0.2922 (  4866 PWs)   bands (ev):

    -9.2442  -8.9479  -8.4917  -8.3451  -8.2360  -8.0381   2.5969   2.7173
     2.9015   2.9623   3.0993   3.1963   3.3875   3.4514   3.5344   3.6363
     3.7536   3.8681   3.8981   4.0538   4.0823   4.2061   4.2634   4.3723
     4.8731   4.8984   5.0185   5.0947   5.1794   5.2082   5.3173   5.3968
     5.4209   5.4714   5.5192   5.6206   5.8257   5.8915   6.0522   6.3170
     6.3584   6.4992   7.0282   7.1454   7.2510   7.4338   7.7194   8.0465
     8.1633   8.4231   8.6268   8.8987   9.1683   9.2962

     occupation numbers 
     1.0000   1.0000   1.0000   1.0000   1.0000   1.0000   1.0000   1.0000
     1.0000   1.0000   1.0000   1.0000   1.0000   1.0000   1.0000   1.0000
     1.0000   1.0000   1.0000   1.0000   1.0000   1.0000   1.0000   1.0000
     1.0000   1.0000   1.0000   1.0000   1.0000   1.0000   1.0000   1.0000
     1.0000   1.0000   1.0000   1.0000   1.0000   1.0000   1.0000   1.0000
     1.0000   1.0000   1.0000   1.0000   1.0000   1.0000   1.0000   1.0000
     1.0000   1.0000   1.0000   1.0000   1.0000   1.0000

          k =-1.3333 0.3849-0.2922 (  4866 PWs)   bands (ev):

    -9.2436  -8.9460  -8.4928  -8.3453  -8.2399  -8.0355   2.6056   2.7025
     2.8605   2.9899   3.1076   3.2024   3.3722   3.4908   3.5692   3.6388
     3.7250   3.8160   3.9287   4.0162   4.0898   4.1880   4.2892   4.3759
     4.8540   4.9124   5.0175   5.1125   5.1711   5.2272   5.3212   5.3545
     5.4326   5.5071   5.5356   5.6011   5.8202   5.9036   6.0410   6.3217
     6.3633   6.4779   7.0241   7.1731   7.2594   7.4245   7.7179   8.0195
     8.1961   8.4024   8.6204   8.9039   9.1597   9.3003

     occupation numbers 
     1.0000   1.0000   1.0000   1.0000   1.0000   1.0000   1.0000   1.0000
     1.0000   1.0000   1.0000   1.0000   1.0000   1.0000   1.0000   1.0000
     1.0000   1.0000   1.0000   1.0000   1.0000   1.0000   1.0000   1.0000
     1.0000   1.0000   1.0000   1.0000   1.0000   1.0000   1.0000   1.0000
     1.0000   1.0000   1.0000   1.0000   1.0000   1.0000   1.0000   1.0000
     1.0000   1.0000   1.0000   1.0000   1.0000   1.0000   1.0000   1.0000
     1.0000   1.0000   1.0000   1.0000   1.0000   1.0000

          k =-0.3333-1.3472 0.5844 (  4865 PWs)   bands (ev):

    -9.2030  -8.9074  -8.4872  -8.3990  -8.2046  -8.0868   2.5100   2.6075
     2.7456   2.7635   2.9853   3.0442   3.4096   3.4362   3.6009   3.6293
     3.6740   3.7334   3.8970   3.9525   4.0219   4.0765   4.2677   4.3253
     4.9553   4.9851   5.1120   5.1658   5.2360   5.2495   5.2919   5.3547
     5.4231   5.4658   5.5518   5.7091   5.8015   6.0979   6.2263   6.4754
     6.6680   6.7992   7.2198   7.4339   7.5352   7.6794   7.7680   8.0126
     8.2549   8.3747   8.5582   8.6397   8.8701   9.0366

     occupation numbers 
     1.0000   1.0000   1.0000   1.0000   1.0000   1.0000   1.0000   1.0000
     1.0000   1.0000   1.0000   1.0000   1.0000   1.0000   1.0000   1.0000
     1.0000   1.0000   1.0000   1.0000   1.0000   1.0000   1.0000   1.0000
     1.0000   1.0000   1.0000   1.0000   1.0000   1.0000   1.0000   1.0000
     1.0000   1.0000   1.0000   1.0000   1.0000   1.0000   1.0000   1.0000
     1.0000   1.0000   1.0000   1.0000   1.0000   1.0000   1.0000   1.0000
     1.0000   1.0000   1.0000   1.0000   1.0000   1.0000

          k = 1.3333-0.3849-0.5844 (  4865 PWs)   bands (ev):

    -9.2033  -8.9109  -8.4822  -8.3991  -8.2036  -8.0888   2.5155   2.5990
     2.7317   2.8137   2.9732   3.0304   3.4033   3.4389   3.5268   3.6386
     3.7153   3.7773   3.8305   3.9808   4.0537   4.1075   4.2331   4.3123
     4.9677   4.9798   5.1114   5.1601   5.2283   5.2519   5.3002   5.3528
     5.4347   5.4605   5.5474   5.7114   5.8043   6.0605   6.2487   6.4742
     6.6392   6.8128   7.2517   7.4107   7.5064   7.7177   7.7635   7.9820
     8.2791   8.3926   8.5182   8.6783   8.8653   9.0404

     occupation numbers 
     1.0000   1.0000   1.0000   1.0000   1.0000   1.0000   1.0000   1.0000
     1.0000   1.0000   1.0000   1.0000   1.0000   1.0000   1.0000   1.0000
     1.0000   1.0000   1.0000   1.0000   1.0000   1.0000   1.0000   1.0000
     1.0000   1.0000   1.0000   1.0000   1.0000   1.0000   1.0000   1.0000
     1.0000   1.0000   1.0000   1.0000   1.0000   1.0000   1.0000   1.0000
     1.0000   1.0000   1.0000   1.0000   1.0000   1.0000   1.0000   1.0000
     1.0000   1.0000   1.0000   1.0000   1.0000   1.0000

          k =-1.3333 0.3849-0.5844 (  4865 PWs)   bands (ev):

    -9.2026  -8.9087  -8.4845  -8.3988  -8.2093  -8.0842   2.5249   2.5929
     2.6942   2.8322   2.9800   3.0298   3.3889   3.4627   3.5745   3.6379
     3.6805   3.7560   3.8842   3.9674   4.0096   4.0937   4.2397   4.3228
     4.9418   5.0035   5.1304   5.1594   5.2042   5.2558   5.3190   5.3448
     5.4139   5.4868   5.5510   5.6907   5.8194   6.0810   6.2264   6.4730
     6.6663   6.7962   7.2491   7.4228   7.5639   7.6870   7.7572   7.9475
     8.2891   8.3982   8.5103   8.6629   8.8632   9.0456

     occupation numbers 
     1.0000   1.0000   1.0000   1.0000   1.0000   1.0000   1.0000   1.0000
     1.0000   1.0000   1.0000   1.0000   1.0000   1.0000   1.0000   1.0000
     1.0000   1.0000   1.0000   1.0000   1.0000   1.0000   1.0000   1.0000
     1.0000   1.0000   1.0000   1.0000   1.0000   1.0000   1.0000   1.0000
     1.0000   1.0000   1.0000   1.0000   1.0000   1.0000   1.0000   1.0000
     1.0000   1.0000   1.0000   1.0000   1.0000   1.0000   1.0000   1.0000
     1.0000   1.0000   1.0000   1.0000   1.0000   1.0000

          k = 1.3333-0.3849 0.8766 (  4872 PWs)   bands (ev):

    -9.1813  -8.8881  -8.4740  -8.4364  -8.1540  -8.1465   2.4798   2.5296
     2.6409   2.7505   2.9142   2.9626   3.4208   3.4386   3.5720   3.6291
     3.6803   3.7255   3.8660   3.9094   4.0072   4.0550   4.2281   4.2971
     5.0004   5.0624   5.1575   5.2002   5.2095   5.2354   5.3059   5.3469
     5.3939   5.4355   5.6166   5.6315   5.9707   6.0536   6.3191   6.3407
     7.0426   7.1249   7.2337   7.3237   7.8562   7.9473   8.0391   8.1241
     8.2260   8.3230   8.3833   8.4311   8.6878   8.7382

     occupation numbers 
     1.0000   1.0000   1.0000   1.0000   1.0000   1.0000   1.0000   1.0000
     1.0000   1.0000   1.0000   1.0000   1.0000   1.0000   1.0000   1.0000
     1.0000   1.0000   1.0000   1.0000   1.0000   1.0000   1.0000   1.0000
     1.0000   1.0000   1.0000   1.0000   1.0000   1.0000   1.0000   1.0000
     1.0000   1.0000   1.0000   1.0000   1.0000   1.0000   1.0000   1.0000
     1.0000   1.0000   1.0000   1.0000   1.0000   1.0000   1.0000   1.0000
     1.0000   1.0000   1.0000   1.0000   1.0000   1.0000

          k = 0.5000-0.8660 0.2922 (  4871 PWs)   bands (ev):

    -9.2482  -8.9405  -8.4906  -8.3388  -8.2513  -8.0337   2.6317   2.7462
     2.8685   2.9509   3.0894   3.1584   3.3780   3.4746   3.5612   3.6291
     3.6894   3.8127   3.9369   4.0227   4.1081   4.2017   4.2747   4.3368
     4.8690   4.8953   5.0237   5.1379   5.1805   5.2124   5.3277   5.3837
     5.4388   5.5208   5.6416   5.6892   5.7570   5.7771   6.0341   6.3731
     6.4732   6.6880   6.8882   7.1627   7.2101   7.2723   7.5910   8.1165
     8.3693   8.4243   8.6179   8.6939   9.1933   9.2534

     occupation numbers 
     1.0000   1.0000   1.0000   1.0000   1.0000   1.0000   1.0000   1.0000
     1.0000   1.0000   1.0000   1.0000   1.0000   1.0000   1.0000   1.0000
     1.0000   1.0000   1.0000   1.0000   1.0000   1.0000   1.0000   1.0000
     1.0000   1.0000   1.0000   1.0000   1.0000   1.0000   1.0000   1.0000
     1.0000   1.0000   1.0000   1.0000   1.0000   1.0000   1.0000   1.0000
     1.0000   1.0000   1.0000   1.0000   1.0000   1.0000   1.0000   1.0000
     1.0000   1.0000   1.0000   1.0000   1.0000   1.0000

          k = 0.5000-0.8660 0.5844 (  4872 PWs)   bands (ev):

    -9.2051  -8.9079  -8.4808  -8.3944  -8.2155  -8.0843   2.5441   2.6122
     2.7263   2.8106   2.9378   2.9982   3.4046   3.4507   3.5773   3.6171
     3.6706   3.7483   3.8903   3.9574   4.0446   4.1153   4.2070   4.2752
     4.9532   4.9968   5.1323   5.1946   5.2284   5.2471   5.3189   5.3665
     5.4346   5.4988   5.5760   5.6415   5.8947   5.9575   6.2989   6.4060
     6.6872   7.0639   7.2269   7.4498   7.5703   7.5780   7.6393   8.1150
     8.2277   8.3610   8.4586   8.5766   8.8908   8.9941

     occupation numbers 
     1.0000   1.0000   1.0000   1.0000   1.0000   1.0000   1.0000   1.0000
     1.0000   1.0000   1.0000   1.0000   1.0000   1.0000   1.0000   1.0000
     1.0000   1.0000   1.0000   1.0000   1.0000   1.0000   1.0000   1.0000
     1.0000   1.0000   1.0000   1.0000   1.0000   1.0000   1.0000   1.0000
     1.0000   1.0000   1.0000   1.0000   1.0000   1.0000   1.0000   1.0000
     1.0000   1.0000   1.0000   1.0000   1.0000   1.0000   1.0000   1.0000
     1.0000   1.0000   1.0000   1.0000   1.0000   1.0000

     highest occupied level (ev):    10.1173

!    total energy              =   -1084.66050575 Ry
     estimated scf accuracy    <          5.3E-09 Ry

     The total energy is the sum of the following terms:
     one-electron contribution =    -396.84960165 Ry
     hartree contribution      =     331.75926505 Ry
     xc contribution           =    -329.94804814 Ry
     ewald contribution        =    -689.62212101 Ry

     convergence has been achieved in  22 iterations

     Forces acting on atoms (cartesian axes, Ry/au):

     atom    1 type  1   force =    -0.04880680   -0.01207476    0.05050135
     atom    2 type  1   force =     0.04747523    0.03590924    0.07153242
     atom    3 type  2   force =     0.03743842    0.01183884   -0.03231600
     atom    4 type  2   force =     0.01777794   -0.00874885   -0.04277557
     atom    5 type  1   force =     0.00763886    0.01420518    0.06220623
     atom    6 type  1   force =    -0.02515888   -0.00757590   -0.05738193
     atom    7 type  2   force =    -0.01869455   -0.01984877   -0.07031485
     atom    8 type  2   force =     0.03583517    0.01443496    0.02820087
     atom    9 type  1   force =     0.00206177   -0.03153806   -0.02581207
     atom   10 type  1   force =     0.03323304    0.00178372    0.02039217
     atom   11 type  2   force =    -0.07172058   -0.02498706   -0.00027269
     atom   12 type  2   force =    -0.01707960    0.02660146   -0.00395993
     The non-local contrib.  to forces
     atom    1 type  1   force =     0.02969651    0.03626500    0.15850655
     atom    2 type  1   force =     0.01487685    0.03991258    0.20873984
     atom    3 type  2   force =    -0.00440045   -0.01161394    0.07553890
     atom    4 type  2   force =    -0.02465733    0.09016470    0.15269846
     atom    5 type  1   force =    -0.05023283   -0.02115101    0.16615351
     atom    6 type  1   force =    -0.00614132    0.02585336    0.04009027
     atom    7 type  2   force =     0.07388094    0.01712549    0.17796649
     atom    8 type  2   force =     0.02725448    0.03742706    0.05791222
     atom    9 type  1   force =    -0.06003817   -0.09026080    0.07520386
     atom   10 type  1   force =     0.09329678   -0.00372554    0.06578062
     atom   11 type  2   force =     0.01535667    0.01882859    0.00942730
     atom   12 type  2   force =    -0.07385186   -0.17367868    0.09886184
     The ionic contribution  to forces
     atom    1 type  1   force =    -0.42394916    0.02883784    2.05911574
     atom    2 type  1   force =     1.42385865    1.00974693    2.75290747
     atom    3 type  2   force =     1.09585653    0.58337659   -1.15841034
     atom    4 type  2   force =     0.36306972   -0.63865509   -1.84284021
     atom    5 type  1   force =     0.45582839    0.38301985    3.92454674
     atom    6 type  1   force =    -0.95127812   -0.31304989   -2.50630663
     atom    7 type  2   force =    -0.81582743   -0.47034631   -3.18435263
     atom    8 type  2   force =     0.32561924    0.05638297    0.62510138
     atom    9 type  1   force =    -0.70183896   -1.00467285   -0.70086866
     atom   10 type  1   force =     0.38940097   -0.14533058    0.87137218
     atom   11 type  2   force =    -1.27802553   -0.64668390   -0.17338902
     atom   12 type  2   force =     0.11728569    1.15737445   -0.66687602
     The local contribution  to forces
     atom    1 type  1   force =     0.34144298   -0.07689778   -2.15206830
     atom    2 type  1   force =    -1.38505490   -1.00738894   -2.86984707
     atom    3 type  2   force =    -1.05375565   -0.55991308    1.05098032
     atom    4 type  2   force =    -0.32073419    0.54049228    1.64838982
     atom    5 type  1   force =    -0.39915027   -0.34700938   -4.01111778
     atom    6 type  1   force =     0.92869739    0.28012490    2.40369624
     atom    7 type  2   force =     0.72379689    0.43339947    2.93710675
     atom    8 type  2   force =    -0.31657452   -0.07893751   -0.65414047
     atom    9 type  1   force =     0.76075473    1.05477669    0.60060981
     atom   10 type  1   force =    -0.44086331    0.15046707   -0.91081506
     atom   11 type  2   force =     1.19062323    0.60285807    0.16373649
     atom   12 type  2   force =    -0.06130568   -0.95852506    0.56484885
     The core correction contribution to forces
     atom    1 type  1   force =     0.00408071   -0.00023868   -0.01502784
     atom    2 type  1   force =    -0.00616920   -0.00633855   -0.02025899
     atom    3 type  2   force =    -0.00021256    0.00001662   -0.00042232
     atom    4 type  2   force =     0.00011090   -0.00074394   -0.00101885
     atom    5 type  1   force =     0.00122614   -0.00063521   -0.01735993
     atom    6 type  1   force =     0.00364203   -0.00045714    0.00509278
     atom    7 type  2   force =    -0.00054374   -0.00002689   -0.00103581
     atom    8 type  2   force =    -0.00042296   -0.00041360   -0.00067164
     atom    9 type  1   force =     0.00307383    0.00856003   -0.00076338
     atom   10 type  1   force =    -0.00871992    0.00029954   -0.00594143
     atom   11 type  2   force =     0.00028098   -0.00001470   -0.00004347
     atom   12 type  2   force =     0.00074031    0.00139983   -0.00079537
     The Hubbard contrib.    to forces
     atom    1 type  1   force =     0.00000000    0.00000000    0.00000000
     atom    2 type  1   force =     0.00000000    0.00000000    0.00000000
     atom    3 type  2   force =     0.00000000    0.00000000    0.00000000
     atom    4 type  2   force =     0.00000000    0.00000000    0.00000000
     atom    5 type  1   force =     0.00000000    0.00000000    0.00000000
     atom    6 type  1   force =     0.00000000    0.00000000    0.00000000
     atom    7 type  2   force =     0.00000000    0.00000000    0.00000000
     atom    8 type  2   force =     0.00000000    0.00000000    0.00000000
     atom    9 type  1   force =     0.00000000    0.00000000    0.00000000
     atom   10 type  1   force =     0.00000000    0.00000000    0.00000000
     atom   11 type  2   force =     0.00000000    0.00000000    0.00000000
     atom   12 type  2   force =     0.00000000    0.00000000    0.00000000
     The SCF correction term to forces
     atom    1 type  1   force =    -0.00007752   -0.00004079   -0.00002451
     atom    2 type  1   force =    -0.00003585   -0.00002243   -0.00000853
     atom    3 type  2   force =    -0.00004913   -0.00002700   -0.00000227
     atom    4 type  2   force =    -0.00001083   -0.00000644   -0.00000450
     atom    5 type  1   force =    -0.00003224   -0.00001870   -0.00001602
     atom    6 type  1   force =    -0.00007855   -0.00004677    0.00004570
     atom    7 type  2   force =    -0.00000089   -0.00000019    0.00000065
     atom    8 type  2   force =    -0.00004075   -0.00002361   -0.00000033
     atom    9 type  1   force =     0.00011066    0.00005922    0.00000660
     atom   10 type  1   force =     0.00011885    0.00007358   -0.00000385
     atom   11 type  2   force =     0.00004439    0.00002523   -0.00000370
     atom   12 type  2   force =     0.00005226    0.00003128    0.00000106

     Total force =     0.211204     Total SCF correction =     0.000264

     init_run     :      9.63s CPU      6.10s WALL (       1 calls)
     electrons    :    480.62s CPU    274.86s WALL (       1 calls)
     forces       :      3.44s CPU      1.96s WALL (       1 calls)

     Called by init_run:
     wfcinit      :      6.04s CPU      3.29s WALL (       1 calls)
     wfcinit:atom :      0.06s CPU      0.03s WALL (      14 calls)
     wfcinit:wfcr :      5.65s CPU      3.00s WALL (      14 calls)
     potinit      :      1.22s CPU      0.82s WALL (       1 calls)
     hinit0       :      2.21s CPU      1.86s WALL (       1 calls)

     Called by electrons:
     c_bands      :    419.60s CPU    239.87s WALL (      22 calls)
     sum_band     :     53.11s CPU     30.06s WALL (      22 calls)
     v_of_rho     :      4.43s CPU      2.78s WALL (      23 calls)
     v_h          :      0.22s CPU      0.15s WALL (      23 calls)
     v_xc         :      4.37s CPU      2.74s WALL (      24 calls)
     newd         :      2.68s CPU      1.58s WALL (      23 calls)
     mix_rho      :      0.52s CPU      0.35s WALL (      22 calls)

     Called by c_bands:
     init_us_2    :      3.19s CPU      1.72s WALL (     644 calls)
     init_us_2:cp :      3.18s CPU      1.71s WALL (     644 calls)
     cegterg      :    372.40s CPU    203.10s WALL (     308 calls)

     Called by sum_band:
     sum_band:wei :      0.01s CPU      0.01s WALL (      22 calls)
     sum_band:loo :     46.89s CPU     25.65s WALL (      22 calls)
     sum_band:buf :      0.32s CPU      0.20s WALL (     308 calls)
     sum_band:ini :      1.21s CPU      0.60s WALL (     308 calls)
     sum_band:cal :      6.25s CPU      3.21s WALL (     308 calls)
     sum_band:bec :      0.97s CPU      0.82s WALL (     308 calls)
     addusdens    :      3.26s CPU      1.88s WALL (      22 calls)
     addusd:skk   :      0.02s CPU      0.01s WALL (      44 calls)
     addusd:dgemm :      0.48s CPU      0.24s WALL (      44 calls)
     addusd:qvan2 :      1.87s CPU      0.96s WALL (      44 calls)

     Called by *egterg:
     cdiaghg      :     22.06s CPU     17.24s WALL (    1687 calls)
     cegterg:over :     24.80s CPU     14.08s WALL (    1379 calls)
     cegterg:upda :     12.23s CPU      5.93s WALL (    1379 calls)
     cegterg:last :     26.53s CPU     14.22s WALL (     997 calls)
     h_psi        :    258.62s CPU    135.55s WALL (    1701 calls)
     s_psi        :     19.20s CPU      9.45s WALL (    1701 calls)
     g_psi        :      1.47s CPU      1.11s WALL (    1379 calls)

     Called by h_psi:
     h_psi:calbec :     24.32s CPU     12.41s WALL (    1701 calls)
     vloc_psi     :    215.81s CPU    112.96s WALL (    1701 calls)
     add_vuspsi   :     17.51s CPU      9.48s WALL (    1701 calls)

     General routines
     calbec       :     31.62s CPU     16.23s WALL (    2065 calls)
     fft          :      2.96s CPU      2.24s WALL (     308 calls)
     ffts         :      0.33s CPU      0.27s WALL (      45 calls)
     fftw         :    224.20s CPU    117.66s WALL (  133102 calls)
     interpolate  :      0.42s CPU      0.34s WALL (      23 calls)

     Parallel routines

     PWSCF        :   8m14.22s CPU   4m43.47s WALL


   This run was terminated on:  14:57: 0  28Sep2025            

=------------------------------------------------------------------------------=
   JOB DONE.
=------------------------------------------------------------------------------=
