
     Program PWSCF v.7.2 starts on 28Sep2025 at 11:28:32 

     This program is part of the open-source Quantum ESPRESSO suite
     for quantum simulation of materials; please cite
         "P. Giannozzi et al., J. Phys.:Condens. Matter 21 395502 (2009);
         "P. Giannozzi et al., J. Phys.:Condens. Matter 29 465901 (2017);
         "P. Giannozzi et al., J. Chem. Phys. 152 154105 (2020);
          URL http://www.quantum-espresso.org", 
     in publications or presentations arising from this work. More details at
     http://www.quantum-espresso.org/quote

     Parallel version (MPI), running on    32 processors

     MPI processes distributed on     1 nodes
     112417 MiB available memory on the printing compute node when the environment starts

     Reading input from /home/jvc/QEspresso7.2/ZnO_database/scripts/random_1x3x1.in/ZnO-3.40-1.74-131-0.12-3.in
Warning: card &CELL ignored
Warning: card / ignored
Warning: card &FCP ignored
Warning: card / ignored
Warning: card &RISM ignored
Warning: card / ignored

     Current dimensions of program PWSCF are:
     Max number of different atomic species (ntypx) = 10
     Max number of k-points (npk) =  40000
     Max angular momentum in pseudopotentials (lmaxx) =  4
     file Zn.upf: wavefunction(s)  3D renormalized

     K-points division:     npool     =       8
     R & G space division:  proc/nbgrp/npool/nimage =       4
     Subspace diagonalization in iterative solution of the eigenvalue problem:
     a serial algorithm will be used


     Parallelization info
     --------------------
     sticks:   dense  smooth     PW     G-vecs:    dense   smooth      PW
     Min         857     427    124                40595    14365    2308
     Max         858     428    125                40598    14368    2311
     Sum        3431    1709    499               162389    57463    9237

     Using Slab Decomposition



     bravais-lattice index     =            0
     lattice parameter (alat)  =       6.4260  a.u.
     unit-cell volume          =    1201.9670 (a.u.)^3
     number of atoms/cell      =           12
     number of atomic types    =            2
     number of electrons       =       108.00
     number of Kohn-Sham states=           54
     kinetic-energy cutoff     =      50.0000  Ry
     charge density cutoff     =     400.0000  Ry
     scf convergence threshold =      1.0E-08
     mixing beta               =       0.3000
     number of iterations used =            8  plain     mixing
     Exchange-correlation= PBE
                           (   1   4   3   4   0   0   0)

     celldm(1)=   6.425974  celldm(2)=   0.000000  celldm(3)=   0.000000
     celldm(4)=   0.000000  celldm(5)=   0.000000  celldm(6)=   0.000000

     crystal axes: (cart. coord. in units of alat)
               a(1) = (   1.000000   0.000000   0.000000 )  
               a(2) = (  -1.500000   2.598076   0.000000 )  
               a(3) = (   0.000000   0.000000   1.743507 )  

     reciprocal axes: (cart. coord. in units 2 pi/alat)
               b(1) = (  1.000000  0.577350 -0.000000 )  
               b(2) = (  0.000000  0.384900  0.000000 )  
               b(3) = (  0.000000 -0.000000  0.573557 )  


     PseudoPot. # 1 for Zn read from file:
     /home/jvc/QEspresso7.2/ZnO_database/pseudos/Zn.upf
     MD5 check sum: 7f56cabf9682ed8c977c2f7d0c5985c5
     Pseudo is Ultrasoft + core correction, Zval = 12.0
     Generated using &quot;atomic&quot; code by A. Dal Corso  v.6.2.2
     Using radial grid of 1201 points,  6 beta functions with: 
                l(1) =   0
                l(2) =   0
                l(3) =   1
                l(4) =   1
                l(5) =   2
                l(6) =   2
     Q(r) pseudized with 0 coefficients 


     PseudoPot. # 2 for O  read from file:
     /home/jvc/QEspresso7.2/ZnO_database/pseudos/O.upf
     MD5 check sum: 91400c9766925bcf19f520983a725ff0
     Pseudo is Ultrasoft + core correction, Zval =  6.0
     Generated using &quot;atomic&quot; code by A. Dal Corso  v.6.3MaX
     Using radial grid of 1095 points,  4 beta functions with: 
                l(1) =   0
                l(2) =   0
                l(3) =   1
                l(4) =   1
     Q(r) pseudized with 0 coefficients 


     atomic species   valence    mass     pseudopotential
        Zn            12.00    65.38000     Zn( 1.00)
        O              6.00    15.99900     O ( 1.00)

     No symmetry found


                                    s                        frac. trans.

      isym =  1     identity                                     

 cryst.   s( 1) = (     1          0          0      )
                  (     0          1          0      )
                  (     0          0          1      )

 cart.    s( 1) = (  1.0000000 -0.0000000  0.0000000 )
                  (  0.0000000  1.0000000  0.0000000 )
                  (  0.0000000  0.0000000  1.0000000 )


   Cartesian axes

     site n.     atom                  positions (alat units)
         1           Zn  tau(   1) = (   0.4794389   0.2929943   0.8337118  )
         2           Zn  tau(   2) = (   0.0022620   0.5937313  -0.0041289  )
         3           O   tau(   3) = (   0.5077524   0.2342177   1.5225872  )
         4           O   tau(   4) = (  -0.0189136   0.6100718   0.6426607  )
         5           Zn  tau(   5) = (  -0.0290554   1.1972632   0.8801387  )
         6           Zn  tau(   6) = (  -0.4806317   1.5088286  -0.0017967  )
         7           O   tau(   7) = (  -0.0209230   1.1452311   1.5805478  )
         8           O   tau(   8) = (  -0.5166018   1.4655724   0.7155702  )
         9           Zn  tau(   9) = (  -0.5336017   1.9981602   0.8677008  )
        10           Zn  tau(  10) = (  -1.0340020   2.3266383   0.0196614  )
        11           O   tau(  11) = (  -0.5148624   2.0100762   1.4939589  )
        12           O   tau(  12) = (  -1.0259644   2.3059186   0.6385253  )

   Crystallographic axes

     site n.     atom                  positions (cryst. coord.)
         1           Zn  tau(   1) = (  0.6485993  0.1127736  0.4781809  )
         2           Zn  tau(   2) = (  0.3450529  0.2285273 -0.0023681  )
         3           O   tau(   3) = (  0.6429780  0.0901504  0.8732900  )
         4           O   tau(   4) = (  0.3333115  0.2348167  0.3686023  )
         5           Zn  tau(   5) = (  0.6621848  0.4608268  0.5048094  )
         6           Zn  tau(   6) = (  0.3904909  0.5807484 -0.0010305  )
         7           O   tau(   7) = (  0.6402765  0.4407997  0.9065336  )
         8           O   tau(   8) = (  0.3295469  0.5640991  0.4104201  )
         9           Zn  tau(   9) = (  0.6200367  0.7690922  0.4976755  )
        10           Zn  tau(  10) = (  0.3092832  0.8955235  0.0112770  )
        11           O   tau(  11) = (  0.6456557  0.7736787  0.8568700  )
        12           O   tau(  12) = (  0.3053583  0.8875485  0.3662304  )

     number of k points=   112
                       cart. coord. in units 2pi/alat
        k(    1) = (   0.0000000   0.0000000   0.0000000), wk =   0.0092593
        k(    2) = (   0.0000000   0.0000000   0.0955928), wk =   0.0185185
        k(    3) = (   0.0000000   0.0000000   0.1911855), wk =   0.0185185
        k(    4) = (   0.0000000   0.0000000  -0.2867783), wk =   0.0092593
        k(    5) = (   0.0000000   0.0641500   0.0000000), wk =   0.0185185
        k(    6) = (   0.0000000   0.0641500   0.0955928), wk =   0.0185185
        k(    7) = (   0.0000000   0.0641500   0.1911855), wk =   0.0185185
        k(    8) = (   0.0000000   0.0641500  -0.2867783), wk =   0.0185185
        k(    9) = (   0.0000000   0.1283001   0.0000000), wk =   0.0185185
        k(   10) = (   0.0000000   0.1283001   0.0955928), wk =   0.0185185
        k(   11) = (   0.0000000   0.1283001   0.1911855), wk =   0.0185185
        k(   12) = (   0.0000000   0.1283001  -0.2867783), wk =   0.0185185
        k(   13) = (   0.0000000  -0.1924501   0.0000000), wk =   0.0092593
        k(   14) = (   0.0000000  -0.1924501   0.0955928), wk =   0.0185185
        k(   15) = (   0.0000000  -0.1924501   0.1911855), wk =   0.0185185
        k(   16) = (   0.0000000  -0.1924501  -0.2867783), wk =   0.0092593
        k(   17) = (   0.1666667   0.0962250   0.0000000), wk =   0.0185185
        k(   18) = (   0.1666667   0.0962250   0.0955928), wk =   0.0185185
        k(   19) = (   0.1666667   0.0962250   0.1911855), wk =   0.0185185
        k(   20) = (   0.1666667   0.0962250  -0.2867783), wk =   0.0185185
        k(   21) = (   0.1666667   0.1603751   0.0000000), wk =   0.0185185
        k(   22) = (   0.1666667   0.1603751   0.0955928), wk =   0.0185185
        k(   23) = (   0.1666667   0.1603751   0.1911855), wk =   0.0185185
        k(   24) = (   0.1666667   0.1603751  -0.2867783), wk =   0.0185185
        k(   25) = (   0.1666667  -0.0320750   0.0000000), wk =   0.0185185
        k(   26) = (   0.1666667  -0.0320750   0.0955928), wk =   0.0185185
        k(   27) = (   0.1666667  -0.0320750   0.1911855), wk =   0.0185185
        k(   28) = (   0.1666667  -0.0320750  -0.2867783), wk =   0.0185185
        k(   29) = (   0.3333333   0.1924501   0.0000000), wk =   0.0185185
        k(   30) = (   0.3333333   0.1924501   0.0955928), wk =   0.0185185
        k(   31) = (   0.3333333   0.1924501   0.1911855), wk =   0.0185185
        k(   32) = (   0.3333333   0.1924501  -0.2867783), wk =   0.0185185
        k(   33) = (   0.3333333   0.2566001   0.0000000), wk =   0.0185185
        k(   34) = (   0.3333333   0.2566001   0.0955928), wk =   0.0185185
        k(   35) = (   0.3333333   0.2566001   0.1911855), wk =   0.0185185
        k(   36) = (   0.3333333   0.2566001  -0.2867783), wk =   0.0185185
        k(   37) = (   0.3333333   0.3207501   0.0000000), wk =   0.0185185
        k(   38) = (   0.3333333   0.3207501   0.0955928), wk =   0.0185185
        k(   39) = (   0.3333333   0.3207501   0.1911855), wk =   0.0185185
        k(   40) = (   0.3333333   0.3207501  -0.2867783), wk =   0.0185185
        k(   41) = (   0.3333333   0.0000000   0.0000000), wk =   0.0185185
        k(   42) = (   0.3333333   0.0000000   0.0955928), wk =   0.0185185
        k(   43) = (   0.3333333   0.0000000   0.1911855), wk =   0.0185185
        k(   44) = (   0.3333333   0.0000000  -0.2867783), wk =   0.0185185
        k(   45) = (  -0.5000000  -0.2886751   0.0000000), wk =   0.0092593
        k(   46) = (  -0.5000000  -0.2886751   0.0955928), wk =   0.0185185
        k(   47) = (  -0.5000000  -0.2886751   0.1911855), wk =   0.0185185
        k(   48) = (  -0.5000000  -0.2886751  -0.2867783), wk =   0.0092593
        k(   49) = (  -0.5000000  -0.2245251   0.0000000), wk =   0.0185185
        k(   50) = (  -0.5000000  -0.2245251   0.0955928), wk =   0.0185185
        k(   51) = (  -0.5000000  -0.2245251   0.1911855), wk =   0.0185185
        k(   52) = (  -0.5000000  -0.2245251  -0.2867783), wk =   0.0185185
        k(   53) = (   0.0000000  -0.0641500   0.0955928), wk =   0.0185185
        k(   54) = (   0.0000000  -0.0641500   0.1911855), wk =   0.0185185
        k(   55) = (   0.0000000  -0.1283001   0.0955928), wk =   0.0185185
        k(   56) = (   0.0000000  -0.1283001   0.1911855), wk =   0.0185185
        k(   57) = (  -0.1666667   0.0962250   0.0000000), wk =   0.0185185
        k(   58) = (  -0.1666667  -0.0962250   0.0955928), wk =   0.0185185
        k(   59) = (  -0.1666667   0.0962250  -0.0955928), wk =   0.0185185
        k(   60) = (   0.1666667  -0.0962250  -0.0955928), wk =   0.0185185
        k(   61) = (  -0.1666667  -0.0962250   0.1911855), wk =   0.0185185
        k(   62) = (  -0.1666667   0.0962250  -0.1911855), wk =   0.0185185
        k(   63) = (   0.1666667  -0.0962250  -0.1911855), wk =   0.0185185
        k(   64) = (  -0.1666667   0.0962250   0.2867783), wk =   0.0185185
        k(   65) = (  -0.1666667   0.1603751   0.0000000), wk =   0.0185185
        k(   66) = (  -0.1666667  -0.1603751   0.0955928), wk =   0.0185185
        k(   67) = (  -0.1666667   0.1603751  -0.0955928), wk =   0.0185185
        k(   68) = (   0.1666667  -0.1603751  -0.0955928), wk =   0.0185185
        k(   69) = (  -0.1666667  -0.1603751   0.1911855), wk =   0.0185185
        k(   70) = (  -0.1666667   0.1603751  -0.1911855), wk =   0.0185185
        k(   71) = (   0.1666667  -0.1603751  -0.1911855), wk =   0.0185185
        k(   72) = (  -0.1666667   0.1603751   0.2867783), wk =   0.0185185
        k(   73) = (  -0.1666667  -0.0320750   0.0000000), wk =   0.0185185
        k(   74) = (  -0.1666667   0.0320750   0.0955928), wk =   0.0185185
        k(   75) = (  -0.1666667  -0.0320750  -0.0955928), wk =   0.0185185
        k(   76) = (   0.1666667   0.0320750  -0.0955928), wk =   0.0185185
        k(   77) = (  -0.1666667   0.0320750   0.1911855), wk =   0.0185185
        k(   78) = (  -0.1666667  -0.0320750  -0.1911855), wk =   0.0185185
        k(   79) = (   0.1666667   0.0320750  -0.1911855), wk =   0.0185185
        k(   80) = (  -0.1666667  -0.0320750   0.2867783), wk =   0.0185185
        k(   81) = (  -0.3333333  -0.1924501   0.0955928), wk =   0.0185185
        k(   82) = (  -0.3333333  -0.1924501   0.1911855), wk =   0.0185185
        k(   83) = (  -0.3333333   0.2566001   0.0000000), wk =   0.0185185
        k(   84) = (  -0.3333333  -0.2566001   0.0955928), wk =   0.0185185
        k(   85) = (  -0.3333333   0.2566001  -0.0955928), wk =   0.0185185
        k(   86) = (   0.3333333  -0.2566001  -0.0955928), wk =   0.0185185
        k(   87) = (  -0.3333333  -0.2566001   0.1911855), wk =   0.0185185
        k(   88) = (  -0.3333333   0.2566001  -0.1911855), wk =   0.0185185
        k(   89) = (   0.3333333  -0.2566001  -0.1911855), wk =   0.0185185
        k(   90) = (  -0.3333333   0.2566001   0.2867783), wk =   0.0185185
        k(   91) = (  -0.3333333   0.3207501   0.0000000), wk =   0.0185185
        k(   92) = (  -0.3333333  -0.3207501   0.0955928), wk =   0.0185185
        k(   93) = (  -0.3333333   0.3207501  -0.0955928), wk =   0.0185185
        k(   94) = (   0.3333333  -0.3207501  -0.0955928), wk =   0.0185185
        k(   95) = (  -0.3333333  -0.3207501   0.1911855), wk =   0.0185185
        k(   96) = (  -0.3333333   0.3207501  -0.1911855), wk =   0.0185185
        k(   97) = (   0.3333333  -0.3207501  -0.1911855), wk =   0.0185185
        k(   98) = (  -0.3333333   0.3207501   0.2867783), wk =   0.0185185
        k(   99) = (  -0.3333333  -0.0000000   0.0955928), wk =   0.0185185
        k(  100) = (  -0.3333333  -0.0000000   0.1911855), wk =   0.0185185
        k(  101) = (   0.5000000  -0.2886751   0.0000000), wk =   0.0092593
        k(  102) = (   0.5000000  -0.2886751  -0.0955928), wk =   0.0185185
        k(  103) = (   0.5000000  -0.2886751  -0.1911855), wk =   0.0185185
        k(  104) = (   0.5000000  -0.2886751   0.2867783), wk =   0.0092593
        k(  105) = (   0.5000000  -0.2245251   0.0000000), wk =   0.0185185
        k(  106) = (   0.5000000   0.2245251   0.0955928), wk =   0.0185185
        k(  107) = (   0.5000000  -0.2245251  -0.0955928), wk =   0.0185185
        k(  108) = (  -0.5000000   0.2245251  -0.0955928), wk =   0.0185185
        k(  109) = (   0.5000000   0.2245251   0.1911855), wk =   0.0185185
        k(  110) = (   0.5000000  -0.2245251  -0.1911855), wk =   0.0185185
        k(  111) = (  -0.5000000   0.2245251  -0.1911855), wk =   0.0185185
        k(  112) = (   0.5000000  -0.2245251   0.2867783), wk =   0.0185185

                       cryst. coord.
        k(    1) = (   0.0000000   0.0000000   0.0000000), wk =   0.0092593
        k(    2) = (   0.0000000   0.0000000   0.1666667), wk =   0.0185185
        k(    3) = (   0.0000000   0.0000000   0.3333333), wk =   0.0185185
        k(    4) = (   0.0000000   0.0000000  -0.5000000), wk =   0.0092593
        k(    5) = (   0.0000000   0.1666667   0.0000000), wk =   0.0185185
        k(    6) = (   0.0000000   0.1666667   0.1666667), wk =   0.0185185
        k(    7) = (   0.0000000   0.1666667   0.3333333), wk =   0.0185185
        k(    8) = (   0.0000000   0.1666667  -0.5000000), wk =   0.0185185
        k(    9) = (   0.0000000   0.3333333   0.0000000), wk =   0.0185185
        k(   10) = (   0.0000000   0.3333333   0.1666667), wk =   0.0185185
        k(   11) = (   0.0000000   0.3333333   0.3333333), wk =   0.0185185
        k(   12) = (   0.0000000   0.3333333  -0.5000000), wk =   0.0185185
        k(   13) = (   0.0000000  -0.5000000   0.0000000), wk =   0.0092593
        k(   14) = (   0.0000000  -0.5000000   0.1666667), wk =   0.0185185
        k(   15) = (   0.0000000  -0.5000000   0.3333333), wk =   0.0185185
        k(   16) = (   0.0000000  -0.5000000  -0.5000000), wk =   0.0092593
        k(   17) = (   0.1666667  -0.0000000   0.0000000), wk =   0.0185185
        k(   18) = (   0.1666667  -0.0000000   0.1666667), wk =   0.0185185
        k(   19) = (   0.1666667  -0.0000000   0.3333333), wk =   0.0185185
        k(   20) = (   0.1666667  -0.0000000  -0.5000000), wk =   0.0185185
        k(   21) = (   0.1666667   0.1666667   0.0000000), wk =   0.0185185
        k(   22) = (   0.1666667   0.1666667   0.1666667), wk =   0.0185185
        k(   23) = (   0.1666667   0.1666667   0.3333333), wk =   0.0185185
        k(   24) = (   0.1666667   0.1666667  -0.5000000), wk =   0.0185185
        k(   25) = (   0.1666667  -0.3333333   0.0000000), wk =   0.0185185
        k(   26) = (   0.1666667  -0.3333333   0.1666667), wk =   0.0185185
        k(   27) = (   0.1666667  -0.3333333   0.3333333), wk =   0.0185185
        k(   28) = (   0.1666667  -0.3333333  -0.5000000), wk =   0.0185185
        k(   29) = (   0.3333333  -0.0000000   0.0000000), wk =   0.0185185
        k(   30) = (   0.3333333  -0.0000000   0.1666667), wk =   0.0185185
        k(   31) = (   0.3333333  -0.0000000   0.3333333), wk =   0.0185185
        k(   32) = (   0.3333333  -0.0000000  -0.5000000), wk =   0.0185185
        k(   33) = (   0.3333333   0.1666667   0.0000000), wk =   0.0185185
        k(   34) = (   0.3333333   0.1666667   0.1666667), wk =   0.0185185
        k(   35) = (   0.3333333   0.1666667   0.3333333), wk =   0.0185185
        k(   36) = (   0.3333333   0.1666667  -0.5000000), wk =   0.0185185
        k(   37) = (   0.3333333   0.3333333   0.0000000), wk =   0.0185185
        k(   38) = (   0.3333333   0.3333333   0.1666667), wk =   0.0185185
        k(   39) = (   0.3333333   0.3333333   0.3333333), wk =   0.0185185
        k(   40) = (   0.3333333   0.3333333  -0.5000000), wk =   0.0185185
        k(   41) = (   0.3333333  -0.5000000   0.0000000), wk =   0.0185185
        k(   42) = (   0.3333333  -0.5000000   0.1666667), wk =   0.0185185
        k(   43) = (   0.3333333  -0.5000000   0.3333333), wk =   0.0185185
        k(   44) = (   0.3333333  -0.5000000  -0.5000000), wk =   0.0185185
        k(   45) = (  -0.5000000   0.0000000   0.0000000), wk =   0.0092593
        k(   46) = (  -0.5000000   0.0000000   0.1666667), wk =   0.0185185
        k(   47) = (  -0.5000000   0.0000000   0.3333333), wk =   0.0185185
        k(   48) = (  -0.5000000   0.0000000  -0.5000000), wk =   0.0092593
        k(   49) = (  -0.5000000   0.1666667   0.0000000), wk =   0.0185185
        k(   50) = (  -0.5000000   0.1666667   0.1666667), wk =   0.0185185
        k(   51) = (  -0.5000000   0.1666667   0.3333333), wk =   0.0185185
        k(   52) = (  -0.5000000   0.1666667  -0.5000000), wk =   0.0185185
        k(   53) = (   0.0000000  -0.1666667   0.1666667), wk =   0.0185185
        k(   54) = (   0.0000000  -0.1666667   0.3333333), wk =   0.0185185
        k(   55) = (   0.0000000  -0.3333333   0.1666667), wk =   0.0185185
        k(   56) = (   0.0000000  -0.3333333   0.3333333), wk =   0.0185185
        k(   57) = (  -0.1666667   0.5000000   0.0000000), wk =   0.0185185
        k(   58) = (  -0.1666667   0.0000000   0.1666667), wk =   0.0185185
        k(   59) = (  -0.1666667   0.5000000  -0.1666667), wk =   0.0185185
        k(   60) = (   0.1666667  -0.5000000  -0.1666667), wk =   0.0185185
        k(   61) = (  -0.1666667   0.0000000   0.3333333), wk =   0.0185185
        k(   62) = (  -0.1666667   0.5000000  -0.3333333), wk =   0.0185185
        k(   63) = (   0.1666667  -0.5000000  -0.3333333), wk =   0.0185185
        k(   64) = (  -0.1666667   0.5000000   0.5000000), wk =   0.0185185
        k(   65) = (  -0.1666667   0.6666667   0.0000000), wk =   0.0185185
        k(   66) = (  -0.1666667  -0.1666667   0.1666667), wk =   0.0185185
        k(   67) = (  -0.1666667   0.6666667  -0.1666667), wk =   0.0185185
        k(   68) = (   0.1666667  -0.6666667  -0.1666667), wk =   0.0185185
        k(   69) = (  -0.1666667  -0.1666667   0.3333333), wk =   0.0185185
        k(   70) = (  -0.1666667   0.6666667  -0.3333333), wk =   0.0185185
        k(   71) = (   0.1666667  -0.6666667  -0.3333333), wk =   0.0185185
        k(   72) = (  -0.1666667   0.6666667   0.5000000), wk =   0.0185185
        k(   73) = (  -0.1666667   0.1666667   0.0000000), wk =   0.0185185
        k(   74) = (  -0.1666667   0.3333333   0.1666667), wk =   0.0185185
        k(   75) = (  -0.1666667   0.1666667  -0.1666667), wk =   0.0185185
        k(   76) = (   0.1666667  -0.1666667  -0.1666667), wk =   0.0185185
        k(   77) = (  -0.1666667   0.3333333   0.3333333), wk =   0.0185185
        k(   78) = (  -0.1666667   0.1666667  -0.3333333), wk =   0.0185185
        k(   79) = (   0.1666667  -0.1666667  -0.3333333), wk =   0.0185185
        k(   80) = (  -0.1666667   0.1666667   0.5000000), wk =   0.0185185
        k(   81) = (  -0.3333333   0.0000000   0.1666667), wk =   0.0185185
        k(   82) = (  -0.3333333   0.0000000   0.3333333), wk =   0.0185185
        k(   83) = (  -0.3333333   1.1666667   0.0000000), wk =   0.0185185
        k(   84) = (  -0.3333333  -0.1666667   0.1666667), wk =   0.0185185
        k(   85) = (  -0.3333333   1.1666667  -0.1666667), wk =   0.0185185
        k(   86) = (   0.3333333  -1.1666667  -0.1666667), wk =   0.0185185
        k(   87) = (  -0.3333333  -0.1666667   0.3333333), wk =   0.0185185
        k(   88) = (  -0.3333333   1.1666667  -0.3333333), wk =   0.0185185
        k(   89) = (   0.3333333  -1.1666667  -0.3333333), wk =   0.0185185
        k(   90) = (  -0.3333333   1.1666667   0.5000000), wk =   0.0185185
        k(   91) = (  -0.3333333   1.3333333   0.0000000), wk =   0.0185185
        k(   92) = (  -0.3333333  -0.3333333   0.1666667), wk =   0.0185185
        k(   93) = (  -0.3333333   1.3333333  -0.1666667), wk =   0.0185185
        k(   94) = (   0.3333333  -1.3333333  -0.1666667), wk =   0.0185185
        k(   95) = (  -0.3333333  -0.3333333   0.3333333), wk =   0.0185185
        k(   96) = (  -0.3333333   1.3333333  -0.3333333), wk =   0.0185185
        k(   97) = (   0.3333333  -1.3333333  -0.3333333), wk =   0.0185185
        k(   98) = (  -0.3333333   1.3333333   0.5000000), wk =   0.0185185
        k(   99) = (  -0.3333333   0.5000000   0.1666667), wk =   0.0185185
        k(  100) = (  -0.3333333   0.5000000   0.3333333), wk =   0.0185185
        k(  101) = (   0.5000000  -1.5000000   0.0000000), wk =   0.0092593
        k(  102) = (   0.5000000  -1.5000000  -0.1666667), wk =   0.0185185
        k(  103) = (   0.5000000  -1.5000000  -0.3333333), wk =   0.0185185
        k(  104) = (   0.5000000  -1.5000000   0.5000000), wk =   0.0092593
        k(  105) = (   0.5000000  -1.3333333   0.0000000), wk =   0.0185185
        k(  106) = (   0.5000000  -0.1666667   0.1666667), wk =   0.0185185
        k(  107) = (   0.5000000  -1.3333333  -0.1666667), wk =   0.0185185
        k(  108) = (  -0.5000000   1.3333333  -0.1666667), wk =   0.0185185
        k(  109) = (   0.5000000  -0.1666667   0.3333333), wk =   0.0185185
        k(  110) = (   0.5000000  -1.3333333  -0.3333333), wk =   0.0185185
        k(  111) = (  -0.5000000   1.3333333  -0.3333333), wk =   0.0185185
        k(  112) = (   0.5000000  -1.3333333   0.5000000), wk =   0.0185185

     Dense  grid:   162389 G-vectors     FFT dimensions: (  45, 125,  72)

     Smooth grid:    57463 G-vectors     FFT dimensions: (  30,  90,  54)

     Dynamical RAM for                 wfc:       1.48 MB

     Dynamical RAM for     wfc (w. buffer):      22.17 MB

     Dynamical RAM for           str. fact:       1.24 MB

     Dynamical RAM for           local pot:       0.00 MB

     Dynamical RAM for          nlocal pot:       4.27 MB

     Dynamical RAM for                qrad:       3.21 MB

     Dynamical RAM for          rho,v,vnew:       4.18 MB

     Dynamical RAM for               rhoin:       1.39 MB

     Dynamical RAM for            rho*nmix:       9.91 MB

     Dynamical RAM for           G-vectors:       2.43 MB

     Dynamical RAM for          h,s,v(r/c):       0.53 MB

     Dynamical RAM for          <psi|beta>:       0.13 MB

     Dynamical RAM for                 psi:       2.96 MB

     Dynamical RAM for                hpsi:       2.96 MB

     Dynamical RAM for                spsi:       2.96 MB

     Dynamical RAM for      wfcinit/wfcrot:       4.41 MB

     Dynamical RAM for           addusdens:      15.41 MB

     Dynamical RAM for          addusforce:      15.97 MB

     Estimated static dynamical RAM per process >      44.61 MB

     Estimated max dynamical RAM per process >      70.50 MB

     Estimated total dynamical RAM >       1.93 GB

     Check: negative core charge=   -0.000002

     Initial potential from superposition of free atoms

     starting charge     107.9776, renormalised to     108.0000
     Starting wfcs are   78 randomized atomic wfcs

     total cpu time spent up to now is        7.4 secs

     Self-consistent Calculation

     iteration #  1     ecut=    50.00 Ry     beta= 0.30
     Davidson diagonalization with overlap

---- Real-time Memory Report at c_bands before calling an iterative solver
            80 MiB given to the printing process from OS
             0 MiB allocation reported by mallinfo(arena+hblkhd)
        110513 MiB available memory on the node where the printing process lives
------------------
     ethr =  1.00E-02,  avg # of iterations =  1.5

     total cpu time spent up to now is       15.1 secs

     total energy              =   -1084.13227298 Ry
     estimated scf accuracy    <       2.44872810 Ry

     iteration #  2     ecut=    50.00 Ry     beta= 0.30
     Davidson diagonalization with overlap

---- Real-time Memory Report at c_bands before calling an iterative solver
            95 MiB given to the printing process from OS
             0 MiB allocation reported by mallinfo(arena+hblkhd)
        110068 MiB available memory on the node where the printing process lives
------------------
     ethr =  2.27E-03,  avg # of iterations =  2.0

     total cpu time spent up to now is       24.2 secs

     total energy              =   -1084.49681220 Ry
     estimated scf accuracy    <       0.28580051 Ry

     iteration #  3     ecut=    50.00 Ry     beta= 0.30
     Davidson diagonalization with overlap

---- Real-time Memory Report at c_bands before calling an iterative solver
            96 MiB given to the printing process from OS
             0 MiB allocation reported by mallinfo(arena+hblkhd)
        110114 MiB available memory on the node where the printing process lives
------------------
     ethr =  2.65E-04,  avg # of iterations =  6.5

     total cpu time spent up to now is       40.4 secs

     total energy              =   -1084.56737922 Ry
     estimated scf accuracy    <       0.38225113 Ry

     iteration #  4     ecut=    50.00 Ry     beta= 0.30
     Davidson diagonalization with overlap

---- Real-time Memory Report at c_bands before calling an iterative solver
            97 MiB given to the printing process from OS
             0 MiB allocation reported by mallinfo(arena+hblkhd)
        110132 MiB available memory on the node where the printing process lives
------------------
     ethr =  2.65E-04,  avg # of iterations =  6.2

     total cpu time spent up to now is       56.4 secs

     total energy              =   -1084.79246358 Ry
     estimated scf accuracy    <       0.30622868 Ry

     iteration #  5     ecut=    50.00 Ry     beta= 0.30
     Davidson diagonalization with overlap

---- Real-time Memory Report at c_bands before calling an iterative solver
            97 MiB given to the printing process from OS
             0 MiB allocation reported by mallinfo(arena+hblkhd)
        110144 MiB available memory on the node where the printing process lives
------------------
     ethr =  2.65E-04,  avg # of iterations =  1.0

     total cpu time spent up to now is       63.5 secs

     total energy              =   -1084.65518026 Ry
     estimated scf accuracy    <       0.28691034 Ry

     iteration #  6     ecut=    50.00 Ry     beta= 0.30
     Davidson diagonalization with overlap

---- Real-time Memory Report at c_bands before calling an iterative solver
            98 MiB given to the printing process from OS
             0 MiB allocation reported by mallinfo(arena+hblkhd)
        110137 MiB available memory on the node where the printing process lives
------------------
     ethr =  2.65E-04,  avg # of iterations =  2.0

     total cpu time spent up to now is       72.0 secs

     total energy              =   -1084.66060999 Ry
     estimated scf accuracy    <       0.05175346 Ry

     iteration #  7     ecut=    50.00 Ry     beta= 0.30
     Davidson diagonalization with overlap

---- Real-time Memory Report at c_bands before calling an iterative solver
            98 MiB given to the printing process from OS
             0 MiB allocation reported by mallinfo(arena+hblkhd)
        110132 MiB available memory on the node where the printing process lives
------------------
     c_bands:  1 eigenvalues not converged
     ethr =  4.79E-05,  avg # of iterations =  7.9

     total cpu time spent up to now is       88.9 secs

     total energy              =   -1084.72639330 Ry
     estimated scf accuracy    <       0.07927212 Ry

     iteration #  8     ecut=    50.00 Ry     beta= 0.30
     Davidson diagonalization with overlap

---- Real-time Memory Report at c_bands before calling an iterative solver
            99 MiB given to the printing process from OS
             0 MiB allocation reported by mallinfo(arena+hblkhd)
        110133 MiB available memory on the node where the printing process lives
------------------
     ethr =  4.79E-05,  avg # of iterations =  1.0

     total cpu time spent up to now is       96.1 secs

     total energy              =   -1084.71977918 Ry
     estimated scf accuracy    <       0.05316202 Ry

     iteration #  9     ecut=    50.00 Ry     beta= 0.30
     Davidson diagonalization with overlap

---- Real-time Memory Report at c_bands before calling an iterative solver
            99 MiB given to the printing process from OS
             0 MiB allocation reported by mallinfo(arena+hblkhd)
        110127 MiB available memory on the node where the printing process lives
------------------
     ethr =  4.79E-05,  avg # of iterations =  2.0

     total cpu time spent up to now is      104.1 secs

     total energy              =   -1084.72180557 Ry
     estimated scf accuracy    <       0.02510325 Ry

     iteration # 10     ecut=    50.00 Ry     beta= 0.30
     Davidson diagonalization with overlap

---- Real-time Memory Report at c_bands before calling an iterative solver
            99 MiB given to the printing process from OS
             0 MiB allocation reported by mallinfo(arena+hblkhd)
        110125 MiB available memory on the node where the printing process lives
------------------
     c_bands:  1 eigenvalues not converged
     ethr =  2.32E-05,  avg # of iterations =  1.2

     total cpu time spent up to now is      111.7 secs

     total energy              =   -1084.72290098 Ry
     estimated scf accuracy    <       0.02233707 Ry

     iteration # 11     ecut=    50.00 Ry     beta= 0.30
     Davidson diagonalization with overlap

---- Real-time Memory Report at c_bands before calling an iterative solver
            99 MiB given to the printing process from OS
             0 MiB allocation reported by mallinfo(arena+hblkhd)
        110128 MiB available memory on the node where the printing process lives
------------------
     ethr =  2.07E-05,  avg # of iterations =  1.0

     total cpu time spent up to now is      118.8 secs

     total energy              =   -1084.71852783 Ry
     estimated scf accuracy    <       0.02168028 Ry

     iteration # 12     ecut=    50.00 Ry     beta= 0.30
     Davidson diagonalization with overlap

---- Real-time Memory Report at c_bands before calling an iterative solver
            99 MiB given to the printing process from OS
             0 MiB allocation reported by mallinfo(arena+hblkhd)
        110128 MiB available memory on the node where the printing process lives
------------------
     ethr =  2.01E-05,  avg # of iterations =  1.2

     total cpu time spent up to now is      126.4 secs

     total energy              =   -1084.71829049 Ry
     estimated scf accuracy    <       0.01151671 Ry

     iteration # 13     ecut=    50.00 Ry     beta= 0.30
     Davidson diagonalization with overlap

---- Real-time Memory Report at c_bands before calling an iterative solver
            99 MiB given to the printing process from OS
             0 MiB allocation reported by mallinfo(arena+hblkhd)
        110121 MiB available memory on the node where the printing process lives
------------------
     ethr =  1.07E-05,  avg # of iterations =  2.1

     total cpu time spent up to now is      134.7 secs

     total energy              =   -1084.71811683 Ry
     estimated scf accuracy    <       0.00720254 Ry

     iteration # 14     ecut=    50.00 Ry     beta= 0.30
     Davidson diagonalization with overlap

---- Real-time Memory Report at c_bands before calling an iterative solver
            99 MiB given to the printing process from OS
             0 MiB allocation reported by mallinfo(arena+hblkhd)
        110122 MiB available memory on the node where the printing process lives
------------------
     ethr =  6.67E-06,  avg # of iterations =  2.8

     total cpu time spent up to now is      143.6 secs

     total energy              =   -1084.71827671 Ry
     estimated scf accuracy    <       0.00374831 Ry

     iteration # 15     ecut=    50.00 Ry     beta= 0.30
     Davidson diagonalization with overlap

---- Real-time Memory Report at c_bands before calling an iterative solver
            99 MiB given to the printing process from OS
             0 MiB allocation reported by mallinfo(arena+hblkhd)
        110122 MiB available memory on the node where the printing process lives
------------------
     ethr =  3.47E-06,  avg # of iterations =  6.2

     total cpu time spent up to now is      155.0 secs

     total energy              =   -1084.71917430 Ry
     estimated scf accuracy    <       0.00026267 Ry

     iteration # 16     ecut=    50.00 Ry     beta= 0.30
     Davidson diagonalization with overlap

---- Real-time Memory Report at c_bands before calling an iterative solver
            99 MiB given to the printing process from OS
             0 MiB allocation reported by mallinfo(arena+hblkhd)
        110122 MiB available memory on the node where the printing process lives
------------------
     ethr =  2.43E-07,  avg # of iterations =  7.2

     total cpu time spent up to now is      173.6 secs

     total energy              =   -1084.71948823 Ry
     estimated scf accuracy    <       0.00031578 Ry

     iteration # 17     ecut=    50.00 Ry     beta= 0.30
     Davidson diagonalization with overlap

---- Real-time Memory Report at c_bands before calling an iterative solver
            99 MiB given to the printing process from OS
             0 MiB allocation reported by mallinfo(arena+hblkhd)
        110122 MiB available memory on the node where the printing process lives
------------------
     ethr =  2.43E-07,  avg # of iterations =  1.0

     total cpu time spent up to now is      180.9 secs

     total energy              =   -1084.71960140 Ry
     estimated scf accuracy    <       0.00027123 Ry

     iteration # 18     ecut=    50.00 Ry     beta= 0.30
     Davidson diagonalization with overlap

---- Real-time Memory Report at c_bands before calling an iterative solver
            99 MiB given to the printing process from OS
             0 MiB allocation reported by mallinfo(arena+hblkhd)
        110122 MiB available memory on the node where the printing process lives
------------------
     ethr =  2.43E-07,  avg # of iterations =  2.2

     total cpu time spent up to now is      189.3 secs

     total energy              =   -1084.71955246 Ry
     estimated scf accuracy    <       0.00053925 Ry

     iteration # 19     ecut=    50.00 Ry     beta= 0.30
     Davidson diagonalization with overlap

---- Real-time Memory Report at c_bands before calling an iterative solver
            99 MiB given to the printing process from OS
             0 MiB allocation reported by mallinfo(arena+hblkhd)
        110115 MiB available memory on the node where the printing process lives
------------------
     ethr =  2.43E-07,  avg # of iterations =  1.0

     total cpu time spent up to now is      196.5 secs

     total energy              =   -1084.71939368 Ry
     estimated scf accuracy    <       0.00046978 Ry

     iteration # 20     ecut=    50.00 Ry     beta= 0.30
     Davidson diagonalization with overlap

---- Real-time Memory Report at c_bands before calling an iterative solver
            99 MiB given to the printing process from OS
             0 MiB allocation reported by mallinfo(arena+hblkhd)
        110115 MiB available memory on the node where the printing process lives
------------------
     ethr =  2.43E-07,  avg # of iterations =  2.2

     total cpu time spent up to now is      204.9 secs

     total energy              =   -1084.71934078 Ry
     estimated scf accuracy    <       0.00017679 Ry

     iteration # 21     ecut=    50.00 Ry     beta= 0.30
     Davidson diagonalization with overlap

---- Real-time Memory Report at c_bands before calling an iterative solver
            99 MiB given to the printing process from OS
             0 MiB allocation reported by mallinfo(arena+hblkhd)
        110115 MiB available memory on the node where the printing process lives
------------------
     ethr =  1.64E-07,  avg # of iterations =  5.2

     total cpu time spent up to now is      217.7 secs

     total energy              =   -1084.71943151 Ry
     estimated scf accuracy    <       0.00005311 Ry

     iteration # 22     ecut=    50.00 Ry     beta= 0.30
     Davidson diagonalization with overlap

---- Real-time Memory Report at c_bands before calling an iterative solver
            99 MiB given to the printing process from OS
             0 MiB allocation reported by mallinfo(arena+hblkhd)
        110115 MiB available memory on the node where the printing process lives
------------------
     ethr =  4.92E-08,  avg # of iterations =  1.3

     total cpu time spent up to now is      225.3 secs

     total energy              =   -1084.71943073 Ry
     estimated scf accuracy    <       0.00003124 Ry

     iteration # 23     ecut=    50.00 Ry     beta= 0.30
     Davidson diagonalization with overlap

---- Real-time Memory Report at c_bands before calling an iterative solver
            99 MiB given to the printing process from OS
             0 MiB allocation reported by mallinfo(arena+hblkhd)
        110115 MiB available memory on the node where the printing process lives
------------------
     ethr =  2.89E-08,  avg # of iterations =  2.0

     total cpu time spent up to now is      233.1 secs

     total energy              =   -1084.71942803 Ry
     estimated scf accuracy    <       0.00002157 Ry

     iteration # 24     ecut=    50.00 Ry     beta= 0.30
     Davidson diagonalization with overlap

---- Real-time Memory Report at c_bands before calling an iterative solver
            99 MiB given to the printing process from OS
             0 MiB allocation reported by mallinfo(arena+hblkhd)
        110115 MiB available memory on the node where the printing process lives
------------------
     ethr =  2.00E-08,  avg # of iterations =  2.3

     total cpu time spent up to now is      241.8 secs

     total energy              =   -1084.71943120 Ry
     estimated scf accuracy    <       0.00001032 Ry

     iteration # 25     ecut=    50.00 Ry     beta= 0.30
     Davidson diagonalization with overlap

---- Real-time Memory Report at c_bands before calling an iterative solver
            99 MiB given to the printing process from OS
             0 MiB allocation reported by mallinfo(arena+hblkhd)
        110115 MiB available memory on the node where the printing process lives
------------------
     ethr =  9.56E-09,  avg # of iterations =  2.5

     total cpu time spent up to now is      250.9 secs

     total energy              =   -1084.71942930 Ry
     estimated scf accuracy    <       0.00001214 Ry

     iteration # 26     ecut=    50.00 Ry     beta= 0.30
     Davidson diagonalization with overlap

---- Real-time Memory Report at c_bands before calling an iterative solver
            99 MiB given to the printing process from OS
             0 MiB allocation reported by mallinfo(arena+hblkhd)
        110115 MiB available memory on the node where the printing process lives
------------------
     ethr =  9.56E-09,  avg # of iterations =  2.0

     total cpu time spent up to now is      259.1 secs

     total energy              =   -1084.71942829 Ry
     estimated scf accuracy    <       0.00000598 Ry

     iteration # 27     ecut=    50.00 Ry     beta= 0.30
     Davidson diagonalization with overlap

---- Real-time Memory Report at c_bands before calling an iterative solver
            99 MiB given to the printing process from OS
             0 MiB allocation reported by mallinfo(arena+hblkhd)
        110115 MiB available memory on the node where the printing process lives
------------------
     ethr =  5.54E-09,  avg # of iterations =  5.9

     total cpu time spent up to now is      270.8 secs

     total energy              =   -1084.71943009 Ry
     estimated scf accuracy    <       0.00000030 Ry

     iteration # 28     ecut=    50.00 Ry     beta= 0.30
     Davidson diagonalization with overlap

---- Real-time Memory Report at c_bands before calling an iterative solver
            99 MiB given to the printing process from OS
             0 MiB allocation reported by mallinfo(arena+hblkhd)
        110115 MiB available memory on the node where the printing process lives
------------------
     c_bands:  1 eigenvalues not converged
     ethr =  2.81E-10,  avg # of iterations =  6.3

     total cpu time spent up to now is      286.9 secs

     total energy              =   -1084.71943037 Ry
     estimated scf accuracy    <       0.00000048 Ry

     iteration # 29     ecut=    50.00 Ry     beta= 0.30
     Davidson diagonalization with overlap

---- Real-time Memory Report at c_bands before calling an iterative solver
            99 MiB given to the printing process from OS
             0 MiB allocation reported by mallinfo(arena+hblkhd)
        110115 MiB available memory on the node where the printing process lives
------------------
     ethr =  2.81E-10,  avg # of iterations =  5.5

     total cpu time spent up to now is      298.4 secs

     total energy              =   -1084.71942992 Ry
     estimated scf accuracy    <       0.00000106 Ry

     iteration # 30     ecut=    50.00 Ry     beta= 0.30
     Davidson diagonalization with overlap

---- Real-time Memory Report at c_bands before calling an iterative solver
            99 MiB given to the printing process from OS
             0 MiB allocation reported by mallinfo(arena+hblkhd)
        110115 MiB available memory on the node where the printing process lives
------------------
     ethr =  2.81E-10,  avg # of iterations = 10.1

     total cpu time spent up to now is      318.3 secs

     total energy              =   -1084.71943032 Ry
     estimated scf accuracy    <       0.00000153 Ry

     iteration # 31     ecut=    50.00 Ry     beta= 0.30
     Davidson diagonalization with overlap

---- Real-time Memory Report at c_bands before calling an iterative solver
            99 MiB given to the printing process from OS
             0 MiB allocation reported by mallinfo(arena+hblkhd)
        110115 MiB available memory on the node where the printing process lives
------------------
     ethr =  2.81E-10,  avg # of iterations =  1.3

     total cpu time spent up to now is      325.9 secs

     total energy              =   -1084.71942998 Ry
     estimated scf accuracy    <       0.00000116 Ry

     iteration # 32     ecut=    50.00 Ry     beta= 0.30
     Davidson diagonalization with overlap

---- Real-time Memory Report at c_bands before calling an iterative solver
            99 MiB given to the printing process from OS
             0 MiB allocation reported by mallinfo(arena+hblkhd)
        110115 MiB available memory on the node where the printing process lives
------------------
     ethr =  2.81E-10,  avg # of iterations =  6.0

     total cpu time spent up to now is      339.4 secs

     total energy              =   -1084.71943016 Ry
     estimated scf accuracy    <       0.00000003 Ry

     iteration # 33     ecut=    50.00 Ry     beta= 0.30
     Davidson diagonalization with overlap

---- Real-time Memory Report at c_bands before calling an iterative solver
            99 MiB given to the printing process from OS
             0 MiB allocation reported by mallinfo(arena+hblkhd)
        110115 MiB available memory on the node where the printing process lives
------------------
     ethr =  3.16E-11,  avg # of iterations =  5.9

     total cpu time spent up to now is      350.9 secs

     total energy              =   -1084.71943017 Ry
     estimated scf accuracy    <       0.00000001 Ry

     iteration # 34     ecut=    50.00 Ry     beta= 0.30
     Davidson diagonalization with overlap

---- Real-time Memory Report at c_bands before calling an iterative solver
            99 MiB given to the printing process from OS
             0 MiB allocation reported by mallinfo(arena+hblkhd)
        110115 MiB available memory on the node where the printing process lives
------------------
     ethr =  1.35E-11,  avg # of iterations =  3.6

     total cpu time spent up to now is      361.2 secs

     End of self-consistent calculation

          k = 0.0000 0.0000 0.0000 (  7203 PWs)   bands (ev):

   -12.6988 -12.1873 -11.9476 -11.8616 -11.6858 -11.5765  -1.1946  -0.9759
    -0.8339  -0.7801  -0.7023  -0.6575  -0.5889  -0.5340  -0.5031  -0.4743
    -0.4510  -0.3782  -0.3622  -0.2806  -0.2756  -0.2166  -0.1453  -0.1166
    -0.0733  -0.0591  -0.0445  -0.0073   0.0183   0.0353   0.1022   0.1241
     0.1588   0.1865   0.2093   0.2757   0.5912   1.0807   1.3937   1.6202
     1.7976   2.1846   2.3900   3.0237   3.3426   3.6132   3.6987   3.7465
     3.8970   4.0295   4.1069   4.2198   4.3989   4.4928

     occupation numbers 
     1.0000   1.0000   1.0000   1.0000   1.0000   1.0000   1.0000   1.0000
     1.0000   1.0000   1.0000   1.0000   1.0000   1.0000   1.0000   1.0000
     1.0000   1.0000   1.0000   1.0000   1.0000   1.0000   1.0000   1.0000
     1.0000   1.0000   1.0000   1.0000   1.0000   1.0000   1.0000   1.0000
     1.0000   1.0000   1.0000   1.0000   1.0000   1.0000   1.0000   1.0000
     1.0000   1.0000   1.0000   1.0000   1.0000   1.0000   1.0000   1.0000
     1.0000   1.0000   1.0000   1.0000   1.0000   1.0000

          k = 0.0000 0.0000 0.0956 (  7163 PWs)   bands (ev):

   -12.6913 -12.1792 -11.9580 -11.8508 -11.6949 -11.5843  -1.1961  -0.9770
    -0.8419  -0.7926  -0.6927  -0.6821  -0.6044  -0.5533  -0.5117  -0.4860
    -0.4721  -0.3803  -0.3668  -0.3216  -0.2834  -0.2349  -0.1482  -0.1378
    -0.0805  -0.0709  -0.0632  -0.0097   0.0119   0.0246   0.1038   0.1165
     0.1557   0.1834   0.1936   0.2297   0.8379   1.1483   1.4182   1.6536
     1.8419   2.2725   2.4695   3.0635   3.3794   3.5570   3.6348   3.7302
     3.7676   3.9207   3.9941   4.1170   4.3651   4.4796

     occupation numbers 
     1.0000   1.0000   1.0000   1.0000   1.0000   1.0000   1.0000   1.0000
     1.0000   1.0000   1.0000   1.0000   1.0000   1.0000   1.0000   1.0000
     1.0000   1.0000   1.0000   1.0000   1.0000   1.0000   1.0000   1.0000
     1.0000   1.0000   1.0000   1.0000   1.0000   1.0000   1.0000   1.0000
     1.0000   1.0000   1.0000   1.0000   1.0000   1.0000   1.0000   1.0000
     1.0000   1.0000   1.0000   1.0000   1.0000   1.0000   1.0000   1.0000
     1.0000   1.0000   1.0000   1.0000   1.0000   1.0000

          k = 0.0000 0.0000 0.1912 (  7185 PWs)   bands (ev):

   -12.6759 -12.1604 -11.9829 -11.8215 -11.7198 -11.6002  -1.1996  -0.9795
    -0.8588  -0.8155  -0.7372  -0.6867  -0.6457  -0.5754  -0.5655  -0.5182
    -0.4677  -0.4068  -0.3824  -0.3281  -0.3220  -0.2627  -0.2246  -0.1490
    -0.0863  -0.0755  -0.0601  -0.0142   0.0202   0.0351   0.1057   0.1101
     0.1467   0.1600   0.1766   0.1827   1.1832   1.3706   1.5210   1.6577
     1.7879   2.5838   2.7521   2.9885   3.1590   3.4582   3.4862   3.6381
     3.6755   3.8904   3.9972   4.1357   4.2728   4.4485

     occupation numbers 
     1.0000   1.0000   1.0000   1.0000   1.0000   1.0000   1.0000   1.0000
     1.0000   1.0000   1.0000   1.0000   1.0000   1.0000   1.0000   1.0000
     1.0000   1.0000   1.0000   1.0000   1.0000   1.0000   1.0000   1.0000
     1.0000   1.0000   1.0000   1.0000   1.0000   1.0000   1.0000   1.0000
     1.0000   1.0000   1.0000   1.0000   1.0000   1.0000   1.0000   1.0000
     1.0000   1.0000   1.0000   1.0000   1.0000   1.0000   1.0000   1.0000
     1.0000   1.0000   1.0000   1.0000   1.0000   1.0000

          k = 0.0000 0.0000-0.2868 (  7194 PWs)   bands (ev):

   -12.6679 -12.1487 -11.9981 -11.7968 -11.7419 -11.6082  -1.2015  -0.9808
    -0.8675  -0.8283  -0.7617  -0.7166  -0.6363  -0.5950  -0.5762  -0.5402
    -0.4640  -0.4167  -0.3979  -0.3569  -0.3029  -0.2799  -0.2551  -0.1595
    -0.0800  -0.0680  -0.0612  -0.0162   0.0334   0.0404   0.1085   0.1126
     0.1363   0.1489   0.1518   0.1775   1.3141   1.4344   1.5550   1.6842
     2.0731   2.2499   2.9827   3.1638   3.1978   3.2375   3.4688   3.5823
     3.5956   3.8125   4.0806   4.1453   4.1893   4.4307

     occupation numbers 
     1.0000   1.0000   1.0000   1.0000   1.0000   1.0000   1.0000   1.0000
     1.0000   1.0000   1.0000   1.0000   1.0000   1.0000   1.0000   1.0000
     1.0000   1.0000   1.0000   1.0000   1.0000   1.0000   1.0000   1.0000
     1.0000   1.0000   1.0000   1.0000   1.0000   1.0000   1.0000   1.0000
     1.0000   1.0000   1.0000   1.0000   1.0000   1.0000   1.0000   1.0000
     1.0000   1.0000   1.0000   1.0000   1.0000   1.0000   1.0000   1.0000
     1.0000   1.0000   1.0000   1.0000   1.0000   1.0000

          k = 0.0000 0.0642 0.0000 (  7175 PWs)   bands (ev):

   -12.6974 -12.1878 -11.9597 -11.8495 -11.6891 -11.5739  -1.1934  -0.9745
    -0.8331  -0.7781  -0.7035  -0.6531  -0.5879  -0.5370  -0.5076  -0.4757
    -0.4551  -0.3860  -0.3714  -0.2779  -0.2411  -0.2126  -0.1491  -0.1198
    -0.0797  -0.0721  -0.0203   0.0061   0.0176   0.0391   0.1082   0.1305
     0.1601   0.1888   0.2130   0.2669   0.5948   1.0291   1.2021   1.5235
     2.0706   2.2109   2.5730   2.9687   3.4159   3.4560   3.6993   3.7758
     3.8599   4.0246   4.0561   4.1331   4.2724   4.4729

     occupation numbers 
     1.0000   1.0000   1.0000   1.0000   1.0000   1.0000   1.0000   1.0000
     1.0000   1.0000   1.0000   1.0000   1.0000   1.0000   1.0000   1.0000
     1.0000   1.0000   1.0000   1.0000   1.0000   1.0000   1.0000   1.0000
     1.0000   1.0000   1.0000   1.0000   1.0000   1.0000   1.0000   1.0000
     1.0000   1.0000   1.0000   1.0000   1.0000   1.0000   1.0000   1.0000
     1.0000   1.0000   1.0000   1.0000   1.0000   1.0000   1.0000   1.0000
     1.0000   1.0000   1.0000   1.0000   1.0000   1.0000

          k = 0.0000 0.0642 0.0956 (  7168 PWs)   bands (ev):

   -12.6900 -12.1803 -11.9632 -11.8461 -11.6990 -11.5799  -1.1952  -0.9755
    -0.8417  -0.7912  -0.6981  -0.6736  -0.5995  -0.5451  -0.5321  -0.4847
    -0.4730  -0.4034  -0.3722  -0.2940  -0.2729  -0.2390  -0.1614  -0.1353
    -0.0832  -0.0744  -0.0304  -0.0013   0.0173   0.0259   0.1095   0.1251
     0.1560   0.1817   0.1915   0.2266   0.8195   1.0688   1.3344   1.5275
     2.0814   2.3194   2.6125   3.0118   3.4365   3.4879   3.6024   3.6783
     3.8099   3.8250   4.0304   4.1152   4.2863   4.4540

     occupation numbers 
     1.0000   1.0000   1.0000   1.0000   1.0000   1.0000   1.0000   1.0000
     1.0000   1.0000   1.0000   1.0000   1.0000   1.0000   1.0000   1.0000
     1.0000   1.0000   1.0000   1.0000   1.0000   1.0000   1.0000   1.0000
     1.0000   1.0000   1.0000   1.0000   1.0000   1.0000   1.0000   1.0000
     1.0000   1.0000   1.0000   1.0000   1.0000   1.0000   1.0000   1.0000
     1.0000   1.0000   1.0000   1.0000   1.0000   1.0000   1.0000   1.0000
     1.0000   1.0000   1.0000   1.0000   1.0000   1.0000

          k = 0.0000 0.0642 0.1912 (  7185 PWs)   bands (ev):

   -12.6749 -12.1602 -11.9844 -11.8224 -11.7255 -11.5932  -1.1991  -0.9779
    -0.8595  -0.8143  -0.7520  -0.6642  -0.6414  -0.5904  -0.5622  -0.5227
    -0.4701  -0.4188  -0.3800  -0.3368  -0.3128  -0.2643  -0.1936  -0.1563
    -0.0783  -0.0745  -0.0506  -0.0099   0.0290   0.0371   0.1094   0.1119
     0.1437   0.1552   0.1783   0.1899   1.0244   1.2943   1.4872   1.7000
     1.9908   2.6041   2.8091   2.9881   3.1171   3.4810   3.5344   3.5929
     3.6597   3.9032   3.9724   4.1168   4.2029   4.4190

     occupation numbers 
     1.0000   1.0000   1.0000   1.0000   1.0000   1.0000   1.0000   1.0000
     1.0000   1.0000   1.0000   1.0000   1.0000   1.0000   1.0000   1.0000
     1.0000   1.0000   1.0000   1.0000   1.0000   1.0000   1.0000   1.0000
     1.0000   1.0000   1.0000   1.0000   1.0000   1.0000   1.0000   1.0000
     1.0000   1.0000   1.0000   1.0000   1.0000   1.0000   1.0000   1.0000
     1.0000   1.0000   1.0000   1.0000   1.0000   1.0000   1.0000   1.0000
     1.0000   1.0000   1.0000   1.0000   1.0000   1.0000

          k = 0.0000 0.0642-0.2868 (  7164 PWs)   bands (ev):

   -12.6672 -12.1460 -12.0021 -11.7981 -11.7473 -11.6008  -1.2011  -0.9793
    -0.8674  -0.8292  -0.7790  -0.6993  -0.6398  -0.5996  -0.5694  -0.5348
    -0.4680  -0.4420  -0.3907  -0.3454  -0.3032  -0.2826  -0.2197  -0.1675
    -0.0758  -0.0675  -0.0533  -0.0110   0.0360   0.0416   0.1104   0.1148
     0.1375   0.1486   0.1518   0.1832   1.1298   1.2337   1.7552   1.8434
     2.0840   2.2647   2.9952   3.1702   3.1906   3.2346   3.4873   3.5252
     3.6594   3.8851   4.0061   4.0978   4.1318   4.4044

     occupation numbers 
     1.0000   1.0000   1.0000   1.0000   1.0000   1.0000   1.0000   1.0000
     1.0000   1.0000   1.0000   1.0000   1.0000   1.0000   1.0000   1.0000
     1.0000   1.0000   1.0000   1.0000   1.0000   1.0000   1.0000   1.0000
     1.0000   1.0000   1.0000   1.0000   1.0000   1.0000   1.0000   1.0000
     1.0000   1.0000   1.0000   1.0000   1.0000   1.0000   1.0000   1.0000
     1.0000   1.0000   1.0000   1.0000   1.0000   1.0000   1.0000   1.0000
     1.0000   1.0000   1.0000   1.0000   1.0000   1.0000

          k = 0.0000 0.1283 0.0000 (  7206 PWs)   bands (ev):

   -12.6946 -12.1892 -11.9778 -11.8315 -11.6950 -11.5692  -1.1912  -0.9716
    -0.8315  -0.7749  -0.7056  -0.6449  -0.5904  -0.5478  -0.5047  -0.4788
    -0.4640  -0.3963  -0.3824  -0.2711  -0.2277  -0.1745  -0.1438  -0.1280
    -0.0842  -0.0753   0.0095   0.0164   0.0253   0.0566   0.1180   0.1485
     0.1641   0.1937   0.2133   0.2278   0.6062   0.8888   1.0722   1.3327
     2.3255   2.5272   2.8586   2.9321   3.2527   3.4527   3.5385   3.6372
     3.7602   3.9523   4.0119   4.1901   4.2371   4.4172

     occupation numbers 
     1.0000   1.0000   1.0000   1.0000   1.0000   1.0000   1.0000   1.0000
     1.0000   1.0000   1.0000   1.0000   1.0000   1.0000   1.0000   1.0000
     1.0000   1.0000   1.0000   1.0000   1.0000   1.0000   1.0000   1.0000
     1.0000   1.0000   1.0000   1.0000   1.0000   1.0000   1.0000   1.0000
     1.0000   1.0000   1.0000   1.0000   1.0000   1.0000   1.0000   1.0000
     1.0000   1.0000   1.0000   1.0000   1.0000   1.0000   1.0000   1.0000
     1.0000   1.0000   1.0000   1.0000   1.0000   1.0000

          k = 0.0000 0.1283 0.0956 (  7193 PWs)   bands (ev):

   -12.6875 -12.1801 -11.9793 -11.8326 -11.7052 -11.5736  -1.1934  -0.9726
    -0.8410  -0.7906  -0.6982  -0.6730  -0.5965  -0.5534  -0.5322  -0.4825
    -0.4757  -0.4275  -0.3826  -0.2817  -0.2480  -0.2205  -0.1588  -0.1398
    -0.0833  -0.0768  -0.0050   0.0185   0.0229   0.0529   0.1180   0.1361
     0.1562   0.1695   0.1962   0.2107   0.7601   0.9669   1.2181   1.3694
     2.4128   2.5307   2.8911   2.9471   3.3058   3.3598   3.5377   3.5736
     3.7201   3.9219   3.9815   4.1571   4.2003   4.3915

     occupation numbers 
     1.0000   1.0000   1.0000   1.0000   1.0000   1.0000   1.0000   1.0000
     1.0000   1.0000   1.0000   1.0000   1.0000   1.0000   1.0000   1.0000
     1.0000   1.0000   1.0000   1.0000   1.0000   1.0000   1.0000   1.0000
     1.0000   1.0000   1.0000   1.0000   1.0000   1.0000   1.0000   1.0000
     1.0000   1.0000   1.0000   1.0000   1.0000   1.0000   1.0000   1.0000
     1.0000   1.0000   1.0000   1.0000   1.0000   1.0000   1.0000   1.0000
     1.0000   1.0000   1.0000   1.0000   1.0000   1.0000

          k = 0.0000 0.1283 0.1912 (  7173 PWs)   bands (ev):

   -12.6731 -12.1567 -11.9946 -11.8211 -11.7321 -11.5829  -1.1981  -0.9748
    -0.8595  -0.8180  -0.7607  -0.6582  -0.6386  -0.5962  -0.5556  -0.5150
    -0.4759  -0.4496  -0.3821  -0.3380  -0.2845  -0.2580  -0.1724  -0.1547
    -0.0753  -0.0723  -0.0229   0.0042   0.0361   0.0541   0.1088   0.1171
     0.1422   0.1531   0.1813   0.1971   0.8337   1.1033   1.4778   1.7400
     2.3028   2.6935   2.8577   3.0451   3.0886   3.4090   3.4956   3.6209
     3.7198   3.7631   4.0102   4.0469   4.1261   4.3477

     occupation numbers 
     1.0000   1.0000   1.0000   1.0000   1.0000   1.0000   1.0000   1.0000
     1.0000   1.0000   1.0000   1.0000   1.0000   1.0000   1.0000   1.0000
     1.0000   1.0000   1.0000   1.0000   1.0000   1.0000   1.0000   1.0000
     1.0000   1.0000   1.0000   1.0000   1.0000   1.0000   1.0000   1.0000
     1.0000   1.0000   1.0000   1.0000   1.0000   1.0000   1.0000   1.0000
     1.0000   1.0000   1.0000   1.0000   1.0000   1.0000   1.0000   1.0000
     1.0000   1.0000   1.0000   1.0000   1.0000   1.0000

          k = 0.0000 0.1283-0.2868 (  7148 PWs)   bands (ev):

   -12.6657 -12.1404 -12.0100 -11.8045 -11.7528 -11.5881  -1.2006  -0.9761
    -0.8668  -0.8327  -0.7982  -0.6816  -0.6419  -0.6063  -0.5592  -0.5225
    -0.4777  -0.4667  -0.4057  -0.3259  -0.3006  -0.2766  -0.1792  -0.1611
    -0.0704  -0.0614  -0.0339  -0.0008   0.0411   0.0442   0.1138   0.1234
     0.1398   0.1486   0.1522   0.1942   0.9054   1.0240   1.9243   2.0165
     2.1154   2.3048   3.0443   3.1291   3.2176   3.2807   3.4675   3.5469
     3.7694   3.8247   3.8879   4.0398   4.0603   4.3319

     occupation numbers 
     1.0000   1.0000   1.0000   1.0000   1.0000   1.0000   1.0000   1.0000
     1.0000   1.0000   1.0000   1.0000   1.0000   1.0000   1.0000   1.0000
     1.0000   1.0000   1.0000   1.0000   1.0000   1.0000   1.0000   1.0000
     1.0000   1.0000   1.0000   1.0000   1.0000   1.0000   1.0000   1.0000
     1.0000   1.0000   1.0000   1.0000   1.0000   1.0000   1.0000   1.0000
     1.0000   1.0000   1.0000   1.0000   1.0000   1.0000   1.0000   1.0000
     1.0000   1.0000   1.0000   1.0000   1.0000   1.0000

          k = 0.0000-0.1925 0.0000 (  7218 PWs)   bands (ev):

   -12.6932 -12.1900 -11.9851 -11.8243 -11.6977 -11.5671  -1.1902  -0.9700
    -0.8305  -0.7735  -0.7063  -0.6412  -0.5954  -0.5496  -0.5006  -0.4826
    -0.4682  -0.3977  -0.3885  -0.2691  -0.2233  -0.1769  -0.1376  -0.1167
    -0.0824  -0.0699   0.0149   0.0208   0.0330   0.1122   0.1224   0.1443
     0.1590   0.1724   0.1998   0.2139   0.6192   0.8086   1.0719   1.2208
     2.4129   2.8366   2.9310   3.0656   3.1437   3.2439   3.3527   3.5894
     3.8265   3.8406   4.0771   4.1648   4.2993   4.3537

     occupation numbers 
     1.0000   1.0000   1.0000   1.0000   1.0000   1.0000   1.0000   1.0000
     1.0000   1.0000   1.0000   1.0000   1.0000   1.0000   1.0000   1.0000
     1.0000   1.0000   1.0000   1.0000   1.0000   1.0000   1.0000   1.0000
     1.0000   1.0000   1.0000   1.0000   1.0000   1.0000   1.0000   1.0000
     1.0000   1.0000   1.0000   1.0000   1.0000   1.0000   1.0000   1.0000
     1.0000   1.0000   1.0000   1.0000   1.0000   1.0000   1.0000   1.0000
     1.0000   1.0000   1.0000   1.0000   1.0000   1.0000

          k = 0.0000-0.1925 0.0956 (  7194 PWs)   bands (ev):

   -12.6863 -12.1787 -11.9897 -11.8246 -11.7075 -11.5714  -1.1924  -0.9711
    -0.8405  -0.7911  -0.6920  -0.6816  -0.6028  -0.5579  -0.5179  -0.4831
    -0.4814  -0.4322  -0.3865  -0.2766  -0.2465  -0.2175  -0.1480  -0.1291
    -0.0810  -0.0672  -0.0041   0.0219   0.0285   0.1000   0.1202   0.1423
     0.1477   0.1572   0.1684   0.2036   0.7339   0.9321   1.1692   1.2974
     2.5361   2.8522   2.9013   3.0386   3.1647   3.2351   3.3170   3.5688
     3.8252   3.8653   4.0089   4.0898   4.2668   4.3341

     occupation numbers 
     1.0000   1.0000   1.0000   1.0000   1.0000   1.0000   1.0000   1.0000
     1.0000   1.0000   1.0000   1.0000   1.0000   1.0000   1.0000   1.0000
     1.0000   1.0000   1.0000   1.0000   1.0000   1.0000   1.0000   1.0000
     1.0000   1.0000   1.0000   1.0000   1.0000   1.0000   1.0000   1.0000
     1.0000   1.0000   1.0000   1.0000   1.0000   1.0000   1.0000   1.0000
     1.0000   1.0000   1.0000   1.0000   1.0000   1.0000   1.0000   1.0000
     1.0000   1.0000   1.0000   1.0000   1.0000   1.0000

          k = 0.0000-0.1925 0.1912 (  7172 PWs)   bands (ev):

   -12.6722 -12.1530 -12.0035 -11.8189 -11.7336 -11.5791  -1.1974  -0.9734
    -0.8590  -0.8219  -0.7608  -0.6622  -0.6498  -0.5857  -0.5468  -0.5032
    -0.4794  -0.4760  -0.3725  -0.3358  -0.2870  -0.2541  -0.1677  -0.1371
    -0.0742  -0.0613  -0.0166   0.0122   0.0364   0.0601   0.1163   0.1334
     0.1411   0.1502   0.1604   0.2002   0.7738   1.0031   1.4843   1.7251
     2.5333   2.6432   2.9195   3.0195   3.2515   3.2929   3.4300   3.5045
     3.8219   3.8492   3.9046   3.9415   4.1901   4.2893

     occupation numbers 
     1.0000   1.0000   1.0000   1.0000   1.0000   1.0000   1.0000   1.0000
     1.0000   1.0000   1.0000   1.0000   1.0000   1.0000   1.0000   1.0000
     1.0000   1.0000   1.0000   1.0000   1.0000   1.0000   1.0000   1.0000
     1.0000   1.0000   1.0000   1.0000   1.0000   1.0000   1.0000   1.0000
     1.0000   1.0000   1.0000   1.0000   1.0000   1.0000   1.0000   1.0000
     1.0000   1.0000   1.0000   1.0000   1.0000   1.0000   1.0000   1.0000
     1.0000   1.0000   1.0000   1.0000   1.0000   1.0000

          k = 0.0000-0.1925-0.2868 (  7132 PWs)   bands (ev):

   -12.6649 -12.1375 -12.0138 -11.8093 -11.7535 -11.5824  -1.2003  -0.9745
    -0.8662  -0.8356  -0.8043  -0.6775  -0.6392  -0.6099  -0.5539  -0.5141
    -0.4850  -0.4762  -0.4129  -0.3279  -0.2993  -0.2651  -0.1810  -0.1395
    -0.0687  -0.0530  -0.0217   0.0058   0.0422   0.0458   0.1155   0.1315
     0.1392   0.1473   0.1576   0.1993   0.8100   0.9388   1.9724   2.0719
     2.1417   2.3304   3.0842   3.1184   3.2131   3.3326   3.4855   3.6312
     3.6897   3.7109   3.8601   3.9955   4.1303   4.2628

     occupation numbers 
     1.0000   1.0000   1.0000   1.0000   1.0000   1.0000   1.0000   1.0000
     1.0000   1.0000   1.0000   1.0000   1.0000   1.0000   1.0000   1.0000
     1.0000   1.0000   1.0000   1.0000   1.0000   1.0000   1.0000   1.0000
     1.0000   1.0000   1.0000   1.0000   1.0000   1.0000   1.0000   1.0000
     1.0000   1.0000   1.0000   1.0000   1.0000   1.0000   1.0000   1.0000
     1.0000   1.0000   1.0000   1.0000   1.0000   1.0000   1.0000   1.0000
     1.0000   1.0000   1.0000   1.0000   1.0000   1.0000

          k = 0.1667 0.0962 0.0000 (  7189 PWs)   bands (ev):

   -12.6441 -12.1361 -11.9338 -11.8075 -11.6604 -11.5489  -1.1038  -0.9846
    -0.7996  -0.7315  -0.6643  -0.6179  -0.6037  -0.5307  -0.5096  -0.4390
    -0.4155  -0.3948  -0.3253  -0.2924  -0.2587  -0.1900  -0.1684  -0.1223
    -0.0634  -0.0441  -0.0150   0.0074   0.0357   0.0550   0.0989   0.1348
     0.1814   0.1866   0.2563   0.2928   0.7123   1.0799   1.2290   1.5033
     2.1767   2.2659   2.3443   2.6053   3.0288   3.1790   3.3078   3.4444
     3.5232   3.6862   3.8844   3.9819   4.1787   4.2933

     occupation numbers 
     1.0000   1.0000   1.0000   1.0000   1.0000   1.0000   1.0000   1.0000
     1.0000   1.0000   1.0000   1.0000   1.0000   1.0000   1.0000   1.0000
     1.0000   1.0000   1.0000   1.0000   1.0000   1.0000   1.0000   1.0000
     1.0000   1.0000   1.0000   1.0000   1.0000   1.0000   1.0000   1.0000
     1.0000   1.0000   1.0000   1.0000   1.0000   1.0000   1.0000   1.0000
     1.0000   1.0000   1.0000   1.0000   1.0000   1.0000   1.0000   1.0000
     1.0000   1.0000   1.0000   1.0000   1.0000   1.0000

          k = 0.1667 0.0962 0.0956 (  7177 PWs)   bands (ev):

   -12.6380 -12.1286 -11.9367 -11.8046 -11.6697 -11.5536  -1.1043  -0.9834
    -0.8190  -0.7391  -0.6690  -0.6395  -0.6040  -0.5350  -0.5170  -0.4620
    -0.4384  -0.4053  -0.3387  -0.3082  -0.2746  -0.2156  -0.1722  -0.1296
    -0.0687  -0.0515  -0.0339   0.0108   0.0253   0.0405   0.1025   0.1360
     0.1651   0.1896   0.2113   0.2767   0.9019   1.1153   1.3440   1.5157
     2.1364   2.3406   2.3968   2.7257   3.0327   3.1615   3.2713   3.4431
     3.5119   3.7046   3.8326   3.9566   4.1124   4.2564

     occupation numbers 
     1.0000   1.0000   1.0000   1.0000   1.0000   1.0000   1.0000   1.0000
     1.0000   1.0000   1.0000   1.0000   1.0000   1.0000   1.0000   1.0000
     1.0000   1.0000   1.0000   1.0000   1.0000   1.0000   1.0000   1.0000
     1.0000   1.0000   1.0000   1.0000   1.0000   1.0000   1.0000   1.0000
     1.0000   1.0000   1.0000   1.0000   1.0000   1.0000   1.0000   1.0000
     1.0000   1.0000   1.0000   1.0000   1.0000   1.0000   1.0000   1.0000
     1.0000   1.0000   1.0000   1.0000   1.0000   1.0000

          k = 0.1667 0.0962 0.1912 (  7175 PWs)   bands (ev):

   -12.6255 -12.1099 -11.9525 -11.7855 -11.6948 -11.5635  -1.1030  -0.9897
    -0.8503  -0.7667  -0.7117  -0.6625  -0.6002  -0.5492  -0.5370  -0.4885
    -0.4629  -0.4380  -0.3725  -0.3410  -0.3004  -0.2458  -0.2031  -0.1405
    -0.0786  -0.0586  -0.0487   0.0158   0.0354   0.0499   0.1040   0.1215
     0.1465   0.1639   0.2068   0.2485   0.9980   1.2732   1.5344   1.7324
     1.9890   2.4911   2.6183   2.7897   2.9983   3.1208   3.3157   3.4610
     3.5512   3.6476   3.7787   3.8705   3.9759   4.1630

     occupation numbers 
     1.0000   1.0000   1.0000   1.0000   1.0000   1.0000   1.0000   1.0000
     1.0000   1.0000   1.0000   1.0000   1.0000   1.0000   1.0000   1.0000
     1.0000   1.0000   1.0000   1.0000   1.0000   1.0000   1.0000   1.0000
     1.0000   1.0000   1.0000   1.0000   1.0000   1.0000   1.0000   1.0000
     1.0000   1.0000   1.0000   1.0000   1.0000   1.0000   1.0000   1.0000
     1.0000   1.0000   1.0000   1.0000   1.0000   1.0000   1.0000   1.0000
     1.0000   1.0000   1.0000   1.0000   1.0000   1.0000

          k = 0.1667 0.0962-0.2868 (  7176 PWs)   bands (ev):

   -12.6192 -12.0977 -11.9655 -11.7655 -11.7151 -11.5690  -1.1009  -0.9982
    -0.8616  -0.7902  -0.7363  -0.6730  -0.5941  -0.5593  -0.5387  -0.5000
    -0.4747  -0.4405  -0.3991  -0.3632  -0.3063  -0.2491  -0.2249  -0.1577
    -0.0717  -0.0597  -0.0380   0.0075   0.0433   0.0647   0.0968   0.1116
     0.1406   0.1550   0.2087   0.2299   1.0657   1.2049   1.7568   1.8626
     2.1080   2.2094   2.6927   2.9031   3.0700   3.2306   3.2946   3.4121
     3.5594   3.6518   3.7266   3.7984   3.9107   4.1043

     occupation numbers 
     1.0000   1.0000   1.0000   1.0000   1.0000   1.0000   1.0000   1.0000
     1.0000   1.0000   1.0000   1.0000   1.0000   1.0000   1.0000   1.0000
     1.0000   1.0000   1.0000   1.0000   1.0000   1.0000   1.0000   1.0000
     1.0000   1.0000   1.0000   1.0000   1.0000   1.0000   1.0000   1.0000
     1.0000   1.0000   1.0000   1.0000   1.0000   1.0000   1.0000   1.0000
     1.0000   1.0000   1.0000   1.0000   1.0000   1.0000   1.0000   1.0000
     1.0000   1.0000   1.0000   1.0000   1.0000   1.0000

          k = 0.1667 0.1604 0.0000 (  7187 PWs)   bands (ev):

   -12.6424 -12.1363 -11.9450 -11.7973 -11.6637 -11.5461  -1.1067  -0.9874
    -0.8023  -0.7395  -0.6634  -0.6201  -0.5995  -0.5320  -0.5195  -0.4355
    -0.4098  -0.4037  -0.3334  -0.2778  -0.2237  -0.1761  -0.1500  -0.1233
    -0.0578  -0.0391  -0.0073   0.0103   0.0455   0.0683   0.1019   0.1384
     0.1797   0.1967   0.2392   0.2716   0.7341   0.9610   1.1934   1.3424
     2.1917   2.4266   2.6331   2.7577   2.8623   3.0460   3.1687   3.3623
     3.5482   3.6435   3.9674   4.0961   4.1470   4.2558

     occupation numbers 
     1.0000   1.0000   1.0000   1.0000   1.0000   1.0000   1.0000   1.0000
     1.0000   1.0000   1.0000   1.0000   1.0000   1.0000   1.0000   1.0000
     1.0000   1.0000   1.0000   1.0000   1.0000   1.0000   1.0000   1.0000
     1.0000   1.0000   1.0000   1.0000   1.0000   1.0000   1.0000   1.0000
     1.0000   1.0000   1.0000   1.0000   1.0000   1.0000   1.0000   1.0000
     1.0000   1.0000   1.0000   1.0000   1.0000   1.0000   1.0000   1.0000
     1.0000   1.0000   1.0000   1.0000   1.0000   1.0000

          k = 0.1667 0.1604 0.0956 (  7186 PWs)   bands (ev):

   -12.6365 -12.1273 -11.9481 -11.7961 -11.6730 -11.5501  -1.1075  -0.9861
    -0.8222  -0.7503  -0.6680  -0.6331  -0.6072  -0.5408  -0.5241  -0.4502
    -0.4413  -0.4083  -0.3471  -0.2928  -0.2371  -0.2019  -0.1694  -0.1267
    -0.0660  -0.0479  -0.0110   0.0150   0.0250   0.0586   0.1021   0.1334
     0.1696   0.1874   0.2105   0.2607   0.8575   1.0590   1.2558   1.4240
     2.2459   2.4156   2.6261   2.8126   2.9264   3.0066   3.2144   3.3713
     3.5426   3.6531   3.9012   4.0564   4.0907   4.2148

     occupation numbers 
     1.0000   1.0000   1.0000   1.0000   1.0000   1.0000   1.0000   1.0000
     1.0000   1.0000   1.0000   1.0000   1.0000   1.0000   1.0000   1.0000
     1.0000   1.0000   1.0000   1.0000   1.0000   1.0000   1.0000   1.0000
     1.0000   1.0000   1.0000   1.0000   1.0000   1.0000   1.0000   1.0000
     1.0000   1.0000   1.0000   1.0000   1.0000   1.0000   1.0000   1.0000
     1.0000   1.0000   1.0000   1.0000   1.0000   1.0000   1.0000   1.0000
     1.0000   1.0000   1.0000   1.0000   1.0000   1.0000

          k = 0.1667 0.1604 0.1912 (  7168 PWs)   bands (ev):

   -12.6244 -12.1066 -11.9604 -11.7843 -11.6984 -11.5575  -1.1068  -0.9918
    -0.8525  -0.7813  -0.7193  -0.6444  -0.6075  -0.5543  -0.5395  -0.4717
    -0.4679  -0.4379  -0.3791  -0.3279  -0.2844  -0.2421  -0.1892  -0.1209
    -0.0723  -0.0549  -0.0256   0.0148   0.0319   0.0618   0.0940   0.1034
     0.1504   0.1604   0.2282   0.2607   0.8841   1.1238   1.5413   1.7624
     2.2080   2.4164   2.6147   2.8059   3.0022   3.1475   3.2771   3.4146
     3.5845   3.6807   3.7362   3.8877   4.0044   4.1213

     occupation numbers 
     1.0000   1.0000   1.0000   1.0000   1.0000   1.0000   1.0000   1.0000
     1.0000   1.0000   1.0000   1.0000   1.0000   1.0000   1.0000   1.0000
     1.0000   1.0000   1.0000   1.0000   1.0000   1.0000   1.0000   1.0000
     1.0000   1.0000   1.0000   1.0000   1.0000   1.0000   1.0000   1.0000
     1.0000   1.0000   1.0000   1.0000   1.0000   1.0000   1.0000   1.0000
     1.0000   1.0000   1.0000   1.0000   1.0000   1.0000   1.0000   1.0000
     1.0000   1.0000   1.0000   1.0000   1.0000   1.0000

          k = 0.1667 0.1604-0.2868 (  7168 PWs)   bands (ev):

   -12.6183 -12.0941 -11.9702 -11.7696 -11.7185 -11.5612  -1.1049  -0.9999
    -0.8638  -0.7957  -0.7589  -0.6497  -0.5980  -0.5661  -0.5419  -0.4818
    -0.4745  -0.4427  -0.4035  -0.3604  -0.3100  -0.2440  -0.1902  -0.1247
    -0.0671  -0.0524  -0.0291   0.0066   0.0450   0.0658   0.0738   0.1013
     0.1395   0.1532   0.2383   0.2569   0.9128   1.0691   1.8900   1.9897
     2.0918   2.2069   2.6297   2.8635   3.0983   3.2338   3.2889   3.4889
     3.5509   3.6525   3.6894   3.8038   3.9253   4.0721

     occupation numbers 
     1.0000   1.0000   1.0000   1.0000   1.0000   1.0000   1.0000   1.0000
     1.0000   1.0000   1.0000   1.0000   1.0000   1.0000   1.0000   1.0000
     1.0000   1.0000   1.0000   1.0000   1.0000   1.0000   1.0000   1.0000
     1.0000   1.0000   1.0000   1.0000   1.0000   1.0000   1.0000   1.0000
     1.0000   1.0000   1.0000   1.0000   1.0000   1.0000   1.0000   1.0000
     1.0000   1.0000   1.0000   1.0000   1.0000   1.0000   1.0000   1.0000
     1.0000   1.0000   1.0000   1.0000   1.0000   1.0000

          k = 0.1667-0.0321 0.0000 (  7181 PWs)   bands (ev):

   -12.6457 -12.1356 -11.9215 -11.8195 -11.6573 -11.5512  -1.1020  -0.9815
    -0.8011  -0.7324  -0.6577  -0.6186  -0.5888  -0.5096  -0.5044  -0.4601
    -0.4159  -0.3947  -0.3532  -0.2972  -0.2698  -0.2360  -0.1556  -0.1174
    -0.0607  -0.0478  -0.0193   0.0168   0.0260   0.0447   0.1044   0.1328
     0.1676   0.1871   0.2603   0.2953   0.6976   1.1483   1.3832   1.6330
     1.9526   2.1529   2.3007   2.6477   2.9095   3.1895   3.4405   3.5620
     3.6615   3.6881   3.7763   3.8597   4.2108   4.2913

     occupation numbers 
     1.0000   1.0000   1.0000   1.0000   1.0000   1.0000   1.0000   1.0000
     1.0000   1.0000   1.0000   1.0000   1.0000   1.0000   1.0000   1.0000
     1.0000   1.0000   1.0000   1.0000   1.0000   1.0000   1.0000   1.0000
     1.0000   1.0000   1.0000   1.0000   1.0000   1.0000   1.0000   1.0000
     1.0000   1.0000   1.0000   1.0000   1.0000   1.0000   1.0000   1.0000
     1.0000   1.0000   1.0000   1.0000   1.0000   1.0000   1.0000   1.0000
     1.0000   1.0000   1.0000   1.0000   1.0000   1.0000

          k = 0.1667-0.0321 0.0956 (  7178 PWs)   bands (ev):

   -12.6395 -12.1273 -11.9318 -11.8088 -11.6657 -11.5581  -1.1026  -0.9819
    -0.8181  -0.7414  -0.6601  -0.6410  -0.5945  -0.5355  -0.5065  -0.4634
    -0.4237  -0.4105  -0.3624  -0.3114  -0.2802  -0.2484  -0.1660  -0.1411
    -0.0758  -0.0585  -0.0367   0.0070   0.0172   0.0487   0.1034   0.1235
     0.1591   0.1879   0.2252   0.2662   0.9357   1.2037   1.4149   1.5823
     1.9414   2.3333   2.4310   2.6710   2.9365   3.0994   3.4084   3.5517
     3.6290   3.6856   3.7794   3.8289   4.1501   4.2555

     occupation numbers 
     1.0000   1.0000   1.0000   1.0000   1.0000   1.0000   1.0000   1.0000
     1.0000   1.0000   1.0000   1.0000   1.0000   1.0000   1.0000   1.0000
     1.0000   1.0000   1.0000   1.0000   1.0000   1.0000   1.0000   1.0000
     1.0000   1.0000   1.0000   1.0000   1.0000   1.0000   1.0000   1.0000
     1.0000   1.0000   1.0000   1.0000   1.0000   1.0000   1.0000   1.0000
     1.0000   1.0000   1.0000   1.0000   1.0000   1.0000   1.0000   1.0000
     1.0000   1.0000   1.0000   1.0000   1.0000   1.0000

          k = 0.1667-0.0321 0.1912 (  7167 PWs)   bands (ev):

   -12.6266 -12.1100 -11.9512 -11.7839 -11.6890 -11.5710  -1.1018  -0.9884
    -0.8448  -0.7761  -0.6982  -0.6654  -0.5898  -0.5477  -0.5262  -0.4981
    -0.4565  -0.4284  -0.3935  -0.3324  -0.3015  -0.2610  -0.2373  -0.1629
    -0.0787  -0.0611  -0.0336   0.0043   0.0301   0.0539   0.1054   0.1179
     0.1510   0.1779   0.1823   0.2232   1.1846   1.4205   1.4500   1.6349
     1.8664   2.5779   2.7075   2.7974   2.8674   3.0822   3.3390   3.4930
     3.5512   3.6539   3.7442   3.8266   4.0207   4.1744

     occupation numbers 
     1.0000   1.0000   1.0000   1.0000   1.0000   1.0000   1.0000   1.0000
     1.0000   1.0000   1.0000   1.0000   1.0000   1.0000   1.0000   1.0000
     1.0000   1.0000   1.0000   1.0000   1.0000   1.0000   1.0000   1.0000
     1.0000   1.0000   1.0000   1.0000   1.0000   1.0000   1.0000   1.0000
     1.0000   1.0000   1.0000   1.0000   1.0000   1.0000   1.0000   1.0000
     1.0000   1.0000   1.0000   1.0000   1.0000   1.0000   1.0000   1.0000
     1.0000   1.0000   1.0000   1.0000   1.0000   1.0000

          k = 0.1667-0.0321-0.2868 (  7146 PWs)   bands (ev):

   -12.6201 -12.1009 -11.9608 -11.7636 -11.7098 -11.5768  -1.0999  -0.9954
    -0.8550  -0.7972  -0.7348  -0.6597  -0.5740  -0.5575  -0.5416  -0.5190
    -0.4745  -0.4224  -0.4176  -0.3664  -0.3019  -0.2680  -0.2602  -0.1669
    -0.0732  -0.0512  -0.0312  -0.0058   0.0447   0.0696   0.1081   0.1172
     0.1442   0.1549   0.1780   0.1994   1.2493   1.3663   1.6002   1.6933
     2.1030   2.2329   2.7834   2.9647   3.0979   3.1765   3.3167   3.3474
     3.4833   3.5707   3.7207   3.8856   3.9466   4.1040

     occupation numbers 
     1.0000   1.0000   1.0000   1.0000   1.0000   1.0000   1.0000   1.0000
     1.0000   1.0000   1.0000   1.0000   1.0000   1.0000   1.0000   1.0000
     1.0000   1.0000   1.0000   1.0000   1.0000   1.0000   1.0000   1.0000
     1.0000   1.0000   1.0000   1.0000   1.0000   1.0000   1.0000   1.0000
     1.0000   1.0000   1.0000   1.0000   1.0000   1.0000   1.0000   1.0000
     1.0000   1.0000   1.0000   1.0000   1.0000   1.0000   1.0000   1.0000
     1.0000   1.0000   1.0000   1.0000   1.0000   1.0000

          k = 0.3333 0.1925 0.0000 (  7211 PWs)   bands (ev):

   -12.5367 -12.0184 -11.8766 -11.7366 -11.5971 -11.5028  -1.0379  -0.9097
    -0.7948  -0.7052  -0.6292  -0.5763  -0.5500  -0.5400  -0.4722  -0.3718
    -0.3462  -0.3288  -0.2708  -0.2247  -0.1949  -0.1672  -0.1364  -0.1128
    -0.0606  -0.0427   0.0055   0.0171   0.0415   0.0670   0.1240   0.1544
     0.1962   0.2365   0.2675   0.3310   1.0911   1.1751   1.3691   1.4784
     1.6108   1.7185   1.8556   2.3764   2.4264   2.8414   2.9418   3.1480
     3.2193   3.2675   3.7359   3.9190   3.9846   4.0940

     occupation numbers 
     1.0000   1.0000   1.0000   1.0000   1.0000   1.0000   1.0000   1.0000
     1.0000   1.0000   1.0000   1.0000   1.0000   1.0000   1.0000   1.0000
     1.0000   1.0000   1.0000   1.0000   1.0000   1.0000   1.0000   1.0000
     1.0000   1.0000   1.0000   1.0000   1.0000   1.0000   1.0000   1.0000
     1.0000   1.0000   1.0000   1.0000   1.0000   1.0000   1.0000   1.0000
     1.0000   1.0000   1.0000   1.0000   1.0000   1.0000   1.0000   1.0000
     1.0000   1.0000   1.0000   1.0000   1.0000   1.0000

          k = 0.3333 0.1925 0.0956 (  7180 PWs)   bands (ev):

   -12.5330 -12.0138 -11.8788 -11.7301 -11.6049 -11.5063  -1.0397  -0.9087
    -0.8165  -0.7058  -0.6426  -0.5731  -0.5672  -0.5345  -0.4925  -0.4081
    -0.3607  -0.3422  -0.2802  -0.2417  -0.1983  -0.1761  -0.1366  -0.1191
    -0.0777  -0.0413   0.0016   0.0271   0.0411   0.0630   0.1120   0.1321
     0.1892   0.2326   0.2695   0.3129   1.1277   1.2039   1.3113   1.5168
     1.7071   1.7517   1.9528   2.3660   2.4925   2.8435   2.9864   3.1990
     3.2798   3.3094   3.7090   3.8928   3.9349   4.0524

     occupation numbers 
     1.0000   1.0000   1.0000   1.0000   1.0000   1.0000   1.0000   1.0000
     1.0000   1.0000   1.0000   1.0000   1.0000   1.0000   1.0000   1.0000
     1.0000   1.0000   1.0000   1.0000   1.0000   1.0000   1.0000   1.0000
     1.0000   1.0000   1.0000   1.0000   1.0000   1.0000   1.0000   1.0000
     1.0000   1.0000   1.0000   1.0000   1.0000   1.0000   1.0000   1.0000
     1.0000   1.0000   1.0000   1.0000   1.0000   1.0000   1.0000   1.0000
     1.0000   1.0000   1.0000   1.0000   1.0000   1.0000

          k = 0.3333 0.1925 0.1912 (  7184 PWs)   bands (ev):

   -12.5256 -12.0056 -11.8825 -11.7118 -11.6261 -11.5130  -1.0449  -0.9092
    -0.8504  -0.7172  -0.6848  -0.6071  -0.5578  -0.5227  -0.5108  -0.4522
    -0.3995  -0.3793  -0.3085  -0.2921  -0.2154  -0.1899  -0.1564  -0.1082
    -0.0912  -0.0443  -0.0025   0.0362   0.0493   0.0646   0.0973   0.1079
     0.1654   0.1915   0.2977   0.3138   1.0605   1.2544   1.3901   1.5553
     1.7500   1.8489   2.0334   2.5120   2.7109   2.8091   3.1608   3.3209
     3.3912   3.4113   3.6172   3.7418   3.8091   3.9507

     occupation numbers 
     1.0000   1.0000   1.0000   1.0000   1.0000   1.0000   1.0000   1.0000
     1.0000   1.0000   1.0000   1.0000   1.0000   1.0000   1.0000   1.0000
     1.0000   1.0000   1.0000   1.0000   1.0000   1.0000   1.0000   1.0000
     1.0000   1.0000   1.0000   1.0000   1.0000   1.0000   1.0000   1.0000
     1.0000   1.0000   1.0000   1.0000   1.0000   1.0000   1.0000   1.0000
     1.0000   1.0000   1.0000   1.0000   1.0000   1.0000   1.0000   1.0000
     1.0000   1.0000   1.0000   1.0000   1.0000   1.0000

          k = 0.3333 0.1925-0.2868 (  7180 PWs)   bands (ev):

   -12.5219 -12.0022 -11.8837 -11.6965 -11.6429 -11.5161  -1.0484  -0.9100
    -0.8635  -0.7331  -0.7093  -0.6141  -0.5565  -0.5332  -0.4907  -0.4675
    -0.4315  -0.3765  -0.3591  -0.2964  -0.2442  -0.1892  -0.1564  -0.1088
    -0.0882  -0.0462  -0.0076   0.0338   0.0513   0.0864   0.0891   0.1040
     0.1418   0.1761   0.3079   0.3211   1.0223   1.2856   1.4505   1.5765
     1.7261   1.7991   2.1831   2.4392   2.9103   3.0750   3.2073   3.3171
     3.4201   3.4604   3.5614   3.6406   3.6865   3.8856

     occupation numbers 
     1.0000   1.0000   1.0000   1.0000   1.0000   1.0000   1.0000   1.0000
     1.0000   1.0000   1.0000   1.0000   1.0000   1.0000   1.0000   1.0000
     1.0000   1.0000   1.0000   1.0000   1.0000   1.0000   1.0000   1.0000
     1.0000   1.0000   1.0000   1.0000   1.0000   1.0000   1.0000   1.0000
     1.0000   1.0000   1.0000   1.0000   1.0000   1.0000   1.0000   1.0000
     1.0000   1.0000   1.0000   1.0000   1.0000   1.0000   1.0000   1.0000
     1.0000   1.0000   1.0000   1.0000   1.0000   1.0000

          k = 0.3333 0.2566 0.0000 (  7189 PWs)   bands (ev):

   -12.5369 -12.0185 -11.8752 -11.7377 -11.5970 -11.5029  -1.0337  -0.9027
    -0.7891  -0.7090  -0.6253  -0.5705  -0.5503  -0.5313  -0.4761  -0.3854
    -0.3661  -0.3234  -0.2725  -0.2296  -0.1967  -0.1730  -0.1424  -0.1012
    -0.0650  -0.0452  -0.0113   0.0181   0.0475   0.0750   0.1273   0.1548
     0.1954   0.2273   0.2758   0.3271   1.0627   1.1399   1.3683   1.4660
     1.6359   1.7942   1.9519   2.2904   2.5439   2.7371   3.0173   3.0861
     3.2401   3.2819   3.7060   3.8827   3.9712   4.0626

     occupation numbers 
     1.0000   1.0000   1.0000   1.0000   1.0000   1.0000   1.0000   1.0000
     1.0000   1.0000   1.0000   1.0000   1.0000   1.0000   1.0000   1.0000
     1.0000   1.0000   1.0000   1.0000   1.0000   1.0000   1.0000   1.0000
     1.0000   1.0000   1.0000   1.0000   1.0000   1.0000   1.0000   1.0000
     1.0000   1.0000   1.0000   1.0000   1.0000   1.0000   1.0000   1.0000
     1.0000   1.0000   1.0000   1.0000   1.0000   1.0000   1.0000   1.0000
     1.0000   1.0000   1.0000   1.0000   1.0000   1.0000

          k = 0.3333 0.2566 0.0956 (  7179 PWs)   bands (ev):

   -12.5332 -12.0136 -11.8784 -11.7303 -11.6046 -11.5067  -1.0364  -0.9025
    -0.8095  -0.7096  -0.6420  -0.5711  -0.5534  -0.5428  -0.4917  -0.4134
    -0.3736  -0.3371  -0.2812  -0.2455  -0.2149  -0.1766  -0.1537  -0.1212
    -0.0686  -0.0307   0.0063   0.0188   0.0373   0.0715   0.1136   0.1382
     0.1914   0.2255   0.2648   0.3107   1.0782   1.1683   1.3126   1.5060
     1.7623   1.8623   1.9687   2.3481   2.5757   2.7975   3.0024   3.1241
     3.2901   3.3386   3.6899   3.8526   3.9350   4.0045

     occupation numbers 
     1.0000   1.0000   1.0000   1.0000   1.0000   1.0000   1.0000   1.0000
     1.0000   1.0000   1.0000   1.0000   1.0000   1.0000   1.0000   1.0000
     1.0000   1.0000   1.0000   1.0000   1.0000   1.0000   1.0000   1.0000
     1.0000   1.0000   1.0000   1.0000   1.0000   1.0000   1.0000   1.0000
     1.0000   1.0000   1.0000   1.0000   1.0000   1.0000   1.0000   1.0000
     1.0000   1.0000   1.0000   1.0000   1.0000   1.0000   1.0000   1.0000
     1.0000   1.0000   1.0000   1.0000   1.0000   1.0000

          k = 0.3333 0.2566 0.1912 (  7183 PWs)   bands (ev):

   -12.5258 -12.0055 -11.8825 -11.7115 -11.6254 -11.5137  -1.0419  -0.9038
    -0.8418  -0.7230  -0.6861  -0.6014  -0.5571  -0.5288  -0.5061  -0.4591
    -0.4083  -0.3735  -0.3153  -0.2857  -0.2381  -0.1876  -0.1660  -0.1252
    -0.0768  -0.0274   0.0174   0.0262   0.0448   0.0733   0.0974   0.1169
     0.1707   0.1945   0.2685   0.3109   1.0449   1.1870   1.3554   1.6162
     1.7533   1.8930   2.1145   2.5682   2.7489   2.8111   3.1193   3.2499
     3.3923   3.4436   3.6052   3.6963   3.7990   3.9068

     occupation numbers 
     1.0000   1.0000   1.0000   1.0000   1.0000   1.0000   1.0000   1.0000
     1.0000   1.0000   1.0000   1.0000   1.0000   1.0000   1.0000   1.0000
     1.0000   1.0000   1.0000   1.0000   1.0000   1.0000   1.0000   1.0000
     1.0000   1.0000   1.0000   1.0000   1.0000   1.0000   1.0000   1.0000
     1.0000   1.0000   1.0000   1.0000   1.0000   1.0000   1.0000   1.0000
     1.0000   1.0000   1.0000   1.0000   1.0000   1.0000   1.0000   1.0000
     1.0000   1.0000   1.0000   1.0000   1.0000   1.0000

          k = 0.3333 0.2566-0.2868 (  7180 PWs)   bands (ev):

   -12.5220 -12.0026 -11.8832 -11.6964 -11.6423 -11.5168  -1.0447  -0.9042
    -0.8549  -0.7414  -0.7094  -0.6049  -0.5588  -0.5373  -0.4955  -0.4768
    -0.4349  -0.3818  -0.3646  -0.2871  -0.2472  -0.1880  -0.1724  -0.1175
    -0.0731  -0.0381  -0.0044   0.0396   0.0508   0.0861   0.1043   0.1097
     0.1445   0.1776   0.2884   0.3071   1.0085   1.2491   1.3782   1.6032
     1.7084   1.9074   2.2589   2.5156   2.9146   3.0994   3.2001   3.2819
     3.3561   3.4474   3.5722   3.6237   3.6596   3.8399

     occupation numbers 
     1.0000   1.0000   1.0000   1.0000   1.0000   1.0000   1.0000   1.0000
     1.0000   1.0000   1.0000   1.0000   1.0000   1.0000   1.0000   1.0000
     1.0000   1.0000   1.0000   1.0000   1.0000   1.0000   1.0000   1.0000
     1.0000   1.0000   1.0000   1.0000   1.0000   1.0000   1.0000   1.0000
     1.0000   1.0000   1.0000   1.0000   1.0000   1.0000   1.0000   1.0000
     1.0000   1.0000   1.0000   1.0000   1.0000   1.0000   1.0000   1.0000
     1.0000   1.0000   1.0000   1.0000   1.0000   1.0000

          k = 0.3333 0.3208 0.0000 (  7166 PWs)   bands (ev):

   -12.5374 -12.0191 -11.8716 -11.7400 -11.5964 -11.5035  -1.0234  -0.8876
    -0.7779  -0.6992  -0.6305  -0.5702  -0.5499  -0.5124  -0.4825  -0.4146
    -0.3971  -0.3175  -0.2737  -0.2443  -0.2052  -0.1820  -0.1431  -0.1044
    -0.0868  -0.0501  -0.0162   0.0337   0.0538   0.0813   0.1332   0.1509
     0.1971   0.2091   0.2892   0.3224   1.0277   1.1164   1.3286   1.4749
     1.6361   1.9813   2.1660   2.2625   2.5309   2.6957   2.8439   3.1590
     3.2253   3.4167   3.6205   3.7643   3.9414   4.0234

     occupation numbers 
     1.0000   1.0000   1.0000   1.0000   1.0000   1.0000   1.0000   1.0000
     1.0000   1.0000   1.0000   1.0000   1.0000   1.0000   1.0000   1.0000
     1.0000   1.0000   1.0000   1.0000   1.0000   1.0000   1.0000   1.0000
     1.0000   1.0000   1.0000   1.0000   1.0000   1.0000   1.0000   1.0000
     1.0000   1.0000   1.0000   1.0000   1.0000   1.0000   1.0000   1.0000
     1.0000   1.0000   1.0000   1.0000   1.0000   1.0000   1.0000   1.0000
     1.0000   1.0000   1.0000   1.0000   1.0000   1.0000

          k = 0.3333 0.3208 0.0956 (  7172 PWs)   bands (ev):

   -12.5337 -12.0144 -11.8755 -11.7317 -11.6039 -11.5077  -1.0262  -0.8868
    -0.7988  -0.7008  -0.6468  -0.5745  -0.5568  -0.5268  -0.4990  -0.4373
    -0.3937  -0.3336  -0.2868  -0.2526  -0.2201  -0.2044  -0.1603  -0.1183
    -0.0764  -0.0390  -0.0034   0.0325   0.0472   0.0842   0.1221   0.1499
     0.1924   0.2047   0.2687   0.3024   1.0340   1.1551   1.3123   1.4789
     1.6958   2.0581   2.1767   2.3657   2.5942   2.7896   2.8910   3.1255
     3.2278   3.4610   3.6190   3.7304   3.8987   3.9722

     occupation numbers 
     1.0000   1.0000   1.0000   1.0000   1.0000   1.0000   1.0000   1.0000
     1.0000   1.0000   1.0000   1.0000   1.0000   1.0000   1.0000   1.0000
     1.0000   1.0000   1.0000   1.0000   1.0000   1.0000   1.0000   1.0000
     1.0000   1.0000   1.0000   1.0000   1.0000   1.0000   1.0000   1.0000
     1.0000   1.0000   1.0000   1.0000   1.0000   1.0000   1.0000   1.0000
     1.0000   1.0000   1.0000   1.0000   1.0000   1.0000   1.0000   1.0000
     1.0000   1.0000   1.0000   1.0000   1.0000   1.0000

          k = 0.3333 0.3208 0.1912 (  7171 PWs)   bands (ev):

   -12.5261 -12.0065 -11.8808 -11.7114 -11.6241 -11.5155  -1.0325  -0.8877
    -0.8301  -0.7210  -0.6850  -0.6043  -0.5650  -0.5345  -0.5056  -0.4762
    -0.4129  -0.3738  -0.3284  -0.2821  -0.2510  -0.2129  -0.1871  -0.1201
    -0.0661  -0.0225   0.0112   0.0307   0.0611   0.0834   0.1194   0.1364
     0.1796   0.1947   0.2305   0.2872   1.0369   1.1430   1.3332   1.5490
     1.7330   2.0447   2.3378   2.6306   2.8001   2.8981   3.0194   3.1544
     3.3221   3.4688   3.5540   3.6360   3.7451   3.8632

     occupation numbers 
     1.0000   1.0000   1.0000   1.0000   1.0000   1.0000   1.0000   1.0000
     1.0000   1.0000   1.0000   1.0000   1.0000   1.0000   1.0000   1.0000
     1.0000   1.0000   1.0000   1.0000   1.0000   1.0000   1.0000   1.0000
     1.0000   1.0000   1.0000   1.0000   1.0000   1.0000   1.0000   1.0000
     1.0000   1.0000   1.0000   1.0000   1.0000   1.0000   1.0000   1.0000
     1.0000   1.0000   1.0000   1.0000   1.0000   1.0000   1.0000   1.0000
     1.0000   1.0000   1.0000   1.0000   1.0000   1.0000

          k = 0.3333 0.3208-0.2868 (  7192 PWs)   bands (ev):

   -12.5223 -12.0036 -11.8821 -11.6958 -11.6405 -11.5190  -1.0362  -0.8890
    -0.8408  -0.7407  -0.7094  -0.6127  -0.5715  -0.5269  -0.5159  -0.4800
    -0.4386  -0.3888  -0.3672  -0.2871  -0.2654  -0.2115  -0.1899  -0.1182
    -0.0543  -0.0292   0.0081   0.0349   0.0693   0.0872   0.1201   0.1378
     0.1574   0.1836   0.2427   0.2713   1.0199   1.1913   1.3157   1.5051
     1.8224   1.9973   2.4552   2.6950   2.9295   3.0688   3.1503   3.2280
     3.2969   3.4156   3.5468   3.5622   3.6359   3.7535

     occupation numbers 
     1.0000   1.0000   1.0000   1.0000   1.0000   1.0000   1.0000   1.0000
     1.0000   1.0000   1.0000   1.0000   1.0000   1.0000   1.0000   1.0000
     1.0000   1.0000   1.0000   1.0000   1.0000   1.0000   1.0000   1.0000
     1.0000   1.0000   1.0000   1.0000   1.0000   1.0000   1.0000   1.0000
     1.0000   1.0000   1.0000   1.0000   1.0000   1.0000   1.0000   1.0000
     1.0000   1.0000   1.0000   1.0000   1.0000   1.0000   1.0000   1.0000
     1.0000   1.0000   1.0000   1.0000   1.0000   1.0000

          k = 0.3333 0.0000 0.0000 (  7169 PWs)   bands (ev):

   -12.5377 -12.0196 -11.8694 -11.7414 -11.5960 -11.5040  -1.0171  -0.8799
    -0.7717  -0.6786  -0.6460  -0.5755  -0.5455  -0.5115  -0.4870  -0.4331
    -0.3977  -0.3163  -0.2763  -0.2582  -0.2207  -0.1729  -0.1395  -0.1115
    -0.0989  -0.0535  -0.0106   0.0422   0.0577   0.0814   0.1315   0.1521
     0.1881   0.2076   0.2953   0.3207   1.0251   1.1216   1.2720   1.5237
     1.6166   2.0802   2.2621   2.3392   2.5272   2.5962   2.7062   3.1708
     3.3204   3.4954   3.5482   3.6775   3.8987   4.0253

     occupation numbers 
     1.0000   1.0000   1.0000   1.0000   1.0000   1.0000   1.0000   1.0000
     1.0000   1.0000   1.0000   1.0000   1.0000   1.0000   1.0000   1.0000
     1.0000   1.0000   1.0000   1.0000   1.0000   1.0000   1.0000   1.0000
     1.0000   1.0000   1.0000   1.0000   1.0000   1.0000   1.0000   1.0000
     1.0000   1.0000   1.0000   1.0000   1.0000   1.0000   1.0000   1.0000
     1.0000   1.0000   1.0000   1.0000   1.0000   1.0000   1.0000   1.0000
     1.0000   1.0000   1.0000   1.0000   1.0000   1.0000

          k = 0.3333 0.0000 0.0956 (  7172 PWs)   bands (ev):

   -12.5339 -12.0153 -11.8730 -11.7330 -11.6034 -11.5083  -1.0191  -0.8771
    -0.7948  -0.6791  -0.6606  -0.5832  -0.5610  -0.5222  -0.4892  -0.4660
    -0.4049  -0.3318  -0.2990  -0.2494  -0.2239  -0.1996  -0.1579  -0.1256
    -0.0879  -0.0483  -0.0075   0.0400   0.0571   0.0918   0.1263   0.1553
     0.1797   0.2089   0.2757   0.2897   1.0435   1.1512   1.2999   1.5018
     1.6199   2.1513   2.3198   2.4191   2.5752   2.6954   2.8149   3.1705
     3.2878   3.4540   3.5511   3.6856   3.8528   3.9823

     occupation numbers 
     1.0000   1.0000   1.0000   1.0000   1.0000   1.0000   1.0000   1.0000
     1.0000   1.0000   1.0000   1.0000   1.0000   1.0000   1.0000   1.0000
     1.0000   1.0000   1.0000   1.0000   1.0000   1.0000   1.0000   1.0000
     1.0000   1.0000   1.0000   1.0000   1.0000   1.0000   1.0000   1.0000
     1.0000   1.0000   1.0000   1.0000   1.0000   1.0000   1.0000   1.0000
     1.0000   1.0000   1.0000   1.0000   1.0000   1.0000   1.0000   1.0000
     1.0000   1.0000   1.0000   1.0000   1.0000   1.0000

          k = 0.3333 0.0000 0.1912 (  7179 PWs)   bands (ev):

   -12.5263 -12.0075 -11.8791 -11.7116 -11.6234 -11.5165  -1.0259  -0.8767
    -0.8265  -0.7064  -0.6892  -0.6154  -0.5766  -0.5341  -0.5057  -0.4835
    -0.4071  -0.3868  -0.3428  -0.2783  -0.2514  -0.2194  -0.1909  -0.1233
    -0.0643  -0.0280   0.0001   0.0393   0.0724   0.0886   0.1303   0.1546
     0.1693   0.2045   0.2298   0.2577   1.0591   1.1226   1.3591   1.4732
     1.7053   2.1355   2.5348   2.5902   2.7713   2.9290   3.0356   3.1953
     3.2519   3.3371   3.5313   3.6456   3.7317   3.8477

     occupation numbers 
     1.0000   1.0000   1.0000   1.0000   1.0000   1.0000   1.0000   1.0000
     1.0000   1.0000   1.0000   1.0000   1.0000   1.0000   1.0000   1.0000
     1.0000   1.0000   1.0000   1.0000   1.0000   1.0000   1.0000   1.0000
     1.0000   1.0000   1.0000   1.0000   1.0000   1.0000   1.0000   1.0000
     1.0000   1.0000   1.0000   1.0000   1.0000   1.0000   1.0000   1.0000
     1.0000   1.0000   1.0000   1.0000   1.0000   1.0000   1.0000   1.0000
     1.0000   1.0000   1.0000   1.0000   1.0000   1.0000

          k = 0.3333 0.0000-0.2868 (  7200 PWs)   bands (ev):

   -12.5224 -12.0042 -11.8815 -11.6954 -11.6392 -11.5205  -1.0313  -0.8796
    -0.8350  -0.7294  -0.7094  -0.6365  -0.5706  -0.5321  -0.5075  -0.4806
    -0.4403  -0.3901  -0.3734  -0.3027  -0.2709  -0.2241  -0.1963  -0.1166
    -0.0484  -0.0249   0.0100   0.0361   0.0768   0.0905   0.1251   0.1591
     0.1751   0.1898   0.2123   0.2435   1.0662   1.1284   1.3339   1.4318
     1.8700   2.0227   2.6804   2.7338   2.8904   3.0219   3.0774   3.2274
     3.3106   3.4061   3.5035   3.5408   3.6109   3.7201

     occupation numbers 
     1.0000   1.0000   1.0000   1.0000   1.0000   1.0000   1.0000   1.0000
     1.0000   1.0000   1.0000   1.0000   1.0000   1.0000   1.0000   1.0000
     1.0000   1.0000   1.0000   1.0000   1.0000   1.0000   1.0000   1.0000
     1.0000   1.0000   1.0000   1.0000   1.0000   1.0000   1.0000   1.0000
     1.0000   1.0000   1.0000   1.0000   1.0000   1.0000   1.0000   1.0000
     1.0000   1.0000   1.0000   1.0000   1.0000   1.0000   1.0000   1.0000
     1.0000   1.0000   1.0000   1.0000   1.0000   1.0000

          k =-0.5000-0.2887 0.0000 (  7178 PWs)   bands (ev):

   -12.4822 -11.9471 -11.8552 -11.7021 -11.5639 -11.4813  -0.9796  -0.8578
    -0.7859  -0.6380  -0.6207  -0.5867  -0.5313  -0.5015  -0.4408  -0.4033
    -0.3578  -0.2727  -0.2608  -0.2310  -0.1850  -0.1744  -0.1198  -0.0862
    -0.0617  -0.0358   0.0105   0.0258   0.0591   0.0785   0.1430   0.1906
     0.2071   0.2317   0.2826   0.2996   0.9056   1.1138   1.2418   1.4880
     1.5457   1.8055   2.1171   2.1708   2.3013   2.6300   2.7286   2.9781
     3.2145   3.3424   3.5644   3.6719   3.7427   3.9035

     occupation numbers 
     1.0000   1.0000   1.0000   1.0000   1.0000   1.0000   1.0000   1.0000
     1.0000   1.0000   1.0000   1.0000   1.0000   1.0000   1.0000   1.0000
     1.0000   1.0000   1.0000   1.0000   1.0000   1.0000   1.0000   1.0000
     1.0000   1.0000   1.0000   1.0000   1.0000   1.0000   1.0000   1.0000
     1.0000   1.0000   1.0000   1.0000   1.0000   1.0000   1.0000   1.0000
     1.0000   1.0000   1.0000   1.0000   1.0000   1.0000   1.0000   1.0000
     1.0000   1.0000   1.0000   1.0000   1.0000   1.0000

          k =-0.5000-0.2887 0.0956 (  7184 PWs)   bands (ev):

   -12.4798 -11.9489 -11.8515 -11.6943 -11.5710 -11.4844  -0.9833  -0.8626
    -0.7977  -0.6512  -0.6293  -0.5985  -0.5385  -0.5142  -0.4545  -0.4212
    -0.3733  -0.2909  -0.2738  -0.2445  -0.1978  -0.1794  -0.1359  -0.0788
    -0.0501  -0.0265   0.0155   0.0356   0.0615   0.0915   0.1380   0.1862
     0.2001   0.2297   0.2749   0.2854   0.8928   1.0664   1.2217   1.4596
     1.5358   1.8088   2.2017   2.2971   2.4392   2.7039   2.8233   3.0241
     3.1911   3.3281   3.5283   3.6843   3.7627   3.8644

     occupation numbers 
     1.0000   1.0000   1.0000   1.0000   1.0000   1.0000   1.0000   1.0000
     1.0000   1.0000   1.0000   1.0000   1.0000   1.0000   1.0000   1.0000
     1.0000   1.0000   1.0000   1.0000   1.0000   1.0000   1.0000   1.0000
     1.0000   1.0000   1.0000   1.0000   1.0000   1.0000   1.0000   1.0000
     1.0000   1.0000   1.0000   1.0000   1.0000   1.0000   1.0000   1.0000
     1.0000   1.0000   1.0000   1.0000   1.0000   1.0000   1.0000   1.0000
     1.0000   1.0000   1.0000   1.0000   1.0000   1.0000

          k =-0.5000-0.2887 0.1912 (  7180 PWs)   bands (ev):

   -12.4748 -11.9525 -11.8440 -11.6749 -11.5889 -11.4907  -0.9925  -0.8806
    -0.8176  -0.6844  -0.6599  -0.6143  -0.5534  -0.5112  -0.4895  -0.4573
    -0.3928  -0.3367  -0.2965  -0.2483  -0.2311  -0.1868  -0.1588  -0.0893
    -0.0456  -0.0030   0.0188   0.0629   0.0872   0.1053   0.1381   0.1734
     0.1890   0.2219   0.2552   0.2647   0.8818   1.0244   1.2283   1.3623
     1.4912   1.7370   2.4339   2.5721   2.7433   2.9074   2.9894   3.1181
     3.1780   3.2693   3.4529   3.6560   3.7345   3.7692

     occupation numbers 
     1.0000   1.0000   1.0000   1.0000   1.0000   1.0000   1.0000   1.0000
     1.0000   1.0000   1.0000   1.0000   1.0000   1.0000   1.0000   1.0000
     1.0000   1.0000   1.0000   1.0000   1.0000   1.0000   1.0000   1.0000
     1.0000   1.0000   1.0000   1.0000   1.0000   1.0000   1.0000   1.0000
     1.0000   1.0000   1.0000   1.0000   1.0000   1.0000   1.0000   1.0000
     1.0000   1.0000   1.0000   1.0000   1.0000   1.0000   1.0000   1.0000
     1.0000   1.0000   1.0000   1.0000   1.0000   1.0000

          k =-0.5000-0.2887-0.2868 (  7180 PWs)   bands (ev):

   -12.4723 -11.9543 -11.8401 -11.6610 -11.6021 -11.4940  -0.9979  -0.8923
    -0.8299  -0.7020  -0.6739  -0.6170  -0.5683  -0.5184  -0.4848  -0.4759
    -0.4017  -0.3467  -0.3227  -0.2566  -0.2398  -0.1818  -0.1602  -0.1223
    -0.0424  -0.0027   0.0482   0.0688   0.0968   0.1133   0.1472   0.1603
     0.1804   0.2233   0.2380   0.2590   0.8842   1.0180   1.2430   1.3110
     1.4635   1.6858   2.6337   2.6839   2.8689   2.9735   3.0510   3.1565
     3.2346   3.3523   3.4538   3.5619   3.6327   3.6878

     occupation numbers 
     1.0000   1.0000   1.0000   1.0000   1.0000   1.0000   1.0000   1.0000
     1.0000   1.0000   1.0000   1.0000   1.0000   1.0000   1.0000   1.0000
     1.0000   1.0000   1.0000   1.0000   1.0000   1.0000   1.0000   1.0000
     1.0000   1.0000   1.0000   1.0000   1.0000   1.0000   1.0000   1.0000
     1.0000   1.0000   1.0000   1.0000   1.0000   1.0000   1.0000   1.0000
     1.0000   1.0000   1.0000   1.0000   1.0000   1.0000   1.0000   1.0000
     1.0000   1.0000   1.0000   1.0000   1.0000   1.0000

          k =-0.5000-0.2245 0.0000 (  7188 PWs)   bands (ev):

   -12.4822 -11.9471 -11.8552 -11.7021 -11.5639 -11.4813  -0.9807  -0.8541
    -0.7861  -0.6410  -0.6248  -0.5855  -0.5266  -0.5022  -0.4499  -0.3934
    -0.3566  -0.2834  -0.2553  -0.2396  -0.1840  -0.1554  -0.1132  -0.0937
    -0.0531  -0.0371  -0.0028   0.0238   0.0476   0.0888   0.1419   0.1943
     0.2062   0.2357   0.2700   0.3037   0.9043   1.0788   1.2887   1.5053
     1.5487   1.7844   2.1184   2.1820   2.2848   2.5768   2.8170   2.9392
     3.1912   3.3426   3.5788   3.7096   3.7497   3.8672

     occupation numbers 
     1.0000   1.0000   1.0000   1.0000   1.0000   1.0000   1.0000   1.0000
     1.0000   1.0000   1.0000   1.0000   1.0000   1.0000   1.0000   1.0000
     1.0000   1.0000   1.0000   1.0000   1.0000   1.0000   1.0000   1.0000
     1.0000   1.0000   1.0000   1.0000   1.0000   1.0000   1.0000   1.0000
     1.0000   1.0000   1.0000   1.0000   1.0000   1.0000   1.0000   1.0000
     1.0000   1.0000   1.0000   1.0000   1.0000   1.0000   1.0000   1.0000
     1.0000   1.0000   1.0000   1.0000   1.0000   1.0000

          k =-0.5000-0.2245 0.0956 (  7179 PWs)   bands (ev):

   -12.4798 -11.9489 -11.8515 -11.6943 -11.5710 -11.4844  -0.9843  -0.8583
    -0.7981  -0.6560  -0.6283  -0.6019  -0.5411  -0.5104  -0.4601  -0.4131
    -0.3620  -0.3084  -0.2671  -0.2483  -0.1892  -0.1808  -0.1240  -0.0794
    -0.0594  -0.0280   0.0019   0.0385   0.0634   0.0916   0.1412   0.1859
     0.2008   0.2372   0.2626   0.2896   0.8993   1.0240   1.2840   1.4621
     1.5140   1.8082   2.2242   2.2698   2.4374   2.6947   2.8628   3.0002
     3.1602   3.3311   3.5575   3.7190   3.7556   3.8300

     occupation numbers 
     1.0000   1.0000   1.0000   1.0000   1.0000   1.0000   1.0000   1.0000
     1.0000   1.0000   1.0000   1.0000   1.0000   1.0000   1.0000   1.0000
     1.0000   1.0000   1.0000   1.0000   1.0000   1.0000   1.0000   1.0000
     1.0000   1.0000   1.0000   1.0000   1.0000   1.0000   1.0000   1.0000
     1.0000   1.0000   1.0000   1.0000   1.0000   1.0000   1.0000   1.0000
     1.0000   1.0000   1.0000   1.0000   1.0000   1.0000   1.0000   1.0000
     1.0000   1.0000   1.0000   1.0000   1.0000   1.0000

          k =-0.5000-0.2245 0.1912 (  7180 PWs)   bands (ev):

   -12.4748 -11.9525 -11.8440 -11.6749 -11.5889 -11.4907  -0.9938  -0.8765
    -0.8180  -0.6876  -0.6520  -0.6296  -0.5451  -0.5182  -0.4840  -0.4560
    -0.3807  -0.3484  -0.2882  -0.2664  -0.2160  -0.1990  -0.1403  -0.0976
    -0.0458  -0.0125   0.0286   0.0628   0.0754   0.1010   0.1457   0.1736
     0.1938   0.2268   0.2476   0.2654   0.9041   0.9755   1.2788   1.3745
     1.4399   1.7699   2.3806   2.6163   2.7593   2.9075   2.9820   3.0875
     3.1577   3.2857   3.5033   3.6477   3.7057   3.7733

     occupation numbers 
     1.0000   1.0000   1.0000   1.0000   1.0000   1.0000   1.0000   1.0000
     1.0000   1.0000   1.0000   1.0000   1.0000   1.0000   1.0000   1.0000
     1.0000   1.0000   1.0000   1.0000   1.0000   1.0000   1.0000   1.0000
     1.0000   1.0000   1.0000   1.0000   1.0000   1.0000   1.0000   1.0000
     1.0000   1.0000   1.0000   1.0000   1.0000   1.0000   1.0000   1.0000
     1.0000   1.0000   1.0000   1.0000   1.0000   1.0000   1.0000   1.0000
     1.0000   1.0000   1.0000   1.0000   1.0000   1.0000

          k =-0.5000-0.2245-0.2868 (  7196 PWs)   bands (ev):

   -12.4723 -11.9543 -11.8401 -11.6610 -11.6021 -11.4940  -0.9997  -0.8886
    -0.8313  -0.7034  -0.6703  -0.6275  -0.5532  -0.5223  -0.4899  -0.4728
    -0.3985  -0.3566  -0.3151  -0.2698  -0.2263  -0.1939  -0.1422  -0.1275
    -0.0440  -0.0011   0.0493   0.0650   0.0891   0.1084   0.1521   0.1632
     0.1846   0.2218   0.2363   0.2583   0.9018   0.9827   1.2666   1.3302
     1.4222   1.7202   2.5567   2.7271   2.8750   2.9950   3.0742   3.1376
     3.2316   3.3422   3.4614   3.5532   3.6367   3.6823

     occupation numbers 
     1.0000   1.0000   1.0000   1.0000   1.0000   1.0000   1.0000   1.0000
     1.0000   1.0000   1.0000   1.0000   1.0000   1.0000   1.0000   1.0000
     1.0000   1.0000   1.0000   1.0000   1.0000   1.0000   1.0000   1.0000
     1.0000   1.0000   1.0000   1.0000   1.0000   1.0000   1.0000   1.0000
     1.0000   1.0000   1.0000   1.0000   1.0000   1.0000   1.0000   1.0000
     1.0000   1.0000   1.0000   1.0000   1.0000   1.0000   1.0000   1.0000
     1.0000   1.0000   1.0000   1.0000   1.0000   1.0000

          k = 0.0000-0.0642 0.0956 (  7168 PWs)   bands (ev):

   -12.6901 -12.1778 -11.9716 -11.8393 -11.6981 -11.5816  -1.1950  -0.9756
    -0.8416  -0.7923  -0.6953  -0.6798  -0.6079  -0.5601  -0.5063  -0.4790
    -0.4737  -0.4097  -0.3730  -0.3047  -0.2458  -0.2213  -0.1665  -0.1331
    -0.1033  -0.0766  -0.0270  -0.0020   0.0136   0.0242   0.1066   0.1145
     0.1573   0.1840   0.1941   0.2314   0.8370   1.0578   1.2950   1.5349
     2.1097   2.3523   2.5970   3.0115   3.4251   3.4602   3.5614   3.6912
     3.8053   3.9026   4.0088   4.1077   4.2890   4.4624

     occupation numbers 
     1.0000   1.0000   1.0000   1.0000   1.0000   1.0000   1.0000   1.0000
     1.0000   1.0000   1.0000   1.0000   1.0000   1.0000   1.0000   1.0000
     1.0000   1.0000   1.0000   1.0000   1.0000   1.0000   1.0000   1.0000
     1.0000   1.0000   1.0000   1.0000   1.0000   1.0000   1.0000   1.0000
     1.0000   1.0000   1.0000   1.0000   1.0000   1.0000   1.0000   1.0000
     1.0000   1.0000   1.0000   1.0000   1.0000   1.0000   1.0000   1.0000
     1.0000   1.0000   1.0000   1.0000   1.0000   1.0000

          k = 0.0000-0.0642 0.1912 (  7185 PWs)   bands (ev):

   -12.6750 -12.1569 -11.9923 -11.8174 -11.7236 -11.5953  -1.1990  -0.9780
    -0.8585  -0.8185  -0.7398  -0.6877  -0.6537  -0.5765  -0.5513  -0.5086
    -0.4727  -0.4454  -0.3669  -0.3213  -0.2893  -0.2632  -0.2246  -0.1545
    -0.0914  -0.0752  -0.0395  -0.0027   0.0154   0.0348   0.1053   0.1111
     0.1496   0.1597   0.1785   0.1855   1.0608   1.2883   1.4359   1.6668
     2.0513   2.6308   2.8034   2.9913   3.1189   3.3934   3.5067   3.6617
     3.7052   3.9094   3.9437   4.1075   4.1986   4.4292

     occupation numbers 
     1.0000   1.0000   1.0000   1.0000   1.0000   1.0000   1.0000   1.0000
     1.0000   1.0000   1.0000   1.0000   1.0000   1.0000   1.0000   1.0000
     1.0000   1.0000   1.0000   1.0000   1.0000   1.0000   1.0000   1.0000
     1.0000   1.0000   1.0000   1.0000   1.0000   1.0000   1.0000   1.0000
     1.0000   1.0000   1.0000   1.0000   1.0000   1.0000   1.0000   1.0000
     1.0000   1.0000   1.0000   1.0000   1.0000   1.0000   1.0000   1.0000
     1.0000   1.0000   1.0000   1.0000   1.0000   1.0000

          k = 0.0000-0.1283 0.0956 (  7193 PWs)   bands (ev):

   -12.6876 -12.1775 -11.9866 -11.8270 -11.7045 -11.5751  -1.1932  -0.9727
    -0.8409  -0.7915  -0.6949  -0.6794  -0.6088  -0.5607  -0.5071  -0.4819
    -0.4785  -0.4280  -0.3821  -0.2840  -0.2493  -0.2004  -0.1528  -0.1368
    -0.0885  -0.0785  -0.0054   0.0163   0.0243   0.0406   0.1134   0.1222
     0.1589   0.1762   0.1974   0.2102   0.7863   0.9516   1.1861   1.3765
     2.4595   2.5517   2.8551   2.9612   3.2507   3.3664   3.5298   3.5569
     3.7584   3.9457   3.9765   4.1443   4.1921   4.4058

     occupation numbers 
     1.0000   1.0000   1.0000   1.0000   1.0000   1.0000   1.0000   1.0000
     1.0000   1.0000   1.0000   1.0000   1.0000   1.0000   1.0000   1.0000
     1.0000   1.0000   1.0000   1.0000   1.0000   1.0000   1.0000   1.0000
     1.0000   1.0000   1.0000   1.0000   1.0000   1.0000   1.0000   1.0000
     1.0000   1.0000   1.0000   1.0000   1.0000   1.0000   1.0000   1.0000
     1.0000   1.0000   1.0000   1.0000   1.0000   1.0000   1.0000   1.0000
     1.0000   1.0000   1.0000   1.0000   1.0000   1.0000

          k = 0.0000-0.1283 0.1912 (  7173 PWs)   bands (ev):

   -12.6732 -12.1531 -12.0026 -11.8162 -11.7307 -11.5847  -1.1979  -0.9750
    -0.8588  -0.8212  -0.7538  -0.6686  -0.6609  -0.5785  -0.5428  -0.4974
    -0.4867  -0.4714  -0.3631  -0.3230  -0.2871  -0.2684  -0.1643  -0.1565
    -0.0785  -0.0742  -0.0200   0.0107   0.0266   0.0370   0.1125   0.1160
     0.1503   0.1559   0.1699   0.1954   0.8677   1.0820   1.4688   1.7054
     2.3672   2.6696   2.9343   2.9987   3.0880   3.3276   3.4949   3.6276
     3.7671   3.8124   3.9779   4.0279   4.1080   4.3653

     occupation numbers 
     1.0000   1.0000   1.0000   1.0000   1.0000   1.0000   1.0000   1.0000
     1.0000   1.0000   1.0000   1.0000   1.0000   1.0000   1.0000   1.0000
     1.0000   1.0000   1.0000   1.0000   1.0000   1.0000   1.0000   1.0000
     1.0000   1.0000   1.0000   1.0000   1.0000   1.0000   1.0000   1.0000
     1.0000   1.0000   1.0000   1.0000   1.0000   1.0000   1.0000   1.0000
     1.0000   1.0000   1.0000   1.0000   1.0000   1.0000   1.0000   1.0000
     1.0000   1.0000   1.0000   1.0000   1.0000   1.0000

          k =-0.1667 0.0962 0.0000 (  7189 PWs)   bands (ev):

   -12.6440 -12.1357 -11.9349 -11.8070 -11.6609 -11.5483  -1.1049  -0.9845
    -0.8046  -0.7379  -0.6568  -0.6196  -0.5903  -0.5265  -0.5159  -0.4257
    -0.4168  -0.3978  -0.3536  -0.2746  -0.2591  -0.2153  -0.1555  -0.1102
    -0.0593  -0.0482  -0.0130   0.0115   0.0345   0.0599   0.1026   0.1367
     0.1710   0.1936   0.2603   0.2840   0.7075   1.0572   1.2419   1.4618
     2.1827   2.3105   2.4128   2.6092   2.9570   3.1714   3.3170   3.4002
     3.5245   3.7320   3.8653   3.9783   4.1780   4.3075

     occupation numbers 
     1.0000   1.0000   1.0000   1.0000   1.0000   1.0000   1.0000   1.0000
     1.0000   1.0000   1.0000   1.0000   1.0000   1.0000   1.0000   1.0000
     1.0000   1.0000   1.0000   1.0000   1.0000   1.0000   1.0000   1.0000
     1.0000   1.0000   1.0000   1.0000   1.0000   1.0000   1.0000   1.0000
     1.0000   1.0000   1.0000   1.0000   1.0000   1.0000   1.0000   1.0000
     1.0000   1.0000   1.0000   1.0000   1.0000   1.0000   1.0000   1.0000
     1.0000   1.0000   1.0000   1.0000   1.0000   1.0000

          k =-0.1667-0.0962 0.0956 (  7177 PWs)   bands (ev):

   -12.6381 -12.1271 -11.9424 -11.7995 -11.6691 -11.5549  -1.1023  -0.9916
    -0.8094  -0.7454  -0.6651  -0.6493  -0.5881  -0.5512  -0.5170  -0.4398
    -0.4310  -0.4077  -0.3704  -0.2990  -0.2455  -0.2069  -0.1863  -0.1362
    -0.0818  -0.0599  -0.0069  -0.0031   0.0300   0.0449   0.0970   0.1197
     0.1715   0.1855   0.2154   0.2812   0.9169   1.0968   1.3095   1.5047
     2.1829   2.3866   2.4213   2.6943   2.9524   3.1541   3.3079   3.4492
     3.5205   3.7147   3.8546   3.9192   4.1217   4.2506

     occupation numbers 
     1.0000   1.0000   1.0000   1.0000   1.0000   1.0000   1.0000   1.0000
     1.0000   1.0000   1.0000   1.0000   1.0000   1.0000   1.0000   1.0000
     1.0000   1.0000   1.0000   1.0000   1.0000   1.0000   1.0000   1.0000
     1.0000   1.0000   1.0000   1.0000   1.0000   1.0000   1.0000   1.0000
     1.0000   1.0000   1.0000   1.0000   1.0000   1.0000   1.0000   1.0000
     1.0000   1.0000   1.0000   1.0000   1.0000   1.0000   1.0000   1.0000
     1.0000   1.0000   1.0000   1.0000   1.0000   1.0000

          k =-0.1667 0.0962-0.0956 (  7177 PWs)   bands (ev):

   -12.6380 -12.1259 -11.9441 -11.7993 -11.6696 -11.5542  -1.1058  -0.9847
    -0.8223  -0.7499  -0.6546  -0.6376  -0.6045  -0.5427  -0.5216  -0.4367
    -0.4231  -0.4126  -0.3694  -0.2832  -0.2673  -0.2208  -0.1673  -0.1323
    -0.0814  -0.0584  -0.0164   0.0054   0.0198   0.0584   0.0972   0.1195
     0.1644   0.1918   0.2132   0.2774   0.9079   1.1149   1.3038   1.4667
     2.1860   2.4406   2.5048   2.6501   2.8915   3.1593   3.3205   3.4064
     3.5105   3.7450   3.8299   3.9445   4.0994   4.2716

     occupation numbers 
     1.0000   1.0000   1.0000   1.0000   1.0000   1.0000   1.0000   1.0000
     1.0000   1.0000   1.0000   1.0000   1.0000   1.0000   1.0000   1.0000
     1.0000   1.0000   1.0000   1.0000   1.0000   1.0000   1.0000   1.0000
     1.0000   1.0000   1.0000   1.0000   1.0000   1.0000   1.0000   1.0000
     1.0000   1.0000   1.0000   1.0000   1.0000   1.0000   1.0000   1.0000
     1.0000   1.0000   1.0000   1.0000   1.0000   1.0000   1.0000   1.0000
     1.0000   1.0000   1.0000   1.0000   1.0000   1.0000

          k = 0.1667-0.0962-0.0956 (  7177 PWs)   bands (ev):

   -12.6379 -12.1290 -11.9366 -11.8044 -11.6704 -11.5528  -1.1036  -0.9901
    -0.8111  -0.7564  -0.6655  -0.6377  -0.5789  -0.5315  -0.5157  -0.4592
    -0.4430  -0.4171  -0.3703  -0.2926  -0.2633  -0.2276  -0.1621  -0.1266
    -0.0617  -0.0456  -0.0318   0.0169   0.0295   0.0381   0.1006   0.1347
     0.1638   0.1932   0.2109   0.2677   0.8732   1.0963   1.3340   1.5120
     2.1471   2.3794   2.4689   2.7220   2.9628   3.1901   3.2702   3.4020
     3.5010   3.7259   3.8392   3.9408   4.1025   4.2742

     occupation numbers 
     1.0000   1.0000   1.0000   1.0000   1.0000   1.0000   1.0000   1.0000
     1.0000   1.0000   1.0000   1.0000   1.0000   1.0000   1.0000   1.0000
     1.0000   1.0000   1.0000   1.0000   1.0000   1.0000   1.0000   1.0000
     1.0000   1.0000   1.0000   1.0000   1.0000   1.0000   1.0000   1.0000
     1.0000   1.0000   1.0000   1.0000   1.0000   1.0000   1.0000   1.0000
     1.0000   1.0000   1.0000   1.0000   1.0000   1.0000   1.0000   1.0000
     1.0000   1.0000   1.0000   1.0000   1.0000   1.0000

          k =-0.1667-0.0962 0.1912 (  7175 PWs)   bands (ev):

   -12.6256 -12.1080 -11.9578 -11.7817 -11.6934 -11.5651  -1.1007  -0.9989
    -0.8394  -0.7754  -0.7130  -0.6510  -0.6033  -0.5687  -0.5196  -0.4752
    -0.4641  -0.4270  -0.4081  -0.3161  -0.2862  -0.2321  -0.2289  -0.1571
    -0.0760  -0.0639  -0.0241   0.0066   0.0328   0.0467   0.0955   0.1128
     0.1541   0.1706   0.1966   0.2529   1.0500   1.2307   1.4776   1.7022
     2.0824   2.4900   2.6602   2.7753   2.9244   3.1632   3.3083   3.4574
     3.5423   3.7243   3.7659   3.8275   3.9650   4.1665

     occupation numbers 
     1.0000   1.0000   1.0000   1.0000   1.0000   1.0000   1.0000   1.0000
     1.0000   1.0000   1.0000   1.0000   1.0000   1.0000   1.0000   1.0000
     1.0000   1.0000   1.0000   1.0000   1.0000   1.0000   1.0000   1.0000
     1.0000   1.0000   1.0000   1.0000   1.0000   1.0000   1.0000   1.0000
     1.0000   1.0000   1.0000   1.0000   1.0000   1.0000   1.0000   1.0000
     1.0000   1.0000   1.0000   1.0000   1.0000   1.0000   1.0000   1.0000
     1.0000   1.0000   1.0000   1.0000   1.0000   1.0000

          k =-0.1667 0.0962-0.1912 (  7175 PWs)   bands (ev):

   -12.6255 -12.1066 -11.9594 -11.7819 -11.6940 -11.5643  -1.1055  -0.9907
    -0.8480  -0.7878  -0.7052  -0.6506  -0.6008  -0.5492  -0.5389  -0.4867
    -0.4499  -0.4275  -0.3956  -0.3164  -0.2803  -0.2489  -0.2231  -0.1525
    -0.0747  -0.0654  -0.0122   0.0036   0.0238   0.0557   0.0914   0.1140
     0.1555   0.1689   0.1892   0.2504   1.0321   1.2145   1.5063   1.6915
     2.0985   2.5090   2.6653   2.7924   2.8994   3.1839   3.3380   3.4136
     3.5202   3.6751   3.7706   3.8595   3.9381   4.1979

     occupation numbers 
     1.0000   1.0000   1.0000   1.0000   1.0000   1.0000   1.0000   1.0000
     1.0000   1.0000   1.0000   1.0000   1.0000   1.0000   1.0000   1.0000
     1.0000   1.0000   1.0000   1.0000   1.0000   1.0000   1.0000   1.0000
     1.0000   1.0000   1.0000   1.0000   1.0000   1.0000   1.0000   1.0000
     1.0000   1.0000   1.0000   1.0000   1.0000   1.0000   1.0000   1.0000
     1.0000   1.0000   1.0000   1.0000   1.0000   1.0000   1.0000   1.0000
     1.0000   1.0000   1.0000   1.0000   1.0000   1.0000

          k = 0.1667-0.0962-0.1912 (  7175 PWs)   bands (ev):

   -12.6255 -12.1106 -11.9515 -11.7859 -11.6955 -11.5626  -1.1031  -0.9968
    -0.8392  -0.7816  -0.7306  -0.6253  -0.5813  -0.5528  -0.5428  -0.4945
    -0.4731  -0.4343  -0.3904  -0.3299  -0.2960  -0.2515  -0.1908  -0.1382
    -0.0678  -0.0567  -0.0403   0.0054   0.0356   0.0562   0.1010   0.1148
     0.1462   0.1635   0.2087   0.2391   0.9700   1.2571   1.5062   1.7533
     2.0139   2.5165   2.6776   2.7680   2.9910   3.1639   3.3091   3.3808
     3.5477   3.6445   3.7616   3.8911   3.9535   4.1887

     occupation numbers 
     1.0000   1.0000   1.0000   1.0000   1.0000   1.0000   1.0000   1.0000
     1.0000   1.0000   1.0000   1.0000   1.0000   1.0000   1.0000   1.0000
     1.0000   1.0000   1.0000   1.0000   1.0000   1.0000   1.0000   1.0000
     1.0000   1.0000   1.0000   1.0000   1.0000   1.0000   1.0000   1.0000
     1.0000   1.0000   1.0000   1.0000   1.0000   1.0000   1.0000   1.0000
     1.0000   1.0000   1.0000   1.0000   1.0000   1.0000   1.0000   1.0000
     1.0000   1.0000   1.0000   1.0000   1.0000   1.0000

          k =-0.1667 0.0962 0.2868 (  7176 PWs)   bands (ev):

   -12.6191 -12.0974 -11.9656 -11.7661 -11.7157 -11.5681  -1.1039  -0.9973
    -0.8581  -0.8041  -0.7504  -0.6423  -0.5803  -0.5660  -0.5500  -0.5039
    -0.4716  -0.4351  -0.4054  -0.3539  -0.3021  -0.2635  -0.2177  -0.1487
    -0.0727  -0.0529  -0.0220  -0.0097   0.0427   0.0682   0.0917   0.1116
     0.1414   0.1545   0.2025   0.2254   1.0470   1.1813   1.7852   1.8630
     2.0970   2.2359   2.6888   2.9282   3.1133   3.2059   3.3257   3.4132
     3.5231   3.6183   3.6655   3.7973   3.9229   4.1399

     occupation numbers 
     1.0000   1.0000   1.0000   1.0000   1.0000   1.0000   1.0000   1.0000
     1.0000   1.0000   1.0000   1.0000   1.0000   1.0000   1.0000   1.0000
     1.0000   1.0000   1.0000   1.0000   1.0000   1.0000   1.0000   1.0000
     1.0000   1.0000   1.0000   1.0000   1.0000   1.0000   1.0000   1.0000
     1.0000   1.0000   1.0000   1.0000   1.0000   1.0000   1.0000   1.0000
     1.0000   1.0000   1.0000   1.0000   1.0000   1.0000   1.0000   1.0000
     1.0000   1.0000   1.0000   1.0000   1.0000   1.0000

          k =-0.1667 0.1604 0.0000 (  7187 PWs)   bands (ev):

   -12.6423 -12.1361 -11.9454 -11.7971 -11.6639 -11.5458  -1.1072  -0.9874
    -0.8048  -0.7420  -0.6600  -0.6209  -0.5938  -0.5338  -0.5200  -0.4272
    -0.4092  -0.4016  -0.3478  -0.2723  -0.2364  -0.1790  -0.1475  -0.1069
    -0.0549  -0.0447  -0.0087   0.0116   0.0466   0.0744   0.0997   0.1419
     0.1765   0.1985   0.2344   0.2707   0.7291   0.9610   1.1994   1.3176
     2.1946   2.4915   2.6552   2.7444   2.8118   3.0448   3.1658   3.3703
     3.4909   3.6966   3.9536   4.0895   4.1505   4.2663

     occupation numbers 
     1.0000   1.0000   1.0000   1.0000   1.0000   1.0000   1.0000   1.0000
     1.0000   1.0000   1.0000   1.0000   1.0000   1.0000   1.0000   1.0000
     1.0000   1.0000   1.0000   1.0000   1.0000   1.0000   1.0000   1.0000
     1.0000   1.0000   1.0000   1.0000   1.0000   1.0000   1.0000   1.0000
     1.0000   1.0000   1.0000   1.0000   1.0000   1.0000   1.0000   1.0000
     1.0000   1.0000   1.0000   1.0000   1.0000   1.0000   1.0000   1.0000
     1.0000   1.0000   1.0000   1.0000   1.0000   1.0000

          k =-0.1667-0.1604 0.0956 (  7186 PWs)   bands (ev):

   -12.6365 -12.1269 -11.9504 -11.7936 -11.6728 -11.5507  -1.1053  -0.9942
    -0.8117  -0.7524  -0.6719  -0.6458  -0.5847  -0.5501  -0.5180  -0.4484
    -0.4289  -0.4148  -0.3715  -0.2830  -0.2381  -0.1915  -0.1493  -0.1418
    -0.0708  -0.0394  -0.0154   0.0098   0.0377   0.0505   0.0963   0.1200
     0.1711   0.1878   0.2166   0.2624   0.8809   1.0182   1.2470   1.4281
     2.2491   2.4845   2.6543   2.7215   2.8994   3.0557   3.2174   3.3352
     3.5532   3.6715   3.9162   4.0185   4.1149   4.2079

     occupation numbers 
     1.0000   1.0000   1.0000   1.0000   1.0000   1.0000   1.0000   1.0000
     1.0000   1.0000   1.0000   1.0000   1.0000   1.0000   1.0000   1.0000
     1.0000   1.0000   1.0000   1.0000   1.0000   1.0000   1.0000   1.0000
     1.0000   1.0000   1.0000   1.0000   1.0000   1.0000   1.0000   1.0000
     1.0000   1.0000   1.0000   1.0000   1.0000   1.0000   1.0000   1.0000
     1.0000   1.0000   1.0000   1.0000   1.0000   1.0000   1.0000   1.0000
     1.0000   1.0000   1.0000   1.0000   1.0000   1.0000

          k =-0.1667 0.1604-0.0956 (  7186 PWs)   bands (ev):

   -12.6365 -12.1259 -11.9516 -11.7938 -11.6730 -11.5504  -1.1082  -0.9868
    -0.8238  -0.7547  -0.6606  -0.6338  -0.6084  -0.5450  -0.5235  -0.4399
    -0.4273  -0.4149  -0.3622  -0.2891  -0.2473  -0.1870  -0.1535  -0.1302
    -0.0719  -0.0466  -0.0169   0.0140   0.0289   0.0670   0.0919   0.1232
     0.1703   0.1924   0.2083   0.2605   0.8642   1.0580   1.2374   1.4050
     2.2477   2.5493   2.6666   2.7186   2.8280   3.0700   3.2084   3.3515
     3.5022   3.7165   3.9005   4.0227   4.0977   4.2281

     occupation numbers 
     1.0000   1.0000   1.0000   1.0000   1.0000   1.0000   1.0000   1.0000
     1.0000   1.0000   1.0000   1.0000   1.0000   1.0000   1.0000   1.0000
     1.0000   1.0000   1.0000   1.0000   1.0000   1.0000   1.0000   1.0000
     1.0000   1.0000   1.0000   1.0000   1.0000   1.0000   1.0000   1.0000
     1.0000   1.0000   1.0000   1.0000   1.0000   1.0000   1.0000   1.0000
     1.0000   1.0000   1.0000   1.0000   1.0000   1.0000   1.0000   1.0000
     1.0000   1.0000   1.0000   1.0000   1.0000   1.0000

          k = 0.1667-0.1604-0.0956 (  7186 PWs)   bands (ev):

   -12.6365 -12.1279 -11.9477 -11.7959 -11.6734 -11.5497  -1.1060  -0.9934
    -0.8124  -0.7576  -0.6723  -0.6406  -0.5797  -0.5402  -0.5240  -0.4485
    -0.4328  -0.4227  -0.3668  -0.2808  -0.2539  -0.1973  -0.1542  -0.1279
    -0.0605  -0.0369  -0.0172   0.0124   0.0371   0.0556   0.0974   0.1302
     0.1698   0.1871   0.2111   0.2581   0.8474   1.0364   1.2486   1.4312
     2.2457   2.4700   2.6778   2.7606   2.8832   3.0451   3.2051   3.3607
     3.5032   3.6910   3.9018   4.0365   4.0922   4.2269

     occupation numbers 
     1.0000   1.0000   1.0000   1.0000   1.0000   1.0000   1.0000   1.0000
     1.0000   1.0000   1.0000   1.0000   1.0000   1.0000   1.0000   1.0000
     1.0000   1.0000   1.0000   1.0000   1.0000   1.0000   1.0000   1.0000
     1.0000   1.0000   1.0000   1.0000   1.0000   1.0000   1.0000   1.0000
     1.0000   1.0000   1.0000   1.0000   1.0000   1.0000   1.0000   1.0000
     1.0000   1.0000   1.0000   1.0000   1.0000   1.0000   1.0000   1.0000
     1.0000   1.0000   1.0000   1.0000   1.0000   1.0000

          k =-0.1667-0.1604 0.1912 (  7168 PWs)   bands (ev):

   -12.6245 -12.1060 -11.9627 -11.7822 -11.6979 -11.5583  -1.1043  -1.0009
    -0.8423  -0.7774  -0.7327  -0.6387  -0.5993  -0.5697  -0.5208  -0.4760
    -0.4645  -0.4299  -0.4074  -0.3191  -0.2887  -0.2274  -0.1747  -0.1406
    -0.0730  -0.0459  -0.0169   0.0045   0.0364   0.0499   0.0821   0.1064
     0.1520   0.1647   0.2211   0.2648   0.9076   1.1083   1.5003   1.7570
     2.2973   2.3937   2.5796   2.8536   2.9817   3.1171   3.2945   3.3962
     3.5765   3.7266   3.7575   3.8493   3.9952   4.1243

     occupation numbers 
     1.0000   1.0000   1.0000   1.0000   1.0000   1.0000   1.0000   1.0000
     1.0000   1.0000   1.0000   1.0000   1.0000   1.0000   1.0000   1.0000
     1.0000   1.0000   1.0000   1.0000   1.0000   1.0000   1.0000   1.0000
     1.0000   1.0000   1.0000   1.0000   1.0000   1.0000   1.0000   1.0000
     1.0000   1.0000   1.0000   1.0000   1.0000   1.0000   1.0000   1.0000
     1.0000   1.0000   1.0000   1.0000   1.0000   1.0000   1.0000   1.0000
     1.0000   1.0000   1.0000   1.0000   1.0000   1.0000

          k =-0.1667 0.1604-0.1912 (  7168 PWs)   bands (ev):

   -12.6244 -12.1048 -11.9639 -11.7826 -11.6980 -11.5579  -1.1080  -0.9923
    -0.8512  -0.7906  -0.7154  -0.6417  -0.6074  -0.5528  -0.5396  -0.4791
    -0.4502  -0.4335  -0.3943  -0.3229  -0.2740  -0.2503  -0.1756  -0.1306
    -0.0741  -0.0523  -0.0068   0.0055   0.0259   0.0603   0.0825   0.1055
     0.1570   0.1610   0.2153   0.2618   0.9060   1.0932   1.5359   1.7408
     2.2899   2.3989   2.5881   2.8465   2.9893   3.1414   3.2855   3.3901
     3.5516   3.7103   3.7755   3.8422   3.9764   4.1518

     occupation numbers 
     1.0000   1.0000   1.0000   1.0000   1.0000   1.0000   1.0000   1.0000
     1.0000   1.0000   1.0000   1.0000   1.0000   1.0000   1.0000   1.0000
     1.0000   1.0000   1.0000   1.0000   1.0000   1.0000   1.0000   1.0000
     1.0000   1.0000   1.0000   1.0000   1.0000   1.0000   1.0000   1.0000
     1.0000   1.0000   1.0000   1.0000   1.0000   1.0000   1.0000   1.0000
     1.0000   1.0000   1.0000   1.0000   1.0000   1.0000   1.0000   1.0000
     1.0000   1.0000   1.0000   1.0000   1.0000   1.0000

          k = 0.1667-0.1604-0.1912 (  7168 PWs)   bands (ev):

   -12.6244 -12.1075 -11.9595 -11.7844 -11.6987 -11.5571  -1.1054  -0.9999
    -0.8423  -0.7802  -0.7397  -0.6291  -0.5867  -0.5645  -0.5343  -0.4812
    -0.4662  -0.4405  -0.3900  -0.3238  -0.2932  -0.2396  -0.1668  -0.1282
    -0.0667  -0.0465  -0.0217   0.0048   0.0364   0.0617   0.0825   0.1056
     0.1492   0.1607   0.2275   0.2592   0.8696   1.1220   1.5075   1.7793
     2.2253   2.4448   2.6081   2.8313   3.0063   3.1662   3.2254   3.4009
     3.5714   3.6945   3.7483   3.8768   3.9839   4.1429

     occupation numbers 
     1.0000   1.0000   1.0000   1.0000   1.0000   1.0000   1.0000   1.0000
     1.0000   1.0000   1.0000   1.0000   1.0000   1.0000   1.0000   1.0000
     1.0000   1.0000   1.0000   1.0000   1.0000   1.0000   1.0000   1.0000
     1.0000   1.0000   1.0000   1.0000   1.0000   1.0000   1.0000   1.0000
     1.0000   1.0000   1.0000   1.0000   1.0000   1.0000   1.0000   1.0000
     1.0000   1.0000   1.0000   1.0000   1.0000   1.0000   1.0000   1.0000
     1.0000   1.0000   1.0000   1.0000   1.0000   1.0000

          k =-0.1667 0.1604 0.2868 (  7168 PWs)   bands (ev):

   -12.6182 -12.0940 -11.9702 -11.7700 -11.7187 -11.5608  -1.1064  -0.9995
    -0.8622  -0.8031  -0.7619  -0.6384  -0.5922  -0.5668  -0.5480  -0.4879
    -0.4660  -0.4456  -0.4037  -0.3557  -0.3080  -0.2575  -0.1764  -0.1236
    -0.0682  -0.0489  -0.0161  -0.0056   0.0435   0.0638   0.0749   0.1011
     0.1399   0.1529   0.2361   0.2532   0.9057   1.0598   1.9058   1.9797
     2.0856   2.2241   2.6285   2.8747   3.1228   3.2099   3.3236   3.4875
     3.5160   3.6252   3.6772   3.8257   3.9002   4.0998

     occupation numbers 
     1.0000   1.0000   1.0000   1.0000   1.0000   1.0000   1.0000   1.0000
     1.0000   1.0000   1.0000   1.0000   1.0000   1.0000   1.0000   1.0000
     1.0000   1.0000   1.0000   1.0000   1.0000   1.0000   1.0000   1.0000
     1.0000   1.0000   1.0000   1.0000   1.0000   1.0000   1.0000   1.0000
     1.0000   1.0000   1.0000   1.0000   1.0000   1.0000   1.0000   1.0000
     1.0000   1.0000   1.0000   1.0000   1.0000   1.0000   1.0000   1.0000
     1.0000   1.0000   1.0000   1.0000   1.0000   1.0000

          k =-0.1667-0.0321 0.0000 (  7181 PWs)   bands (ev):

   -12.6458 -12.1358 -11.9208 -11.8198 -11.6570 -11.5516  -1.1014  -0.9816
    -0.7986  -0.7286  -0.6619  -0.6182  -0.5957  -0.5237  -0.4958  -0.4533
    -0.4157  -0.3910  -0.3410  -0.3135  -0.2794  -0.2170  -0.1577  -0.1198
    -0.0635  -0.0481  -0.0220   0.0136   0.0285   0.0431   0.1025   0.1323
     0.1712   0.1853   0.2576   0.2993   0.6987   1.1674   1.3741   1.6612
     1.9424   2.1238   2.2892   2.6156   2.9432   3.2219   3.4292   3.5911
     3.6191   3.6890   3.7896   3.8581   4.2128   4.2837

     occupation numbers 
     1.0000   1.0000   1.0000   1.0000   1.0000   1.0000   1.0000   1.0000
     1.0000   1.0000   1.0000   1.0000   1.0000   1.0000   1.0000   1.0000
     1.0000   1.0000   1.0000   1.0000   1.0000   1.0000   1.0000   1.0000
     1.0000   1.0000   1.0000   1.0000   1.0000   1.0000   1.0000   1.0000
     1.0000   1.0000   1.0000   1.0000   1.0000   1.0000   1.0000   1.0000
     1.0000   1.0000   1.0000   1.0000   1.0000   1.0000   1.0000   1.0000
     1.0000   1.0000   1.0000   1.0000   1.0000   1.0000

          k =-0.1667 0.0321 0.0956 (  7178 PWs)   bands (ev):

   -12.6395 -12.1292 -11.9269 -11.8121 -11.6662 -11.5572  -1.1006  -0.9874
    -0.8082  -0.7508  -0.6625  -0.6376  -0.5798  -0.5208  -0.5013  -0.4856
    -0.4393  -0.4098  -0.3806  -0.3075  -0.2811  -0.2423  -0.1582  -0.1329
    -0.0723  -0.0595  -0.0295   0.0111   0.0226   0.0329   0.1031   0.1313
     0.1616   0.1904   0.2215   0.2598   0.9046   1.1912   1.4401   1.6271
     1.8986   2.3025   2.4467   2.6780   2.9465   3.1490   3.3857   3.5368
     3.6452   3.6624   3.7583   3.8468   4.1509   4.2573

     occupation numbers 
     1.0000   1.0000   1.0000   1.0000   1.0000   1.0000   1.0000   1.0000
     1.0000   1.0000   1.0000   1.0000   1.0000   1.0000   1.0000   1.0000
     1.0000   1.0000   1.0000   1.0000   1.0000   1.0000   1.0000   1.0000
     1.0000   1.0000   1.0000   1.0000   1.0000   1.0000   1.0000   1.0000
     1.0000   1.0000   1.0000   1.0000   1.0000   1.0000   1.0000   1.0000
     1.0000   1.0000   1.0000   1.0000   1.0000   1.0000   1.0000   1.0000
     1.0000   1.0000   1.0000   1.0000   1.0000   1.0000

          k =-0.1667-0.0321-0.0956 (  7178 PWs)   bands (ev):

   -12.6395 -12.1286 -11.9277 -11.8119 -11.6658 -11.5578  -1.1018  -0.9813
    -0.8165  -0.7346  -0.6669  -0.6439  -0.5956  -0.5266  -0.5126  -0.4626
    -0.4308  -0.4098  -0.3599  -0.3266  -0.2876  -0.2304  -0.1629  -0.1386
    -0.0732  -0.0625  -0.0417   0.0110   0.0187   0.0395   0.1047   0.1307
     0.1592   0.1876   0.2252   0.2642   0.9328   1.2114   1.4255   1.6453
     1.8827   2.2727   2.4134   2.6763   2.9935   3.1449   3.3374   3.5990
     3.6252   3.6857   3.7559   3.8328   4.1645   4.2428

     occupation numbers 
     1.0000   1.0000   1.0000   1.0000   1.0000   1.0000   1.0000   1.0000
     1.0000   1.0000   1.0000   1.0000   1.0000   1.0000   1.0000   1.0000
     1.0000   1.0000   1.0000   1.0000   1.0000   1.0000   1.0000   1.0000
     1.0000   1.0000   1.0000   1.0000   1.0000   1.0000   1.0000   1.0000
     1.0000   1.0000   1.0000   1.0000   1.0000   1.0000   1.0000   1.0000
     1.0000   1.0000   1.0000   1.0000   1.0000   1.0000   1.0000   1.0000
     1.0000   1.0000   1.0000   1.0000   1.0000   1.0000

          k = 0.1667 0.0321-0.0956 (  7178 PWs)   bands (ev):

   -12.6395 -12.1283 -11.9302 -11.8093 -11.6655 -11.5583  -1.0998  -0.9882
    -0.8073  -0.7449  -0.6631  -0.6436  -0.5832  -0.5412  -0.5095  -0.4592
    -0.4324  -0.4004  -0.3630  -0.3311  -0.2860  -0.2287  -0.1652  -0.1386
    -0.0821  -0.0610  -0.0210  -0.0002   0.0251   0.0387   0.1012   0.1244
     0.1659   0.1867   0.2193   0.2703   0.9173   1.2127   1.4099   1.6142
     1.9249   2.3073   2.4379   2.6481   2.9461   3.1422   3.4104   3.5656
     3.6224   3.6707   3.7880   3.8117   4.1630   4.2424

     occupation numbers 
     1.0000   1.0000   1.0000   1.0000   1.0000   1.0000   1.0000   1.0000
     1.0000   1.0000   1.0000   1.0000   1.0000   1.0000   1.0000   1.0000
     1.0000   1.0000   1.0000   1.0000   1.0000   1.0000   1.0000   1.0000
     1.0000   1.0000   1.0000   1.0000   1.0000   1.0000   1.0000   1.0000
     1.0000   1.0000   1.0000   1.0000   1.0000   1.0000   1.0000   1.0000
     1.0000   1.0000   1.0000   1.0000   1.0000   1.0000   1.0000   1.0000
     1.0000   1.0000   1.0000   1.0000   1.0000   1.0000

          k =-0.1667 0.0321 0.1912 (  7167 PWs)   bands (ev):

   -12.6266 -12.1124 -11.9465 -11.7863 -11.6899 -11.5699  -1.0995  -0.9946
    -0.8355  -0.7782  -0.7189  -0.6315  -0.5835  -0.5482  -0.5315  -0.5046
    -0.4742  -0.4235  -0.4036  -0.3408  -0.3083  -0.2530  -0.2192  -0.1535
    -0.0755  -0.0583  -0.0385  -0.0022   0.0370   0.0505   0.1090   0.1215
     0.1482   0.1740   0.1931   0.2121   1.1325   1.4031   1.5338   1.6712
     1.7924   2.5911   2.6665   2.8390   2.9088   3.0796   3.2975   3.5024
     3.5565   3.6495   3.6996   3.8631   4.0368   4.1617

     occupation numbers 
     1.0000   1.0000   1.0000   1.0000   1.0000   1.0000   1.0000   1.0000
     1.0000   1.0000   1.0000   1.0000   1.0000   1.0000   1.0000   1.0000
     1.0000   1.0000   1.0000   1.0000   1.0000   1.0000   1.0000   1.0000
     1.0000   1.0000   1.0000   1.0000   1.0000   1.0000   1.0000   1.0000
     1.0000   1.0000   1.0000   1.0000   1.0000   1.0000   1.0000   1.0000
     1.0000   1.0000   1.0000   1.0000   1.0000   1.0000   1.0000   1.0000
     1.0000   1.0000   1.0000   1.0000   1.0000   1.0000

          k =-0.1667-0.0321-0.1912 (  7167 PWs)   bands (ev):

   -12.6266 -12.1115 -11.9478 -11.7858 -11.6895 -11.5705  -1.1005  -0.9880
    -0.8461  -0.7639  -0.6978  -0.6775  -0.5889  -0.5424  -0.5283  -0.5040
    -0.4542  -0.4292  -0.3993  -0.3527  -0.3048  -0.2531  -0.2129  -0.1664
    -0.0823  -0.0602  -0.0454   0.0088   0.0355   0.0481   0.1089   0.1247
     0.1484   0.1744   0.1904   0.2201   1.1646   1.4154   1.5490   1.6476
     1.7799   2.5612   2.6374   2.8448   2.9144   3.1022   3.2503   3.5280
     3.5910   3.6690   3.7196   3.8179   4.0601   4.1422

     occupation numbers 
     1.0000   1.0000   1.0000   1.0000   1.0000   1.0000   1.0000   1.0000
     1.0000   1.0000   1.0000   1.0000   1.0000   1.0000   1.0000   1.0000
     1.0000   1.0000   1.0000   1.0000   1.0000   1.0000   1.0000   1.0000
     1.0000   1.0000   1.0000   1.0000   1.0000   1.0000   1.0000   1.0000
     1.0000   1.0000   1.0000   1.0000   1.0000   1.0000   1.0000   1.0000
     1.0000   1.0000   1.0000   1.0000   1.0000   1.0000   1.0000   1.0000
     1.0000   1.0000   1.0000   1.0000   1.0000   1.0000

          k = 0.1667 0.0321-0.1912 (  7167 PWs)   bands (ev):

   -12.6267 -12.1112 -11.9496 -11.7842 -11.6887 -11.5713  -1.0983  -0.9957
    -0.8357  -0.7748  -0.7093  -0.6468  -0.5919  -0.5615  -0.5246  -0.4862
    -0.4703  -0.4259  -0.3912  -0.3421  -0.3123  -0.2464  -0.2395  -0.1577
    -0.0769  -0.0628  -0.0319  -0.0016   0.0352   0.0488   0.1076   0.1170
     0.1536   0.1740   0.1880   0.2222   1.1895   1.3947   1.4749   1.6457
     1.8395   2.5827   2.7121   2.7648   2.9036   3.0712   3.3367   3.4894
     3.5605   3.6960   3.7218   3.8185   4.0428   4.1487

     occupation numbers 
     1.0000   1.0000   1.0000   1.0000   1.0000   1.0000   1.0000   1.0000
     1.0000   1.0000   1.0000   1.0000   1.0000   1.0000   1.0000   1.0000
     1.0000   1.0000   1.0000   1.0000   1.0000   1.0000   1.0000   1.0000
     1.0000   1.0000   1.0000   1.0000   1.0000   1.0000   1.0000   1.0000
     1.0000   1.0000   1.0000   1.0000   1.0000   1.0000   1.0000   1.0000
     1.0000   1.0000   1.0000   1.0000   1.0000   1.0000   1.0000   1.0000
     1.0000   1.0000   1.0000   1.0000   1.0000   1.0000

          k =-0.1667-0.0321 0.2868 (  7146 PWs)   bands (ev):

   -12.6201 -12.1010 -11.9608 -11.7634 -11.7094 -11.5773  -1.0984  -0.9959
    -0.8569  -0.7901  -0.7211  -0.6824  -0.5813  -0.5487  -0.5400  -0.5187
    -0.4726  -0.4357  -0.4001  -0.3780  -0.3077  -0.2692  -0.2488  -0.1721
    -0.0737  -0.0559  -0.0353   0.0011   0.0444   0.0673   0.1112   0.1176
     0.1444   0.1544   0.1821   0.2004   1.2678   1.3928   1.5714   1.6821
     2.1073   2.2222   2.7891   2.9447   3.0723   3.1986   3.3034   3.3394
     3.5044   3.5895   3.7408   3.8913   3.9545   4.0757

     occupation numbers 
     1.0000   1.0000   1.0000   1.0000   1.0000   1.0000   1.0000   1.0000
     1.0000   1.0000   1.0000   1.0000   1.0000   1.0000   1.0000   1.0000
     1.0000   1.0000   1.0000   1.0000   1.0000   1.0000   1.0000   1.0000
     1.0000   1.0000   1.0000   1.0000   1.0000   1.0000   1.0000   1.0000
     1.0000   1.0000   1.0000   1.0000   1.0000   1.0000   1.0000   1.0000
     1.0000   1.0000   1.0000   1.0000   1.0000   1.0000   1.0000   1.0000
     1.0000   1.0000   1.0000   1.0000   1.0000   1.0000

          k =-0.3333-0.1925 0.0956 (  7180 PWs)   bands (ev):

   -12.5331 -12.0151 -11.8775 -11.7300 -11.6050 -11.5063  -1.0409  -0.9089
    -0.8081  -0.7117  -0.6329  -0.5909  -0.5737  -0.5366  -0.4744  -0.3886
    -0.3631  -0.3503  -0.2856  -0.2424  -0.2121  -0.1705  -0.1419  -0.1140
    -0.0816  -0.0316   0.0072   0.0190   0.0442   0.0605   0.1146   0.1345
     0.1899   0.2336   0.2680   0.3085   1.0702   1.2387   1.3933   1.4631
     1.6494   1.8205   1.9092   2.3881   2.4996   2.8515   2.9685   3.2211
     3.2592   3.3168   3.7241   3.8618   3.9455   4.0558

     occupation numbers 
     1.0000   1.0000   1.0000   1.0000   1.0000   1.0000   1.0000   1.0000
     1.0000   1.0000   1.0000   1.0000   1.0000   1.0000   1.0000   1.0000
     1.0000   1.0000   1.0000   1.0000   1.0000   1.0000   1.0000   1.0000
     1.0000   1.0000   1.0000   1.0000   1.0000   1.0000   1.0000   1.0000
     1.0000   1.0000   1.0000   1.0000   1.0000   1.0000   1.0000   1.0000
     1.0000   1.0000   1.0000   1.0000   1.0000   1.0000   1.0000   1.0000
     1.0000   1.0000   1.0000   1.0000   1.0000   1.0000

          k =-0.3333-0.1925 0.1912 (  7184 PWs)   bands (ev):

   -12.5257 -12.0070 -11.8809 -11.7118 -11.6261 -11.5130  -1.0465  -0.9080
    -0.8427  -0.7290  -0.6757  -0.6095  -0.5699  -0.5297  -0.4972  -0.4343
    -0.4064  -0.3791  -0.3184  -0.2716  -0.2438  -0.1821  -0.1516  -0.1128
    -0.0913  -0.0374  -0.0069   0.0378   0.0489   0.0618   0.0990   0.1134
     0.1632   0.1905   0.2973   0.3111   1.0428   1.2998   1.4041   1.4985
     1.7435   1.8574   2.0240   2.5596   2.6984   2.8016   3.1392   3.3349
     3.3858   3.4272   3.6454   3.7026   3.8100   3.9545

     occupation numbers 
     1.0000   1.0000   1.0000   1.0000   1.0000   1.0000   1.0000   1.0000
     1.0000   1.0000   1.0000   1.0000   1.0000   1.0000   1.0000   1.0000
     1.0000   1.0000   1.0000   1.0000   1.0000   1.0000   1.0000   1.0000
     1.0000   1.0000   1.0000   1.0000   1.0000   1.0000   1.0000   1.0000
     1.0000   1.0000   1.0000   1.0000   1.0000   1.0000   1.0000   1.0000
     1.0000   1.0000   1.0000   1.0000   1.0000   1.0000   1.0000   1.0000
     1.0000   1.0000   1.0000   1.0000   1.0000   1.0000

          k =-0.3333 0.2566 0.0000 (  7189 PWs)   bands (ev):

   -12.5370 -12.0189 -11.8744 -11.7378 -11.5967 -11.5033  -1.0319  -0.9031
    -0.7899  -0.6902  -0.6361  -0.5812  -0.5542  -0.5363  -0.4798  -0.3870
    -0.3490  -0.3273  -0.2689  -0.2248  -0.1848  -0.1695  -0.1482  -0.1219
    -0.0722  -0.0466  -0.0093   0.0258   0.0526   0.0687   0.1239   0.1518
     0.1953   0.2342   0.2695   0.3290   1.0875   1.1692   1.3594   1.4369
     1.6427   1.7592   1.9917   2.2775   2.5517   2.7154   3.0081   3.0991
     3.2089   3.3051   3.7092   3.9164   3.9430   4.0670

     occupation numbers 
     1.0000   1.0000   1.0000   1.0000   1.0000   1.0000   1.0000   1.0000
     1.0000   1.0000   1.0000   1.0000   1.0000   1.0000   1.0000   1.0000
     1.0000   1.0000   1.0000   1.0000   1.0000   1.0000   1.0000   1.0000
     1.0000   1.0000   1.0000   1.0000   1.0000   1.0000   1.0000   1.0000
     1.0000   1.0000   1.0000   1.0000   1.0000   1.0000   1.0000   1.0000
     1.0000   1.0000   1.0000   1.0000   1.0000   1.0000   1.0000   1.0000
     1.0000   1.0000   1.0000   1.0000   1.0000   1.0000

          k =-0.3333-0.2566 0.0956 (  7179 PWs)   bands (ev):

   -12.5333 -12.0156 -11.8755 -11.7312 -11.6049 -11.5064  -1.0358  -0.9014
    -0.8036  -0.7170  -0.6273  -0.5823  -0.5671  -0.5372  -0.4796  -0.4162
    -0.3839  -0.3463  -0.2884  -0.2418  -0.1993  -0.1729  -0.1542  -0.1059
    -0.0755  -0.0435  -0.0178   0.0263   0.0603   0.0701   0.1159   0.1390
     0.1911   0.2406   0.2537   0.3035   1.0333   1.2417   1.4028   1.4299
     1.6289   1.8595   2.0461   2.3652   2.5629   2.8283   2.9890   3.1455
     3.2715   3.3348   3.6920   3.8213   3.9258   4.0390

     occupation numbers 
     1.0000   1.0000   1.0000   1.0000   1.0000   1.0000   1.0000   1.0000
     1.0000   1.0000   1.0000   1.0000   1.0000   1.0000   1.0000   1.0000
     1.0000   1.0000   1.0000   1.0000   1.0000   1.0000   1.0000   1.0000
     1.0000   1.0000   1.0000   1.0000   1.0000   1.0000   1.0000   1.0000
     1.0000   1.0000   1.0000   1.0000   1.0000   1.0000   1.0000   1.0000
     1.0000   1.0000   1.0000   1.0000   1.0000   1.0000   1.0000   1.0000
     1.0000   1.0000   1.0000   1.0000   1.0000   1.0000

          k =-0.3333 0.2566-0.0956 (  7179 PWs)   bands (ev):

   -12.5333 -12.0147 -11.8763 -11.7313 -11.6045 -11.5069  -1.0328  -0.9005
    -0.8136  -0.6933  -0.6423  -0.5884  -0.5679  -0.5225  -0.5058  -0.4236
    -0.3719  -0.3404  -0.2818  -0.2354  -0.1894  -0.1666  -0.1601  -0.1195
    -0.0923  -0.0492  -0.0212   0.0339   0.0582   0.0723   0.1143   0.1376
     0.1881   0.2382   0.2565   0.3098   1.1240   1.2408   1.2878   1.4843
     1.6470   1.8147   2.0816   2.3412   2.5639   2.8239   2.9879   3.1323
     3.2578   3.3510   3.6804   3.8572   3.9182   4.0351

     occupation numbers 
     1.0000   1.0000   1.0000   1.0000   1.0000   1.0000   1.0000   1.0000
     1.0000   1.0000   1.0000   1.0000   1.0000   1.0000   1.0000   1.0000
     1.0000   1.0000   1.0000   1.0000   1.0000   1.0000   1.0000   1.0000
     1.0000   1.0000   1.0000   1.0000   1.0000   1.0000   1.0000   1.0000
     1.0000   1.0000   1.0000   1.0000   1.0000   1.0000   1.0000   1.0000
     1.0000   1.0000   1.0000   1.0000   1.0000   1.0000   1.0000   1.0000
     1.0000   1.0000   1.0000   1.0000   1.0000   1.0000

          k = 0.3333-0.2566-0.0956 (  7179 PWs)   bands (ev):

   -12.5333 -12.0153 -11.8764 -11.7304 -11.6044 -11.5071  -1.0363  -0.9028
    -0.8019  -0.6967  -0.6406  -0.6048  -0.5714  -0.5339  -0.4762  -0.3926
    -0.3673  -0.3431  -0.2923  -0.2458  -0.2078  -0.1810  -0.1637  -0.1291
    -0.0738  -0.0265   0.0104   0.0261   0.0367   0.0653   0.1071   0.1447
     0.1934   0.2242   0.2684   0.3064   1.0568   1.2153   1.3895   1.4306
     1.7324   1.8417   1.9852   2.3466   2.6054   2.8022   2.9573   3.1500
     3.2616   3.3579   3.7034   3.8480   3.9294   4.0121

     occupation numbers 
     1.0000   1.0000   1.0000   1.0000   1.0000   1.0000   1.0000   1.0000
     1.0000   1.0000   1.0000   1.0000   1.0000   1.0000   1.0000   1.0000
     1.0000   1.0000   1.0000   1.0000   1.0000   1.0000   1.0000   1.0000
     1.0000   1.0000   1.0000   1.0000   1.0000   1.0000   1.0000   1.0000
     1.0000   1.0000   1.0000   1.0000   1.0000   1.0000   1.0000   1.0000
     1.0000   1.0000   1.0000   1.0000   1.0000   1.0000   1.0000   1.0000
     1.0000   1.0000   1.0000   1.0000   1.0000   1.0000

          k =-0.3333-0.2566 0.1912 (  7183 PWs)   bands (ev):

   -12.5258 -12.0078 -11.8794 -11.7123 -11.6259 -11.5133  -1.0415  -0.9008
    -0.8370  -0.7362  -0.6730  -0.5988  -0.5621  -0.5417  -0.4981  -0.4603
    -0.4061  -0.3960  -0.3238  -0.2671  -0.2228  -0.1882  -0.1629  -0.1205
    -0.0650  -0.0435  -0.0249   0.0400   0.0571   0.0739   0.1059   0.1258
     0.1632   0.1895   0.2864   0.2972   1.0102   1.3218   1.3549   1.4940
     1.6685   1.9740   2.1252   2.5763   2.7481   2.8478   3.1235   3.2607
     3.3395   3.4282   3.6132   3.6973   3.7940   3.9284

     occupation numbers 
     1.0000   1.0000   1.0000   1.0000   1.0000   1.0000   1.0000   1.0000
     1.0000   1.0000   1.0000   1.0000   1.0000   1.0000   1.0000   1.0000
     1.0000   1.0000   1.0000   1.0000   1.0000   1.0000   1.0000   1.0000
     1.0000   1.0000   1.0000   1.0000   1.0000   1.0000   1.0000   1.0000
     1.0000   1.0000   1.0000   1.0000   1.0000   1.0000   1.0000   1.0000
     1.0000   1.0000   1.0000   1.0000   1.0000   1.0000   1.0000   1.0000
     1.0000   1.0000   1.0000   1.0000   1.0000   1.0000

          k =-0.3333 0.2566-0.1912 (  7183 PWs)   bands (ev):

   -12.5258 -12.0066 -11.8808 -11.7120 -11.6254 -11.5140  -1.0385  -0.9000
    -0.8483  -0.7087  -0.6770  -0.6227  -0.5626  -0.5287  -0.5067  -0.4639
    -0.4011  -0.3866  -0.3142  -0.2811  -0.2232  -0.1959  -0.1599  -0.1356
    -0.0709  -0.0492  -0.0187   0.0441   0.0605   0.0758   0.1035   0.1248
     0.1630   0.1911   0.2869   0.3016   1.0633   1.2737   1.3889   1.5013
     1.6462   1.9673   2.1366   2.5328   2.7508   2.8702   3.1440   3.2186
     3.3569   3.4202   3.5914   3.7314   3.8001   3.9211

     occupation numbers 
     1.0000   1.0000   1.0000   1.0000   1.0000   1.0000   1.0000   1.0000
     1.0000   1.0000   1.0000   1.0000   1.0000   1.0000   1.0000   1.0000
     1.0000   1.0000   1.0000   1.0000   1.0000   1.0000   1.0000   1.0000
     1.0000   1.0000   1.0000   1.0000   1.0000   1.0000   1.0000   1.0000
     1.0000   1.0000   1.0000   1.0000   1.0000   1.0000   1.0000   1.0000
     1.0000   1.0000   1.0000   1.0000   1.0000   1.0000   1.0000   1.0000
     1.0000   1.0000   1.0000   1.0000   1.0000   1.0000

          k = 0.3333-0.2566-0.1912 (  7183 PWs)   bands (ev):

   -12.5258 -12.0073 -11.8806 -11.7114 -11.6250 -11.5143  -1.0427  -0.9013
    -0.8368  -0.7166  -0.6764  -0.6324  -0.5670  -0.5248  -0.4919  -0.4309
    -0.4191  -0.3713  -0.3248  -0.2776  -0.2574  -0.1929  -0.1758  -0.1282
    -0.0733  -0.0249   0.0107   0.0311   0.0469   0.0698   0.0953   0.1264
     0.1696   0.1930   0.2728   0.3082   1.0590   1.2105   1.3896   1.5644
     1.7412   1.8664   2.1142   2.6228   2.7223   2.8240   3.0826   3.2632
     3.3753   3.4679   3.6369   3.6665   3.8035   3.9056

     occupation numbers 
     1.0000   1.0000   1.0000   1.0000   1.0000   1.0000   1.0000   1.0000
     1.0000   1.0000   1.0000   1.0000   1.0000   1.0000   1.0000   1.0000
     1.0000   1.0000   1.0000   1.0000   1.0000   1.0000   1.0000   1.0000
     1.0000   1.0000   1.0000   1.0000   1.0000   1.0000   1.0000   1.0000
     1.0000   1.0000   1.0000   1.0000   1.0000   1.0000   1.0000   1.0000
     1.0000   1.0000   1.0000   1.0000   1.0000   1.0000   1.0000   1.0000
     1.0000   1.0000   1.0000   1.0000   1.0000   1.0000

          k =-0.3333 0.2566 0.2868 (  7180 PWs)   bands (ev):

   -12.5220 -12.0028 -11.8831 -11.6960 -11.6418 -11.5175  -1.0437  -0.9021
    -0.8595  -0.7230  -0.7039  -0.6379  -0.5587  -0.5201  -0.4968  -0.4760
    -0.4298  -0.3807  -0.3583  -0.2903  -0.2702  -0.2012  -0.1713  -0.1212
    -0.0688  -0.0439  -0.0003   0.0400   0.0562   0.0891   0.0975   0.1153
     0.1464   0.1764   0.2903   0.3072   1.0402   1.2568   1.4009   1.5634
     1.7003   1.8935   2.2637   2.5159   2.9205   3.0770   3.1969   3.3100
     3.3669   3.4373   3.5518   3.6270   3.6702   3.8416

     occupation numbers 
     1.0000   1.0000   1.0000   1.0000   1.0000   1.0000   1.0000   1.0000
     1.0000   1.0000   1.0000   1.0000   1.0000   1.0000   1.0000   1.0000
     1.0000   1.0000   1.0000   1.0000   1.0000   1.0000   1.0000   1.0000
     1.0000   1.0000   1.0000   1.0000   1.0000   1.0000   1.0000   1.0000
     1.0000   1.0000   1.0000   1.0000   1.0000   1.0000   1.0000   1.0000
     1.0000   1.0000   1.0000   1.0000   1.0000   1.0000   1.0000   1.0000
     1.0000   1.0000   1.0000   1.0000   1.0000   1.0000

          k =-0.3333 0.3208 0.0000 (  7166 PWs)   bands (ev):

   -12.5374 -12.0195 -11.8708 -11.7402 -11.5962 -11.5039  -1.0213  -0.8884
    -0.7781  -0.6707  -0.6506  -0.5789  -0.5500  -0.5289  -0.4906  -0.4171
    -0.3643  -0.3233  -0.2711  -0.2364  -0.2202  -0.1687  -0.1408  -0.1169
    -0.0950  -0.0485  -0.0159   0.0366   0.0596   0.0752   0.1277   0.1513
     0.1913   0.2168   0.2857   0.3239   1.0572   1.1422   1.2813   1.4893
     1.6386   1.9605   2.1632   2.2922   2.5383   2.6485   2.8525   3.1452
     3.2211   3.4345   3.6205   3.7816   3.9295   4.0282

     occupation numbers 
     1.0000   1.0000   1.0000   1.0000   1.0000   1.0000   1.0000   1.0000
     1.0000   1.0000   1.0000   1.0000   1.0000   1.0000   1.0000   1.0000
     1.0000   1.0000   1.0000   1.0000   1.0000   1.0000   1.0000   1.0000
     1.0000   1.0000   1.0000   1.0000   1.0000   1.0000   1.0000   1.0000
     1.0000   1.0000   1.0000   1.0000   1.0000   1.0000   1.0000   1.0000
     1.0000   1.0000   1.0000   1.0000   1.0000   1.0000   1.0000   1.0000
     1.0000   1.0000   1.0000   1.0000   1.0000   1.0000

          k =-0.3333-0.3208 0.0956 (  7172 PWs)   bands (ev):

   -12.5337 -12.0164 -11.8723 -11.7329 -11.6042 -11.5073  -1.0259  -0.8863
    -0.7924  -0.7101  -0.6277  -0.5919  -0.5513  -0.5286  -0.4808  -0.4558
    -0.4105  -0.3416  -0.3002  -0.2483  -0.2039  -0.1658  -0.1645  -0.1285
    -0.0792  -0.0417  -0.0175   0.0333   0.0676   0.0794   0.1147   0.1469
     0.1949   0.2259   0.2594   0.2947   0.9932   1.2161   1.3473   1.4710
     1.6040   2.0353   2.2357   2.3616   2.6427   2.7415   2.8932   3.1555
     3.2499   3.4178   3.5949   3.7349   3.8942   3.9968

     occupation numbers 
     1.0000   1.0000   1.0000   1.0000   1.0000   1.0000   1.0000   1.0000
     1.0000   1.0000   1.0000   1.0000   1.0000   1.0000   1.0000   1.0000
     1.0000   1.0000   1.0000   1.0000   1.0000   1.0000   1.0000   1.0000
     1.0000   1.0000   1.0000   1.0000   1.0000   1.0000   1.0000   1.0000
     1.0000   1.0000   1.0000   1.0000   1.0000   1.0000   1.0000   1.0000
     1.0000   1.0000   1.0000   1.0000   1.0000   1.0000   1.0000   1.0000
     1.0000   1.0000   1.0000   1.0000   1.0000   1.0000

          k =-0.3333 0.3208-0.0956 (  7172 PWs)   bands (ev):

   -12.5337 -12.0154 -11.8734 -11.7327 -11.6038 -11.5079  -1.0224  -0.8848
    -0.8027  -0.6774  -0.6526  -0.5932  -0.5650  -0.5218  -0.5028  -0.4521
    -0.3917  -0.3350  -0.2939  -0.2345  -0.2048  -0.1888  -0.1554  -0.1309
    -0.0964  -0.0499  -0.0194   0.0388   0.0615   0.0869   0.1210   0.1473
     0.1849   0.2278   0.2570   0.2994   1.0912   1.1791   1.2905   1.5058
     1.6047   2.0076   2.2498   2.3550   2.6506   2.7150   2.9135   3.1389
     3.2249   3.4469   3.5784   3.7654   3.8871   3.9943

     occupation numbers 
     1.0000   1.0000   1.0000   1.0000   1.0000   1.0000   1.0000   1.0000
     1.0000   1.0000   1.0000   1.0000   1.0000   1.0000   1.0000   1.0000
     1.0000   1.0000   1.0000   1.0000   1.0000   1.0000   1.0000   1.0000
     1.0000   1.0000   1.0000   1.0000   1.0000   1.0000   1.0000   1.0000
     1.0000   1.0000   1.0000   1.0000   1.0000   1.0000   1.0000   1.0000
     1.0000   1.0000   1.0000   1.0000   1.0000   1.0000   1.0000   1.0000
     1.0000   1.0000   1.0000   1.0000   1.0000   1.0000

          k = 0.3333-0.3208-0.0956 (  7172 PWs)   bands (ev):

   -12.5337 -12.0161 -11.8733 -11.7320 -11.6037 -11.5080  -1.0263  -0.8883
    -0.7899  -0.6829  -0.6499  -0.6104  -0.5602  -0.5299  -0.4859  -0.4165
    -0.3884  -0.3390  -0.3013  -0.2642  -0.2237  -0.1872  -0.1581  -0.1271
    -0.0818  -0.0302  -0.0009   0.0336   0.0549   0.0708   0.1116   0.1550
     0.1948   0.2067   0.2695   0.3018   1.0126   1.1979   1.3460   1.4552
     1.6611   2.0498   2.1827   2.3761   2.6298   2.7502   2.8763   3.1218
     3.2335   3.4739   3.6200   3.7316   3.9010   3.9738

     occupation numbers 
     1.0000   1.0000   1.0000   1.0000   1.0000   1.0000   1.0000   1.0000
     1.0000   1.0000   1.0000   1.0000   1.0000   1.0000   1.0000   1.0000
     1.0000   1.0000   1.0000   1.0000   1.0000   1.0000   1.0000   1.0000
     1.0000   1.0000   1.0000   1.0000   1.0000   1.0000   1.0000   1.0000
     1.0000   1.0000   1.0000   1.0000   1.0000   1.0000   1.0000   1.0000
     1.0000   1.0000   1.0000   1.0000   1.0000   1.0000   1.0000   1.0000
     1.0000   1.0000   1.0000   1.0000   1.0000   1.0000

          k =-0.3333-0.3208 0.1912 (  7171 PWs)   bands (ev):

   -12.5261 -12.0088 -11.8775 -11.7124 -11.6246 -11.5150  -1.0324  -0.8852
    -0.8246  -0.7326  -0.6740  -0.6080  -0.5533  -0.5399  -0.5022  -0.4854
    -0.4214  -0.3975  -0.3375  -0.2696  -0.2312  -0.2003  -0.1686  -0.1373
    -0.0519  -0.0388  -0.0127   0.0362   0.0704   0.0805   0.1158   0.1437
     0.1768   0.2000   0.2471   0.2725   0.9930   1.2358   1.3401   1.5054
     1.6622   2.0871   2.3256   2.6387   2.8271   2.9373   3.0255   3.1547
     3.2916   3.4021   3.5337   3.6621   3.7859   3.8608

     occupation numbers 
     1.0000   1.0000   1.0000   1.0000   1.0000   1.0000   1.0000   1.0000
     1.0000   1.0000   1.0000   1.0000   1.0000   1.0000   1.0000   1.0000
     1.0000   1.0000   1.0000   1.0000   1.0000   1.0000   1.0000   1.0000
     1.0000   1.0000   1.0000   1.0000   1.0000   1.0000   1.0000   1.0000
     1.0000   1.0000   1.0000   1.0000   1.0000   1.0000   1.0000   1.0000
     1.0000   1.0000   1.0000   1.0000   1.0000   1.0000   1.0000   1.0000
     1.0000   1.0000   1.0000   1.0000   1.0000   1.0000

          k =-0.3333 0.3208-0.1912 (  7171 PWs)   bands (ev):

   -12.5261 -12.0075 -11.8792 -11.7119 -11.6240 -11.5157  -1.0288  -0.8838
    -0.8365  -0.6996  -0.6804  -0.6313  -0.5710  -0.5346  -0.4989  -0.4820
    -0.4075  -0.3894  -0.3336  -0.2732  -0.2389  -0.2111  -0.1821  -0.1324
    -0.0675  -0.0355  -0.0146   0.0444   0.0701   0.0864   0.1185   0.1477
     0.1638   0.2032   0.2489   0.2756   1.0645   1.1823   1.3920   1.4635
     1.6537   2.0977   2.3286   2.5914   2.8249   2.9607   3.0466   3.1363
     3.2784   3.4094   3.5199   3.6883   3.7884   3.8524

     occupation numbers 
     1.0000   1.0000   1.0000   1.0000   1.0000   1.0000   1.0000   1.0000
     1.0000   1.0000   1.0000   1.0000   1.0000   1.0000   1.0000   1.0000
     1.0000   1.0000   1.0000   1.0000   1.0000   1.0000   1.0000   1.0000
     1.0000   1.0000   1.0000   1.0000   1.0000   1.0000   1.0000   1.0000
     1.0000   1.0000   1.0000   1.0000   1.0000   1.0000   1.0000   1.0000
     1.0000   1.0000   1.0000   1.0000   1.0000   1.0000   1.0000   1.0000
     1.0000   1.0000   1.0000   1.0000   1.0000   1.0000

          k = 0.3333-0.3208-0.1912 (  7171 PWs)   bands (ev):

   -12.5262 -12.0083 -11.8787 -11.7115 -11.6237 -11.5160  -1.0336  -0.8862
    -0.8240  -0.7105  -0.6767  -0.6455  -0.5619  -0.5195  -0.4925  -0.4534
    -0.4346  -0.3724  -0.3465  -0.2952  -0.2438  -0.2150  -0.1846  -0.1269
    -0.0627  -0.0189   0.0134   0.0216   0.0621   0.0808   0.1118   0.1452
     0.1796   0.1940   0.2365   0.2876   1.0446   1.1497   1.4003   1.4913
     1.7129   2.0219   2.3435   2.6704   2.8190   2.8728   2.9768   3.1705
     3.3138   3.5046   3.5409   3.6261   3.7782   3.8414

     occupation numbers 
     1.0000   1.0000   1.0000   1.0000   1.0000   1.0000   1.0000   1.0000
     1.0000   1.0000   1.0000   1.0000   1.0000   1.0000   1.0000   1.0000
     1.0000   1.0000   1.0000   1.0000   1.0000   1.0000   1.0000   1.0000
     1.0000   1.0000   1.0000   1.0000   1.0000   1.0000   1.0000   1.0000
     1.0000   1.0000   1.0000   1.0000   1.0000   1.0000   1.0000   1.0000
     1.0000   1.0000   1.0000   1.0000   1.0000   1.0000   1.0000   1.0000
     1.0000   1.0000   1.0000   1.0000   1.0000   1.0000

          k =-0.3333 0.3208 0.2868 (  7192 PWs)   bands (ev):

   -12.5223 -12.0038 -11.8820 -11.6955 -11.6399 -11.5197  -1.0352  -0.8871
    -0.8455  -0.7204  -0.7000  -0.6548  -0.5618  -0.5182  -0.5081  -0.4808
    -0.4357  -0.3853  -0.3710  -0.2995  -0.2733  -0.2192  -0.1928  -0.1177
    -0.0561  -0.0299   0.0043   0.0405   0.0691   0.0918   0.1183   0.1360
     0.1602   0.1829   0.2456   0.2732   1.0650   1.1650   1.3820   1.4405
     1.8138   1.9857   2.4707   2.6914   2.9101   3.0646   3.1304   3.2528
     3.3359   3.3943   3.5218   3.5883   3.6355   3.7508

     occupation numbers 
     1.0000   1.0000   1.0000   1.0000   1.0000   1.0000   1.0000   1.0000
     1.0000   1.0000   1.0000   1.0000   1.0000   1.0000   1.0000   1.0000
     1.0000   1.0000   1.0000   1.0000   1.0000   1.0000   1.0000   1.0000
     1.0000   1.0000   1.0000   1.0000   1.0000   1.0000   1.0000   1.0000
     1.0000   1.0000   1.0000   1.0000   1.0000   1.0000   1.0000   1.0000
     1.0000   1.0000   1.0000   1.0000   1.0000   1.0000   1.0000   1.0000
     1.0000   1.0000   1.0000   1.0000   1.0000   1.0000

          k =-0.3333-0.0000 0.0956 (  7172 PWs)   bands (ev):

   -12.5339 -12.0166 -11.8712 -11.7333 -11.6036 -11.5081  -1.0210  -0.8792
    -0.7848  -0.6939  -0.6387  -0.6065  -0.5450  -0.5245  -0.4903  -0.4435
    -0.4221  -0.3379  -0.3077  -0.2653  -0.2225  -0.1734  -0.1534  -0.1343
    -0.0871  -0.0375  -0.0055   0.0369   0.0677   0.0756   0.1150   0.1565
     0.1892   0.2094   0.2740   0.2918   0.9846   1.1950   1.3243   1.5038
     1.5866   2.1614   2.3127   2.4505   2.5961   2.6662   2.7882   3.1731
     3.3167   3.4518   3.5449   3.6734   3.8603   3.9827

     occupation numbers 
     1.0000   1.0000   1.0000   1.0000   1.0000   1.0000   1.0000   1.0000
     1.0000   1.0000   1.0000   1.0000   1.0000   1.0000   1.0000   1.0000
     1.0000   1.0000   1.0000   1.0000   1.0000   1.0000   1.0000   1.0000
     1.0000   1.0000   1.0000   1.0000   1.0000   1.0000   1.0000   1.0000
     1.0000   1.0000   1.0000   1.0000   1.0000   1.0000   1.0000   1.0000
     1.0000   1.0000   1.0000   1.0000   1.0000   1.0000   1.0000   1.0000
     1.0000   1.0000   1.0000   1.0000   1.0000   1.0000

          k =-0.3333-0.0000 0.1912 (  7179 PWs)   bands (ev):

   -12.5263 -12.0090 -11.8772 -11.7120 -11.6235 -11.5164  -1.0284  -0.8772
    -0.8173  -0.7200  -0.6784  -0.6311  -0.5537  -0.5246  -0.5035  -0.4800
    -0.4365  -0.3858  -0.3509  -0.2895  -0.2381  -0.2124  -0.1790  -0.1315
    -0.0572  -0.0249   0.0032   0.0289   0.0732   0.0817   0.1228   0.1577
     0.1783   0.2041   0.2283   0.2595   1.0093   1.1625   1.3918   1.4498
     1.6969   2.1167   2.5457   2.6277   2.7789   2.8937   3.0314   3.1533
     3.3114   3.3405   3.5226   3.6291   3.7597   3.8339

     occupation numbers 
     1.0000   1.0000   1.0000   1.0000   1.0000   1.0000   1.0000   1.0000
     1.0000   1.0000   1.0000   1.0000   1.0000   1.0000   1.0000   1.0000
     1.0000   1.0000   1.0000   1.0000   1.0000   1.0000   1.0000   1.0000
     1.0000   1.0000   1.0000   1.0000   1.0000   1.0000   1.0000   1.0000
     1.0000   1.0000   1.0000   1.0000   1.0000   1.0000   1.0000   1.0000
     1.0000   1.0000   1.0000   1.0000   1.0000   1.0000   1.0000   1.0000
     1.0000   1.0000   1.0000   1.0000   1.0000   1.0000

          k = 0.5000-0.2887 0.0000 (  7178 PWs)   bands (ev):

   -12.4822 -11.9472 -11.8551 -11.7020 -11.5640 -11.4813  -0.9837  -0.8429
    -0.7862  -0.6532  -0.6324  -0.5623  -0.5278  -0.5179  -0.4721  -0.3862
    -0.3426  -0.2616  -0.2553  -0.2215  -0.1875  -0.1693  -0.1246  -0.1015
    -0.0569  -0.0293   0.0104   0.0160   0.0614   0.0828   0.1316   0.1885
     0.2065   0.2327   0.2793   0.2916   0.8495   1.1606   1.2812   1.5009
     1.6248   1.6930   2.1339   2.2409   2.2657   2.6208   2.6474   2.9858
     3.2497   3.3120   3.6139   3.6493   3.7396   3.9054

     occupation numbers 
     1.0000   1.0000   1.0000   1.0000   1.0000   1.0000   1.0000   1.0000
     1.0000   1.0000   1.0000   1.0000   1.0000   1.0000   1.0000   1.0000
     1.0000   1.0000   1.0000   1.0000   1.0000   1.0000   1.0000   1.0000
     1.0000   1.0000   1.0000   1.0000   1.0000   1.0000   1.0000   1.0000
     1.0000   1.0000   1.0000   1.0000   1.0000   1.0000   1.0000   1.0000
     1.0000   1.0000   1.0000   1.0000   1.0000   1.0000   1.0000   1.0000
     1.0000   1.0000   1.0000   1.0000   1.0000   1.0000

          k = 0.5000-0.2887-0.0956 (  7184 PWs)   bands (ev):

   -12.4798 -11.9489 -11.8515 -11.6942 -11.5710 -11.4844  -0.9884  -0.8455
    -0.7992  -0.6695  -0.6402  -0.5746  -0.5386  -0.5238  -0.4769  -0.4059
    -0.3683  -0.2776  -0.2682  -0.2315  -0.1948  -0.1787  -0.1479  -0.0895
    -0.0502  -0.0314   0.0193   0.0329   0.0626   0.0959   0.1304   0.1850
     0.1981   0.2308   0.2712   0.2804   0.8396   1.1193   1.2394   1.4607
     1.6284   1.6996   2.2523   2.3267   2.4235   2.6609   2.7762   3.0257
     3.2292   3.2829   3.5843   3.6628   3.7592   3.8696

     occupation numbers 
     1.0000   1.0000   1.0000   1.0000   1.0000   1.0000   1.0000   1.0000
     1.0000   1.0000   1.0000   1.0000   1.0000   1.0000   1.0000   1.0000
     1.0000   1.0000   1.0000   1.0000   1.0000   1.0000   1.0000   1.0000
     1.0000   1.0000   1.0000   1.0000   1.0000   1.0000   1.0000   1.0000
     1.0000   1.0000   1.0000   1.0000   1.0000   1.0000   1.0000   1.0000
     1.0000   1.0000   1.0000   1.0000   1.0000   1.0000   1.0000   1.0000
     1.0000   1.0000   1.0000   1.0000   1.0000   1.0000

          k = 0.5000-0.2887-0.1912 (  7180 PWs)   bands (ev):

   -12.4748 -11.9525 -11.8440 -11.6748 -11.5889 -11.4907  -0.9996  -0.8628
    -0.8204  -0.6934  -0.6624  -0.6162  -0.5419  -0.5254  -0.4856  -0.4521
    -0.4020  -0.3230  -0.2903  -0.2329  -0.2285  -0.1861  -0.1789  -0.0888
    -0.0619   0.0047   0.0122   0.0595   0.0883   0.1152   0.1320   0.1760
     0.1889   0.2189   0.2491   0.2660   0.8371   1.0748   1.2297   1.3603
     1.5545   1.6722   2.4912   2.6001   2.7110   2.8721   2.9985   3.0903
     3.1630   3.2394   3.5106   3.6223   3.7390   3.7870

     occupation numbers 
     1.0000   1.0000   1.0000   1.0000   1.0000   1.0000   1.0000   1.0000
     1.0000   1.0000   1.0000   1.0000   1.0000   1.0000   1.0000   1.0000
     1.0000   1.0000   1.0000   1.0000   1.0000   1.0000   1.0000   1.0000
     1.0000   1.0000   1.0000   1.0000   1.0000   1.0000   1.0000   1.0000
     1.0000   1.0000   1.0000   1.0000   1.0000   1.0000   1.0000   1.0000
     1.0000   1.0000   1.0000   1.0000   1.0000   1.0000   1.0000   1.0000
     1.0000   1.0000   1.0000   1.0000   1.0000   1.0000

          k = 0.5000-0.2887 0.2868 (  7180 PWs)   bands (ev):

   -12.4723 -11.9544 -11.8401 -11.6610 -11.6020 -11.4940  -1.0061  -0.8746
    -0.8347  -0.7003  -0.6617  -0.6477  -0.5457  -0.5294  -0.4945  -0.4635
    -0.4020  -0.3538  -0.3091  -0.2461  -0.2263  -0.1982  -0.1743  -0.1162
    -0.0550   0.0012   0.0381   0.0728   0.0942   0.1155   0.1472   0.1666
     0.1867   0.2177   0.2265   0.2632   0.8433   1.0682   1.2321   1.3195
     1.5019   1.6448   2.6648   2.7583   2.8846   2.9043   3.0177   3.1385
     3.2333   3.3277   3.4556   3.5257   3.6612   3.7168

     occupation numbers 
     1.0000   1.0000   1.0000   1.0000   1.0000   1.0000   1.0000   1.0000
     1.0000   1.0000   1.0000   1.0000   1.0000   1.0000   1.0000   1.0000
     1.0000   1.0000   1.0000   1.0000   1.0000   1.0000   1.0000   1.0000
     1.0000   1.0000   1.0000   1.0000   1.0000   1.0000   1.0000   1.0000
     1.0000   1.0000   1.0000   1.0000   1.0000   1.0000   1.0000   1.0000
     1.0000   1.0000   1.0000   1.0000   1.0000   1.0000   1.0000   1.0000
     1.0000   1.0000   1.0000   1.0000   1.0000   1.0000

          k = 0.5000-0.2245 0.0000 (  7188 PWs)   bands (ev):

   -12.4822 -11.9471 -11.8551 -11.7020 -11.5639 -11.4813  -0.9827  -0.8467
    -0.7863  -0.6489  -0.6303  -0.5756  -0.5204  -0.5105  -0.4682  -0.3848
    -0.3473  -0.2786  -0.2550  -0.2356  -0.1811  -0.1542  -0.1179  -0.0951
    -0.0535  -0.0364  -0.0020   0.0183   0.0499   0.0908   0.1365   0.1932
     0.2061   0.2371   0.2663   0.3008   0.8714   1.1093   1.3057   1.5094
     1.5836   1.7376   2.1242   2.2164   2.2661   2.5638   2.7763   2.9536
     3.2038   3.3335   3.5957   3.7064   3.7468   3.8684

     occupation numbers 
     1.0000   1.0000   1.0000   1.0000   1.0000   1.0000   1.0000   1.0000
     1.0000   1.0000   1.0000   1.0000   1.0000   1.0000   1.0000   1.0000
     1.0000   1.0000   1.0000   1.0000   1.0000   1.0000   1.0000   1.0000
     1.0000   1.0000   1.0000   1.0000   1.0000   1.0000   1.0000   1.0000
     1.0000   1.0000   1.0000   1.0000   1.0000   1.0000   1.0000   1.0000
     1.0000   1.0000   1.0000   1.0000   1.0000   1.0000   1.0000   1.0000
     1.0000   1.0000   1.0000   1.0000   1.0000   1.0000

          k = 0.5000 0.2245 0.0956 (  7179 PWs)   bands (ev):

   -12.4798 -11.9489 -11.8515 -11.6943 -11.5710 -11.4844  -0.9848  -0.8589
    -0.7979  -0.6551  -0.6386  -0.5867  -0.5308  -0.5180  -0.4635  -0.4152
    -0.3714  -0.3088  -0.2658  -0.2487  -0.1983  -0.1626  -0.1172  -0.0889
    -0.0628  -0.0156   0.0008   0.0344   0.0645   0.0974   0.1344   0.1828
     0.2042   0.2309   0.2617   0.2916   0.8951   1.0328   1.2507   1.4952
     1.5408   1.7755   2.2067   2.3181   2.4113   2.6839   2.8778   2.9827
     3.1483   3.3498   3.5927   3.6793   3.7533   3.8418

     occupation numbers 
     1.0000   1.0000   1.0000   1.0000   1.0000   1.0000   1.0000   1.0000
     1.0000   1.0000   1.0000   1.0000   1.0000   1.0000   1.0000   1.0000
     1.0000   1.0000   1.0000   1.0000   1.0000   1.0000   1.0000   1.0000
     1.0000   1.0000   1.0000   1.0000   1.0000   1.0000   1.0000   1.0000
     1.0000   1.0000   1.0000   1.0000   1.0000   1.0000   1.0000   1.0000
     1.0000   1.0000   1.0000   1.0000   1.0000   1.0000   1.0000   1.0000
     1.0000   1.0000   1.0000   1.0000   1.0000   1.0000

          k = 0.5000-0.2245-0.0956 (  7179 PWs)   bands (ev):

   -12.4798 -11.9489 -11.8515 -11.6942 -11.5710 -11.4844  -0.9869  -0.8495
    -0.7987  -0.6652  -0.6364  -0.5895  -0.5394  -0.5149  -0.4712  -0.4067
    -0.3569  -0.3029  -0.2652  -0.2459  -0.1870  -0.1744  -0.1264  -0.0962
    -0.0599  -0.0247   0.0039   0.0332   0.0645   0.1002   0.1369   0.1857
     0.1981   0.2348   0.2615   0.2879   0.8605   1.0735   1.2769   1.4528
     1.5593   1.7699   2.2483   2.3084   2.4033   2.6563   2.8638   3.0002
     3.1543   3.3393   3.5994   3.6691   3.7505   3.8519

     occupation numbers 
     1.0000   1.0000   1.0000   1.0000   1.0000   1.0000   1.0000   1.0000
     1.0000   1.0000   1.0000   1.0000   1.0000   1.0000   1.0000   1.0000
     1.0000   1.0000   1.0000   1.0000   1.0000   1.0000   1.0000   1.0000
     1.0000   1.0000   1.0000   1.0000   1.0000   1.0000   1.0000   1.0000
     1.0000   1.0000   1.0000   1.0000   1.0000   1.0000   1.0000   1.0000
     1.0000   1.0000   1.0000   1.0000   1.0000   1.0000   1.0000   1.0000
     1.0000   1.0000   1.0000   1.0000   1.0000   1.0000

          k =-0.5000 0.2245-0.0956 (  7179 PWs)   bands (ev):

   -12.4798 -11.9489 -11.8515 -11.6942 -11.5710 -11.4844  -0.9873  -0.8506
    -0.7988  -0.6651  -0.6402  -0.5779  -0.5276  -0.5219  -0.4799  -0.4036
    -0.3723  -0.3025  -0.2618  -0.2428  -0.1953  -0.1698  -0.1167  -0.0865
    -0.0653  -0.0303   0.0139   0.0318   0.0669   0.0911   0.1323   0.1827
     0.2042   0.2363   0.2558   0.2895   0.8664   1.0501   1.2728   1.5055
     1.5714   1.7267   2.2302   2.3033   2.4287   2.6995   2.8032   2.9974
     3.1749   3.3189   3.6031   3.7038   3.7598   3.8234

     occupation numbers 
     1.0000   1.0000   1.0000   1.0000   1.0000   1.0000   1.0000   1.0000
     1.0000   1.0000   1.0000   1.0000   1.0000   1.0000   1.0000   1.0000
     1.0000   1.0000   1.0000   1.0000   1.0000   1.0000   1.0000   1.0000
     1.0000   1.0000   1.0000   1.0000   1.0000   1.0000   1.0000   1.0000
     1.0000   1.0000   1.0000   1.0000   1.0000   1.0000   1.0000   1.0000
     1.0000   1.0000   1.0000   1.0000   1.0000   1.0000   1.0000   1.0000
     1.0000   1.0000   1.0000   1.0000   1.0000   1.0000

          k = 0.5000 0.2245 0.1912 (  7180 PWs)   bands (ev):

   -12.4748 -11.9525 -11.8440 -11.6749 -11.5889 -11.4907  -0.9944  -0.8769
    -0.8185  -0.6866  -0.6673  -0.6036  -0.5487  -0.5075  -0.4974  -0.4570
    -0.3827  -0.3626  -0.2892  -0.2527  -0.2160  -0.1956  -0.1362  -0.1040
    -0.0486  -0.0091   0.0269   0.0644   0.0846   0.1041   0.1406   0.1642
     0.1966   0.2199   0.2483   0.2687   0.8907   0.9925   1.2450   1.3952
     1.4794   1.7328   2.4318   2.5652   2.7643   2.9113   2.9532   3.0852
     3.1643   3.3229   3.4996   3.6229   3.7237   3.7709

     occupation numbers 
     1.0000   1.0000   1.0000   1.0000   1.0000   1.0000   1.0000   1.0000
     1.0000   1.0000   1.0000   1.0000   1.0000   1.0000   1.0000   1.0000
     1.0000   1.0000   1.0000   1.0000   1.0000   1.0000   1.0000   1.0000
     1.0000   1.0000   1.0000   1.0000   1.0000   1.0000   1.0000   1.0000
     1.0000   1.0000   1.0000   1.0000   1.0000   1.0000   1.0000   1.0000
     1.0000   1.0000   1.0000   1.0000   1.0000   1.0000   1.0000   1.0000
     1.0000   1.0000   1.0000   1.0000   1.0000   1.0000

          k = 0.5000-0.2245-0.1912 (  7180 PWs)   bands (ev):

   -12.4748 -11.9525 -11.8440 -11.6749 -11.5889 -11.4907  -0.9975  -0.8670
    -0.8197  -0.6923  -0.6567  -0.6266  -0.5407  -0.5235  -0.4823  -0.4543
    -0.3844  -0.3447  -0.2914  -0.2506  -0.2116  -0.2024  -0.1444  -0.1024
    -0.0613  -0.0043   0.0218   0.0637   0.0847   0.1065   0.1412   0.1698
     0.1991   0.2177   0.2475   0.2665   0.8614   1.0281   1.2743   1.3526
     1.4814   1.7426   2.4404   2.5941   2.7344   2.8994   2.9802   3.0681
     3.1576   3.3176   3.5178   3.5833   3.7258   3.7921

     occupation numbers 
     1.0000   1.0000   1.0000   1.0000   1.0000   1.0000   1.0000   1.0000
     1.0000   1.0000   1.0000   1.0000   1.0000   1.0000   1.0000   1.0000
     1.0000   1.0000   1.0000   1.0000   1.0000   1.0000   1.0000   1.0000
     1.0000   1.0000   1.0000   1.0000   1.0000   1.0000   1.0000   1.0000
     1.0000   1.0000   1.0000   1.0000   1.0000   1.0000   1.0000   1.0000
     1.0000   1.0000   1.0000   1.0000   1.0000   1.0000   1.0000   1.0000
     1.0000   1.0000   1.0000   1.0000   1.0000   1.0000

          k =-0.5000 0.2245-0.1912 (  7180 PWs)   bands (ev):

   -12.4748 -11.9525 -11.8440 -11.6748 -11.5889 -11.4907  -0.9978  -0.8684
    -0.8199  -0.6911  -0.6663  -0.6074  -0.5389  -0.5194  -0.4966  -0.4512
    -0.3979  -0.3424  -0.2782  -0.2642  -0.2095  -0.1994  -0.1428  -0.1013
    -0.0490  -0.0113   0.0291   0.0583   0.0792   0.1050   0.1406   0.1711
     0.1936   0.2244   0.2430   0.2683   0.8664   1.0106   1.2495   1.4233
     1.4769   1.7143   2.4130   2.6175   2.7900   2.8666   2.9631   3.0593
     3.1743   3.2594   3.5532   3.6354   3.7198   3.7603

     occupation numbers 
     1.0000   1.0000   1.0000   1.0000   1.0000   1.0000   1.0000   1.0000
     1.0000   1.0000   1.0000   1.0000   1.0000   1.0000   1.0000   1.0000
     1.0000   1.0000   1.0000   1.0000   1.0000   1.0000   1.0000   1.0000
     1.0000   1.0000   1.0000   1.0000   1.0000   1.0000   1.0000   1.0000
     1.0000   1.0000   1.0000   1.0000   1.0000   1.0000   1.0000   1.0000
     1.0000   1.0000   1.0000   1.0000   1.0000   1.0000   1.0000   1.0000
     1.0000   1.0000   1.0000   1.0000   1.0000   1.0000

          k = 0.5000-0.2245 0.2868 (  7196 PWs)   bands (ev):

   -12.4723 -11.9543 -11.8401 -11.6610 -11.6020 -11.4940  -1.0038  -0.8796
    -0.8339  -0.7022  -0.6646  -0.6414  -0.5404  -0.5295  -0.4951  -0.4675
    -0.3999  -0.3552  -0.3103  -0.2689  -0.2161  -0.2021  -0.1513  -0.1229
    -0.0501   0.0002   0.0418   0.0698   0.0912   0.1065   0.1521   0.1654
     0.1894   0.2181   0.2301   0.2609   0.8706   1.0174   1.2538   1.3503
     1.4269   1.7065   2.5732   2.7528   2.8809   2.9879   3.0310   3.1485
     3.2245   3.3277   3.4597   3.5359   3.6550   3.6953

     occupation numbers 
     1.0000   1.0000   1.0000   1.0000   1.0000   1.0000   1.0000   1.0000
     1.0000   1.0000   1.0000   1.0000   1.0000   1.0000   1.0000   1.0000
     1.0000   1.0000   1.0000   1.0000   1.0000   1.0000   1.0000   1.0000
     1.0000   1.0000   1.0000   1.0000   1.0000   1.0000   1.0000   1.0000
     1.0000   1.0000   1.0000   1.0000   1.0000   1.0000   1.0000   1.0000
     1.0000   1.0000   1.0000   1.0000   1.0000   1.0000   1.0000   1.0000
     1.0000   1.0000   1.0000   1.0000   1.0000   1.0000

     highest occupied level (ev):     4.4928

!    total energy              =   -1084.71943016 Ry
     estimated scf accuracy    <          1.0E-08 Ry

     The total energy is the sum of the following terms:
     one-electron contribution =    -537.04826366 Ry
     hartree contribution      =     382.43993333 Ry
     xc contribution           =    -327.62872594 Ry
     ewald contribution        =    -602.48237389 Ry

     convergence has been achieved in  34 iterations

     Forces acting on atoms (cartesian axes, Ry/au):

     atom    1 type  1   force =     0.00207063    0.00266242    0.00321038
     atom    2 type  1   force =    -0.00352714   -0.02526929   -0.00102847
     atom    3 type  2   force =    -0.00630742    0.06335441   -0.00372561
     atom    4 type  2   force =     0.00209641   -0.01430869    0.01490664
     atom    5 type  1   force =     0.01148924   -0.03059510    0.00219037
     atom    6 type  1   force =    -0.00565510   -0.05750715   -0.00803183
     atom    7 type  2   force =     0.00521870    0.03453254   -0.01349557
     atom    8 type  2   force =    -0.00810211   -0.03563019   -0.02422393
     atom    9 type  1   force =     0.00157857    0.06015990    0.01379639
     atom   10 type  1   force =     0.00234293   -0.02307226   -0.00771466
     atom   11 type  2   force =    -0.00115439    0.02474681    0.02177475
     atom   12 type  2   force =    -0.00005032    0.00092661    0.00234155
     The non-local contrib.  to forces
     atom    1 type  1   force =     0.00293315   -0.01213586    0.18225289
     atom    2 type  1   force =     0.05466880   -0.23297811    0.08460917
     atom    3 type  2   force =    -0.08633187   -0.08664551    0.33156917
     atom    4 type  2   force =     0.02604048   -0.16113999    0.17068079
     atom    5 type  1   force =     0.06555342   -0.06940820    0.22054627
     atom    6 type  1   force =    -0.08984599   -0.15196301    0.40462844
     atom    7 type  2   force =    -0.13433820   -0.09167293    0.15874702
     atom    8 type  2   force =     0.05234864    0.15542117    0.33128774
     atom    9 type  1   force =    -0.00647549    0.26501897    0.09921058
     atom   10 type  1   force =     0.00014108   -0.33036339    0.17045765
     atom   11 type  2   force =     0.10810958   -0.35407050    0.30230571
     atom   12 type  2   force =     0.04109112    0.05623898   -0.01817113
     The ionic contribution  to forces
     atom    1 type  1   force =     0.01897971    1.77401319    3.31266226
     atom    2 type  1   force =     0.39716266   -0.84536264   -0.92624601
     atom    3 type  2   force =     0.41784053    2.80752527   -3.22456606
     atom    4 type  2   force =    -0.09360361    0.78978962   -0.05833569
     atom    5 type  1   force =     0.57440921   -5.26262801    2.21817316
     atom    6 type  1   force =    -0.85306017   -4.53371226    2.96394083
     atom    7 type  2   force =     0.91025406   -0.56248398   -1.27762354
     atom    8 type  2   force =    -0.49895994   -3.19716395   -3.11655493
     atom    9 type  1   force =    -0.15959930    4.87778975    1.15651406
     atom   10 type  1   force =     0.18978560    0.30700710    0.31430074
     atom   11 type  2   force =    -0.73127425    2.93525818   -1.64357204
     atom   12 type  2   force =    -0.17193450    0.90996773    0.28130722
     The local contribution  to forces
     atom    1 type  1   force =    -0.01952011   -1.75929949   -3.47947339
     atom    2 type  1   force =    -0.45224143    1.03675558    0.84547682
     atom    3 type  2   force =    -0.33864880   -2.65783790    2.89216409
     atom    4 type  2   force =     0.06991828   -0.64448492   -0.09572161
     atom    5 type  1   force =    -0.62363329    5.29314138   -2.42132862
     atom    6 type  1   force =     0.93064216    4.61424150   -3.35188591
     atom    7 type  2   force =    -0.77189220    0.68807712    1.10673553
     atom    8 type  2   force =     0.43891801    3.00720280    2.76382328
     atom    9 type  1   force =     0.16754850   -5.06031081   -1.23432441
     atom   10 type  1   force =    -0.18689119   -0.02095745   -0.48385648
     atom   11 type  2   force =     0.62298708   -2.55949611    1.36586183
     atom   12 type  2   force =     0.13118449   -0.96480476   -0.26097097
     The core correction contribution to forces
     atom    1 type  1   force =    -0.00032234    0.00009040   -0.01221840
     atom    2 type  1   force =    -0.00311103    0.01632388   -0.00485763
     atom    3 type  2   force =     0.00083440    0.00029922   -0.00289757
     atom    4 type  2   force =    -0.00025706    0.00154837   -0.00170236
     atom    5 type  1   force =    -0.00484408    0.00839265   -0.01524049
     atom    6 type  1   force =     0.00660451    0.01397083   -0.02467094
     atom    7 type  2   force =     0.00119507    0.00064748   -0.00135106
     atom    8 type  2   force =    -0.00040765   -0.00106823   -0.00277564
     atom    9 type  1   force =     0.00010527   -0.02243898   -0.00763978
     atom   10 type  1   force =    -0.00069521    0.02114880   -0.00858860
     atom   11 type  2   force =    -0.00097349    0.00302180   -0.00281991
     atom   12 type  2   force =    -0.00038949   -0.00051705    0.00018042
     The Hubbard contrib.    to forces
     atom    1 type  1   force =     0.00000000    0.00000000    0.00000000
     atom    2 type  1   force =     0.00000000    0.00000000    0.00000000
     atom    3 type  2   force =     0.00000000    0.00000000    0.00000000
     atom    4 type  2   force =     0.00000000    0.00000000    0.00000000
     atom    5 type  1   force =     0.00000000    0.00000000    0.00000000
     atom    6 type  1   force =     0.00000000    0.00000000    0.00000000
     atom    7 type  2   force =     0.00000000    0.00000000    0.00000000
     atom    8 type  2   force =     0.00000000    0.00000000    0.00000000
     atom    9 type  1   force =     0.00000000    0.00000000    0.00000000
     atom   10 type  1   force =     0.00000000    0.00000000    0.00000000
     atom   11 type  2   force =     0.00000000    0.00000000    0.00000000
     atom   12 type  2   force =     0.00000000    0.00000000    0.00000000
     The SCF correction term to forces
     atom    1 type  1   force =     0.00000030   -0.00000450   -0.00001337
     atom    2 type  1   force =    -0.00000607   -0.00000668   -0.00001120
     atom    3 type  2   force =    -0.00000162    0.00001465    0.00000438
     atom    4 type  2   force =    -0.00000161   -0.00002044   -0.00001487
     atom    5 type  1   force =     0.00000404   -0.00009159    0.00003966
     atom    6 type  1   force =     0.00000446   -0.00004289   -0.00004463
     atom    7 type  2   force =     0.00000005   -0.00003382   -0.00000391
     atom    8 type  2   force =    -0.00000111   -0.00002067   -0.00000476
     atom    9 type  1   force =    -0.00000035    0.00010229    0.00003556
     atom   10 type  1   force =     0.00000272    0.00009401   -0.00002835
     atom   11 type  2   force =    -0.00000323    0.00003476   -0.00000123
     atom   12 type  2   force =    -0.00000188    0.00004305   -0.00000437

     Total force =     0.135928     Total SCF correction =     0.000203

     init_run     :      6.76s CPU      7.00s WALL (       1 calls)
     electrons    :    340.84s CPU    353.78s WALL (       1 calls)
     forces       :      2.38s CPU      2.40s WALL (       1 calls)

     Called by init_run:
     wfcinit      :      3.71s CPU      3.89s WALL (       1 calls)
     wfcinit:atom :      0.05s CPU      0.05s WALL (      14 calls)
     wfcinit:wfcr :      3.41s CPU      3.58s WALL (      14 calls)
     potinit      :      1.68s CPU      1.71s WALL (       1 calls)
     hinit0       :      1.25s CPU      1.26s WALL (       1 calls)

     Called by electrons:
     c_bands      :    292.91s CPU    303.37s WALL (      34 calls)
     sum_band     :     40.34s CPU     42.53s WALL (      34 calls)
     v_of_rho     :      4.51s CPU      4.72s WALL (      35 calls)
     v_h          :      0.25s CPU      0.27s WALL (      35 calls)
     v_xc         :      4.38s CPU      4.57s WALL (      36 calls)
     newd         :      2.13s CPU      2.17s WALL (      35 calls)
     mix_rho      :      0.56s CPU      0.59s WALL (      34 calls)

     Called by c_bands:
     init_us_2    :      2.79s CPU      2.81s WALL (     980 calls)
     init_us_2:cp :      2.78s CPU      2.80s WALL (     980 calls)
     cegterg      :    260.92s CPU    271.32s WALL (     476 calls)

     Called by sum_band:
     sum_band:wei :      0.01s CPU      0.01s WALL (      34 calls)
     sum_band:loo :     36.95s CPU     38.93s WALL (      34 calls)
     sum_band:buf :      0.29s CPU      0.31s WALL (     476 calls)
     sum_band:ini :      1.25s CPU      1.26s WALL (     476 calls)
     sum_band:cal :      5.00s CPU      5.09s WALL (     476 calls)
     sum_band:bec :      0.07s CPU      0.08s WALL (     476 calls)
     addusdens    :      2.11s CPU      2.20s WALL (      34 calls)
                                        0.00s GPU  (      34 calls)
     addusd:skk   :      0.02s CPU      0.02s WALL (      68 calls)
                                        0.00s GPU  (      68 calls)

     Called by *egterg:
     cdiaghg      :     20.85s CPU     20.88s WALL (    2577 calls)
     cegterg:over :     12.80s CPU     13.05s WALL (    2101 calls)
     cegterg:upda :      8.81s CPU      8.83s WALL (    2101 calls)
     cegterg:last :     16.75s CPU     16.77s WALL (    1072 calls)
     h_psi        :    182.00s CPU    192.13s WALL (    2591 calls)
     s_psi        :     16.31s CPU     16.33s WALL (    2591 calls)
     g_psi        :      0.85s CPU      0.85s WALL (    2101 calls)

     Called by h_psi:
     h_psi:calbec :     14.65s CPU     15.05s WALL (    2591 calls)
     vloc_psi     :    149.77s CPU    159.45s WALL (    2591 calls)
     add_vuspsi   :     16.82s CPU     16.85s WALL (    2591 calls)

     General routines
     calbec       :     20.22s CPU     20.74s WALL (    3123 calls)
     fft          :      2.45s CPU      2.72s WALL (     464 calls)
     ffts         :      0.31s CPU      0.32s WALL (      69 calls)
     fftw         :    152.32s CPU    162.31s WALL (  165114 calls)
     interpolate  :      0.42s CPU      0.45s WALL (      35 calls)

     Parallel routines

     PWSCF        :   5m50.64s CPU   6m 3.85s WALL


   This run was terminated on:  11:34:36  28Sep2025            

=------------------------------------------------------------------------------=
   JOB DONE.
=------------------------------------------------------------------------------=
Note: The following floating-point exceptions are signalling: IEEE_INVALID_FLAG
Note: The following floating-point exceptions are signalling: IEEE_INVALID_FLAG
Note: The following floating-point exceptions are signalling: IEEE_INVALID_FLAG
Note: The following floating-point exceptions are signalling: IEEE_INVALID_FLAG
Note: The following floating-point exceptions are signalling: IEEE_INVALID_FLAG
Note: The following floating-point exceptions are signalling: IEEE_INVALID_FLAG
Note: The following floating-point exceptions are signalling: IEEE_INVALID_FLAG
Note: The following floating-point exceptions are signalling: IEEE_INVALID_FLAG
