
     Program PWSCF v.7.0 starts on 25Sep2025 at  2: 6:55 

     This program is part of the open-source Quantum ESPRESSO suite
     for quantum simulation of materials; please cite
         "P. Giannozzi et al., J. Phys.:Condens. Matter 21 395502 (2009);
         "P. Giannozzi et al., J. Phys.:Condens. Matter 29 465901 (2017);
         "P. Giannozzi et al., J. Chem. Phys. 152 154105 (2020);
          URL http://www.quantum-espresso.org", 
     in publications or presentations arising from this work. More details at
     http://www.quantum-espresso.org/quote

     Parallel version (MPI & OpenMP), running on      32 processor cores
     Number of MPI processes:                16
     Threads/MPI process:                     2

     MPI processes distributed on     1 nodes
     K-points division:     npool     =       8
     R & G space division:  proc/nbgrp/npool/nimage =       2
     105626 MiB available memory on the printing compute node when the environment starts

     Reading input from /home/jvc/QEspresso7.2/ZnO_database/scripts/random_1x1x3.in/ZnO-3.20-1.78-113-0.06-2.in
Warning: card &CELL ignored
Warning: card / ignored
Warning: card &FCP ignored
Warning: card / ignored
Warning: card &RISM ignored
Warning: card / ignored

     Current dimensions of program PWSCF are:
     Max number of different atomic species (ntypx) = 10
     Max number of k-points (npk) =  40000
     Max angular momentum in pseudopotentials (lmaxx) =  4
     file Zn.upf: wavefunction(s)  3D renormalized

     Subspace diagonalization in iterative solution of the eigenvalue problem:
     a serial algorithm will be used


     Parallelization info
     --------------------
     sticks:   dense  smooth     PW     G-vecs:    dense   smooth      PW
     Min         507     254     75                69207    24500    4067
     Max         508     257     76                69208    24503    4082
     Sum        1015     511    151               138415    49003    8149

     Using Slab Decomposition



     bravais-lattice index     =            0
     lattice parameter (alat)  =       6.0553  a.u.
     unit-cell volume          =    1024.3457 (a.u.)^3
     number of atoms/cell      =           12
     number of atomic types    =            2
     number of electrons       =       108.00
     number of Kohn-Sham states=           54
     kinetic-energy cutoff     =      50.0000  Ry
     charge density cutoff     =     400.0000  Ry
     scf convergence threshold =      1.0E-08
     mixing beta               =       0.3000
     number of iterations used =            8  plain     mixing
     Exchange-correlation= PBE
                           (   1   4   3   4   0   0   0)

     celldm(1)=   6.055277  celldm(2)=   0.000000  celldm(3)=   0.000000
     celldm(4)=   0.000000  celldm(5)=   0.000000  celldm(6)=   0.000000

     crystal axes: (cart. coord. in units of alat)
               a(1) = (   1.000000   0.000000   0.000000 )  
               a(2) = (  -0.500000   0.866025   0.000000 )  
               a(3) = (   0.000000   0.000000   5.327383 )  

     reciprocal axes: (cart. coord. in units 2 pi/alat)
               b(1) = (  1.000000  0.577350 -0.000000 )  
               b(2) = (  0.000000  1.154701  0.000000 )  
               b(3) = (  0.000000 -0.000000  0.187709 )  


     PseudoPot. # 1 for Zn read from file:
     /home/jvc/QEspresso7.2/ZnO_database/pseudos/Zn.upf
     MD5 check sum: 7f56cabf9682ed8c977c2f7d0c5985c5
     Pseudo is Ultrasoft + core correction, Zval = 12.0
     Generated using &quot;atomic&quot; code by A. Dal Corso  v.6.2.2
     Using radial grid of 1201 points,  6 beta functions with: 
                l(1) =   0
                l(2) =   0
                l(3) =   1
                l(4) =   1
                l(5) =   2
                l(6) =   2
     Q(r) pseudized with 0 coefficients 


     PseudoPot. # 2 for O  read from file:
     /home/jvc/QEspresso7.2/ZnO_database/pseudos/O.upf
     MD5 check sum: 91400c9766925bcf19f520983a725ff0
     Pseudo is Ultrasoft + core correction, Zval =  6.0
     Generated using &quot;atomic&quot; code by A. Dal Corso  v.6.3MaX
     Using radial grid of 1095 points,  4 beta functions with: 
                l(1) =   0
                l(2) =   0
                l(3) =   1
                l(4) =   1
     Q(r) pseudized with 0 coefficients 


     atomic species   valence    mass     pseudopotential
        Zn            12.00    65.38000     Zn( 1.00)
        O              6.00    15.99900     O ( 1.00)

     No symmetry found


                                    s                        frac. trans.

      isym =  1     identity                                     

 cryst.   s( 1) = (     1          0          0      )
                  (     0          1          0      )
                  (     0          0          1      )

 cart.    s( 1) = (  1.0000000  0.0000000  0.0000000 )
                  (  0.0000000  1.0000000  0.0000000 )
                  (  0.0000000  0.0000000  1.0000000 )


   Cartesian axes

     site n.     atom                  positions (alat units)
         1           Zn  tau(   1) = (   0.5263329   0.2405759   0.8909236  )
         2           Zn  tau(   2) = (   0.0061538   0.5734431  -0.0151902  )
         3           O   tau(   3) = (   0.5404201   0.2715944   1.5702033  )
         4           O   tau(   4) = (   0.0065563   0.5692514   0.6751178  )
         5           Zn  tau(   5) = (   0.4935353   0.2919933   2.6591485  )
         6           Zn  tau(   6) = (   0.0046092   0.5700509   1.7635167  )
         7           O   tau(   7) = (   0.4947879   0.2635458   3.3145863  )
         8           O   tau(   8) = (   0.0022405   0.5909805   2.4783610  )
         9           Zn  tau(   9) = (   0.5207965   0.3151388   4.4214021  )
        10           Zn  tau(  10) = (  -0.0053629   0.5717514   3.5563657  )
        11           O   tau(  11) = (   0.5069939   0.2580040   5.1219507  )
        12           O   tau(  12) = (   0.0156868   0.5547374   4.2197136  )

   Crystallographic axes

     site n.     atom                  positions (cryst. coord.)
         1           Zn  tau(   1) = (  0.6652294  0.2777931  0.1672348  )
         2           Zn  tau(   2) = (  0.3372313  0.6621551 -0.0028514  )
         3           O   tau(   3) = (  0.6972253  0.3136102  0.2947420  )
         4           O   tau(   4) = (  0.3352138  0.6573148  0.1267260  )
         5           Zn  tau(   5) = (  0.6621178  0.3371648  0.4991473  )
         6           Zn  tau(   6) = (  0.3337282  0.6582380  0.3310287  )
         7           O   tau(   7) = (  0.6469462  0.3043165  0.6221791  )
         8           O   tau(   8) = (  0.3434432  0.6824055  0.4652118  )
         9           Zn  tau(   9) = (  0.7027420  0.3638910  0.8299389  )
        10           Zn  tau(  10) = (  0.3247379  0.6602016  0.6675634  )
        11           O   tau(  11) = (  0.6559526  0.2979174  0.9614385  )
        12           O   tau(  12) = (  0.3359646  0.6405556  0.7920801  )

     number of k points=   112
                       cart. coord. in units 2pi/alat
        k(    1) = (   0.0000000   0.0000000   0.0000000), wk =   0.0092593
        k(    2) = (   0.0000000   0.0000000   0.0312849), wk =   0.0185185
        k(    3) = (   0.0000000   0.0000000   0.0625698), wk =   0.0185185
        k(    4) = (   0.0000000   0.0000000  -0.0938547), wk =   0.0092593
        k(    5) = (   0.0000000   0.1924501   0.0000000), wk =   0.0185185
        k(    6) = (   0.0000000   0.1924501   0.0312849), wk =   0.0185185
        k(    7) = (   0.0000000   0.1924501   0.0625698), wk =   0.0185185
        k(    8) = (   0.0000000   0.1924501  -0.0938547), wk =   0.0185185
        k(    9) = (   0.0000000   0.3849002   0.0000000), wk =   0.0185185
        k(   10) = (   0.0000000   0.3849002   0.0312849), wk =   0.0185185
        k(   11) = (   0.0000000   0.3849002   0.0625698), wk =   0.0185185
        k(   12) = (   0.0000000   0.3849002  -0.0938547), wk =   0.0185185
        k(   13) = (   0.0000000  -0.5773503   0.0000000), wk =   0.0092593
        k(   14) = (   0.0000000  -0.5773503   0.0312849), wk =   0.0185185
        k(   15) = (   0.0000000  -0.5773503   0.0625698), wk =   0.0185185
        k(   16) = (   0.0000000  -0.5773503  -0.0938547), wk =   0.0092593
        k(   17) = (   0.1666667   0.2886751   0.0000000), wk =   0.0185185
        k(   18) = (   0.1666667   0.2886751   0.0312849), wk =   0.0185185
        k(   19) = (   0.1666667   0.2886751   0.0625698), wk =   0.0185185
        k(   20) = (   0.1666667   0.2886751  -0.0938547), wk =   0.0185185
        k(   21) = (   0.1666667   0.4811252   0.0000000), wk =   0.0185185
        k(   22) = (   0.1666667   0.4811252   0.0312849), wk =   0.0185185
        k(   23) = (   0.1666667   0.4811252   0.0625698), wk =   0.0185185
        k(   24) = (   0.1666667   0.4811252  -0.0938547), wk =   0.0185185
        k(   25) = (   0.3333333   0.5773503   0.0000000), wk =   0.0185185
        k(   26) = (   0.3333333   0.5773503   0.0312849), wk =   0.0185185
        k(   27) = (   0.3333333   0.5773503   0.0625698), wk =   0.0185185
        k(   28) = (   0.3333333   0.5773503  -0.0938547), wk =   0.0185185
        k(   29) = (  -0.1666667   0.0962250   0.0000000), wk =   0.0185185
        k(   30) = (   0.1666667   0.0962250   0.0000000), wk =   0.0185185
        k(   31) = (   0.0000000  -0.1924501   0.0312849), wk =   0.0185185
        k(   32) = (  -0.1666667   0.0962250   0.0312849), wk =   0.0185185
        k(   33) = (   0.1666667   0.0962250   0.0312849), wk =   0.0185185
        k(   34) = (  -0.1666667  -0.0962250   0.0312849), wk =   0.0185185
        k(   35) = (   0.1666667  -0.0962250   0.0312849), wk =   0.0185185
        k(   36) = (   0.0000000  -0.1924501   0.0625698), wk =   0.0185185
        k(   37) = (  -0.1666667   0.0962250   0.0625698), wk =   0.0185185
        k(   38) = (   0.1666667   0.0962250   0.0625698), wk =   0.0185185
        k(   39) = (  -0.1666667  -0.0962250   0.0625698), wk =   0.0185185
        k(   40) = (   0.1666667  -0.0962250   0.0625698), wk =   0.0185185
        k(   41) = (  -0.1666667   0.0962250  -0.0938547), wk =   0.0185185
        k(   42) = (   0.1666667   0.0962250  -0.0938547), wk =   0.0185185
        k(   43) = (  -0.3333333   0.1924501   0.0000000), wk =   0.0185185
        k(   44) = (   0.3333333   0.1924501   0.0000000), wk =   0.0185185
        k(   45) = (   0.0000000  -0.3849002   0.0312849), wk =   0.0185185
        k(   46) = (  -0.3333333   0.1924501   0.0312849), wk =   0.0185185
        k(   47) = (   0.3333333   0.1924501   0.0312849), wk =   0.0185185
        k(   48) = (  -0.3333333  -0.1924501   0.0312849), wk =   0.0185185
        k(   49) = (   0.3333333  -0.1924501   0.0312849), wk =   0.0185185
        k(   50) = (   0.0000000  -0.3849002   0.0625698), wk =   0.0185185
        k(   51) = (  -0.3333333   0.1924501   0.0625698), wk =   0.0185185
        k(   52) = (   0.3333333   0.1924501   0.0625698), wk =   0.0185185
        k(   53) = (  -0.3333333  -0.1924501   0.0625698), wk =   0.0185185
        k(   54) = (   0.3333333  -0.1924501   0.0625698), wk =   0.0185185
        k(   55) = (  -0.3333333   0.1924501  -0.0938547), wk =   0.0185185
        k(   56) = (   0.3333333   0.1924501  -0.0938547), wk =   0.0185185
        k(   57) = (   0.5000000  -0.2886751   0.0000000), wk =   0.0092593
        k(   58) = (  -0.5000000  -0.2886751   0.0000000), wk =   0.0092593
        k(   59) = (   0.5000000  -0.2886751   0.0312849), wk =   0.0185185
        k(   60) = (  -0.5000000  -0.2886751   0.0312849), wk =   0.0185185
        k(   61) = (   0.5000000  -0.2886751   0.0625698), wk =   0.0185185
        k(   62) = (  -0.5000000  -0.2886751   0.0625698), wk =   0.0185185
        k(   63) = (   0.5000000  -0.2886751  -0.0938547), wk =   0.0092593
        k(   64) = (  -0.5000000  -0.2886751  -0.0938547), wk =   0.0092593
        k(   65) = (  -0.1666667   0.2886751   0.0000000), wk =   0.0185185
        k(   66) = (   0.3333333  -0.0000000   0.0000000), wk =   0.0185185
        k(   67) = (  -0.1666667  -0.2886751   0.0312849), wk =   0.0185185
        k(   68) = (  -0.1666667   0.2886751  -0.0312849), wk =   0.0185185
        k(   69) = (   0.1666667  -0.2886751  -0.0312849), wk =   0.0185185
        k(   70) = (   0.3333333  -0.0000000   0.0312849), wk =   0.0185185
        k(   71) = (  -0.3333333   0.0000000   0.0312849), wk =   0.0185185
        k(   72) = (  -0.1666667  -0.2886751   0.0625698), wk =   0.0185185
        k(   73) = (  -0.1666667   0.2886751  -0.0625698), wk =   0.0185185
        k(   74) = (   0.1666667  -0.2886751  -0.0625698), wk =   0.0185185
        k(   75) = (   0.3333333  -0.0000000   0.0625698), wk =   0.0185185
        k(   76) = (  -0.3333333   0.0000000   0.0625698), wk =   0.0185185
        k(   77) = (  -0.1666667   0.2886751   0.0938547), wk =   0.0185185
        k(   78) = (   0.3333333  -0.0000000  -0.0938547), wk =   0.0185185
        k(   79) = (  -0.1666667   0.4811252   0.0000000), wk =   0.0185185
        k(   80) = (  -0.3333333   0.3849002   0.0000000), wk =   0.0185185
        k(   81) = (   0.5000000   0.0962250   0.0000000), wk =   0.0185185
        k(   82) = (  -0.3333333  -0.3849002   0.0000000), wk =   0.0185185
        k(   83) = (   0.5000000  -0.0962250   0.0000000), wk =   0.0185185
        k(   84) = (  -0.1666667  -0.4811252   0.0312849), wk =   0.0185185
        k(   85) = (  -0.1666667   0.4811252  -0.0312849), wk =   0.0185185
        k(   86) = (   0.1666667  -0.4811252  -0.0312849), wk =   0.0185185
        k(   87) = (  -0.3333333   0.3849002   0.0312849), wk =   0.0185185
        k(   88) = (   0.5000000   0.0962250   0.0312849), wk =   0.0185185
        k(   89) = (  -0.5000000  -0.0962250   0.0312849), wk =   0.0185185
        k(   90) = (   0.3333333  -0.3849002   0.0312849), wk =   0.0185185
        k(   91) = (  -0.3333333  -0.3849002  -0.0312849), wk =   0.0185185
        k(   92) = (   0.5000000  -0.0962250  -0.0312849), wk =   0.0185185
        k(   93) = (  -0.5000000   0.0962250  -0.0312849), wk =   0.0185185
        k(   94) = (   0.3333333   0.3849002  -0.0312849), wk =   0.0185185
        k(   95) = (  -0.1666667  -0.4811252   0.0625698), wk =   0.0185185
        k(   96) = (  -0.1666667   0.4811252  -0.0625698), wk =   0.0185185
        k(   97) = (   0.1666667  -0.4811252  -0.0625698), wk =   0.0185185
        k(   98) = (  -0.3333333   0.3849002   0.0625698), wk =   0.0185185
        k(   99) = (   0.5000000   0.0962250   0.0625698), wk =   0.0185185
        k(  100) = (  -0.5000000  -0.0962250   0.0625698), wk =   0.0185185
        k(  101) = (   0.3333333  -0.3849002   0.0625698), wk =   0.0185185
        k(  102) = (  -0.3333333  -0.3849002  -0.0625698), wk =   0.0185185
        k(  103) = (   0.5000000  -0.0962250  -0.0625698), wk =   0.0185185
        k(  104) = (  -0.5000000   0.0962250  -0.0625698), wk =   0.0185185
        k(  105) = (   0.3333333   0.3849002  -0.0625698), wk =   0.0185185
        k(  106) = (  -0.1666667   0.4811252   0.0938547), wk =   0.0185185
        k(  107) = (  -0.3333333   0.3849002  -0.0938547), wk =   0.0185185
        k(  108) = (   0.5000000   0.0962250  -0.0938547), wk =   0.0185185
        k(  109) = (  -0.3333333  -0.3849002   0.0938547), wk =   0.0185185
        k(  110) = (   0.5000000  -0.0962250   0.0938547), wk =   0.0185185
        k(  111) = (  -0.3333333  -0.5773503   0.0312849), wk =   0.0185185
        k(  112) = (  -0.3333333  -0.5773503   0.0625698), wk =   0.0185185

                       cryst. coord.
        k(    1) = (   0.0000000   0.0000000   0.0000000), wk =   0.0092593
        k(    2) = (   0.0000000   0.0000000   0.1666667), wk =   0.0185185
        k(    3) = (   0.0000000   0.0000000   0.3333333), wk =   0.0185185
        k(    4) = (   0.0000000   0.0000000  -0.5000000), wk =   0.0092593
        k(    5) = (   0.0000000   0.1666667   0.0000000), wk =   0.0185185
        k(    6) = (   0.0000000   0.1666667   0.1666667), wk =   0.0185185
        k(    7) = (   0.0000000   0.1666667   0.3333333), wk =   0.0185185
        k(    8) = (   0.0000000   0.1666667  -0.5000000), wk =   0.0185185
        k(    9) = (   0.0000000   0.3333333   0.0000000), wk =   0.0185185
        k(   10) = (   0.0000000   0.3333333   0.1666667), wk =   0.0185185
        k(   11) = (   0.0000000   0.3333333   0.3333333), wk =   0.0185185
        k(   12) = (   0.0000000   0.3333333  -0.5000000), wk =   0.0185185
        k(   13) = (   0.0000000  -0.5000000   0.0000000), wk =   0.0092593
        k(   14) = (   0.0000000  -0.5000000   0.1666667), wk =   0.0185185
        k(   15) = (   0.0000000  -0.5000000   0.3333333), wk =   0.0185185
        k(   16) = (   0.0000000  -0.5000000  -0.5000000), wk =   0.0092593
        k(   17) = (   0.1666667   0.1666667   0.0000000), wk =   0.0185185
        k(   18) = (   0.1666667   0.1666667   0.1666667), wk =   0.0185185
        k(   19) = (   0.1666667   0.1666667   0.3333333), wk =   0.0185185
        k(   20) = (   0.1666667   0.1666667  -0.5000000), wk =   0.0185185
        k(   21) = (   0.1666667   0.3333333   0.0000000), wk =   0.0185185
        k(   22) = (   0.1666667   0.3333333   0.1666667), wk =   0.0185185
        k(   23) = (   0.1666667   0.3333333   0.3333333), wk =   0.0185185
        k(   24) = (   0.1666667   0.3333333  -0.5000000), wk =   0.0185185
        k(   25) = (   0.3333333   0.3333333   0.0000000), wk =   0.0185185
        k(   26) = (   0.3333333   0.3333333   0.1666667), wk =   0.0185185
        k(   27) = (   0.3333333   0.3333333   0.3333333), wk =   0.0185185
        k(   28) = (   0.3333333   0.3333333  -0.5000000), wk =   0.0185185
        k(   29) = (  -0.1666667   0.1666667   0.0000000), wk =   0.0185185
        k(   30) = (   0.1666667  -0.0000000   0.0000000), wk =   0.0185185
        k(   31) = (   0.0000000  -0.1666667   0.1666667), wk =   0.0185185
        k(   32) = (  -0.1666667   0.1666667   0.1666667), wk =   0.0185185
        k(   33) = (   0.1666667  -0.0000000   0.1666667), wk =   0.0185185
        k(   34) = (  -0.1666667   0.0000000   0.1666667), wk =   0.0185185
        k(   35) = (   0.1666667  -0.1666667   0.1666667), wk =   0.0185185
        k(   36) = (   0.0000000  -0.1666667   0.3333333), wk =   0.0185185
        k(   37) = (  -0.1666667   0.1666667   0.3333333), wk =   0.0185185
        k(   38) = (   0.1666667  -0.0000000   0.3333333), wk =   0.0185185
        k(   39) = (  -0.1666667   0.0000000   0.3333333), wk =   0.0185185
        k(   40) = (   0.1666667  -0.1666667   0.3333333), wk =   0.0185185
        k(   41) = (  -0.1666667   0.1666667  -0.5000000), wk =   0.0185185
        k(   42) = (   0.1666667  -0.0000000  -0.5000000), wk =   0.0185185
        k(   43) = (  -0.3333333   0.3333333   0.0000000), wk =   0.0185185
        k(   44) = (   0.3333333  -0.0000000   0.0000000), wk =   0.0185185
        k(   45) = (   0.0000000  -0.3333333   0.1666667), wk =   0.0185185
        k(   46) = (  -0.3333333   0.3333333   0.1666667), wk =   0.0185185
        k(   47) = (   0.3333333  -0.0000000   0.1666667), wk =   0.0185185
        k(   48) = (  -0.3333333   0.0000000   0.1666667), wk =   0.0185185
        k(   49) = (   0.3333333  -0.3333333   0.1666667), wk =   0.0185185
        k(   50) = (   0.0000000  -0.3333333   0.3333333), wk =   0.0185185
        k(   51) = (  -0.3333333   0.3333333   0.3333333), wk =   0.0185185
        k(   52) = (   0.3333333  -0.0000000   0.3333333), wk =   0.0185185
        k(   53) = (  -0.3333333   0.0000000   0.3333333), wk =   0.0185185
        k(   54) = (   0.3333333  -0.3333333   0.3333333), wk =   0.0185185
        k(   55) = (  -0.3333333   0.3333333  -0.5000000), wk =   0.0185185
        k(   56) = (   0.3333333  -0.0000000  -0.5000000), wk =   0.0185185
        k(   57) = (   0.5000000  -0.5000000   0.0000000), wk =   0.0092593
        k(   58) = (  -0.5000000   0.0000000   0.0000000), wk =   0.0092593
        k(   59) = (   0.5000000  -0.5000000   0.1666667), wk =   0.0185185
        k(   60) = (  -0.5000000   0.0000000   0.1666667), wk =   0.0185185
        k(   61) = (   0.5000000  -0.5000000   0.3333333), wk =   0.0185185
        k(   62) = (  -0.5000000   0.0000000   0.3333333), wk =   0.0185185
        k(   63) = (   0.5000000  -0.5000000  -0.5000000), wk =   0.0092593
        k(   64) = (  -0.5000000   0.0000000  -0.5000000), wk =   0.0092593
        k(   65) = (  -0.1666667   0.3333333   0.0000000), wk =   0.0185185
        k(   66) = (   0.3333333  -0.1666667   0.0000000), wk =   0.0185185
        k(   67) = (  -0.1666667  -0.1666667   0.1666667), wk =   0.0185185
        k(   68) = (  -0.1666667   0.3333333  -0.1666667), wk =   0.0185185
        k(   69) = (   0.1666667  -0.3333333  -0.1666667), wk =   0.0185185
        k(   70) = (   0.3333333  -0.1666667   0.1666667), wk =   0.0185185
        k(   71) = (  -0.3333333   0.1666667   0.1666667), wk =   0.0185185
        k(   72) = (  -0.1666667  -0.1666667   0.3333333), wk =   0.0185185
        k(   73) = (  -0.1666667   0.3333333  -0.3333333), wk =   0.0185185
        k(   74) = (   0.1666667  -0.3333333  -0.3333333), wk =   0.0185185
        k(   75) = (   0.3333333  -0.1666667   0.3333333), wk =   0.0185185
        k(   76) = (  -0.3333333   0.1666667   0.3333333), wk =   0.0185185
        k(   77) = (  -0.1666667   0.3333333   0.5000000), wk =   0.0185185
        k(   78) = (   0.3333333  -0.1666667  -0.5000000), wk =   0.0185185
        k(   79) = (  -0.1666667   0.5000000   0.0000000), wk =   0.0185185
        k(   80) = (  -0.3333333   0.5000000   0.0000000), wk =   0.0185185
        k(   81) = (   0.5000000  -0.1666667   0.0000000), wk =   0.0185185
        k(   82) = (  -0.3333333  -0.1666667   0.0000000), wk =   0.0185185
        k(   83) = (   0.5000000  -0.3333333   0.0000000), wk =   0.0185185
        k(   84) = (  -0.1666667  -0.3333333   0.1666667), wk =   0.0185185
        k(   85) = (  -0.1666667   0.5000000  -0.1666667), wk =   0.0185185
        k(   86) = (   0.1666667  -0.5000000  -0.1666667), wk =   0.0185185
        k(   87) = (  -0.3333333   0.5000000   0.1666667), wk =   0.0185185
        k(   88) = (   0.5000000  -0.1666667   0.1666667), wk =   0.0185185
        k(   89) = (  -0.5000000   0.1666667   0.1666667), wk =   0.0185185
        k(   90) = (   0.3333333  -0.5000000   0.1666667), wk =   0.0185185
        k(   91) = (  -0.3333333  -0.1666667  -0.1666667), wk =   0.0185185
        k(   92) = (   0.5000000  -0.3333333  -0.1666667), wk =   0.0185185
        k(   93) = (  -0.5000000   0.3333333  -0.1666667), wk =   0.0185185
        k(   94) = (   0.3333333   0.1666667  -0.1666667), wk =   0.0185185
        k(   95) = (  -0.1666667  -0.3333333   0.3333333), wk =   0.0185185
        k(   96) = (  -0.1666667   0.5000000  -0.3333333), wk =   0.0185185
        k(   97) = (   0.1666667  -0.5000000  -0.3333333), wk =   0.0185185
        k(   98) = (  -0.3333333   0.5000000   0.3333333), wk =   0.0185185
        k(   99) = (   0.5000000  -0.1666667   0.3333333), wk =   0.0185185
        k(  100) = (  -0.5000000   0.1666667   0.3333333), wk =   0.0185185
        k(  101) = (   0.3333333  -0.5000000   0.3333333), wk =   0.0185185
        k(  102) = (  -0.3333333  -0.1666667  -0.3333333), wk =   0.0185185
        k(  103) = (   0.5000000  -0.3333333  -0.3333333), wk =   0.0185185
        k(  104) = (  -0.5000000   0.3333333  -0.3333333), wk =   0.0185185
        k(  105) = (   0.3333333   0.1666667  -0.3333333), wk =   0.0185185
        k(  106) = (  -0.1666667   0.5000000   0.5000000), wk =   0.0185185
        k(  107) = (  -0.3333333   0.5000000  -0.5000000), wk =   0.0185185
        k(  108) = (   0.5000000  -0.1666667  -0.5000000), wk =   0.0185185
        k(  109) = (  -0.3333333  -0.1666667   0.5000000), wk =   0.0185185
        k(  110) = (   0.5000000  -0.3333333   0.5000000), wk =   0.0185185
        k(  111) = (  -0.3333333  -0.3333333   0.1666667), wk =   0.0185185
        k(  112) = (  -0.3333333  -0.3333333   0.3333333), wk =   0.0185185

     Dense  grid:   138415 G-vectors     FFT dimensions: (  40,  40, 216)

     Smooth grid:    49003 G-vectors     FFT dimensions: (  27,  27, 150)

     Dynamical RAM for                 wfc:       2.52 MB

     Dynamical RAM for     wfc (w. buffer):      37.80 MB

     Dynamical RAM for           str. fact:       2.11 MB

     Dynamical RAM for           local pot:       0.00 MB

     Dynamical RAM for          nlocal pot:       7.28 MB

     Dynamical RAM for                qrad:       3.21 MB

     Dynamical RAM for          rho,v,vnew:       7.12 MB

     Dynamical RAM for               rhoin:       2.37 MB

     Dynamical RAM for            rho*nmix:      16.90 MB

     Dynamical RAM for           G-vectors:       4.15 MB

     Dynamical RAM for          h,s,v(r/c):       0.53 MB

     Dynamical RAM for          <psi|beta>:       0.13 MB

     Dynamical RAM for                 psi:       5.04 MB

     Dynamical RAM for                hpsi:       5.04 MB

     Dynamical RAM for                spsi:       5.04 MB

     Dynamical RAM for      wfcinit/wfcrot:       7.42 MB

     Dynamical RAM for           addusdens:      26.27 MB

     Dynamical RAM for          addusforce:      27.21 MB

     Estimated static dynamical RAM per process >      73.80 MB

     Estimated max dynamical RAM per process >     117.91 MB

     Estimated total dynamical RAM >       1.61 GB

     Check: negative core charge=   -0.000002

     Initial potential from superposition of free atoms

     starting charge     107.9776, renormalised to     108.0000
     Starting wfcs are   78 randomized atomic wfcs

     total cpu time spent up to now is        7.5 secs

     per-process dynamical memory:    91.3 Mb

     Self-consistent Calculation

     iteration #  1     ecut=    50.00 Ry     beta= 0.30
     Davidson diagonalization with overlap

---- Real-time Memory Report at c_bands before calling an iterative solver
           115 MiB given to the printing process from OS
            89 MiB allocation reported by mallinfo(arena+hblkhd)
        104083 MiB available memory on the node where the printing process lives
------------------
     ethr =  1.00E-02,  avg # of iterations =  1.8

     total cpu time spent up to now is       17.2 secs

     total energy              =   -1084.33376901 Ry
     estimated scf accuracy    <       2.19537097 Ry

     iteration #  2     ecut=    50.00 Ry     beta= 0.30
     Davidson diagonalization with overlap

---- Real-time Memory Report at c_bands before calling an iterative solver
           141 MiB given to the printing process from OS
           112 MiB allocation reported by mallinfo(arena+hblkhd)
        103825 MiB available memory on the node where the printing process lives
------------------
     ethr =  2.03E-03,  avg # of iterations =  2.0

     total cpu time spent up to now is       29.1 secs

     total energy              =   -1084.64043182 Ry
     estimated scf accuracy    <       0.28069301 Ry

     iteration #  3     ecut=    50.00 Ry     beta= 0.30
     Davidson diagonalization with overlap

---- Real-time Memory Report at c_bands before calling an iterative solver
           143 MiB given to the printing process from OS
           113 MiB allocation reported by mallinfo(arena+hblkhd)
        103851 MiB available memory on the node where the printing process lives
------------------
     ethr =  2.60E-04,  avg # of iterations =  6.7

     total cpu time spent up to now is       50.0 secs

     total energy              =   -1084.76052610 Ry
     estimated scf accuracy    <       0.23525993 Ry

     iteration #  4     ecut=    50.00 Ry     beta= 0.30
     Davidson diagonalization with overlap

---- Real-time Memory Report at c_bands before calling an iterative solver
           144 MiB given to the printing process from OS
           115 MiB allocation reported by mallinfo(arena+hblkhd)
        103853 MiB available memory on the node where the printing process lives
------------------
     ethr =  2.18E-04,  avg # of iterations =  5.1

     total cpu time spent up to now is       64.3 secs

     total energy              =   -1084.86456484 Ry
     estimated scf accuracy    <       0.05046872 Ry

     iteration #  5     ecut=    50.00 Ry     beta= 0.30
     Davidson diagonalization with overlap

---- Real-time Memory Report at c_bands before calling an iterative solver
           144 MiB given to the printing process from OS
           115 MiB allocation reported by mallinfo(arena+hblkhd)
        103853 MiB available memory on the node where the printing process lives
------------------
     ethr =  4.67E-05,  avg # of iterations =  5.5

     total cpu time spent up to now is       82.4 secs

     total energy              =   -1084.82556096 Ry
     estimated scf accuracy    <       0.21817341 Ry

     iteration #  6     ecut=    50.00 Ry     beta= 0.30
     Davidson diagonalization with overlap

---- Real-time Memory Report at c_bands before calling an iterative solver
           145 MiB given to the printing process from OS
           116 MiB allocation reported by mallinfo(arena+hblkhd)
        103853 MiB available memory on the node where the printing process lives
------------------
     ethr =  4.67E-05,  avg # of iterations =  4.2

     total cpu time spent up to now is       94.9 secs

     total energy              =   -1084.79118834 Ry
     estimated scf accuracy    <       0.06862872 Ry

     iteration #  7     ecut=    50.00 Ry     beta= 0.30
     Davidson diagonalization with overlap

---- Real-time Memory Report at c_bands before calling an iterative solver
           146 MiB given to the printing process from OS
           117 MiB allocation reported by mallinfo(arena+hblkhd)
        103853 MiB available memory on the node where the printing process lives
------------------
     c_bands:  1 eigenvalues not converged
     c_bands:  1 eigenvalues not converged
     ethr =  4.67E-05,  avg # of iterations =  8.2

     total cpu time spent up to now is      118.0 secs

     total energy              =   -1084.83123204 Ry
     estimated scf accuracy    <       0.08978499 Ry

     iteration #  8     ecut=    50.00 Ry     beta= 0.30
     Davidson diagonalization with overlap

---- Real-time Memory Report at c_bands before calling an iterative solver
           147 MiB given to the printing process from OS
           118 MiB allocation reported by mallinfo(arena+hblkhd)
        103845 MiB available memory on the node where the printing process lives
------------------
     ethr =  4.67E-05,  avg # of iterations =  2.3

     total cpu time spent up to now is      127.6 secs

     total energy              =   -1084.82752254 Ry
     estimated scf accuracy    <       0.03793821 Ry

     iteration #  9     ecut=    50.00 Ry     beta= 0.30
     Davidson diagonalization with overlap

---- Real-time Memory Report at c_bands before calling an iterative solver
           147 MiB given to the printing process from OS
           118 MiB allocation reported by mallinfo(arena+hblkhd)
        103850 MiB available memory on the node where the printing process lives
------------------
     ethr =  3.51E-05,  avg # of iterations =  2.6

     total cpu time spent up to now is      138.1 secs

     total energy              =   -1084.83293962 Ry
     estimated scf accuracy    <       0.01071817 Ry

     iteration # 10     ecut=    50.00 Ry     beta= 0.30
     Davidson diagonalization with overlap

---- Real-time Memory Report at c_bands before calling an iterative solver
           148 MiB given to the printing process from OS
           119 MiB allocation reported by mallinfo(arena+hblkhd)
        103843 MiB available memory on the node where the printing process lives
------------------
     c_bands:  1 eigenvalues not converged
     c_bands:  1 eigenvalues not converged
     ethr =  9.92E-06,  avg # of iterations =  4.3

     total cpu time spent up to now is      150.0 secs

     total energy              =   -1084.83403740 Ry
     estimated scf accuracy    <       0.00489365 Ry

     iteration # 11     ecut=    50.00 Ry     beta= 0.30
     Davidson diagonalization with overlap

---- Real-time Memory Report at c_bands before calling an iterative solver
           148 MiB given to the printing process from OS
           119 MiB allocation reported by mallinfo(arena+hblkhd)
        103849 MiB available memory on the node where the printing process lives
------------------
     ethr =  4.53E-06,  avg # of iterations =  4.9

     total cpu time spent up to now is      163.3 secs

     total energy              =   -1084.83471598 Ry
     estimated scf accuracy    <       0.00101950 Ry

     iteration # 12     ecut=    50.00 Ry     beta= 0.30
     Davidson diagonalization with overlap

---- Real-time Memory Report at c_bands before calling an iterative solver
           148 MiB given to the printing process from OS
           119 MiB allocation reported by mallinfo(arena+hblkhd)
        103849 MiB available memory on the node where the printing process lives
------------------
     c_bands:  1 eigenvalues not converged
     ethr =  9.44E-07,  avg # of iterations =  6.9

     total cpu time spent up to now is      184.9 secs

     total energy              =   -1084.83606130 Ry
     estimated scf accuracy    <       0.00069808 Ry

     iteration # 13     ecut=    50.00 Ry     beta= 0.30
     Davidson diagonalization with overlap

---- Real-time Memory Report at c_bands before calling an iterative solver
           148 MiB given to the printing process from OS
           119 MiB allocation reported by mallinfo(arena+hblkhd)
        103849 MiB available memory on the node where the printing process lives
------------------
     ethr =  6.46E-07,  avg # of iterations =  4.4

     total cpu time spent up to now is      198.4 secs

     total energy              =   -1084.83586981 Ry
     estimated scf accuracy    <       0.00218363 Ry

     iteration # 14     ecut=    50.00 Ry     beta= 0.30
     Davidson diagonalization with overlap

---- Real-time Memory Report at c_bands before calling an iterative solver
           148 MiB given to the printing process from OS
           119 MiB allocation reported by mallinfo(arena+hblkhd)
        103849 MiB available memory on the node where the printing process lives
------------------
     ethr =  6.46E-07,  avg # of iterations =  1.0

     total cpu time spent up to now is      206.7 secs

     total energy              =   -1084.83547008 Ry
     estimated scf accuracy    <       0.00171136 Ry

     iteration # 15     ecut=    50.00 Ry     beta= 0.30
     Davidson diagonalization with overlap

---- Real-time Memory Report at c_bands before calling an iterative solver
           148 MiB given to the printing process from OS
           119 MiB allocation reported by mallinfo(arena+hblkhd)
        103849 MiB available memory on the node where the printing process lives
------------------
     ethr =  6.46E-07,  avg # of iterations =  3.4

     total cpu time spent up to now is      218.4 secs

     total energy              =   -1084.83552946 Ry
     estimated scf accuracy    <       0.00072010 Ry

     iteration # 16     ecut=    50.00 Ry     beta= 0.30
     Davidson diagonalization with overlap

---- Real-time Memory Report at c_bands before calling an iterative solver
           148 MiB given to the printing process from OS
           119 MiB allocation reported by mallinfo(arena+hblkhd)
        103849 MiB available memory on the node where the printing process lives
------------------
     ethr =  6.46E-07,  avg # of iterations =  1.7

     total cpu time spent up to now is      227.1 secs

     total energy              =   -1084.83559196 Ry
     estimated scf accuracy    <       0.00055401 Ry

     iteration # 17     ecut=    50.00 Ry     beta= 0.30
     Davidson diagonalization with overlap

---- Real-time Memory Report at c_bands before calling an iterative solver
           148 MiB given to the printing process from OS
           119 MiB allocation reported by mallinfo(arena+hblkhd)
        103849 MiB available memory on the node where the printing process lives
------------------
     ethr =  5.13E-07,  avg # of iterations =  1.0

     total cpu time spent up to now is      235.0 secs

     total energy              =   -1084.83550269 Ry
     estimated scf accuracy    <       0.00057528 Ry

     iteration # 18     ecut=    50.00 Ry     beta= 0.30
     Davidson diagonalization with overlap

---- Real-time Memory Report at c_bands before calling an iterative solver
           148 MiB given to the printing process from OS
           119 MiB allocation reported by mallinfo(arena+hblkhd)
        103849 MiB available memory on the node where the printing process lives
------------------
     ethr =  5.13E-07,  avg # of iterations =  1.5

     total cpu time spent up to now is      243.6 secs

     total energy              =   -1084.83537202 Ry
     estimated scf accuracy    <       0.00035067 Ry

     iteration # 19     ecut=    50.00 Ry     beta= 0.30
     Davidson diagonalization with overlap

---- Real-time Memory Report at c_bands before calling an iterative solver
           148 MiB given to the printing process from OS
           119 MiB allocation reported by mallinfo(arena+hblkhd)
        103849 MiB available memory on the node where the printing process lives
------------------
     c_bands:  1 eigenvalues not converged
     ethr =  3.25E-07,  avg # of iterations =  5.7

     total cpu time spent up to now is      257.7 secs

     total energy              =   -1084.83553619 Ry
     estimated scf accuracy    <       0.00003815 Ry

     iteration # 20     ecut=    50.00 Ry     beta= 0.30
     Davidson diagonalization with overlap

---- Real-time Memory Report at c_bands before calling an iterative solver
           148 MiB given to the printing process from OS
           119 MiB allocation reported by mallinfo(arena+hblkhd)
        103849 MiB available memory on the node where the printing process lives
------------------
     c_bands:  1 eigenvalues not converged
     c_bands:  1 eigenvalues not converged
     ethr =  3.53E-08,  avg # of iterations =  9.1

     total cpu time spent up to now is      284.7 secs

     total energy              =   -1084.83548459 Ry
     estimated scf accuracy    <       0.00045728 Ry

     iteration # 21     ecut=    50.00 Ry     beta= 0.30
     Davidson diagonalization with overlap

---- Real-time Memory Report at c_bands before calling an iterative solver
           148 MiB given to the printing process from OS
           119 MiB allocation reported by mallinfo(arena+hblkhd)
        103849 MiB available memory on the node where the printing process lives
------------------
     ethr =  3.53E-08,  avg # of iterations =  6.6

     total cpu time spent up to now is      304.6 secs

     total energy              =   -1084.83549961 Ry
     estimated scf accuracy    <       0.00007290 Ry

     iteration # 22     ecut=    50.00 Ry     beta= 0.30
     Davidson diagonalization with overlap

---- Real-time Memory Report at c_bands before calling an iterative solver
           148 MiB given to the printing process from OS
           119 MiB allocation reported by mallinfo(arena+hblkhd)
        103849 MiB available memory on the node where the printing process lives
------------------
     ethr =  3.53E-08,  avg # of iterations =  3.1

     total cpu time spent up to now is      315.8 secs

     total energy              =   -1084.83549100 Ry
     estimated scf accuracy    <       0.00003075 Ry

     iteration # 23     ecut=    50.00 Ry     beta= 0.30
     Davidson diagonalization with overlap

---- Real-time Memory Report at c_bands before calling an iterative solver
           148 MiB given to the printing process from OS
           119 MiB allocation reported by mallinfo(arena+hblkhd)
        103849 MiB available memory on the node where the printing process lives
------------------
     ethr =  2.85E-08,  avg # of iterations =  6.2

     total cpu time spent up to now is      331.7 secs

     total energy              =   -1084.83550585 Ry
     estimated scf accuracy    <       0.00000250 Ry

     iteration # 24     ecut=    50.00 Ry     beta= 0.30
     Davidson diagonalization with overlap

---- Real-time Memory Report at c_bands before calling an iterative solver
           148 MiB given to the printing process from OS
           119 MiB allocation reported by mallinfo(arena+hblkhd)
        103849 MiB available memory on the node where the printing process lives
------------------
     c_bands:  1 eigenvalues not converged
     c_bands:  1 eigenvalues not converged
     ethr =  2.31E-09,  avg # of iterations =  6.5

     total cpu time spent up to now is      350.8 secs

     total energy              =   -1084.83550544 Ry
     estimated scf accuracy    <       0.00000742 Ry

     iteration # 25     ecut=    50.00 Ry     beta= 0.30
     Davidson diagonalization with overlap

---- Real-time Memory Report at c_bands before calling an iterative solver
           148 MiB given to the printing process from OS
           119 MiB allocation reported by mallinfo(arena+hblkhd)
        103849 MiB available memory on the node where the printing process lives
------------------
     ethr =  2.31E-09,  avg # of iterations =  2.2

     total cpu time spent up to now is      360.5 secs

     total energy              =   -1084.83550420 Ry
     estimated scf accuracy    <       0.00000393 Ry

     iteration # 26     ecut=    50.00 Ry     beta= 0.30
     Davidson diagonalization with overlap

---- Real-time Memory Report at c_bands before calling an iterative solver
           148 MiB given to the printing process from OS
           119 MiB allocation reported by mallinfo(arena+hblkhd)
        103849 MiB available memory on the node where the printing process lives
------------------
     ethr =  2.31E-09,  avg # of iterations =  5.2

     total cpu time spent up to now is      375.8 secs

     total energy              =   -1084.83550516 Ry
     estimated scf accuracy    <       0.00000003 Ry

     iteration # 27     ecut=    50.00 Ry     beta= 0.30
     Davidson diagonalization with overlap

---- Real-time Memory Report at c_bands before calling an iterative solver
           148 MiB given to the printing process from OS
           119 MiB allocation reported by mallinfo(arena+hblkhd)
        103849 MiB available memory on the node where the printing process lives
------------------
     c_bands:  1 eigenvalues not converged
     c_bands:  1 eigenvalues not converged
     ethr =  3.23E-11,  avg # of iterations = 10.6

     total cpu time spent up to now is      409.0 secs

     total energy              =   -1084.83550527 Ry
     estimated scf accuracy    <       0.00000023 Ry

     iteration # 28     ecut=    50.00 Ry     beta= 0.30
     Davidson diagonalization with overlap

---- Real-time Memory Report at c_bands before calling an iterative solver
           148 MiB given to the printing process from OS
           119 MiB allocation reported by mallinfo(arena+hblkhd)
        103832 MiB available memory on the node where the printing process lives
------------------
     c_bands:  1 eigenvalues not converged
     ethr =  3.23E-11,  avg # of iterations =  7.4

     total cpu time spent up to now is      429.9 secs

     End of self-consistent calculation

          k = 0.0000 0.0000 0.0000 (  6109 PWs)   bands (ev):

   -11.6724 -11.3580 -11.2524 -10.8850 -10.7918 -10.4843   0.2231   0.3298
     0.5608   0.5768   0.5964   0.7146   0.7834   0.8073   0.8422   0.8809
     0.9262   1.0219   1.0736   1.1541   1.2206   1.2522   1.3302   1.4643
     1.5386   1.5737   1.9123   1.9405   1.9532   1.9674   2.0287   2.0356
     2.0677   2.0817   2.4730   2.5961   2.5996   3.2045   3.3874   4.6321
     4.9042   5.6379   5.7762   5.9368   6.0682   6.1302   6.1811   6.2095
     6.3574   6.3806   6.3967   6.4267   6.8612   6.8992

     occupation numbers 
     1.0000   1.0000   1.0000   1.0000   1.0000   1.0000   1.0000   1.0000
     1.0000   1.0000   1.0000   1.0000   1.0000   1.0000   1.0000   1.0000
     1.0000   1.0000   1.0000   1.0000   1.0000   1.0000   1.0000   1.0000
     1.0000   1.0000   1.0000   1.0000   1.0000   1.0000   1.0000   1.0000
     1.0000   1.0000   1.0000   1.0000   1.0000   1.0000   1.0000   1.0000
     1.0000   1.0000   1.0000   1.0000   1.0000   1.0000   1.0000   1.0000
     1.0000   1.0000   1.0000   1.0000   1.0000   1.0000

          k = 0.0000 0.0000 0.0313 (  6091 PWs)   bands (ev):

   -11.6724 -11.3584 -11.2519 -10.8858 -10.7912 -10.4844   0.2231   0.3299
     0.5608   0.5770   0.5965   0.7144   0.7834   0.8074   0.8415   0.8829
     0.9264   1.0207   1.0737   1.1540   1.2207   1.2521   1.3302   1.4631
     1.5386   1.5738   1.9123   1.9405   1.9532   1.9675   2.0287   2.0356
     2.0677   2.0817   2.4939   2.5963   2.6006   3.0817   3.5309   4.4752
     5.0619   5.6378   5.7760   5.9348   6.0371   6.0974   6.1595   6.2111
     6.3535   6.3805   6.3974   6.4284   6.8611   6.9007

     occupation numbers 
     1.0000   1.0000   1.0000   1.0000   1.0000   1.0000   1.0000   1.0000
     1.0000   1.0000   1.0000   1.0000   1.0000   1.0000   1.0000   1.0000
     1.0000   1.0000   1.0000   1.0000   1.0000   1.0000   1.0000   1.0000
     1.0000   1.0000   1.0000   1.0000   1.0000   1.0000   1.0000   1.0000
     1.0000   1.0000   1.0000   1.0000   1.0000   1.0000   1.0000   1.0000
     1.0000   1.0000   1.0000   1.0000   1.0000   1.0000   1.0000   1.0000
     1.0000   1.0000   1.0000   1.0000   1.0000   1.0000

          k = 0.0000 0.0000 0.0626 (  6102 PWs)   bands (ev):

   -11.6724 -11.3591 -11.2509 -10.8872 -10.7900 -10.4845   0.2231   0.3299
     0.5607   0.5771   0.5965   0.7138   0.7834   0.8076   0.8400   0.8867
     0.9268   1.0182   1.0737   1.1536   1.2207   1.2518   1.3301   1.4607
     1.5386   1.5737   1.9122   1.9403   1.9532   1.9675   2.0287   2.0355
     2.0677   2.0817   2.5434   2.5965   2.6070   2.9304   3.7509   4.2358
     5.2979   5.6372   5.7722   5.8602   5.9414   6.0853   6.1547   6.2135
     6.3475   6.3786   6.3997   6.4312   6.8610   6.9017

     occupation numbers 
     1.0000   1.0000   1.0000   1.0000   1.0000   1.0000   1.0000   1.0000
     1.0000   1.0000   1.0000   1.0000   1.0000   1.0000   1.0000   1.0000
     1.0000   1.0000   1.0000   1.0000   1.0000   1.0000   1.0000   1.0000
     1.0000   1.0000   1.0000   1.0000   1.0000   1.0000   1.0000   1.0000
     1.0000   1.0000   1.0000   1.0000   1.0000   1.0000   1.0000   1.0000
     1.0000   1.0000   1.0000   1.0000   1.0000   1.0000   1.0000   1.0000
     1.0000   1.0000   1.0000   1.0000   1.0000   1.0000

          k = 0.0000 0.0000-0.0939 (  6072 PWs)   bands (ev):

   -11.6723 -11.3594 -11.2504 -10.8879 -10.7894 -10.4845   0.2232   0.3300
     0.5607   0.5773   0.5966   0.7135   0.7835   0.8077   0.8395   0.8887
     0.9270   1.0170   1.0738   1.1535   1.2207   1.2517   1.3301   1.4597
     1.5387   1.5738   1.9123   1.9404   1.9533   1.9676   2.0289   2.0356
     2.0678   2.0818   2.5694   2.5967   2.6231   2.8559   3.9591   4.0206
     5.4593   5.6328   5.7045   5.7866   5.9380   6.0845   6.1543   6.2147
     6.3450   6.3773   6.4010   6.4325   6.8610   6.9019

     occupation numbers 
     1.0000   1.0000   1.0000   1.0000   1.0000   1.0000   1.0000   1.0000
     1.0000   1.0000   1.0000   1.0000   1.0000   1.0000   1.0000   1.0000
     1.0000   1.0000   1.0000   1.0000   1.0000   1.0000   1.0000   1.0000
     1.0000   1.0000   1.0000   1.0000   1.0000   1.0000   1.0000   1.0000
     1.0000   1.0000   1.0000   1.0000   1.0000   1.0000   1.0000   1.0000
     1.0000   1.0000   1.0000   1.0000   1.0000   1.0000   1.0000   1.0000
     1.0000   1.0000   1.0000   1.0000   1.0000   1.0000

          k = 0.0000 0.1925 0.0000 (  6082 PWs)   bands (ev):

   -11.5512 -11.2259 -11.1334 -10.7808 -10.6617 -10.3896   0.2692   0.2963
     0.4928   0.5110   0.6503   0.7016   0.8835   0.9195   0.9389   0.9789
     1.0531   1.1032   1.1524   1.1861   1.2669   1.3263   1.4567   1.5363
     1.5495   1.5774   1.8909   1.9289   1.9578   1.9643   2.0353   2.0516
     2.0766   2.1161   2.4718   2.5919   2.6125   3.3155   3.4703   4.5251
     4.6264   4.9244   5.0695   5.3194   5.3670   5.3924   5.7050   5.7822
     5.8955   5.9505   6.1293   6.1587   6.1720   6.6146

     occupation numbers 
     1.0000   1.0000   1.0000   1.0000   1.0000   1.0000   1.0000   1.0000
     1.0000   1.0000   1.0000   1.0000   1.0000   1.0000   1.0000   1.0000
     1.0000   1.0000   1.0000   1.0000   1.0000   1.0000   1.0000   1.0000
     1.0000   1.0000   1.0000   1.0000   1.0000   1.0000   1.0000   1.0000
     1.0000   1.0000   1.0000   1.0000   1.0000   1.0000   1.0000   1.0000
     1.0000   1.0000   1.0000   1.0000   1.0000   1.0000   1.0000   1.0000
     1.0000   1.0000   1.0000   1.0000   1.0000   1.0000

          k = 0.0000 0.1925 0.0313 (  6094 PWs)   bands (ev):

   -11.5512 -11.2261 -11.1331 -10.7811 -10.6615 -10.3897   0.2692   0.2962
     0.4921   0.5114   0.6515   0.7006   0.8835   0.9195   0.9419   0.9748
     1.0620   1.0961   1.1497   1.1861   1.2680   1.3263   1.4567   1.5368
     1.5495   1.5760   1.8898   1.9291   1.9583   1.9647   2.0352   2.0507
     2.0766   2.1135   2.4826   2.5919   2.6281   3.1915   3.6069   4.3896
     4.7471   4.9094   5.0849   5.2783   5.3907   5.3983   5.6871   5.7803
     5.8983   5.9628   6.1233   6.1602   6.1720   6.6146

     occupation numbers 
     1.0000   1.0000   1.0000   1.0000   1.0000   1.0000   1.0000   1.0000
     1.0000   1.0000   1.0000   1.0000   1.0000   1.0000   1.0000   1.0000
     1.0000   1.0000   1.0000   1.0000   1.0000   1.0000   1.0000   1.0000
     1.0000   1.0000   1.0000   1.0000   1.0000   1.0000   1.0000   1.0000
     1.0000   1.0000   1.0000   1.0000   1.0000   1.0000   1.0000   1.0000
     1.0000   1.0000   1.0000   1.0000   1.0000   1.0000   1.0000   1.0000
     1.0000   1.0000   1.0000   1.0000   1.0000   1.0000

          k = 0.0000 0.1925 0.0626 (  6094 PWs)   bands (ev):

   -11.5512 -11.2265 -11.1326 -10.7817 -10.6610 -10.3897   0.2691   0.2963
     0.4918   0.5113   0.6516   0.7010   0.8842   0.9195   0.9464   0.9720
     1.0721   1.0846   1.1465   1.1865   1.2690   1.3263   1.4566   1.5366
     1.5495   1.5729   1.8873   1.9291   1.9595   1.9675   2.0352   2.0480
     2.0766   2.1072   2.5054   2.5921   2.6837   3.0230   3.8113   4.2145
     4.8191   4.9211   5.1114   5.2302   5.3920   5.4277   5.6504   5.7762
     5.9032   5.9922   6.1126   6.1506   6.1756   6.6145

     occupation numbers 
     1.0000   1.0000   1.0000   1.0000   1.0000   1.0000   1.0000   1.0000
     1.0000   1.0000   1.0000   1.0000   1.0000   1.0000   1.0000   1.0000
     1.0000   1.0000   1.0000   1.0000   1.0000   1.0000   1.0000   1.0000
     1.0000   1.0000   1.0000   1.0000   1.0000   1.0000   1.0000   1.0000
     1.0000   1.0000   1.0000   1.0000   1.0000   1.0000   1.0000   1.0000
     1.0000   1.0000   1.0000   1.0000   1.0000   1.0000   1.0000   1.0000
     1.0000   1.0000   1.0000   1.0000   1.0000   1.0000

          k = 0.0000 0.1925-0.0939 (  6098 PWs)   bands (ev):

   -11.5512 -11.2267 -11.1323 -10.7820 -10.6608 -10.3898   0.2691   0.2962
     0.4922   0.5108   0.6504   0.7023   0.8849   0.9197   0.9470   0.9740
     1.0650   1.0888   1.1457   1.1869   1.2690   1.3263   1.4565   1.5358
     1.5494   1.5714   1.8860   1.9290   1.9600   1.9700   2.0352   2.0460
     2.0766   2.1039   2.5157   2.5921   2.7482   2.9167   3.9905   4.0525
     4.8123   4.9559   5.1169   5.2179   5.3922   5.4401   5.6305   5.7741
     5.9054   6.0118   6.1056   6.1408   6.1779   6.6145

     occupation numbers 
     1.0000   1.0000   1.0000   1.0000   1.0000   1.0000   1.0000   1.0000
     1.0000   1.0000   1.0000   1.0000   1.0000   1.0000   1.0000   1.0000
     1.0000   1.0000   1.0000   1.0000   1.0000   1.0000   1.0000   1.0000
     1.0000   1.0000   1.0000   1.0000   1.0000   1.0000   1.0000   1.0000
     1.0000   1.0000   1.0000   1.0000   1.0000   1.0000   1.0000   1.0000
     1.0000   1.0000   1.0000   1.0000   1.0000   1.0000   1.0000   1.0000
     1.0000   1.0000   1.0000   1.0000   1.0000   1.0000

          k = 0.0000 0.3849 0.0000 (  6140 PWs)   bands (ev):

   -11.3005 -10.9488 -10.8846 -10.5696 -10.3758 -10.2060   0.1680   0.4203
     0.4259   0.4695   0.7138   0.8539   0.9863   1.0728   1.1473   1.2022
     1.2551   1.3277   1.3857   1.4626   1.5108   1.5318   1.5746   1.6126
     1.6962   1.7273   1.9107   1.9586   1.9826   1.9942   2.0614   2.0970
     2.1199   2.2786   2.4770   2.6185   2.7858   3.1039   3.2087   3.3389
     3.5039   3.7704   4.1287   4.3184   4.5491   4.8335   5.0976   5.2243
     5.2419   5.3689   5.5656   5.6125   5.8007   6.0553

     occupation numbers 
     1.0000   1.0000   1.0000   1.0000   1.0000   1.0000   1.0000   1.0000
     1.0000   1.0000   1.0000   1.0000   1.0000   1.0000   1.0000   1.0000
     1.0000   1.0000   1.0000   1.0000   1.0000   1.0000   1.0000   1.0000
     1.0000   1.0000   1.0000   1.0000   1.0000   1.0000   1.0000   1.0000
     1.0000   1.0000   1.0000   1.0000   1.0000   1.0000   1.0000   1.0000
     1.0000   1.0000   1.0000   1.0000   1.0000   1.0000   1.0000   1.0000
     1.0000   1.0000   1.0000   1.0000   1.0000   1.0000

          k = 0.0000 0.3849 0.0313 (  6121 PWs)   bands (ev):

   -11.3004 -10.9488 -10.8846 -10.5696 -10.3758 -10.2060   0.1681   0.4200
     0.4260   0.4695   0.7125   0.8608   0.9808   1.0707   1.1494   1.2026
     1.2582   1.3255   1.3853   1.4624   1.5114   1.5327   1.5713   1.6127
     1.7026   1.7278   1.8934   1.9726   1.9821   1.9943   2.0615   2.0953
     2.1200   2.2699   2.4867   2.6185   2.7942   3.0801   3.2547   3.3279
     3.4827   3.7669   4.1187   4.3135   4.5837   4.8344   5.0861   5.2132
     5.2523   5.3666   5.5499   5.6258   5.8029   6.0550

     occupation numbers 
     1.0000   1.0000   1.0000   1.0000   1.0000   1.0000   1.0000   1.0000
     1.0000   1.0000   1.0000   1.0000   1.0000   1.0000   1.0000   1.0000
     1.0000   1.0000   1.0000   1.0000   1.0000   1.0000   1.0000   1.0000
     1.0000   1.0000   1.0000   1.0000   1.0000   1.0000   1.0000   1.0000
     1.0000   1.0000   1.0000   1.0000   1.0000   1.0000   1.0000   1.0000
     1.0000   1.0000   1.0000   1.0000   1.0000   1.0000   1.0000   1.0000
     1.0000   1.0000   1.0000   1.0000   1.0000   1.0000

          k = 0.0000 0.3849 0.0626 (  6112 PWs)   bands (ev):

   -11.3004 -10.9488 -10.8845 -10.5696 -10.3758 -10.2060   0.1681   0.4203
     0.4259   0.4687   0.7110   0.8632   0.9856   1.0695   1.1465   1.2028
     1.2586   1.3261   1.3845   1.4624   1.5115   1.5350   1.5694   1.6127
     1.7028   1.7279   1.8746   1.9786   1.9922   2.0012   2.0613   2.0840
     2.1200   2.2635   2.4895   2.6184   2.8413   3.0363   3.2789   3.3447
     3.4492   3.7614   4.0824   4.2974   4.7066   4.8362   5.0547   5.1260
     5.2704   5.4020   5.5282   5.6412   5.8064   6.0546

     occupation numbers 
     1.0000   1.0000   1.0000   1.0000   1.0000   1.0000   1.0000   1.0000
     1.0000   1.0000   1.0000   1.0000   1.0000   1.0000   1.0000   1.0000
     1.0000   1.0000   1.0000   1.0000   1.0000   1.0000   1.0000   1.0000
     1.0000   1.0000   1.0000   1.0000   1.0000   1.0000   1.0000   1.0000
     1.0000   1.0000   1.0000   1.0000   1.0000   1.0000   1.0000   1.0000
     1.0000   1.0000   1.0000   1.0000   1.0000   1.0000   1.0000   1.0000
     1.0000   1.0000   1.0000   1.0000   1.0000   1.0000

          k = 0.0000 0.3849-0.0939 (  6116 PWs)   bands (ev):

   -11.3004 -10.9489 -10.8845 -10.5696 -10.3758 -10.2060   0.1680   0.4211
     0.4258   0.4680   0.7107   0.8588   0.9965   1.0705   1.1409   1.2026
     1.2560   1.3288   1.3840   1.4625   1.5112   1.5362   1.5709   1.6128
     1.6963   1.7275   1.8706   1.9778   1.9930   2.0163   2.0606   2.0721
     2.1200   2.2648   2.4844   2.6185   2.8960   2.9927   3.2572   3.3847
     3.4318   3.7594   4.0570   4.2904   4.8304   4.8429   4.9626   5.0895
     5.2775   5.4267   5.5186   5.6467   5.8077   6.0544

     occupation numbers 
     1.0000   1.0000   1.0000   1.0000   1.0000   1.0000   1.0000   1.0000
     1.0000   1.0000   1.0000   1.0000   1.0000   1.0000   1.0000   1.0000
     1.0000   1.0000   1.0000   1.0000   1.0000   1.0000   1.0000   1.0000
     1.0000   1.0000   1.0000   1.0000   1.0000   1.0000   1.0000   1.0000
     1.0000   1.0000   1.0000   1.0000   1.0000   1.0000   1.0000   1.0000
     1.0000   1.0000   1.0000   1.0000   1.0000   1.0000   1.0000   1.0000
     1.0000   1.0000   1.0000   1.0000   1.0000   1.0000

          k = 0.0000-0.5774 0.0000 (  6134 PWs)   bands (ev):

   -11.1706 -10.8042 -10.7525 -10.4629 -10.2014 -10.1350   0.1671   0.4737
     0.4852   0.5424   0.7489   0.9187   1.0666   1.1649   1.2495   1.3305
     1.4679   1.5347   1.5796   1.5950   1.6153   1.6727   1.7060   1.7193
     1.8278   1.8671   2.0158   2.0504   2.0604   2.0633   2.1208   2.1325
     2.1805   2.1944   2.3305   2.4919   2.6300   2.6452   2.6779   2.7454
     2.8232   3.0600   3.8811   4.4193   4.4884   4.6317   4.7609   4.8951
     5.0078   5.0985   5.2498   5.3189   5.5165   5.7700

     occupation numbers 
     1.0000   1.0000   1.0000   1.0000   1.0000   1.0000   1.0000   1.0000
     1.0000   1.0000   1.0000   1.0000   1.0000   1.0000   1.0000   1.0000
     1.0000   1.0000   1.0000   1.0000   1.0000   1.0000   1.0000   1.0000
     1.0000   1.0000   1.0000   1.0000   1.0000   1.0000   1.0000   1.0000
     1.0000   1.0000   1.0000   1.0000   1.0000   1.0000   1.0000   1.0000
     1.0000   1.0000   1.0000   1.0000   1.0000   1.0000   1.0000   1.0000
     1.0000   1.0000   1.0000   1.0000   1.0000   1.0000

          k = 0.0000-0.5774 0.0313 (  6138 PWs)   bands (ev):

   -11.1706 -10.8042 -10.7525 -10.4629 -10.2014 -10.1350   0.1670   0.4733
     0.4851   0.5428   0.7490   0.9182   1.0679   1.1651   1.2488   1.3304
     1.4678   1.5346   1.5797   1.5947   1.6151   1.6725   1.7017   1.7232
     1.8277   1.8669   2.0158   2.0508   2.0604   2.0635   2.1206   2.1325
     2.1804   2.1944   2.3305   2.4918   2.6307   2.6454   2.6779   2.7445
     2.8230   3.0602   3.8955   4.3663   4.4869   4.6648   4.7740   4.9083
     5.0070   5.0896   5.2290   5.3331   5.5142   5.7696

     occupation numbers 
     1.0000   1.0000   1.0000   1.0000   1.0000   1.0000   1.0000   1.0000
     1.0000   1.0000   1.0000   1.0000   1.0000   1.0000   1.0000   1.0000
     1.0000   1.0000   1.0000   1.0000   1.0000   1.0000   1.0000   1.0000
     1.0000   1.0000   1.0000   1.0000   1.0000   1.0000   1.0000   1.0000
     1.0000   1.0000   1.0000   1.0000   1.0000   1.0000   1.0000   1.0000
     1.0000   1.0000   1.0000   1.0000   1.0000   1.0000   1.0000   1.0000
     1.0000   1.0000   1.0000   1.0000   1.0000   1.0000

          k = 0.0000-0.5774 0.0626 (  6148 PWs)   bands (ev):

   -11.1706 -10.8042 -10.7525 -10.4629 -10.2014 -10.1350   0.1669   0.4724
     0.4851   0.5438   0.7494   0.9172   1.0705   1.1656   1.2474   1.3302
     1.4677   1.5345   1.5802   1.5941   1.6146   1.6717   1.6965   1.7280
     1.8275   1.8665   2.0159   2.0515   2.0607   2.0640   2.1201   2.1325
     2.1800   2.1943   2.3305   2.4918   2.6321   2.6459   2.6779   2.7425
     2.8226   3.0604   3.9301   4.2789   4.4900   4.6772   4.8364   4.9325
     4.9955   5.0736   5.1945   5.3516   5.5097   5.7688

     occupation numbers 
     1.0000   1.0000   1.0000   1.0000   1.0000   1.0000   1.0000   1.0000
     1.0000   1.0000   1.0000   1.0000   1.0000   1.0000   1.0000   1.0000
     1.0000   1.0000   1.0000   1.0000   1.0000   1.0000   1.0000   1.0000
     1.0000   1.0000   1.0000   1.0000   1.0000   1.0000   1.0000   1.0000
     1.0000   1.0000   1.0000   1.0000   1.0000   1.0000   1.0000   1.0000
     1.0000   1.0000   1.0000   1.0000   1.0000   1.0000   1.0000   1.0000
     1.0000   1.0000   1.0000   1.0000   1.0000   1.0000

          k = 0.0000-0.5774-0.0939 (  6140 PWs)   bands (ev):

   -11.1706 -10.8042 -10.7525 -10.4629 -10.2014 -10.1350   0.1669   0.4719
     0.4851   0.5442   0.7495   0.9167   1.0718   1.1659   1.2467   1.3302
     1.4676   1.5344   1.5804   1.5938   1.6144   1.6712   1.6946   1.7298
     1.8274   1.8664   2.0159   2.0519   2.0608   2.0643   2.1200   2.1324
     2.1798   2.1944   2.3306   2.4918   2.6326   2.6462   2.6780   2.7414
     2.8224   3.0606   3.9523   4.2364   4.4922   4.6741   4.8853   4.9447
     4.9728   5.0695   5.1773   5.3587   5.5074   5.7684

     occupation numbers 
     1.0000   1.0000   1.0000   1.0000   1.0000   1.0000   1.0000   1.0000
     1.0000   1.0000   1.0000   1.0000   1.0000   1.0000   1.0000   1.0000
     1.0000   1.0000   1.0000   1.0000   1.0000   1.0000   1.0000   1.0000
     1.0000   1.0000   1.0000   1.0000   1.0000   1.0000   1.0000   1.0000
     1.0000   1.0000   1.0000   1.0000   1.0000   1.0000   1.0000   1.0000
     1.0000   1.0000   1.0000   1.0000   1.0000   1.0000   1.0000   1.0000
     1.0000   1.0000   1.0000   1.0000   1.0000   1.0000

          k = 0.1667 0.2887 0.0000 (  6117 PWs)   bands (ev):

   -11.3566 -11.0167 -10.9519 -10.6231 -10.4577 -10.2497   0.2093   0.4015
     0.4807   0.5808   0.7326   0.8230   0.9078   1.0140   1.0693   1.1151
     1.2137   1.2576   1.2921   1.3277   1.4104   1.4911   1.5422   1.5714
     1.6282   1.6851   1.8921   1.9459   1.9743   1.9873   2.0448   2.0759
     2.0985   2.2521   2.4803   2.6059   2.7684   3.3610   3.4486   3.8219
     3.9815   4.0877   4.2602   4.4286   4.6306   4.7585   5.0535   5.2470
     5.3199   5.4721   5.5638   5.6670   5.9754   6.0480

     occupation numbers 
     1.0000   1.0000   1.0000   1.0000   1.0000   1.0000   1.0000   1.0000
     1.0000   1.0000   1.0000   1.0000   1.0000   1.0000   1.0000   1.0000
     1.0000   1.0000   1.0000   1.0000   1.0000   1.0000   1.0000   1.0000
     1.0000   1.0000   1.0000   1.0000   1.0000   1.0000   1.0000   1.0000
     1.0000   1.0000   1.0000   1.0000   1.0000   1.0000   1.0000   1.0000
     1.0000   1.0000   1.0000   1.0000   1.0000   1.0000   1.0000   1.0000
     1.0000   1.0000   1.0000   1.0000   1.0000   1.0000

          k = 0.1667 0.2887 0.0313 (  6114 PWs)   bands (ev):

   -11.3566 -11.0167 -10.9518 -10.6232 -10.4576 -10.2497   0.2093   0.4014
     0.4809   0.5804   0.7318   0.8242   0.9102   1.0114   1.0746   1.1099
     1.2166   1.2639   1.2795   1.3313   1.4110   1.4904   1.5429   1.5715
     1.6296   1.6821   1.8894   1.9456   1.9743   1.9939   2.0443   2.0735
     2.0946   2.2516   2.4805   2.6055   2.7934   3.2778   3.5272   3.8043
     3.9802   4.0838   4.2468   4.4440   4.6511   4.7535   5.0573   5.2378
     5.3196   5.4410   5.5883   5.6683   5.9757   6.0484

     occupation numbers 
     1.0000   1.0000   1.0000   1.0000   1.0000   1.0000   1.0000   1.0000
     1.0000   1.0000   1.0000   1.0000   1.0000   1.0000   1.0000   1.0000
     1.0000   1.0000   1.0000   1.0000   1.0000   1.0000   1.0000   1.0000
     1.0000   1.0000   1.0000   1.0000   1.0000   1.0000   1.0000   1.0000
     1.0000   1.0000   1.0000   1.0000   1.0000   1.0000   1.0000   1.0000
     1.0000   1.0000   1.0000   1.0000   1.0000   1.0000   1.0000   1.0000
     1.0000   1.0000   1.0000   1.0000   1.0000   1.0000

          k = 0.1667 0.2887 0.0626 (  6106 PWs)   bands (ev):

   -11.3566 -11.0169 -10.9516 -10.6232 -10.4576 -10.2498   0.2093   0.4010
     0.4810   0.5804   0.7309   0.8237   0.9143   1.0120   1.0741   1.1110
     1.2176   1.2604   1.2769   1.3336   1.4119   1.4924   1.5398   1.5714
     1.6309   1.6789   1.8806   1.9452   1.9737   2.0125   2.0435   2.0663
     2.0891   2.2421   2.4891   2.6045   2.8674   3.1512   3.6253   3.7645
     3.9842   4.0545   4.2550   4.4398   4.6921   4.7842   5.0475   5.1940
     5.3078   5.4215   5.6196   5.6757   5.9747   6.0485

     occupation numbers 
     1.0000   1.0000   1.0000   1.0000   1.0000   1.0000   1.0000   1.0000
     1.0000   1.0000   1.0000   1.0000   1.0000   1.0000   1.0000   1.0000
     1.0000   1.0000   1.0000   1.0000   1.0000   1.0000   1.0000   1.0000
     1.0000   1.0000   1.0000   1.0000   1.0000   1.0000   1.0000   1.0000
     1.0000   1.0000   1.0000   1.0000   1.0000   1.0000   1.0000   1.0000
     1.0000   1.0000   1.0000   1.0000   1.0000   1.0000   1.0000   1.0000
     1.0000   1.0000   1.0000   1.0000   1.0000   1.0000

          k = 0.1667 0.2887-0.0939 (  6106 PWs)   bands (ev):

   -11.3566 -11.0169 -10.9516 -10.6233 -10.4575 -10.2498   0.2093   0.4007
     0.4809   0.5808   0.7310   0.8221   0.9158   1.0156   1.0681   1.1176
     1.2152   1.2516   1.2854   1.3332   1.4122   1.4957   1.5352   1.5710
     1.6304   1.6790   1.8749   1.9451   1.9734   2.0257   2.0447   2.0586
     2.0870   2.2342   2.4961   2.6038   2.9504   3.0492   3.6819   3.7303
     3.9942   4.0275   4.2712   4.4254   4.6992   4.8475   5.0126   5.1609
     5.3044   5.4209   5.6320   5.6825   5.9733   6.0481

     occupation numbers 
     1.0000   1.0000   1.0000   1.0000   1.0000   1.0000   1.0000   1.0000
     1.0000   1.0000   1.0000   1.0000   1.0000   1.0000   1.0000   1.0000
     1.0000   1.0000   1.0000   1.0000   1.0000   1.0000   1.0000   1.0000
     1.0000   1.0000   1.0000   1.0000   1.0000   1.0000   1.0000   1.0000
     1.0000   1.0000   1.0000   1.0000   1.0000   1.0000   1.0000   1.0000
     1.0000   1.0000   1.0000   1.0000   1.0000   1.0000   1.0000   1.0000
     1.0000   1.0000   1.0000   1.0000   1.0000   1.0000

          k = 0.1667 0.4811 0.0000 (  6121 PWs)   bands (ev):

   -11.1647 -10.8067 -10.7595 -10.4655 -10.2167 -10.1279   0.3763   0.4262
     0.6169   0.6825   0.8658   0.9707   1.0491   1.1565   1.2518   1.3133
     1.3452   1.4288   1.5305   1.5746   1.5887   1.6487   1.6644   1.7329
     1.7747   1.8410   1.9527   1.9877   2.0141   2.0773   2.1146   2.1384
     2.2201   2.3032   2.5036   2.5630   2.6927   2.7527   2.7905   3.0056
     3.0810   3.4388   3.7691   3.9889   4.1274   4.2585   4.4669   4.6710
     4.7949   4.9807   5.1428   5.1895   5.3804   5.6383

     occupation numbers 
     1.0000   1.0000   1.0000   1.0000   1.0000   1.0000   1.0000   1.0000
     1.0000   1.0000   1.0000   1.0000   1.0000   1.0000   1.0000   1.0000
     1.0000   1.0000   1.0000   1.0000   1.0000   1.0000   1.0000   1.0000
     1.0000   1.0000   1.0000   1.0000   1.0000   1.0000   1.0000   1.0000
     1.0000   1.0000   1.0000   1.0000   1.0000   1.0000   1.0000   1.0000
     1.0000   1.0000   1.0000   1.0000   1.0000   1.0000   1.0000   1.0000
     1.0000   1.0000   1.0000   1.0000   1.0000   1.0000

          k = 0.1667 0.4811 0.0313 (  6117 PWs)   bands (ev):

   -11.1647 -10.8067 -10.7595 -10.4655 -10.2167 -10.1279   0.3763   0.4261
     0.6167   0.6823   0.8654   0.9716   1.0504   1.1587   1.2521   1.2997
     1.3551   1.4289   1.5341   1.5683   1.5902   1.6450   1.6696   1.7339
     1.7767   1.8415   1.9418   1.9954   2.0107   2.0776   2.1118   2.1452
     2.2175   2.3037   2.4960   2.5723   2.6895   2.7488   2.8009   2.9896
     3.0945   3.4391   3.7730   4.0017   4.0924   4.2619   4.5082   4.6160
     4.8111   5.0017   5.1496   5.1753   5.3787   5.6367

     occupation numbers 
     1.0000   1.0000   1.0000   1.0000   1.0000   1.0000   1.0000   1.0000
     1.0000   1.0000   1.0000   1.0000   1.0000   1.0000   1.0000   1.0000
     1.0000   1.0000   1.0000   1.0000   1.0000   1.0000   1.0000   1.0000
     1.0000   1.0000   1.0000   1.0000   1.0000   1.0000   1.0000   1.0000
     1.0000   1.0000   1.0000   1.0000   1.0000   1.0000   1.0000   1.0000
     1.0000   1.0000   1.0000   1.0000   1.0000   1.0000   1.0000   1.0000
     1.0000   1.0000   1.0000   1.0000   1.0000   1.0000

          k = 0.1667 0.4811 0.0626 (  6118 PWs)   bands (ev):

   -11.1647 -10.8067 -10.7595 -10.4655 -10.2167 -10.1279   0.3763   0.4260
     0.6167   0.6819   0.8647   0.9713   1.0533   1.1614   1.2543   1.2909
     1.3571   1.4308   1.5361   1.5628   1.5960   1.6409   1.6736   1.7288
     1.7819   1.8387   1.9296   2.0017   2.0096   2.0820   2.1104   2.1520
     2.2095   2.3047   2.5012   2.5776   2.6673   2.7565   2.8122   2.9809
     3.0995   3.4437   3.7837   4.0114   4.0612   4.2577   4.5072   4.5930
     4.8524   5.0202   5.1379   5.1678   5.3745   5.6342

     occupation numbers 
     1.0000   1.0000   1.0000   1.0000   1.0000   1.0000   1.0000   1.0000
     1.0000   1.0000   1.0000   1.0000   1.0000   1.0000   1.0000   1.0000
     1.0000   1.0000   1.0000   1.0000   1.0000   1.0000   1.0000   1.0000
     1.0000   1.0000   1.0000   1.0000   1.0000   1.0000   1.0000   1.0000
     1.0000   1.0000   1.0000   1.0000   1.0000   1.0000   1.0000   1.0000
     1.0000   1.0000   1.0000   1.0000   1.0000   1.0000   1.0000   1.0000
     1.0000   1.0000   1.0000   1.0000   1.0000   1.0000

          k = 0.1667 0.4811-0.0939 (  6122 PWs)   bands (ev):

   -11.1647 -10.8067 -10.7595 -10.4655 -10.2167 -10.1279   0.3762   0.4260
     0.6170   0.6815   0.8644   0.9703   1.0550   1.1616   1.2558   1.2935
     1.3522   1.4324   1.5335   1.5641   1.6015   1.6387   1.6739   1.7230
     1.7847   1.8352   1.9271   2.0000   2.0134   2.0860   2.1114   2.1524
     2.2041   2.3052   2.5147   2.5734   2.6511   2.7632   2.8140   2.9864
     3.0934   3.4481   3.7909   3.9947   4.0760   4.2499   4.4665   4.6178
     4.8914   5.0113   5.1168   5.1776   5.3719   5.6334

     occupation numbers 
     1.0000   1.0000   1.0000   1.0000   1.0000   1.0000   1.0000   1.0000
     1.0000   1.0000   1.0000   1.0000   1.0000   1.0000   1.0000   1.0000
     1.0000   1.0000   1.0000   1.0000   1.0000   1.0000   1.0000   1.0000
     1.0000   1.0000   1.0000   1.0000   1.0000   1.0000   1.0000   1.0000
     1.0000   1.0000   1.0000   1.0000   1.0000   1.0000   1.0000   1.0000
     1.0000   1.0000   1.0000   1.0000   1.0000   1.0000   1.0000   1.0000
     1.0000   1.0000   1.0000   1.0000   1.0000   1.0000

          k = 0.3333 0.5774 0.0000 (  6129 PWs)   bands (ev):

   -11.0847 -10.7483 -10.7040 -10.4201 -10.1291 -10.1003   0.4364   0.7752
     0.8133   0.9292   1.0162   1.0403   1.1832   1.2010   1.2397   1.2646
     1.4589   1.4762   1.5153   1.5754   1.6302   1.6919   1.7204   1.7591
     1.8773   1.8963   1.9191   1.9593   2.0069   2.1084   2.1638   2.2199
     2.3001   2.3557   2.5003   2.5593   2.6367   2.6874   2.8496   2.9230
     2.9996   3.0513   3.2011   3.3453   3.5392   3.9844   4.2595   4.4719
     4.5950   4.7318   4.8604   4.9725   5.2309   5.4029

     occupation numbers 
     1.0000   1.0000   1.0000   1.0000   1.0000   1.0000   1.0000   1.0000
     1.0000   1.0000   1.0000   1.0000   1.0000   1.0000   1.0000   1.0000
     1.0000   1.0000   1.0000   1.0000   1.0000   1.0000   1.0000   1.0000
     1.0000   1.0000   1.0000   1.0000   1.0000   1.0000   1.0000   1.0000
     1.0000   1.0000   1.0000   1.0000   1.0000   1.0000   1.0000   1.0000
     1.0000   1.0000   1.0000   1.0000   1.0000   1.0000   1.0000   1.0000
     1.0000   1.0000   1.0000   1.0000   1.0000   1.0000

          k = 0.3333 0.5774 0.0313 (  6138 PWs)   bands (ev):

   -11.0847 -10.7483 -10.7040 -10.4201 -10.1291 -10.1003   0.4363   0.7755
     0.8125   0.9291   1.0161   1.0395   1.1838   1.2018   1.2386   1.2678
     1.4571   1.4799   1.5142   1.5768   1.6287   1.6794   1.7230   1.7626
     1.8773   1.8986   1.9174   1.9605   2.0074   2.1105   2.1695   2.2161
     2.2882   2.3636   2.5005   2.5651   2.6303   2.6875   2.8487   2.9232
     3.0069   3.0522   3.2003   3.3160   3.5767   3.9591   4.2702   4.4758
     4.6038   4.7284   4.8435   4.9762   5.2319   5.4061

     occupation numbers 
     1.0000   1.0000   1.0000   1.0000   1.0000   1.0000   1.0000   1.0000
     1.0000   1.0000   1.0000   1.0000   1.0000   1.0000   1.0000   1.0000
     1.0000   1.0000   1.0000   1.0000   1.0000   1.0000   1.0000   1.0000
     1.0000   1.0000   1.0000   1.0000   1.0000   1.0000   1.0000   1.0000
     1.0000   1.0000   1.0000   1.0000   1.0000   1.0000   1.0000   1.0000
     1.0000   1.0000   1.0000   1.0000   1.0000   1.0000   1.0000   1.0000
     1.0000   1.0000   1.0000   1.0000   1.0000   1.0000

          k = 0.3333 0.5774 0.0626 (  6144 PWs)   bands (ev):

   -11.0847 -10.7483 -10.7040 -10.4201 -10.1291 -10.1003   0.4363   0.7750
     0.8127   0.9294   1.0153   1.0371   1.1836   1.2039   1.2404   1.2724
     1.4537   1.4863   1.5122   1.5818   1.6256   1.6593   1.7198   1.7717
     1.8771   1.8992   1.9177   1.9637   2.0095   2.1175   2.1783   2.2077
     2.2669   2.3757   2.5008   2.5802   2.6214   2.6793   2.8478   2.9300
     3.0124   3.0571   3.1996   3.2719   3.6458   3.9015   4.2932   4.4807
     4.6225   4.7209   4.8187   4.9695   5.2412   5.4098

     occupation numbers 
     1.0000   1.0000   1.0000   1.0000   1.0000   1.0000   1.0000   1.0000
     1.0000   1.0000   1.0000   1.0000   1.0000   1.0000   1.0000   1.0000
     1.0000   1.0000   1.0000   1.0000   1.0000   1.0000   1.0000   1.0000
     1.0000   1.0000   1.0000   1.0000   1.0000   1.0000   1.0000   1.0000
     1.0000   1.0000   1.0000   1.0000   1.0000   1.0000   1.0000   1.0000
     1.0000   1.0000   1.0000   1.0000   1.0000   1.0000   1.0000   1.0000
     1.0000   1.0000   1.0000   1.0000   1.0000   1.0000

          k = 0.3333 0.5774-0.0939 (  6132 PWs)   bands (ev):

   -11.0847 -10.7483 -10.7040 -10.4201 -10.1291 -10.1003   0.4364   0.7742
     0.8136   0.9297   1.0145   1.0356   1.1828   1.2056   1.2427   1.2744
     1.4520   1.4884   1.5119   1.5860   1.6236   1.6495   1.7167   1.7765
     1.8769   1.8979   1.9195   1.9656   2.0112   2.1237   2.1773   2.2069
     2.2557   2.3809   2.5010   2.5895   2.6202   2.6698   2.8481   2.9363
     3.0105   3.0610   3.2004   3.2529   3.6861   3.8639   4.3058   4.4815
     4.6326   4.7167   4.8092   4.9611   5.2488   5.4104

     occupation numbers 
     1.0000   1.0000   1.0000   1.0000   1.0000   1.0000   1.0000   1.0000
     1.0000   1.0000   1.0000   1.0000   1.0000   1.0000   1.0000   1.0000
     1.0000   1.0000   1.0000   1.0000   1.0000   1.0000   1.0000   1.0000
     1.0000   1.0000   1.0000   1.0000   1.0000   1.0000   1.0000   1.0000
     1.0000   1.0000   1.0000   1.0000   1.0000   1.0000   1.0000   1.0000
     1.0000   1.0000   1.0000   1.0000   1.0000   1.0000   1.0000   1.0000
     1.0000   1.0000   1.0000   1.0000   1.0000   1.0000

          k =-0.1667 0.0962 0.0000 (  6082 PWs)   bands (ev):

   -11.5442 -11.2323 -11.1371 -10.7850 -10.6637 -10.3892   0.1565   0.4602
     0.5778   0.6010   0.6541   0.6692   0.7890   0.8123   0.9317   0.9568
     1.0113   1.0671   1.1610   1.1989   1.2590   1.3026   1.4285   1.5376
     1.5579   1.5852   1.9134   1.9285   1.9560   1.9701   2.0374   2.0587
     2.0737   2.1037   2.4660   2.5917   2.6201   3.3053   3.4837   4.5465
     4.5832   4.8595   5.1568   5.3914   5.4486   5.4873   5.6884   5.7607
     5.8609   5.9610   6.1359   6.1574   6.1972   6.6195

     occupation numbers 
     1.0000   1.0000   1.0000   1.0000   1.0000   1.0000   1.0000   1.0000
     1.0000   1.0000   1.0000   1.0000   1.0000   1.0000   1.0000   1.0000
     1.0000   1.0000   1.0000   1.0000   1.0000   1.0000   1.0000   1.0000
     1.0000   1.0000   1.0000   1.0000   1.0000   1.0000   1.0000   1.0000
     1.0000   1.0000   1.0000   1.0000   1.0000   1.0000   1.0000   1.0000
     1.0000   1.0000   1.0000   1.0000   1.0000   1.0000   1.0000   1.0000
     1.0000   1.0000   1.0000   1.0000   1.0000   1.0000

          k = 0.1667 0.0962 0.0000 (  6082 PWs)   bands (ev):

   -11.5439 -11.2259 -11.1361 -10.7822 -10.6651 -10.3897   0.1473   0.4601
     0.4947   0.5822   0.6607   0.7231   0.8111   0.9033   0.9358   0.9832
     1.0560   1.0817   1.1264   1.2035   1.2543   1.3119   1.3689   1.5409
     1.5617   1.5809   1.9039   1.9362   1.9545   1.9717   2.0319   2.0594
     2.0766   2.1115   2.4681   2.5938   2.6207   3.3026   3.4865   4.5245
     4.5758   4.8505   5.0902   5.3576   5.4159   5.4522   5.6956   5.7541
     5.8785   5.9845   6.1238   6.1692   6.1990   6.6102

     occupation numbers 
     1.0000   1.0000   1.0000   1.0000   1.0000   1.0000   1.0000   1.0000
     1.0000   1.0000   1.0000   1.0000   1.0000   1.0000   1.0000   1.0000
     1.0000   1.0000   1.0000   1.0000   1.0000   1.0000   1.0000   1.0000
     1.0000   1.0000   1.0000   1.0000   1.0000   1.0000   1.0000   1.0000
     1.0000   1.0000   1.0000   1.0000   1.0000   1.0000   1.0000   1.0000
     1.0000   1.0000   1.0000   1.0000   1.0000   1.0000   1.0000   1.0000
     1.0000   1.0000   1.0000   1.0000   1.0000   1.0000

          k = 0.0000-0.1925 0.0313 (  6094 PWs)   bands (ev):

   -11.5512 -11.2261 -11.1331 -10.7811 -10.6615 -10.3897   0.2692   0.2962
     0.4932   0.5104   0.6492   0.7029   0.8842   0.9196   0.9393   0.9809
     1.0492   1.1040   1.1513   1.1866   1.2668   1.3263   1.4566   1.5356
     1.5494   1.5757   1.8894   1.9288   1.9588   1.9662   2.0352   2.0499
     2.0766   2.1118   2.4894   2.5920   2.6297   3.1732   3.6192   4.4170
     4.6857   4.9501   5.0626   5.3126   5.3782   5.3923   5.6877   5.7790
     5.8973   5.9694   6.1209   6.1597   6.1685   6.6146

     occupation numbers 
     1.0000   1.0000   1.0000   1.0000   1.0000   1.0000   1.0000   1.0000
     1.0000   1.0000   1.0000   1.0000   1.0000   1.0000   1.0000   1.0000
     1.0000   1.0000   1.0000   1.0000   1.0000   1.0000   1.0000   1.0000
     1.0000   1.0000   1.0000   1.0000   1.0000   1.0000   1.0000   1.0000
     1.0000   1.0000   1.0000   1.0000   1.0000   1.0000   1.0000   1.0000
     1.0000   1.0000   1.0000   1.0000   1.0000   1.0000   1.0000   1.0000
     1.0000   1.0000   1.0000   1.0000   1.0000   1.0000

          k =-0.1667 0.0962 0.0313 (  6094 PWs)   bands (ev):

   -11.5442 -11.2325 -11.1368 -10.7853 -10.6634 -10.3893   0.1565   0.4600
     0.5778   0.6009   0.6540   0.6695   0.7886   0.8118   0.9310   0.9651
     1.0036   1.0687   1.1638   1.1929   1.2591   1.3037   1.4283   1.5401
     1.5580   1.5815   1.9132   1.9281   1.9561   1.9717   2.0373   2.0561
     2.0732   2.1037   2.4727   2.5925   2.6381   3.1889   3.6105   4.4145
     4.6530   4.9163   5.1328   5.3943   5.4400   5.4944   5.6871   5.7492
     5.8628   5.9724   6.1269   6.1626   6.1949   6.6195

     occupation numbers 
     1.0000   1.0000   1.0000   1.0000   1.0000   1.0000   1.0000   1.0000
     1.0000   1.0000   1.0000   1.0000   1.0000   1.0000   1.0000   1.0000
     1.0000   1.0000   1.0000   1.0000   1.0000   1.0000   1.0000   1.0000
     1.0000   1.0000   1.0000   1.0000   1.0000   1.0000   1.0000   1.0000
     1.0000   1.0000   1.0000   1.0000   1.0000   1.0000   1.0000   1.0000
     1.0000   1.0000   1.0000   1.0000   1.0000   1.0000   1.0000   1.0000
     1.0000   1.0000   1.0000   1.0000   1.0000   1.0000

          k = 0.1667 0.0962 0.0313 (  6094 PWs)   bands (ev):

   -11.5438 -11.2261 -11.1358 -10.7826 -10.6648 -10.3897   0.1473   0.4592
     0.4957   0.5821   0.6611   0.7222   0.8111   0.9029   0.9391   0.9817
     1.0587   1.0804   1.1264   1.1986   1.2543   1.3139   1.3688   1.5440
     1.5612   1.5767   1.9035   1.9357   1.9548   1.9730   2.0318   2.0571
     2.0763   2.1108   2.4765   2.5941   2.6416   3.1779   3.6205   4.4077
     4.6202   4.9063   5.0910   5.3348   5.4129   5.4591   5.6910   5.7515
     5.8799   6.0000   6.1195   6.1695   6.1918   6.6102

     occupation numbers 
     1.0000   1.0000   1.0000   1.0000   1.0000   1.0000   1.0000   1.0000
     1.0000   1.0000   1.0000   1.0000   1.0000   1.0000   1.0000   1.0000
     1.0000   1.0000   1.0000   1.0000   1.0000   1.0000   1.0000   1.0000
     1.0000   1.0000   1.0000   1.0000   1.0000   1.0000   1.0000   1.0000
     1.0000   1.0000   1.0000   1.0000   1.0000   1.0000   1.0000   1.0000
     1.0000   1.0000   1.0000   1.0000   1.0000   1.0000   1.0000   1.0000
     1.0000   1.0000   1.0000   1.0000   1.0000   1.0000

          k =-0.1667-0.0962 0.0313 (  6094 PWs)   bands (ev):

   -11.5438 -11.2261 -11.1358 -10.7826 -10.6648 -10.3897   0.1473   0.4599
     0.4946   0.5824   0.6609   0.7231   0.8111   0.9049   0.9339   0.9862
     1.0526   1.0816   1.1269   1.2045   1.2546   1.3100   1.3690   1.5400
     1.5607   1.5816   1.9025   1.9355   1.9548   1.9736   2.0320   2.0588
     2.0765   2.1059   2.4894   2.5937   2.6311   3.1781   3.6211   4.3954
     4.6693   4.8463   5.1049   5.3318   5.4451   5.4543   5.6750   5.7517
     5.8802   5.9941   6.1201   6.1668   6.2004   6.6102

     occupation numbers 
     1.0000   1.0000   1.0000   1.0000   1.0000   1.0000   1.0000   1.0000
     1.0000   1.0000   1.0000   1.0000   1.0000   1.0000   1.0000   1.0000
     1.0000   1.0000   1.0000   1.0000   1.0000   1.0000   1.0000   1.0000
     1.0000   1.0000   1.0000   1.0000   1.0000   1.0000   1.0000   1.0000
     1.0000   1.0000   1.0000   1.0000   1.0000   1.0000   1.0000   1.0000
     1.0000   1.0000   1.0000   1.0000   1.0000   1.0000   1.0000   1.0000
     1.0000   1.0000   1.0000   1.0000   1.0000   1.0000

          k = 0.1667-0.0962 0.0313 (  6094 PWs)   bands (ev):

   -11.5442 -11.2326 -11.1368 -10.7853 -10.6634 -10.3893   0.1565   0.4601
     0.5780   0.6009   0.6537   0.6692   0.7893   0.8122   0.9288   0.9599
     1.0170   1.0615   1.1588   1.2013   1.2590   1.3014   1.4284   1.5375
     1.5564   1.5850   1.9122   1.9276   1.9560   1.9717   2.0375   2.0591
     2.0739   2.0975   2.4874   2.5915   2.6342   3.1696   3.6288   4.4041
     4.6904   4.8508   5.1799   5.3686   5.4474   5.5049   5.6827   5.7454
     5.8634   5.9791   6.1285   6.1572   6.1940   6.6194

     occupation numbers 
     1.0000   1.0000   1.0000   1.0000   1.0000   1.0000   1.0000   1.0000
     1.0000   1.0000   1.0000   1.0000   1.0000   1.0000   1.0000   1.0000
     1.0000   1.0000   1.0000   1.0000   1.0000   1.0000   1.0000   1.0000
     1.0000   1.0000   1.0000   1.0000   1.0000   1.0000   1.0000   1.0000
     1.0000   1.0000   1.0000   1.0000   1.0000   1.0000   1.0000   1.0000
     1.0000   1.0000   1.0000   1.0000   1.0000   1.0000   1.0000   1.0000
     1.0000   1.0000   1.0000   1.0000   1.0000   1.0000

          k = 0.0000-0.1925 0.0626 (  6094 PWs)   bands (ev):

   -11.5512 -11.2265 -11.1325 -10.7818 -10.6610 -10.3897   0.2691   0.2962
     0.4929   0.5104   0.6493   0.7032   0.8849   0.9197   0.9431   0.9789
     1.0533   1.0988   1.1479   1.1869   1.2680   1.3263   1.4565   1.5353
     1.5494   1.5727   1.8870   1.9289   1.9597   1.9693   2.0352   2.0471
     2.0766   2.1058   2.5107   2.5922   2.6908   3.0058   3.8178   4.2285
     4.7667   4.9689   5.0775   5.2658   5.3921   5.4172   5.6510   5.7754
     5.9024   6.0001   6.1089   6.1471   6.1747   6.6145

     occupation numbers 
     1.0000   1.0000   1.0000   1.0000   1.0000   1.0000   1.0000   1.0000
     1.0000   1.0000   1.0000   1.0000   1.0000   1.0000   1.0000   1.0000
     1.0000   1.0000   1.0000   1.0000   1.0000   1.0000   1.0000   1.0000
     1.0000   1.0000   1.0000   1.0000   1.0000   1.0000   1.0000   1.0000
     1.0000   1.0000   1.0000   1.0000   1.0000   1.0000   1.0000   1.0000
     1.0000   1.0000   1.0000   1.0000   1.0000   1.0000   1.0000   1.0000
     1.0000   1.0000   1.0000   1.0000   1.0000   1.0000

          k =-0.1667 0.0962 0.0626 (  6094 PWs)   bands (ev):

   -11.5442 -11.2330 -11.1362 -10.7859 -10.6629 -10.3893   0.1565   0.4597
     0.5782   0.6008   0.6536   0.6698   0.7887   0.8113   0.9284   0.9798
     0.9969   1.0656   1.1643   1.1897   1.2593   1.3038   1.4279   1.5439
     1.5550   1.5779   1.9119   1.9271   1.9563   1.9748   2.0375   2.0534
     2.0729   2.0986   2.4959   2.5927   2.6929   3.0216   3.8115   4.2334
     4.7005   4.9743   5.1268   5.3697   5.4387   5.5171   5.6788   5.7243
     5.8677   6.0008   6.1153   6.1572   6.1932   6.6193

     occupation numbers 
     1.0000   1.0000   1.0000   1.0000   1.0000   1.0000   1.0000   1.0000
     1.0000   1.0000   1.0000   1.0000   1.0000   1.0000   1.0000   1.0000
     1.0000   1.0000   1.0000   1.0000   1.0000   1.0000   1.0000   1.0000
     1.0000   1.0000   1.0000   1.0000   1.0000   1.0000   1.0000   1.0000
     1.0000   1.0000   1.0000   1.0000   1.0000   1.0000   1.0000   1.0000
     1.0000   1.0000   1.0000   1.0000   1.0000   1.0000   1.0000   1.0000
     1.0000   1.0000   1.0000   1.0000   1.0000   1.0000

          k = 0.1667 0.0962 0.0626 (  6094 PWs)   bands (ev):

   -11.5438 -11.2266 -11.1352 -10.7832 -10.6643 -10.3898   0.1473   0.4583
     0.4966   0.5821   0.6617   0.7213   0.8112   0.9040   0.9407   0.9834
     1.0581   1.0789   1.1269   1.1947   1.2546   1.3141   1.3687   1.5479
     1.5576   1.5739   1.9016   1.9347   1.9553   1.9765   2.0320   2.0538
     2.0761   2.1054   2.5004   2.5943   2.6986   3.0115   3.8194   4.2267
     4.6620   4.9516   5.1235   5.2796   5.4288   5.4732   5.6659   5.7473
     5.8835   6.0267   6.1126   6.1570   6.1920   6.6101

     occupation numbers 
     1.0000   1.0000   1.0000   1.0000   1.0000   1.0000   1.0000   1.0000
     1.0000   1.0000   1.0000   1.0000   1.0000   1.0000   1.0000   1.0000
     1.0000   1.0000   1.0000   1.0000   1.0000   1.0000   1.0000   1.0000
     1.0000   1.0000   1.0000   1.0000   1.0000   1.0000   1.0000   1.0000
     1.0000   1.0000   1.0000   1.0000   1.0000   1.0000   1.0000   1.0000
     1.0000   1.0000   1.0000   1.0000   1.0000   1.0000   1.0000   1.0000
     1.0000   1.0000   1.0000   1.0000   1.0000   1.0000

          k =-0.1667-0.0962 0.0626 (  6094 PWs)   bands (ev):

   -11.5438 -11.2266 -11.1352 -10.7832 -10.6643 -10.3898   0.1473   0.4589
     0.4956   0.5824   0.6614   0.7222   0.8111   0.9060   0.9353   0.9883
     1.0512   1.0805   1.1273   1.2006   1.2549   1.3103   1.3690   1.5422
     1.5587   1.5788   1.9007   1.9346   1.9554   1.9771   2.0322   2.0554
     2.0761   2.1010   2.5125   2.5940   2.6872   3.0132   3.8201   4.2227
     4.6929   4.9006   5.1348   5.2856   5.4433   5.4843   5.6459   5.7479
     5.8837   6.0194   6.1123   6.1597   6.1974   6.6101

     occupation numbers 
     1.0000   1.0000   1.0000   1.0000   1.0000   1.0000   1.0000   1.0000
     1.0000   1.0000   1.0000   1.0000   1.0000   1.0000   1.0000   1.0000
     1.0000   1.0000   1.0000   1.0000   1.0000   1.0000   1.0000   1.0000
     1.0000   1.0000   1.0000   1.0000   1.0000   1.0000   1.0000   1.0000
     1.0000   1.0000   1.0000   1.0000   1.0000   1.0000   1.0000   1.0000
     1.0000   1.0000   1.0000   1.0000   1.0000   1.0000   1.0000   1.0000
     1.0000   1.0000   1.0000   1.0000   1.0000   1.0000

          k = 0.1667-0.0962 0.0626 (  6094 PWs)   bands (ev):

   -11.5442 -11.2330 -11.1362 -10.7860 -10.6629 -10.3893   0.1565   0.4598
     0.5785   0.6007   0.6533   0.6695   0.7895   0.8117   0.9266   0.9693
     1.0165   1.0571   1.1589   1.1986   1.2593   1.3015   1.4280   1.5405
     1.5539   1.5817   1.9108   1.9267   1.9562   1.9747   2.0376   2.0564
     2.0734   2.0930   2.5088   2.5921   2.6935   3.0049   3.8282   4.2231
     4.7277   4.9036   5.1895   5.3429   5.4437   5.5277   5.6708   5.7234
     5.8678   6.0085   6.1154   6.1512   6.1929   6.6192

     occupation numbers 
     1.0000   1.0000   1.0000   1.0000   1.0000   1.0000   1.0000   1.0000
     1.0000   1.0000   1.0000   1.0000   1.0000   1.0000   1.0000   1.0000
     1.0000   1.0000   1.0000   1.0000   1.0000   1.0000   1.0000   1.0000
     1.0000   1.0000   1.0000   1.0000   1.0000   1.0000   1.0000   1.0000
     1.0000   1.0000   1.0000   1.0000   1.0000   1.0000   1.0000   1.0000
     1.0000   1.0000   1.0000   1.0000   1.0000   1.0000   1.0000   1.0000
     1.0000   1.0000   1.0000   1.0000   1.0000   1.0000

          k =-0.1667 0.0962-0.0939 (  6098 PWs)   bands (ev):

   -11.5442 -11.2332 -11.1359 -10.7863 -10.6627 -10.3893   0.1565   0.4596
     0.5786   0.6007   0.6532   0.6698   0.7892   0.8112   0.9266   0.9795
     1.0052   1.0598   1.1613   1.1930   1.2594   1.3027   1.4278   1.5451
     1.5516   1.5783   1.9107   1.9265   1.9563   1.9763   2.0376   2.0533
     2.0729   2.0939   2.5105   2.5926   2.7538   2.9155   3.9929   4.0620
     4.7226   4.9637   5.1636   5.3427   5.4410   5.5347   5.6665   5.7143
     5.8702   6.0201   6.1097   6.1473   6.1939   6.6192

     occupation numbers 
     1.0000   1.0000   1.0000   1.0000   1.0000   1.0000   1.0000   1.0000
     1.0000   1.0000   1.0000   1.0000   1.0000   1.0000   1.0000   1.0000
     1.0000   1.0000   1.0000   1.0000   1.0000   1.0000   1.0000   1.0000
     1.0000   1.0000   1.0000   1.0000   1.0000   1.0000   1.0000   1.0000
     1.0000   1.0000   1.0000   1.0000   1.0000   1.0000   1.0000   1.0000
     1.0000   1.0000   1.0000   1.0000   1.0000   1.0000   1.0000   1.0000
     1.0000   1.0000   1.0000   1.0000   1.0000   1.0000

          k = 0.1667 0.0962-0.0939 (  6098 PWs)   bands (ev):

   -11.5438 -11.2268 -11.1349 -10.7835 -10.6641 -10.3898   0.1473   0.4581
     0.4965   0.5823   0.6618   0.7213   0.8112   0.9054   0.9387   0.9869
     1.0539   1.0793   1.1274   1.1956   1.2549   1.3123   1.3688   1.5469
     1.5561   1.5753   1.9003   1.9342   1.9556   1.9786   2.0322   2.0527
     2.0759   2.1012   2.5149   2.5942   2.7540   2.9142   3.9922   4.0600
     4.6841   4.9460   5.1644   5.2430   5.4385   5.4902   5.6410   5.7459
     5.8855   6.0374   6.1088   6.1503   6.1952   6.6100

     occupation numbers 
     1.0000   1.0000   1.0000   1.0000   1.0000   1.0000   1.0000   1.0000
     1.0000   1.0000   1.0000   1.0000   1.0000   1.0000   1.0000   1.0000
     1.0000   1.0000   1.0000   1.0000   1.0000   1.0000   1.0000   1.0000
     1.0000   1.0000   1.0000   1.0000   1.0000   1.0000   1.0000   1.0000
     1.0000   1.0000   1.0000   1.0000   1.0000   1.0000   1.0000   1.0000
     1.0000   1.0000   1.0000   1.0000   1.0000   1.0000   1.0000   1.0000
     1.0000   1.0000   1.0000   1.0000   1.0000   1.0000

          k =-0.3333 0.1925 0.0000 (  6140 PWs)   bands (ev):

   -11.2767 -10.9703 -10.8972 -10.5821 -10.3850 -10.2017   0.1152   0.4541
     0.4982   0.7112   0.7453   0.8237   0.8800   0.9604   1.0021   1.0858
     1.1010   1.2320   1.3708   1.3953   1.4675   1.5840   1.6070   1.6616
     1.6860   1.7378   1.9386   1.9655   1.9865   1.9995   2.0737   2.0966
     2.1201   2.2546   2.4673   2.6215   2.7854   3.0902   3.2430   3.4153
     3.5004   3.8161   4.1819   4.4000   4.5514   4.8310   5.1303   5.2237
     5.3087   5.4868   5.6150   5.7432   5.8798   6.0958

     occupation numbers 
     1.0000   1.0000   1.0000   1.0000   1.0000   1.0000   1.0000   1.0000
     1.0000   1.0000   1.0000   1.0000   1.0000   1.0000   1.0000   1.0000
     1.0000   1.0000   1.0000   1.0000   1.0000   1.0000   1.0000   1.0000
     1.0000   1.0000   1.0000   1.0000   1.0000   1.0000   1.0000   1.0000
     1.0000   1.0000   1.0000   1.0000   1.0000   1.0000   1.0000   1.0000
     1.0000   1.0000   1.0000   1.0000   1.0000   1.0000   1.0000   1.0000
     1.0000   1.0000   1.0000   1.0000   1.0000   1.0000

          k = 0.3333 0.1925 0.0000 (  6140 PWs)   bands (ev):

   -11.2757 -10.9478 -10.8951 -10.5737 -10.3904 -10.2025   0.1043   0.4415
     0.4565   0.7036   0.7605   0.8914   0.9708   1.0074   1.0668   1.1455
     1.2191   1.2541   1.3099   1.3885   1.4630   1.5820   1.5948   1.6115
     1.6635   1.7185   1.9373   1.9695   1.9754   1.9952   2.0601   2.1101
     2.1246   2.2732   2.4792   2.6269   2.8002   3.0744   3.2242   3.3185
     3.4846   3.8003   4.1505   4.3407   4.5076   4.8114   5.0537   5.1849
     5.2826   5.4204   5.6053   5.7174   5.8698   6.1140

     occupation numbers 
     1.0000   1.0000   1.0000   1.0000   1.0000   1.0000   1.0000   1.0000
     1.0000   1.0000   1.0000   1.0000   1.0000   1.0000   1.0000   1.0000
     1.0000   1.0000   1.0000   1.0000   1.0000   1.0000   1.0000   1.0000
     1.0000   1.0000   1.0000   1.0000   1.0000   1.0000   1.0000   1.0000
     1.0000   1.0000   1.0000   1.0000   1.0000   1.0000   1.0000   1.0000
     1.0000   1.0000   1.0000   1.0000   1.0000   1.0000   1.0000   1.0000
     1.0000   1.0000   1.0000   1.0000   1.0000   1.0000

          k = 0.0000-0.3849 0.0313 (  6121 PWs)   bands (ev):

   -11.3004 -10.9488 -10.8846 -10.5696 -10.3758 -10.2060   0.1679   0.4211
     0.4259   0.4688   0.7135   0.8501   0.9962   1.0745   1.1416   1.2022
     1.2527   1.3302   1.3853   1.4628   1.5106   1.5330   1.5767   1.6128
     1.6897   1.7272   1.9004   1.9688   1.9878   1.9961   2.0612   2.0890
     2.1199   2.2798   2.4719   2.6185   2.8187   3.0805   3.1986   3.3570
     3.4990   3.7700   4.0951   4.3011   4.6371   4.8343   5.0915   5.1441
     5.2483   5.4102   5.5501   5.6242   5.8021   6.0551

     occupation numbers 
     1.0000   1.0000   1.0000   1.0000   1.0000   1.0000   1.0000   1.0000
     1.0000   1.0000   1.0000   1.0000   1.0000   1.0000   1.0000   1.0000
     1.0000   1.0000   1.0000   1.0000   1.0000   1.0000   1.0000   1.0000
     1.0000   1.0000   1.0000   1.0000   1.0000   1.0000   1.0000   1.0000
     1.0000   1.0000   1.0000   1.0000   1.0000   1.0000   1.0000   1.0000
     1.0000   1.0000   1.0000   1.0000   1.0000   1.0000   1.0000   1.0000
     1.0000   1.0000   1.0000   1.0000   1.0000   1.0000

          k =-0.3333 0.1925 0.0313 (  6121 PWs)   bands (ev):

   -11.2767 -10.9704 -10.8972 -10.5821 -10.3849 -10.2017   0.1152   0.4539
     0.4982   0.7109   0.7454   0.8236   0.8810   0.9616   1.0031   1.0863
     1.0980   1.2331   1.3704   1.3948   1.4686   1.5813   1.6079   1.6705
     1.6857   1.7268   1.9304   1.9788   1.9909   1.9997   2.0688   2.0861
     2.1201   2.2719   2.4507   2.6218   2.8018   3.1282   3.1819   3.4278
     3.5076   3.8147   4.1499   4.4066   4.5864   4.8397   5.1251   5.1963
     5.3148   5.4903   5.6105   5.7465   5.8829   6.0955

     occupation numbers 
     1.0000   1.0000   1.0000   1.0000   1.0000   1.0000   1.0000   1.0000
     1.0000   1.0000   1.0000   1.0000   1.0000   1.0000   1.0000   1.0000
     1.0000   1.0000   1.0000   1.0000   1.0000   1.0000   1.0000   1.0000
     1.0000   1.0000   1.0000   1.0000   1.0000   1.0000   1.0000   1.0000
     1.0000   1.0000   1.0000   1.0000   1.0000   1.0000   1.0000   1.0000
     1.0000   1.0000   1.0000   1.0000   1.0000   1.0000   1.0000   1.0000
     1.0000   1.0000   1.0000   1.0000   1.0000   1.0000

          k = 0.3333 0.1925 0.0313 (  6121 PWs)   bands (ev):

   -11.2757 -10.9478 -10.8951 -10.5737 -10.3904 -10.2025   0.1043   0.4398
     0.4582   0.7022   0.7619   0.8922   0.9724   1.0064   1.0678   1.1427
     1.2244   1.2508   1.3091   1.3885   1.4638   1.5809   1.5950   1.6132
     1.6669   1.7117   1.9263   1.9722   1.9886   1.9989   2.0590   2.0967
     2.1242   2.2870   2.4662   2.6271   2.8213   3.0923   3.1746   3.3396
     3.4837   3.8042   4.1157   4.3313   4.5668   4.8164   5.0581   5.1390
     5.2875   5.4293   5.6026   5.7205   5.8720   6.1138

     occupation numbers 
     1.0000   1.0000   1.0000   1.0000   1.0000   1.0000   1.0000   1.0000
     1.0000   1.0000   1.0000   1.0000   1.0000   1.0000   1.0000   1.0000
     1.0000   1.0000   1.0000   1.0000   1.0000   1.0000   1.0000   1.0000
     1.0000   1.0000   1.0000   1.0000   1.0000   1.0000   1.0000   1.0000
     1.0000   1.0000   1.0000   1.0000   1.0000   1.0000   1.0000   1.0000
     1.0000   1.0000   1.0000   1.0000   1.0000   1.0000   1.0000   1.0000
     1.0000   1.0000   1.0000   1.0000   1.0000   1.0000

          k =-0.3333-0.1925 0.0313 (  6121 PWs)   bands (ev):

   -11.2757 -10.9478 -10.8951 -10.5737 -10.3904 -10.2025   0.1043   0.4419
     0.4558   0.7050   0.7597   0.8910   0.9744   1.0056   1.0670   1.1457
     1.2156   1.2561   1.3102   1.3890   1.4632   1.5824   1.5942   1.6109
     1.6613   1.7238   1.9257   1.9735   1.9787   1.9956   2.0611   2.1146
     2.1238   2.2551   2.4920   2.6270   2.8200   3.0474   3.2663   3.3074
     3.4631   3.7867   4.1401   4.3330   4.5699   4.8087   5.0376   5.1524
     5.2843   5.4413   5.6004   5.7207   5.8698   6.1138

     occupation numbers 
     1.0000   1.0000   1.0000   1.0000   1.0000   1.0000   1.0000   1.0000
     1.0000   1.0000   1.0000   1.0000   1.0000   1.0000   1.0000   1.0000
     1.0000   1.0000   1.0000   1.0000   1.0000   1.0000   1.0000   1.0000
     1.0000   1.0000   1.0000   1.0000   1.0000   1.0000   1.0000   1.0000
     1.0000   1.0000   1.0000   1.0000   1.0000   1.0000   1.0000   1.0000
     1.0000   1.0000   1.0000   1.0000   1.0000   1.0000   1.0000   1.0000
     1.0000   1.0000   1.0000   1.0000   1.0000   1.0000

          k = 0.3333-0.1925 0.0313 (  6121 PWs)   bands (ev):

   -11.2767 -10.9704 -10.8972 -10.5821 -10.3849 -10.2017   0.1152   0.4536
     0.4987   0.7109   0.7456   0.8238   0.8801   0.9617   1.0013   1.0858
     1.1013   1.2318   1.3707   1.3958   1.4687   1.5834   1.6058   1.6601
     1.6862   1.7433   1.9240   1.9756   1.9869   1.9998   2.0752   2.0996
     2.1191   2.2341   2.4805   2.6215   2.8156   3.0479   3.2874   3.4010
     3.4877   3.8009   4.1816   4.3680   4.6367   4.8256   5.1179   5.1770
     5.3130   5.5098   5.6092   5.7467   5.8807   6.0956

     occupation numbers 
     1.0000   1.0000   1.0000   1.0000   1.0000   1.0000   1.0000   1.0000
     1.0000   1.0000   1.0000   1.0000   1.0000   1.0000   1.0000   1.0000
     1.0000   1.0000   1.0000   1.0000   1.0000   1.0000   1.0000   1.0000
     1.0000   1.0000   1.0000   1.0000   1.0000   1.0000   1.0000   1.0000
     1.0000   1.0000   1.0000   1.0000   1.0000   1.0000   1.0000   1.0000
     1.0000   1.0000   1.0000   1.0000   1.0000   1.0000   1.0000   1.0000
     1.0000   1.0000   1.0000   1.0000   1.0000   1.0000

          k = 0.0000-0.3849 0.0626 (  6112 PWs)   bands (ev):

   -11.3004 -10.9488 -10.8845 -10.5696 -10.3758 -10.2060   0.1679   0.4215
     0.4258   0.4680   0.7119   0.8526   1.0015   1.0734   1.1380   1.2024
     1.2532   1.3307   1.3844   1.4628   1.5108   1.5350   1.5749   1.6129
     1.6895   1.7273   1.8816   1.9759   1.9924   2.0095   2.0608   2.0762
     2.1199   2.2724   2.4764   2.6186   2.8745   3.0213   3.2238   3.3773
     3.4671   3.7644   4.0605   4.2916   4.7736   4.8366   5.0169   5.0918
     5.2665   5.4319   5.5273   5.6402   5.8056   6.0546

     occupation numbers 
     1.0000   1.0000   1.0000   1.0000   1.0000   1.0000   1.0000   1.0000
     1.0000   1.0000   1.0000   1.0000   1.0000   1.0000   1.0000   1.0000
     1.0000   1.0000   1.0000   1.0000   1.0000   1.0000   1.0000   1.0000
     1.0000   1.0000   1.0000   1.0000   1.0000   1.0000   1.0000   1.0000
     1.0000   1.0000   1.0000   1.0000   1.0000   1.0000   1.0000   1.0000
     1.0000   1.0000   1.0000   1.0000   1.0000   1.0000   1.0000   1.0000
     1.0000   1.0000   1.0000   1.0000   1.0000   1.0000

          k =-0.3333 0.1925 0.0626 (  6112 PWs)   bands (ev):

   -11.2767 -10.9704 -10.8971 -10.5822 -10.3849 -10.2017   0.1152   0.4531
     0.4986   0.7103   0.7457   0.8236   0.8820   0.9641   1.0034   1.0873
     1.0945   1.2339   1.3698   1.3948   1.4709   1.5782   1.6077   1.6790
     1.6858   1.7193   1.9170   1.9833   1.9988   2.0118   2.0572   2.0804
     2.1197   2.2663   2.4514   2.6220   2.8502   3.0909   3.1884   3.4307
     3.5047   3.7952   4.1271   4.3862   4.6971   4.8584   5.0793   5.1354
     5.3268   5.5108   5.6020   5.7529   5.8870   6.0949

     occupation numbers 
     1.0000   1.0000   1.0000   1.0000   1.0000   1.0000   1.0000   1.0000
     1.0000   1.0000   1.0000   1.0000   1.0000   1.0000   1.0000   1.0000
     1.0000   1.0000   1.0000   1.0000   1.0000   1.0000   1.0000   1.0000
     1.0000   1.0000   1.0000   1.0000   1.0000   1.0000   1.0000   1.0000
     1.0000   1.0000   1.0000   1.0000   1.0000   1.0000   1.0000   1.0000
     1.0000   1.0000   1.0000   1.0000   1.0000   1.0000   1.0000   1.0000
     1.0000   1.0000   1.0000   1.0000   1.0000   1.0000

          k = 0.3333 0.1925 0.0626 (  6112 PWs)   bands (ev):

   -11.2757 -10.9479 -10.8950 -10.5738 -10.3904 -10.2025   0.1043   0.4386
     0.4589   0.7019   0.7624   0.8925   0.9782   1.0030   1.0691   1.1399
     1.2259   1.2497   1.3086   1.3888   1.4647   1.5801   1.5946   1.6142
     1.6673   1.7105   1.9126   1.9728   1.9928   2.0156   2.0587   2.0832
     2.1237   2.2813   2.4686   2.6272   2.8672   3.0649   3.1713   3.3584
     3.4609   3.7919   4.0838   4.3237   4.6795   4.8270   5.0310   5.0626
     5.2947   5.4514   5.5959   5.7264   5.8742   6.1135

     occupation numbers 
     1.0000   1.0000   1.0000   1.0000   1.0000   1.0000   1.0000   1.0000
     1.0000   1.0000   1.0000   1.0000   1.0000   1.0000   1.0000   1.0000
     1.0000   1.0000   1.0000   1.0000   1.0000   1.0000   1.0000   1.0000
     1.0000   1.0000   1.0000   1.0000   1.0000   1.0000   1.0000   1.0000
     1.0000   1.0000   1.0000   1.0000   1.0000   1.0000   1.0000   1.0000
     1.0000   1.0000   1.0000   1.0000   1.0000   1.0000   1.0000   1.0000
     1.0000   1.0000   1.0000   1.0000   1.0000   1.0000

          k =-0.3333-0.1925 0.0626 (  6112 PWs)   bands (ev):

   -11.2757 -10.9479 -10.8949 -10.5738 -10.3904 -10.2025   0.1043   0.4404
     0.4568   0.7047   0.7602   0.8913   0.9807   1.0017   1.0683   1.1429
     1.2167   1.2555   1.3097   1.3893   1.4641   1.5815   1.5938   1.6120
     1.6613   1.7230   1.9105   1.9732   1.9915   2.0025   2.0621   2.1028
     2.1231   2.2522   2.4917   2.6270   2.8712   3.0186   3.2481   3.3445
     3.4330   3.7756   4.1064   4.3242   4.6974   4.8079   4.9925   5.0937
     5.2929   5.4615   5.5936   5.7265   5.8720   6.1135

     occupation numbers 
     1.0000   1.0000   1.0000   1.0000   1.0000   1.0000   1.0000   1.0000
     1.0000   1.0000   1.0000   1.0000   1.0000   1.0000   1.0000   1.0000
     1.0000   1.0000   1.0000   1.0000   1.0000   1.0000   1.0000   1.0000
     1.0000   1.0000   1.0000   1.0000   1.0000   1.0000   1.0000   1.0000
     1.0000   1.0000   1.0000   1.0000   1.0000   1.0000   1.0000   1.0000
     1.0000   1.0000   1.0000   1.0000   1.0000   1.0000   1.0000   1.0000
     1.0000   1.0000   1.0000   1.0000   1.0000   1.0000

          k = 0.3333-0.1925 0.0626 (  6112 PWs)   bands (ev):

   -11.2767 -10.9704 -10.8971 -10.5822 -10.3849 -10.2017   0.1152   0.4529
     0.4991   0.7103   0.7459   0.8237   0.8812   0.9643   1.0014   1.0863
     1.0983   1.2327   1.3701   1.3957   1.4709   1.5799   1.6059   1.6656
     1.6864   1.7388   1.9106   1.9834   1.9958   2.0029   2.0747   2.0861
     2.1187   2.2320   2.4780   2.6217   2.8792   3.0060   3.2843   3.4045
     3.4832   3.7832   4.1537   4.3621   4.7618   4.8270   5.0485   5.1359
     5.3248   5.5269   5.6007   5.7530   5.8849   6.0950

     occupation numbers 
     1.0000   1.0000   1.0000   1.0000   1.0000   1.0000   1.0000   1.0000
     1.0000   1.0000   1.0000   1.0000   1.0000   1.0000   1.0000   1.0000
     1.0000   1.0000   1.0000   1.0000   1.0000   1.0000   1.0000   1.0000
     1.0000   1.0000   1.0000   1.0000   1.0000   1.0000   1.0000   1.0000
     1.0000   1.0000   1.0000   1.0000   1.0000   1.0000   1.0000   1.0000
     1.0000   1.0000   1.0000   1.0000   1.0000   1.0000   1.0000   1.0000
     1.0000   1.0000   1.0000   1.0000   1.0000   1.0000

          k =-0.3333 0.1925-0.0939 (  6116 PWs)   bands (ev):

   -11.2767 -10.9705 -10.8971 -10.5822 -10.3849 -10.2017   0.1152   0.4527
     0.4990   0.7100   0.7459   0.8236   0.8821   0.9655   1.0025   1.0872
     1.0947   1.2337   1.3697   1.3952   1.4720   1.5773   1.6067   1.6746
     1.6866   1.7267   1.9088   1.9838   1.9987   2.0168   2.0598   2.0790
     2.1192   2.2471   2.4651   2.6218   2.9010   3.0149   3.2392   3.4217
     3.4931   3.7791   4.1307   4.3703   4.7784   4.8952   4.9772   5.1275
     5.3320   5.5251   5.5981   5.7559   5.8880   6.0946

     occupation numbers 
     1.0000   1.0000   1.0000   1.0000   1.0000   1.0000   1.0000   1.0000
     1.0000   1.0000   1.0000   1.0000   1.0000   1.0000   1.0000   1.0000
     1.0000   1.0000   1.0000   1.0000   1.0000   1.0000   1.0000   1.0000
     1.0000   1.0000   1.0000   1.0000   1.0000   1.0000   1.0000   1.0000
     1.0000   1.0000   1.0000   1.0000   1.0000   1.0000   1.0000   1.0000
     1.0000   1.0000   1.0000   1.0000   1.0000   1.0000   1.0000   1.0000
     1.0000   1.0000   1.0000   1.0000   1.0000   1.0000

          k = 0.3333 0.1925-0.0939 (  6116 PWs)   bands (ev):

   -11.2757 -10.9479 -10.8949 -10.5738 -10.3904 -10.2025   0.1043   0.4388
     0.4583   0.7031   0.7615   0.8920   0.9834   0.9995   1.0694   1.1398
     1.2215   1.2526   1.3088   1.3891   1.4648   1.5803   1.5940   1.6136
     1.6639   1.7167   1.9058   1.9730   1.9930   2.0172   2.0620   2.0843
     2.1234   2.2646   2.4811   2.6271   2.9022   3.0153   3.2079   3.3692
     3.4297   3.7771   4.0831   4.3214   4.7585   4.8395   4.9384   5.0674
     5.2979   5.4642   5.5919   5.7292   5.8742   6.1134

     occupation numbers 
     1.0000   1.0000   1.0000   1.0000   1.0000   1.0000   1.0000   1.0000
     1.0000   1.0000   1.0000   1.0000   1.0000   1.0000   1.0000   1.0000
     1.0000   1.0000   1.0000   1.0000   1.0000   1.0000   1.0000   1.0000
     1.0000   1.0000   1.0000   1.0000   1.0000   1.0000   1.0000   1.0000
     1.0000   1.0000   1.0000   1.0000   1.0000   1.0000   1.0000   1.0000
     1.0000   1.0000   1.0000   1.0000   1.0000   1.0000   1.0000   1.0000
     1.0000   1.0000   1.0000   1.0000   1.0000   1.0000

          k = 0.5000-0.2887 0.0000 (  6134 PWs)   bands (ev):

   -11.1369 -10.8342 -10.7711 -10.4792 -10.2251 -10.1180   0.1737   0.4692
     0.5168   0.7101   0.7858   0.8838   0.9447   1.0383   1.0705   1.1784
     1.3105   1.3723   1.4588   1.5223   1.6480   1.6553   1.7519   1.7994
     1.8131   1.9207   2.0371   2.0438   2.0548   2.1052   2.1180   2.1295
     2.1824   2.1955   2.4638   2.5505   2.5898   2.6780   2.6798   2.8362
     2.9149   3.1297   3.8364   4.2874   4.5211   4.5958   4.8272   4.9818
     5.0701   5.3238   5.3329   5.5276   5.6439   5.8366

     occupation numbers 
     1.0000   1.0000   1.0000   1.0000   1.0000   1.0000   1.0000   1.0000
     1.0000   1.0000   1.0000   1.0000   1.0000   1.0000   1.0000   1.0000
     1.0000   1.0000   1.0000   1.0000   1.0000   1.0000   1.0000   1.0000
     1.0000   1.0000   1.0000   1.0000   1.0000   1.0000   1.0000   1.0000
     1.0000   1.0000   1.0000   1.0000   1.0000   1.0000   1.0000   1.0000
     1.0000   1.0000   1.0000   1.0000   1.0000   1.0000   1.0000   1.0000
     1.0000   1.0000   1.0000   1.0000   1.0000   1.0000

          k =-0.5000-0.2887 0.0000 (  6134 PWs)   bands (ev):

   -11.1357 -10.8011 -10.7694 -10.4683 -10.2346 -10.1174   0.1679   0.4710
     0.5124   0.7199   0.8232   0.9558   1.0520   1.0872   1.1954   1.2946
     1.3152   1.3788   1.4504   1.5177   1.6487   1.6567   1.7157   1.7447
     1.7705   1.9097   2.0347   2.0419   2.0465   2.0816   2.1048   2.1269
     2.1858   2.1909   2.4788   2.5158   2.5560   2.6447   2.6783   2.7285
     2.9386   3.1569   3.8224   4.2657   4.4788   4.5531   4.6982   4.9143
     5.0286   5.1851   5.3215   5.4831   5.6449   5.8633

     occupation numbers 
     1.0000   1.0000   1.0000   1.0000   1.0000   1.0000   1.0000   1.0000
     1.0000   1.0000   1.0000   1.0000   1.0000   1.0000   1.0000   1.0000
     1.0000   1.0000   1.0000   1.0000   1.0000   1.0000   1.0000   1.0000
     1.0000   1.0000   1.0000   1.0000   1.0000   1.0000   1.0000   1.0000
     1.0000   1.0000   1.0000   1.0000   1.0000   1.0000   1.0000   1.0000
     1.0000   1.0000   1.0000   1.0000   1.0000   1.0000   1.0000   1.0000
     1.0000   1.0000   1.0000   1.0000   1.0000   1.0000

          k = 0.5000-0.2887 0.0313 (  6138 PWs)   bands (ev):

   -11.1369 -10.8342 -10.7711 -10.4792 -10.2251 -10.1180   0.1736   0.4683
     0.5180   0.7100   0.7858   0.8838   0.9443   1.0392   1.0700   1.1785
     1.3103   1.3722   1.4587   1.5225   1.6486   1.6560   1.7504   1.7977
     1.8142   1.9208   2.0378   2.0440   2.0549   2.1023   2.1182   2.1319
     2.1823   2.1950   2.4642   2.5496   2.5880   2.6779   2.6826   2.8366
     2.9136   3.1298   3.8562   4.2402   4.4919   4.6641   4.8237   4.9877
     5.0712   5.2994   5.3403   5.5281   5.6464   5.8358

     occupation numbers 
     1.0000   1.0000   1.0000   1.0000   1.0000   1.0000   1.0000   1.0000
     1.0000   1.0000   1.0000   1.0000   1.0000   1.0000   1.0000   1.0000
     1.0000   1.0000   1.0000   1.0000   1.0000   1.0000   1.0000   1.0000
     1.0000   1.0000   1.0000   1.0000   1.0000   1.0000   1.0000   1.0000
     1.0000   1.0000   1.0000   1.0000   1.0000   1.0000   1.0000   1.0000
     1.0000   1.0000   1.0000   1.0000   1.0000   1.0000   1.0000   1.0000
     1.0000   1.0000   1.0000   1.0000   1.0000   1.0000

          k =-0.5000-0.2887 0.0313 (  6138 PWs)   bands (ev):

   -11.1357 -10.8011 -10.7694 -10.4683 -10.2346 -10.1174   0.1678   0.4700
     0.5134   0.7205   0.8229   0.9552   1.0538   1.0857   1.1959   1.2936
     1.3158   1.3785   1.4507   1.5179   1.6471   1.6572   1.7158   1.7444
     1.7713   1.9097   2.0347   2.0419   2.0461   2.0811   2.1047   2.1280
     2.1858   2.1906   2.4792   2.5142   2.5566   2.6460   2.6783   2.7280
     2.9378   3.1571   3.8393   4.2254   4.4605   4.5939   4.7061   4.9182
     5.0248   5.1828   5.3169   5.4858   5.6426   5.8630

     occupation numbers 
     1.0000   1.0000   1.0000   1.0000   1.0000   1.0000   1.0000   1.0000
     1.0000   1.0000   1.0000   1.0000   1.0000   1.0000   1.0000   1.0000
     1.0000   1.0000   1.0000   1.0000   1.0000   1.0000   1.0000   1.0000
     1.0000   1.0000   1.0000   1.0000   1.0000   1.0000   1.0000   1.0000
     1.0000   1.0000   1.0000   1.0000   1.0000   1.0000   1.0000   1.0000
     1.0000   1.0000   1.0000   1.0000   1.0000   1.0000   1.0000   1.0000
     1.0000   1.0000   1.0000   1.0000   1.0000   1.0000

          k = 0.5000-0.2887 0.0626 (  6148 PWs)   bands (ev):

   -11.1369 -10.8342 -10.7711 -10.4792 -10.2251 -10.1180   0.1736   0.4665
     0.5201   0.7100   0.7859   0.8839   0.9435   1.0410   1.0687   1.1785
     1.3096   1.3721   1.4587   1.5229   1.6494   1.6576   1.7473   1.7951
     1.8159   1.9211   2.0393   2.0448   2.0549   2.0973   2.1184   2.1356
     2.1822   2.1940   2.4649   2.5476   2.5850   2.6778   2.6877   2.8376
     2.9112   3.1300   3.9110   4.1403   4.4766   4.7462   4.8222   4.9998
     5.0709   5.2671   5.3361   5.5297   5.6512   5.8343

     occupation numbers 
     1.0000   1.0000   1.0000   1.0000   1.0000   1.0000   1.0000   1.0000
     1.0000   1.0000   1.0000   1.0000   1.0000   1.0000   1.0000   1.0000
     1.0000   1.0000   1.0000   1.0000   1.0000   1.0000   1.0000   1.0000
     1.0000   1.0000   1.0000   1.0000   1.0000   1.0000   1.0000   1.0000
     1.0000   1.0000   1.0000   1.0000   1.0000   1.0000   1.0000   1.0000
     1.0000   1.0000   1.0000   1.0000   1.0000   1.0000   1.0000   1.0000
     1.0000   1.0000   1.0000   1.0000   1.0000   1.0000

          k =-0.5000-0.2887 0.0626 (  6148 PWs)   bands (ev):

   -11.1357 -10.8011 -10.7694 -10.4683 -10.2346 -10.1174   0.1678   0.4680
     0.5154   0.7216   0.8225   0.9540   1.0579   1.0822   1.1970   1.2917
     1.3168   1.3778   1.4513   1.5181   1.6443   1.6578   1.7162   1.7439
     1.7728   1.9096   2.0347   2.0420   2.0454   2.0800   2.1046   2.1299
     2.1857   2.1898   2.4799   2.5113   2.5577   2.6485   2.6782   2.7270
     2.9363   3.1574   3.8830   4.1431   4.4501   4.6272   4.7392   4.9245
     5.0158   5.1777   5.3081   5.4908   5.6382   5.8623

     occupation numbers 
     1.0000   1.0000   1.0000   1.0000   1.0000   1.0000   1.0000   1.0000
     1.0000   1.0000   1.0000   1.0000   1.0000   1.0000   1.0000   1.0000
     1.0000   1.0000   1.0000   1.0000   1.0000   1.0000   1.0000   1.0000
     1.0000   1.0000   1.0000   1.0000   1.0000   1.0000   1.0000   1.0000
     1.0000   1.0000   1.0000   1.0000   1.0000   1.0000   1.0000   1.0000
     1.0000   1.0000   1.0000   1.0000   1.0000   1.0000   1.0000   1.0000
     1.0000   1.0000   1.0000   1.0000   1.0000   1.0000

          k = 0.5000-0.2887-0.0939 (  6140 PWs)   bands (ev):

   -11.1369 -10.8342 -10.7711 -10.4792 -10.2251 -10.1180   0.1735   0.4656
     0.5212   0.7100   0.7860   0.8840   0.9431   1.0421   1.0680   1.1786
     1.3094   1.3720   1.4587   1.5231   1.6498   1.6586   1.7456   1.7941
     1.8166   1.9212   2.0399   2.0454   2.0550   2.0951   2.1185   2.1373
     2.1822   2.1935   2.4653   2.5466   2.5837   2.6778   2.6901   2.8381
     2.9099   3.1302   3.9631   4.0693   4.4736   4.7727   4.8305   5.0071
     5.0679   5.2523   5.3315   5.5308   5.6534   5.8336

     occupation numbers 
     1.0000   1.0000   1.0000   1.0000   1.0000   1.0000   1.0000   1.0000
     1.0000   1.0000   1.0000   1.0000   1.0000   1.0000   1.0000   1.0000
     1.0000   1.0000   1.0000   1.0000   1.0000   1.0000   1.0000   1.0000
     1.0000   1.0000   1.0000   1.0000   1.0000   1.0000   1.0000   1.0000
     1.0000   1.0000   1.0000   1.0000   1.0000   1.0000   1.0000   1.0000
     1.0000   1.0000   1.0000   1.0000   1.0000   1.0000   1.0000   1.0000
     1.0000   1.0000   1.0000   1.0000   1.0000   1.0000

          k =-0.5000-0.2887-0.0939 (  6140 PWs)   bands (ev):

   -11.1357 -10.8011 -10.7694 -10.4683 -10.2346 -10.1174   0.1677   0.4672
     0.5163   0.7222   0.8222   0.9534   1.0604   1.0800   1.1975   1.2908
     1.3173   1.3775   1.4516   1.5183   1.6431   1.6581   1.7164   1.7438
     1.7736   1.9097   2.0348   2.0421   2.0451   2.0795   2.1046   2.1309
     2.1857   2.1894   2.4803   2.5099   2.5583   2.6498   2.6782   2.7264
     2.9356   3.1576   3.9158   4.0940   4.4482   4.6328   4.7629   4.9263
     5.0105   5.1750   5.3041   5.4931   5.6359   5.8619

     occupation numbers 
     1.0000   1.0000   1.0000   1.0000   1.0000   1.0000   1.0000   1.0000
     1.0000   1.0000   1.0000   1.0000   1.0000   1.0000   1.0000   1.0000
     1.0000   1.0000   1.0000   1.0000   1.0000   1.0000   1.0000   1.0000
     1.0000   1.0000   1.0000   1.0000   1.0000   1.0000   1.0000   1.0000
     1.0000   1.0000   1.0000   1.0000   1.0000   1.0000   1.0000   1.0000
     1.0000   1.0000   1.0000   1.0000   1.0000   1.0000   1.0000   1.0000
     1.0000   1.0000   1.0000   1.0000   1.0000   1.0000

          k =-0.1667 0.2887 0.0000 (  6117 PWs)   bands (ev):

   -11.3573 -11.0309 -10.9534 -10.6287 -10.4543 -10.2490   0.2241   0.3975
     0.5517   0.5729   0.6974   0.7875   0.8484   0.9981   1.0324   1.0832
     1.1473   1.2026   1.2642   1.3165   1.3800   1.5068   1.5687   1.5978
     1.6358   1.6942   1.9048   1.9528   1.9774   2.0041   2.0516   2.0770
     2.1018   2.2479   2.4759   2.6022   2.7688   3.3793   3.4755   3.9097
     4.0672   4.1303   4.3476   4.4724   4.6379   4.7749   5.0607   5.1973
     5.3332   5.4994   5.5559   5.6289   5.9712   6.0612

     occupation numbers 
     1.0000   1.0000   1.0000   1.0000   1.0000   1.0000   1.0000   1.0000
     1.0000   1.0000   1.0000   1.0000   1.0000   1.0000   1.0000   1.0000
     1.0000   1.0000   1.0000   1.0000   1.0000   1.0000   1.0000   1.0000
     1.0000   1.0000   1.0000   1.0000   1.0000   1.0000   1.0000   1.0000
     1.0000   1.0000   1.0000   1.0000   1.0000   1.0000   1.0000   1.0000
     1.0000   1.0000   1.0000   1.0000   1.0000   1.0000   1.0000   1.0000
     1.0000   1.0000   1.0000   1.0000   1.0000   1.0000

          k = 0.3333-0.0000 0.0000 (  6117 PWs)   bands (ev):

   -11.3415 -11.0305 -10.9598 -10.6314 -10.4626 -10.2479   0.1514   0.5028
     0.5446   0.6849   0.7618   0.8134   0.9147   0.9511   0.9821   1.0535
     1.1385   1.1775   1.2274   1.2887   1.3237   1.4680   1.5075   1.5731
     1.6035   1.6888   1.9209   1.9546   1.9823   2.0062   2.0610   2.0753
     2.1109   2.2400   2.4630   2.6121   2.7905   3.3613   3.4092   3.7910
     4.0851   4.1934   4.3622   4.5529   4.7124   4.8769   5.0394   5.1925
     5.3747   5.4847   5.5929   5.6193   5.9398   6.0745

     occupation numbers 
     1.0000   1.0000   1.0000   1.0000   1.0000   1.0000   1.0000   1.0000
     1.0000   1.0000   1.0000   1.0000   1.0000   1.0000   1.0000   1.0000
     1.0000   1.0000   1.0000   1.0000   1.0000   1.0000   1.0000   1.0000
     1.0000   1.0000   1.0000   1.0000   1.0000   1.0000   1.0000   1.0000
     1.0000   1.0000   1.0000   1.0000   1.0000   1.0000   1.0000   1.0000
     1.0000   1.0000   1.0000   1.0000   1.0000   1.0000   1.0000   1.0000
     1.0000   1.0000   1.0000   1.0000   1.0000   1.0000

          k =-0.1667-0.2887 0.0313 (  6114 PWs)   bands (ev):

   -11.3566 -11.0167 -10.9518 -10.6232 -10.4576 -10.2497   0.2093   0.4013
     0.4806   0.5812   0.7327   0.8213   0.9095   1.0176   1.0640   1.1209
     1.2111   1.2522   1.2981   1.3268   1.4107   1.4940   1.5382   1.5711
     1.6278   1.6850   1.8851   1.9455   1.9733   1.9978   2.0454   2.0752
     2.0950   2.2420   2.4896   2.6050   2.8006   3.2627   3.5254   3.8160
     3.9828   4.0645   4.2822   4.4072   4.6606   4.7801   5.0395   5.2360
     5.2905   5.4671   5.5876   5.6728   5.9740   6.0477

     occupation numbers 
     1.0000   1.0000   1.0000   1.0000   1.0000   1.0000   1.0000   1.0000
     1.0000   1.0000   1.0000   1.0000   1.0000   1.0000   1.0000   1.0000
     1.0000   1.0000   1.0000   1.0000   1.0000   1.0000   1.0000   1.0000
     1.0000   1.0000   1.0000   1.0000   1.0000   1.0000   1.0000   1.0000
     1.0000   1.0000   1.0000   1.0000   1.0000   1.0000   1.0000   1.0000
     1.0000   1.0000   1.0000   1.0000   1.0000   1.0000   1.0000   1.0000
     1.0000   1.0000   1.0000   1.0000   1.0000   1.0000

          k =-0.1667 0.2887-0.0313 (  6114 PWs)   bands (ev):

   -11.3573 -11.0310 -10.9533 -10.6287 -10.4543 -10.2490   0.2241   0.3972
     0.5514   0.5735   0.6975   0.7863   0.8488   1.0022   1.0300   1.0832
     1.1495   1.2009   1.2624   1.3174   1.3806   1.5098   1.5669   1.5951
     1.6353   1.6946   1.8987   1.9526   1.9780   2.0111   2.0522   2.0778
     2.0988   2.2360   2.4840   2.6018   2.8058   3.2698   3.5625   3.8955
     4.0739   4.1230   4.3598   4.4329   4.6741   4.8058   5.0518   5.1941
     5.2844   5.4896   5.5781   5.6457   5.9694   6.0609

     occupation numbers 
     1.0000   1.0000   1.0000   1.0000   1.0000   1.0000   1.0000   1.0000
     1.0000   1.0000   1.0000   1.0000   1.0000   1.0000   1.0000   1.0000
     1.0000   1.0000   1.0000   1.0000   1.0000   1.0000   1.0000   1.0000
     1.0000   1.0000   1.0000   1.0000   1.0000   1.0000   1.0000   1.0000
     1.0000   1.0000   1.0000   1.0000   1.0000   1.0000   1.0000   1.0000
     1.0000   1.0000   1.0000   1.0000   1.0000   1.0000   1.0000   1.0000
     1.0000   1.0000   1.0000   1.0000   1.0000   1.0000

          k = 0.1667-0.2887-0.0313 (  6114 PWs)   bands (ev):

   -11.3573 -11.0310 -10.9533 -10.6287 -10.4543 -10.2490   0.2241   0.3974
     0.5521   0.5720   0.6970   0.7877   0.8502   0.9991   1.0317   1.0828
     1.1471   1.2045   1.2616   1.3160   1.3809   1.5042   1.5701   1.6010
     1.6343   1.6921   1.9033   1.9523   1.9771   2.0105   2.0507   2.0739
     2.0992   2.2482   2.4753   2.6019   2.7902   3.3038   3.5486   3.8834
     4.0732   4.1403   4.3293   4.4628   4.6743   4.7751   5.0645   5.1883
     5.3256   5.4727   5.5791   5.6311   5.9721   6.0617

     occupation numbers 
     1.0000   1.0000   1.0000   1.0000   1.0000   1.0000   1.0000   1.0000
     1.0000   1.0000   1.0000   1.0000   1.0000   1.0000   1.0000   1.0000
     1.0000   1.0000   1.0000   1.0000   1.0000   1.0000   1.0000   1.0000
     1.0000   1.0000   1.0000   1.0000   1.0000   1.0000   1.0000   1.0000
     1.0000   1.0000   1.0000   1.0000   1.0000   1.0000   1.0000   1.0000
     1.0000   1.0000   1.0000   1.0000   1.0000   1.0000   1.0000   1.0000
     1.0000   1.0000   1.0000   1.0000   1.0000   1.0000

          k = 0.3333-0.0000 0.0313 (  6114 PWs)   bands (ev):

   -11.3415 -11.0306 -10.9597 -10.6314 -10.4626 -10.2479   0.1514   0.5016
     0.5460   0.6845   0.7621   0.8132   0.9136   0.9524   0.9854   1.0488
     1.1442   1.1754   1.2273   1.2866   1.3245   1.4714   1.5032   1.5732
     1.6042   1.6873   1.9160   1.9545   1.9833   2.0125   2.0607   2.0755
     2.1058   2.2356   2.4682   2.6112   2.8221   3.2601   3.4788   3.7987
     4.0804   4.1830   4.3747   4.5355   4.7429   4.8820   5.0398   5.1951
     5.3284   5.4802   5.6096   5.6328   5.9388   6.0743

     occupation numbers 
     1.0000   1.0000   1.0000   1.0000   1.0000   1.0000   1.0000   1.0000
     1.0000   1.0000   1.0000   1.0000   1.0000   1.0000   1.0000   1.0000
     1.0000   1.0000   1.0000   1.0000   1.0000   1.0000   1.0000   1.0000
     1.0000   1.0000   1.0000   1.0000   1.0000   1.0000   1.0000   1.0000
     1.0000   1.0000   1.0000   1.0000   1.0000   1.0000   1.0000   1.0000
     1.0000   1.0000   1.0000   1.0000   1.0000   1.0000   1.0000   1.0000
     1.0000   1.0000   1.0000   1.0000   1.0000   1.0000

          k =-0.3333 0.0000 0.0313 (  6114 PWs)   bands (ev):

   -11.3415 -11.0306 -10.9597 -10.6314 -10.4626 -10.2479   0.1514   0.5023
     0.5450   0.6845   0.7622   0.8139   0.9153   0.9498   0.9830   1.0547
     1.1371   1.1792   1.2266   1.2887   1.3232   1.4683   1.5071   1.5728
     1.6029   1.6883   1.9174   1.9538   1.9822   2.0144   2.0606   2.0754
     2.1049   2.2369   2.4680   2.6109   2.8137   3.2847   3.4589   3.8004
     4.0811   4.1916   4.3650   4.5317   4.7425   4.8889   5.0405   5.1909
     5.3271   5.4925   5.6004   5.6327   5.9390   6.0743

     occupation numbers 
     1.0000   1.0000   1.0000   1.0000   1.0000   1.0000   1.0000   1.0000
     1.0000   1.0000   1.0000   1.0000   1.0000   1.0000   1.0000   1.0000
     1.0000   1.0000   1.0000   1.0000   1.0000   1.0000   1.0000   1.0000
     1.0000   1.0000   1.0000   1.0000   1.0000   1.0000   1.0000   1.0000
     1.0000   1.0000   1.0000   1.0000   1.0000   1.0000   1.0000   1.0000
     1.0000   1.0000   1.0000   1.0000   1.0000   1.0000   1.0000   1.0000
     1.0000   1.0000   1.0000   1.0000   1.0000   1.0000

          k =-0.1667-0.2887 0.0626 (  6106 PWs)   bands (ev):

   -11.3566 -11.0169 -10.9516 -10.6232 -10.4576 -10.2498   0.2093   0.4009
     0.4807   0.5812   0.7319   0.8209   0.9134   1.0187   1.0632   1.1223
     1.2115   1.2495   1.2941   1.3302   1.4116   1.4966   1.5343   1.5709
     1.6288   1.6821   1.8768   1.9452   1.9732   2.0149   2.0460   2.0678
     2.0886   2.2338   2.4966   2.6040   2.8812   3.1323   3.6155   3.7820
     3.9891   4.0359   4.2847   4.4089   4.6907   4.8309   5.0139   5.1864
     5.2929   5.4405   5.6204   5.6808   5.9730   6.0477

     occupation numbers 
     1.0000   1.0000   1.0000   1.0000   1.0000   1.0000   1.0000   1.0000
     1.0000   1.0000   1.0000   1.0000   1.0000   1.0000   1.0000   1.0000
     1.0000   1.0000   1.0000   1.0000   1.0000   1.0000   1.0000   1.0000
     1.0000   1.0000   1.0000   1.0000   1.0000   1.0000   1.0000   1.0000
     1.0000   1.0000   1.0000   1.0000   1.0000   1.0000   1.0000   1.0000
     1.0000   1.0000   1.0000   1.0000   1.0000   1.0000   1.0000   1.0000
     1.0000   1.0000   1.0000   1.0000   1.0000   1.0000

          k =-0.1667 0.2887-0.0626 (  6106 PWs)   bands (ev):

   -11.3573 -11.0311 -10.9532 -10.6288 -10.4542 -10.2491   0.2240   0.3970
     0.5515   0.5733   0.6972   0.7855   0.8510   1.0091   1.0248   1.0828
     1.1517   1.2009   1.2583   1.3176   1.3823   1.5099   1.5666   1.5952
     1.6335   1.6931   1.8920   1.9523   1.9779   2.0251   2.0525   2.0732
     2.0929   2.2266   2.4895   2.6012   2.8895   3.1366   3.6555   3.8458
     4.0922   4.1180   4.3503   4.4081   4.7062   4.8831   5.0345   5.1450
     5.2593   5.4661   5.6016   5.6659   5.9685   6.0609

     occupation numbers 
     1.0000   1.0000   1.0000   1.0000   1.0000   1.0000   1.0000   1.0000
     1.0000   1.0000   1.0000   1.0000   1.0000   1.0000   1.0000   1.0000
     1.0000   1.0000   1.0000   1.0000   1.0000   1.0000   1.0000   1.0000
     1.0000   1.0000   1.0000   1.0000   1.0000   1.0000   1.0000   1.0000
     1.0000   1.0000   1.0000   1.0000   1.0000   1.0000   1.0000   1.0000
     1.0000   1.0000   1.0000   1.0000   1.0000   1.0000   1.0000   1.0000
     1.0000   1.0000   1.0000   1.0000   1.0000   1.0000

          k = 0.1667-0.2887-0.0626 (  6106 PWs)   bands (ev):

   -11.3573 -11.0311 -10.9532 -10.6288 -10.4542 -10.2491   0.2241   0.3972
     0.5522   0.5718   0.6967   0.7868   0.8524   1.0048   1.0278   1.0825
     1.1490   1.2051   1.2572   1.3163   1.3826   1.5042   1.5701   1.6015
     1.6321   1.6905   1.8962   1.9519   1.9774   2.0263   2.0490   2.0684
     2.0947   2.2375   2.4824   2.6013   2.8624   3.1735   3.6523   3.8325
     4.0854   4.1411   4.3168   4.4368   4.7125   4.8330   5.0643   5.1482
     5.2842   5.4552   5.6032   5.6510   5.9714   6.0617

     occupation numbers 
     1.0000   1.0000   1.0000   1.0000   1.0000   1.0000   1.0000   1.0000
     1.0000   1.0000   1.0000   1.0000   1.0000   1.0000   1.0000   1.0000
     1.0000   1.0000   1.0000   1.0000   1.0000   1.0000   1.0000   1.0000
     1.0000   1.0000   1.0000   1.0000   1.0000   1.0000   1.0000   1.0000
     1.0000   1.0000   1.0000   1.0000   1.0000   1.0000   1.0000   1.0000
     1.0000   1.0000   1.0000   1.0000   1.0000   1.0000   1.0000   1.0000
     1.0000   1.0000   1.0000   1.0000   1.0000   1.0000

          k = 0.3333-0.0000 0.0626 (  6106 PWs)   bands (ev):

   -11.3415 -11.0307 -10.9595 -10.6315 -10.4625 -10.2479   0.1514   0.4999
     0.5476   0.6838   0.7627   0.8135   0.9130   0.9525   0.9899   1.0449
     1.1487   1.1749   1.2264   1.2844   1.3248   1.4770   1.4965   1.5729
     1.6043   1.6854   1.9088   1.9542   1.9834   2.0288   2.0593   2.0754
     2.0929   2.2296   2.4767   2.6095   2.8999   3.1368   3.5198   3.8173
     4.0702   4.1727   4.3901   4.5056   4.7868   4.9153   5.0462   5.1795
     5.2549   5.4738   5.6232   5.6613   5.9369   6.0739

     occupation numbers 
     1.0000   1.0000   1.0000   1.0000   1.0000   1.0000   1.0000   1.0000
     1.0000   1.0000   1.0000   1.0000   1.0000   1.0000   1.0000   1.0000
     1.0000   1.0000   1.0000   1.0000   1.0000   1.0000   1.0000   1.0000
     1.0000   1.0000   1.0000   1.0000   1.0000   1.0000   1.0000   1.0000
     1.0000   1.0000   1.0000   1.0000   1.0000   1.0000   1.0000   1.0000
     1.0000   1.0000   1.0000   1.0000   1.0000   1.0000   1.0000   1.0000
     1.0000   1.0000   1.0000   1.0000   1.0000   1.0000

          k =-0.3333 0.0000 0.0626 (  6106 PWs)   bands (ev):

   -11.3415 -11.0307 -10.9595 -10.6315 -10.4625 -10.2479   0.1513   0.5006
     0.5467   0.6838   0.7628   0.8142   0.9146   0.9500   0.9871   1.0510
     1.1411   1.1793   1.2256   1.2865   1.3236   1.4723   1.5019   1.5725
     1.6030   1.6865   1.9099   1.9537   1.9828   2.0309   2.0588   2.0755
     2.0917   2.2306   2.4767   2.6092   2.8852   3.1596   3.5083   3.8185
     4.0714   4.1799   4.3808   4.5038   4.7833   4.9254   5.0471   5.1716
     5.2575   5.4806   5.6208   5.6582   5.9372   6.0739

     occupation numbers 
     1.0000   1.0000   1.0000   1.0000   1.0000   1.0000   1.0000   1.0000
     1.0000   1.0000   1.0000   1.0000   1.0000   1.0000   1.0000   1.0000
     1.0000   1.0000   1.0000   1.0000   1.0000   1.0000   1.0000   1.0000
     1.0000   1.0000   1.0000   1.0000   1.0000   1.0000   1.0000   1.0000
     1.0000   1.0000   1.0000   1.0000   1.0000   1.0000   1.0000   1.0000
     1.0000   1.0000   1.0000   1.0000   1.0000   1.0000   1.0000   1.0000
     1.0000   1.0000   1.0000   1.0000   1.0000   1.0000

          k =-0.1667 0.2887 0.0939 (  6106 PWs)   bands (ev):

   -11.3573 -11.0312 -10.9531 -10.6288 -10.4542 -10.2491   0.2240   0.3969
     0.5519   0.5725   0.6967   0.7857   0.8527   1.0117   1.0225   1.0825
     1.1514   1.2032   1.2555   1.3171   1.3833   1.5069   1.5684   1.5984
     1.6319   1.6910   1.8909   1.9520   1.9778   2.0360   2.0496   2.0650
     2.0918   2.2277   2.4886   2.6010   2.9477   3.0661   3.7129   3.7952
     4.0978   4.1258   4.3252   4.4177   4.7155   4.9201   5.0367   5.1028
     5.2662   5.4523   5.6098   5.6687   5.9695   6.0614

     occupation numbers 
     1.0000   1.0000   1.0000   1.0000   1.0000   1.0000   1.0000   1.0000
     1.0000   1.0000   1.0000   1.0000   1.0000   1.0000   1.0000   1.0000
     1.0000   1.0000   1.0000   1.0000   1.0000   1.0000   1.0000   1.0000
     1.0000   1.0000   1.0000   1.0000   1.0000   1.0000   1.0000   1.0000
     1.0000   1.0000   1.0000   1.0000   1.0000   1.0000   1.0000   1.0000
     1.0000   1.0000   1.0000   1.0000   1.0000   1.0000   1.0000   1.0000
     1.0000   1.0000   1.0000   1.0000   1.0000   1.0000

          k = 0.3333-0.0000-0.0939 (  6106 PWs)   bands (ev):

   -11.3415 -11.0308 -10.9595 -10.6316 -10.4625 -10.2479   0.1513   0.4995
     0.5479   0.6834   0.7631   0.8140   0.9135   0.9514   0.9907   1.0460
     1.1469   1.1771   1.2255   1.2843   1.3244   1.4778   1.4955   1.5726
     1.6036   1.6851   1.9060   1.9540   1.9832   2.0422   2.0554   2.0750
     2.0844   2.2275   2.4803   2.6086   2.9689   3.0554   3.5281   3.8278
     4.0650   4.1714   4.3938   4.4920   4.7981   4.9520   5.0667   5.1270
     5.2392   5.4712   5.6283   5.6723   5.9361   6.0737

     occupation numbers 
     1.0000   1.0000   1.0000   1.0000   1.0000   1.0000   1.0000   1.0000
     1.0000   1.0000   1.0000   1.0000   1.0000   1.0000   1.0000   1.0000
     1.0000   1.0000   1.0000   1.0000   1.0000   1.0000   1.0000   1.0000
     1.0000   1.0000   1.0000   1.0000   1.0000   1.0000   1.0000   1.0000
     1.0000   1.0000   1.0000   1.0000   1.0000   1.0000   1.0000   1.0000
     1.0000   1.0000   1.0000   1.0000   1.0000   1.0000   1.0000   1.0000
     1.0000   1.0000   1.0000   1.0000   1.0000   1.0000

          k =-0.1667 0.4811 0.0000 (  6121 PWs)   bands (ev):

   -11.1650 -10.8148 -10.7599 -10.4682 -10.2141 -10.1283   0.3733   0.4310
     0.6109   0.6775   0.8579   0.9613   1.0627   1.1473   1.2570   1.2617
     1.3315   1.3844   1.4242   1.5406   1.5559   1.6295   1.6647   1.7376
     1.7793   1.8531   1.9569   1.9942   2.0248   2.0880   2.1461   2.1650
     2.2466   2.3204   2.5384   2.6054   2.7022   2.7745   2.8306   3.0265
     3.1419   3.4240   3.7651   4.0245   4.1378   4.3099   4.4841   4.6657
     4.7768   4.8976   5.1400   5.2030   5.3809   5.6453

     occupation numbers 
     1.0000   1.0000   1.0000   1.0000   1.0000   1.0000   1.0000   1.0000
     1.0000   1.0000   1.0000   1.0000   1.0000   1.0000   1.0000   1.0000
     1.0000   1.0000   1.0000   1.0000   1.0000   1.0000   1.0000   1.0000
     1.0000   1.0000   1.0000   1.0000   1.0000   1.0000   1.0000   1.0000
     1.0000   1.0000   1.0000   1.0000   1.0000   1.0000   1.0000   1.0000
     1.0000   1.0000   1.0000   1.0000   1.0000   1.0000   1.0000   1.0000
     1.0000   1.0000   1.0000   1.0000   1.0000   1.0000

          k =-0.3333 0.3849 0.0000 (  6121 PWs)   bands (ev):

   -11.1482 -10.8298 -10.7691 -10.4764 -10.2251 -10.1207   0.2844   0.6262
     0.6953   0.7772   0.8142   0.8495   0.9733   1.0716   1.1207   1.2068
     1.2372   1.3418   1.4388   1.4655   1.5433   1.6397   1.6848   1.7550
     1.8190   1.8367   1.9720   1.9845   2.0301   2.1045   2.1362   2.1732
     2.2430   2.3129   2.5346   2.6333   2.7367   2.7984   2.9184   3.0390
     3.1576   3.4430   3.7631   4.0549   4.1600   4.3035   4.5006   4.6146
     4.8099   4.9784   5.1312   5.3320   5.4679   5.6874

     occupation numbers 
     1.0000   1.0000   1.0000   1.0000   1.0000   1.0000   1.0000   1.0000
     1.0000   1.0000   1.0000   1.0000   1.0000   1.0000   1.0000   1.0000
     1.0000   1.0000   1.0000   1.0000   1.0000   1.0000   1.0000   1.0000
     1.0000   1.0000   1.0000   1.0000   1.0000   1.0000   1.0000   1.0000
     1.0000   1.0000   1.0000   1.0000   1.0000   1.0000   1.0000   1.0000
     1.0000   1.0000   1.0000   1.0000   1.0000   1.0000   1.0000   1.0000
     1.0000   1.0000   1.0000   1.0000   1.0000   1.0000

          k = 0.5000 0.0962 0.0000 (  6121 PWs)   bands (ev):

   -11.1391 -10.8126 -10.7722 -10.4722 -10.2365 -10.1175   0.2864   0.6112
     0.6236   0.7737   0.9119   1.0278   1.0844   1.1487   1.1925   1.2233
     1.2769   1.3331   1.3925   1.4343   1.4915   1.5865   1.6489   1.7144
     1.7381   1.7858   1.9363   1.9675   2.0074   2.0920   2.1297   2.1704
     2.2448   2.3064   2.4740   2.5904   2.7316   2.8614   2.8867   3.0863
     3.1364   3.5017   3.7451   3.9856   4.1962   4.3048   4.5201   4.6935
     4.7981   4.9025   5.1534   5.2614   5.3775   5.7195

     occupation numbers 
     1.0000   1.0000   1.0000   1.0000   1.0000   1.0000   1.0000   1.0000
     1.0000   1.0000   1.0000   1.0000   1.0000   1.0000   1.0000   1.0000
     1.0000   1.0000   1.0000   1.0000   1.0000   1.0000   1.0000   1.0000
     1.0000   1.0000   1.0000   1.0000   1.0000   1.0000   1.0000   1.0000
     1.0000   1.0000   1.0000   1.0000   1.0000   1.0000   1.0000   1.0000
     1.0000   1.0000   1.0000   1.0000   1.0000   1.0000   1.0000   1.0000
     1.0000   1.0000   1.0000   1.0000   1.0000   1.0000

          k =-0.3333-0.3849 0.0000 (  6121 PWs)   bands (ev):

   -11.1472 -10.8052 -10.7678 -10.4682 -10.2322 -10.1202   0.2748   0.6224
     0.6401   0.8022   0.8324   0.9619   1.0545   1.1171   1.1340   1.2682
     1.3437   1.3897   1.4580   1.5131   1.5763   1.6494   1.6838   1.7356
     1.7684   1.8334   1.9515   1.9870   2.0056   2.0929   2.1158   2.1482
     2.2340   2.3056   2.5051   2.5849   2.7087   2.7399   2.8153   3.0049
     3.0851   3.4693   3.7390   4.0027   4.1201   4.2471   4.4591   4.6205
     4.8211   4.9964   5.1166   5.2782   5.4497   5.6959

     occupation numbers 
     1.0000   1.0000   1.0000   1.0000   1.0000   1.0000   1.0000   1.0000
     1.0000   1.0000   1.0000   1.0000   1.0000   1.0000   1.0000   1.0000
     1.0000   1.0000   1.0000   1.0000   1.0000   1.0000   1.0000   1.0000
     1.0000   1.0000   1.0000   1.0000   1.0000   1.0000   1.0000   1.0000
     1.0000   1.0000   1.0000   1.0000   1.0000   1.0000   1.0000   1.0000
     1.0000   1.0000   1.0000   1.0000   1.0000   1.0000   1.0000   1.0000
     1.0000   1.0000   1.0000   1.0000   1.0000   1.0000

          k = 0.5000-0.0962 0.0000 (  6121 PWs)   bands (ev):

   -11.1397 -10.8291 -10.7731 -10.4777 -10.2319 -10.1177   0.2967   0.6031
     0.6850   0.7700   0.8346   0.9458   1.0198   1.0845   1.1524   1.2191
     1.2450   1.3116   1.4276   1.4597   1.5076   1.6001   1.6452   1.7146
     1.7626   1.8098   1.9280   1.9732   2.0255   2.0982   2.1292   2.1651
     2.2298   2.2984   2.4886   2.5971   2.7399   2.8774   2.9441   3.0759
     3.1916   3.4915   3.7737   4.0022   4.2319   4.3098   4.5183   4.7218
     4.7815   4.9601   5.1789   5.3075   5.3906   5.7096

     occupation numbers 
     1.0000   1.0000   1.0000   1.0000   1.0000   1.0000   1.0000   1.0000
     1.0000   1.0000   1.0000   1.0000   1.0000   1.0000   1.0000   1.0000
     1.0000   1.0000   1.0000   1.0000   1.0000   1.0000   1.0000   1.0000
     1.0000   1.0000   1.0000   1.0000   1.0000   1.0000   1.0000   1.0000
     1.0000   1.0000   1.0000   1.0000   1.0000   1.0000   1.0000   1.0000
     1.0000   1.0000   1.0000   1.0000   1.0000   1.0000   1.0000   1.0000
     1.0000   1.0000   1.0000   1.0000   1.0000   1.0000

          k =-0.1667-0.4811 0.0313 (  6117 PWs)   bands (ev):

   -11.1647 -10.8067 -10.7595 -10.4655 -10.2167 -10.1279   0.3762   0.4262
     0.6172   0.6822   0.8655   0.9696   1.0509   1.1567   1.2530   1.3243
     1.3322   1.4305   1.5286   1.5735   1.5958   1.6466   1.6647   1.7268
     1.7776   1.8382   1.9477   1.9896   2.0164   2.0815   2.1165   2.1371
     2.2155   2.3038   2.5234   2.5505   2.6742   2.7685   2.7876   3.0151
     3.0710   3.4432   3.7746   3.9844   4.1250   4.2710   4.4171   4.6907
     4.8324   4.9691   5.1347   5.1912   5.3779   5.6376

     occupation numbers 
     1.0000   1.0000   1.0000   1.0000   1.0000   1.0000   1.0000   1.0000
     1.0000   1.0000   1.0000   1.0000   1.0000   1.0000   1.0000   1.0000
     1.0000   1.0000   1.0000   1.0000   1.0000   1.0000   1.0000   1.0000
     1.0000   1.0000   1.0000   1.0000   1.0000   1.0000   1.0000   1.0000
     1.0000   1.0000   1.0000   1.0000   1.0000   1.0000   1.0000   1.0000
     1.0000   1.0000   1.0000   1.0000   1.0000   1.0000   1.0000   1.0000
     1.0000   1.0000   1.0000   1.0000   1.0000   1.0000

          k =-0.1667 0.4811-0.0313 (  6117 PWs)   bands (ev):

   -11.1650 -10.8148 -10.7599 -10.4682 -10.2141 -10.1283   0.3732   0.4310
     0.6114   0.6770   0.8575   0.9604   1.0614   1.1571   1.2472   1.2658
     1.3292   1.3887   1.4202   1.5328   1.5700   1.6332   1.6575   1.7343
     1.7804   1.8488   1.9566   1.9945   2.0260   2.0927   2.1436   2.1661
     2.2456   2.3196   2.5451   2.6067   2.6918   2.7699   2.8369   3.0344
     3.1354   3.4283   3.7727   4.0098   4.1388   4.3330   4.4278   4.6846
     4.8004   4.9116   5.1109   5.2150   5.3783   5.6443

     occupation numbers 
     1.0000   1.0000   1.0000   1.0000   1.0000   1.0000   1.0000   1.0000
     1.0000   1.0000   1.0000   1.0000   1.0000   1.0000   1.0000   1.0000
     1.0000   1.0000   1.0000   1.0000   1.0000   1.0000   1.0000   1.0000
     1.0000   1.0000   1.0000   1.0000   1.0000   1.0000   1.0000   1.0000
     1.0000   1.0000   1.0000   1.0000   1.0000   1.0000   1.0000   1.0000
     1.0000   1.0000   1.0000   1.0000   1.0000   1.0000   1.0000   1.0000
     1.0000   1.0000   1.0000   1.0000   1.0000   1.0000

          k = 0.1667-0.4811-0.0313 (  6117 PWs)   bands (ev):

   -11.1650 -10.8148 -10.7599 -10.4682 -10.2141 -10.1283   0.3733   0.4310
     0.6104   0.6776   0.8572   0.9624   1.0667   1.1464   1.2503   1.2608
     1.3370   1.3828   1.4264   1.5384   1.5549   1.6265   1.6708   1.7365
     1.7829   1.8525   1.9470   2.0032   2.0225   2.0849   2.1437   2.1720
     2.2442   2.3202   2.5365   2.6077   2.6999   2.7710   2.8446   3.0112
     3.1513   3.4246   3.7674   4.0445   4.0975   4.3335   4.4906   4.6119
     4.8115   4.9099   5.1492   5.1896   5.3790   5.6441

     occupation numbers 
     1.0000   1.0000   1.0000   1.0000   1.0000   1.0000   1.0000   1.0000
     1.0000   1.0000   1.0000   1.0000   1.0000   1.0000   1.0000   1.0000
     1.0000   1.0000   1.0000   1.0000   1.0000   1.0000   1.0000   1.0000
     1.0000   1.0000   1.0000   1.0000   1.0000   1.0000   1.0000   1.0000
     1.0000   1.0000   1.0000   1.0000   1.0000   1.0000   1.0000   1.0000
     1.0000   1.0000   1.0000   1.0000   1.0000   1.0000   1.0000   1.0000
     1.0000   1.0000   1.0000   1.0000   1.0000   1.0000

          k =-0.3333 0.3849 0.0313 (  6117 PWs)   bands (ev):

   -11.1482 -10.8298 -10.7691 -10.4764 -10.2251 -10.1207   0.2844   0.6261
     0.6950   0.7767   0.8145   0.8494   0.9760   1.0694   1.1212   1.2115
     1.2331   1.3422   1.4317   1.4721   1.5442   1.6387   1.6851   1.7534
     1.8226   1.8320   1.9705   1.9891   2.0288   2.1049   2.1408   2.1673
     2.2412   2.3146   2.5382   2.6354   2.7261   2.8048   2.9162   3.0436
     3.1502   3.4542   3.7597   4.0475   4.1755   4.3194   4.4188   4.6767
     4.8023   4.9846   5.1283   5.3385   5.4579   5.6877

     occupation numbers 
     1.0000   1.0000   1.0000   1.0000   1.0000   1.0000   1.0000   1.0000
     1.0000   1.0000   1.0000   1.0000   1.0000   1.0000   1.0000   1.0000
     1.0000   1.0000   1.0000   1.0000   1.0000   1.0000   1.0000   1.0000
     1.0000   1.0000   1.0000   1.0000   1.0000   1.0000   1.0000   1.0000
     1.0000   1.0000   1.0000   1.0000   1.0000   1.0000   1.0000   1.0000
     1.0000   1.0000   1.0000   1.0000   1.0000   1.0000   1.0000   1.0000
     1.0000   1.0000   1.0000   1.0000   1.0000   1.0000

          k = 0.5000 0.0962 0.0313 (  6117 PWs)   bands (ev):

   -11.1391 -10.8126 -10.7722 -10.4722 -10.2365 -10.1175   0.2864   0.6107
     0.6240   0.7729   0.9132   1.0258   1.0890   1.1488   1.1881   1.2267
     1.2742   1.3345   1.3895   1.4385   1.4893   1.5897   1.6486   1.7147
     1.7359   1.7850   1.9225   1.9777   2.0119   2.0938   2.1271   2.1696
     2.2449   2.3050   2.4791   2.5898   2.7257   2.8565   2.8965   3.0904
     3.1300   3.5102   3.7469   3.9676   4.2001   4.3333   4.4618   4.7381
     4.7862   4.9150   5.1480   5.2599   5.3751   5.7187

     occupation numbers 
     1.0000   1.0000   1.0000   1.0000   1.0000   1.0000   1.0000   1.0000
     1.0000   1.0000   1.0000   1.0000   1.0000   1.0000   1.0000   1.0000
     1.0000   1.0000   1.0000   1.0000   1.0000   1.0000   1.0000   1.0000
     1.0000   1.0000   1.0000   1.0000   1.0000   1.0000   1.0000   1.0000
     1.0000   1.0000   1.0000   1.0000   1.0000   1.0000   1.0000   1.0000
     1.0000   1.0000   1.0000   1.0000   1.0000   1.0000   1.0000   1.0000
     1.0000   1.0000   1.0000   1.0000   1.0000   1.0000

          k =-0.5000-0.0962 0.0313 (  6117 PWs)   bands (ev):

   -11.1391 -10.8126 -10.7722 -10.4722 -10.2365 -10.1175   0.2864   0.6086
     0.6258   0.7747   0.9114   1.0275   1.0874   1.1425   1.2013   1.2197
     1.2747   1.3347   1.3910   1.4358   1.4899   1.5860   1.6520   1.7109
     1.7370   1.7899   1.9329   1.9704   2.0050   2.0900   2.1323   2.1738
     2.2421   2.3055   2.4736   2.5915   2.7330   2.8528   2.8940   3.0766
     3.1499   3.5008   3.7475   3.9894   4.1721   4.3166   4.5337   4.6453
     4.8386   4.9134   5.1376   5.2730   5.3701   5.7181

     occupation numbers 
     1.0000   1.0000   1.0000   1.0000   1.0000   1.0000   1.0000   1.0000
     1.0000   1.0000   1.0000   1.0000   1.0000   1.0000   1.0000   1.0000
     1.0000   1.0000   1.0000   1.0000   1.0000   1.0000   1.0000   1.0000
     1.0000   1.0000   1.0000   1.0000   1.0000   1.0000   1.0000   1.0000
     1.0000   1.0000   1.0000   1.0000   1.0000   1.0000   1.0000   1.0000
     1.0000   1.0000   1.0000   1.0000   1.0000   1.0000   1.0000   1.0000
     1.0000   1.0000   1.0000   1.0000   1.0000   1.0000

          k = 0.3333-0.3849 0.0313 (  6117 PWs)   bands (ev):

   -11.1481 -10.8298 -10.7691 -10.4764 -10.2251 -10.1207   0.2844   0.6247
     0.6971   0.7780   0.8132   0.8500   0.9710   1.0755   1.1211   1.1994
     1.2423   1.3408   1.4449   1.4628   1.5423   1.6351   1.6895   1.7536
     1.8162   1.8404   1.9580   1.9966   2.0315   2.0997   2.1385   2.1778
     2.2402   2.3117   2.5334   2.6350   2.7396   2.7892   2.9264   3.0325
     3.1693   3.4393   3.7731   4.0571   4.1174   4.3240   4.5205   4.5862
     4.8256   4.9951   5.1231   5.3238   5.4679   5.6874

     occupation numbers 
     1.0000   1.0000   1.0000   1.0000   1.0000   1.0000   1.0000   1.0000
     1.0000   1.0000   1.0000   1.0000   1.0000   1.0000   1.0000   1.0000
     1.0000   1.0000   1.0000   1.0000   1.0000   1.0000   1.0000   1.0000
     1.0000   1.0000   1.0000   1.0000   1.0000   1.0000   1.0000   1.0000
     1.0000   1.0000   1.0000   1.0000   1.0000   1.0000   1.0000   1.0000
     1.0000   1.0000   1.0000   1.0000   1.0000   1.0000   1.0000   1.0000
     1.0000   1.0000   1.0000   1.0000   1.0000   1.0000

          k =-0.3333-0.3849-0.0313 (  6117 PWs)   bands (ev):

   -11.1472 -10.8052 -10.7678 -10.4682 -10.2322 -10.1202   0.2748   0.6225
     0.6397   0.8022   0.8325   0.9628   1.0547   1.1068   1.1466   1.2668
     1.3540   1.3715   1.4641   1.5127   1.5783   1.6483   1.6862   1.7346
     1.7647   1.8352   1.9460   1.9884   2.0093   2.0985   2.1169   2.1417
     2.2304   2.3082   2.5120   2.5860   2.6854   2.7586   2.8138   3.0130
     3.0722   3.4802   3.7342   3.9998   4.1346   4.2666   4.3780   4.6739
     4.8230   4.9946   5.1114   5.2852   5.4440   5.6948

     occupation numbers 
     1.0000   1.0000   1.0000   1.0000   1.0000   1.0000   1.0000   1.0000
     1.0000   1.0000   1.0000   1.0000   1.0000   1.0000   1.0000   1.0000
     1.0000   1.0000   1.0000   1.0000   1.0000   1.0000   1.0000   1.0000
     1.0000   1.0000   1.0000   1.0000   1.0000   1.0000   1.0000   1.0000
     1.0000   1.0000   1.0000   1.0000   1.0000   1.0000   1.0000   1.0000
     1.0000   1.0000   1.0000   1.0000   1.0000   1.0000   1.0000   1.0000
     1.0000   1.0000   1.0000   1.0000   1.0000   1.0000

          k = 0.5000-0.0962-0.0313 (  6117 PWs)   bands (ev):

   -11.1397 -10.8291 -10.7731 -10.4777 -10.2319 -10.1177   0.2966   0.6030
     0.6851   0.7693   0.8344   0.9468   1.0219   1.0830   1.1539   1.2206
     1.2377   1.3163   1.4291   1.4573   1.5078   1.6026   1.6426   1.7170
     1.7640   1.8045   1.9200   1.9833   2.0261   2.0997   2.1280   2.1620
     2.2306   2.2970   2.4937   2.5959   2.7349   2.8778   2.9486   3.0746
     3.1909   3.4989   3.7741   3.9885   4.2274   4.3466   4.4642   4.7303
     4.8062   4.9643   5.1750   5.3097   5.3836   5.7090

     occupation numbers 
     1.0000   1.0000   1.0000   1.0000   1.0000   1.0000   1.0000   1.0000
     1.0000   1.0000   1.0000   1.0000   1.0000   1.0000   1.0000   1.0000
     1.0000   1.0000   1.0000   1.0000   1.0000   1.0000   1.0000   1.0000
     1.0000   1.0000   1.0000   1.0000   1.0000   1.0000   1.0000   1.0000
     1.0000   1.0000   1.0000   1.0000   1.0000   1.0000   1.0000   1.0000
     1.0000   1.0000   1.0000   1.0000   1.0000   1.0000   1.0000   1.0000
     1.0000   1.0000   1.0000   1.0000   1.0000   1.0000

          k =-0.5000 0.0962-0.0313 (  6117 PWs)   bands (ev):

   -11.1397 -10.8291 -10.7731 -10.4777 -10.2319 -10.1177   0.2966   0.6023
     0.6859   0.7699   0.8355   0.9440   1.0195   1.0871   1.1530   1.2184
     1.2450   1.3096   1.4300   1.4591   1.5073   1.5990   1.6460   1.7122
     1.7668   1.8104   1.9211   1.9779   2.0236   2.0949   2.1338   2.1680
     2.2278   2.2972   2.4877   2.5985   2.7418   2.8714   2.9451   3.0747
     3.2020   3.4877   3.7803   4.0024   4.2001   4.3251   4.5262   4.6804
     4.8243   4.9734   5.1713   5.3073   5.3832   5.7101

     occupation numbers 
     1.0000   1.0000   1.0000   1.0000   1.0000   1.0000   1.0000   1.0000
     1.0000   1.0000   1.0000   1.0000   1.0000   1.0000   1.0000   1.0000
     1.0000   1.0000   1.0000   1.0000   1.0000   1.0000   1.0000   1.0000
     1.0000   1.0000   1.0000   1.0000   1.0000   1.0000   1.0000   1.0000
     1.0000   1.0000   1.0000   1.0000   1.0000   1.0000   1.0000   1.0000
     1.0000   1.0000   1.0000   1.0000   1.0000   1.0000   1.0000   1.0000
     1.0000   1.0000   1.0000   1.0000   1.0000   1.0000

          k = 0.3333 0.3849-0.0313 (  6117 PWs)   bands (ev):

   -11.1472 -10.8052 -10.7678 -10.4682 -10.2322 -10.1202   0.2748   0.6194
     0.6431   0.8027   0.8328   0.9601   1.0570   1.1167   1.1325   1.2732
     1.3311   1.4019   1.4561   1.5133   1.5750   1.6475   1.6851   1.7364
     1.7669   1.8349   1.9481   1.9870   2.0054   2.0893   2.1189   2.1554
     2.2287   2.3060   2.5018   2.5910   2.6951   2.7489   2.8189   2.9970
     3.0951   3.4723   3.7462   3.9928   4.0950   4.2504   4.5017   4.5870
     4.8297   5.0126   5.1047   5.2769   5.4493   5.6944

     occupation numbers 
     1.0000   1.0000   1.0000   1.0000   1.0000   1.0000   1.0000   1.0000
     1.0000   1.0000   1.0000   1.0000   1.0000   1.0000   1.0000   1.0000
     1.0000   1.0000   1.0000   1.0000   1.0000   1.0000   1.0000   1.0000
     1.0000   1.0000   1.0000   1.0000   1.0000   1.0000   1.0000   1.0000
     1.0000   1.0000   1.0000   1.0000   1.0000   1.0000   1.0000   1.0000
     1.0000   1.0000   1.0000   1.0000   1.0000   1.0000   1.0000   1.0000
     1.0000   1.0000   1.0000   1.0000   1.0000   1.0000

          k =-0.1667-0.4811 0.0626 (  6118 PWs)   bands (ev):

   -11.1647 -10.8067 -10.7595 -10.4655 -10.2167 -10.1279   0.3761   0.4261
     0.6172   0.6817   0.8648   0.9694   1.0538   1.1591   1.2548   1.3081
     1.3424   1.4322   1.5298   1.5690   1.6021   1.6407   1.6701   1.7219
     1.7823   1.8353   1.9351   1.9954   2.0163   2.0858   2.1146   2.1444
     2.2077   2.3047   2.5306   2.5538   2.6557   2.7686   2.8021   3.0033
     3.0797   3.4478   3.7855   3.9855   4.1014   4.2635   4.4204   4.6599
     4.8914   4.9753   5.1228   5.1860   5.3736   5.6351

     occupation numbers 
     1.0000   1.0000   1.0000   1.0000   1.0000   1.0000   1.0000   1.0000
     1.0000   1.0000   1.0000   1.0000   1.0000   1.0000   1.0000   1.0000
     1.0000   1.0000   1.0000   1.0000   1.0000   1.0000   1.0000   1.0000
     1.0000   1.0000   1.0000   1.0000   1.0000   1.0000   1.0000   1.0000
     1.0000   1.0000   1.0000   1.0000   1.0000   1.0000   1.0000   1.0000
     1.0000   1.0000   1.0000   1.0000   1.0000   1.0000   1.0000   1.0000
     1.0000   1.0000   1.0000   1.0000   1.0000   1.0000

          k =-0.1667 0.4811-0.0626 (  6118 PWs)   bands (ev):

   -11.1650 -10.8148 -10.7598 -10.4682 -10.2141 -10.1283   0.3731   0.4309
     0.6115   0.6764   0.8564   0.9607   1.0635   1.1699   1.2303   1.2660
     1.3321   1.3921   1.4177   1.5275   1.5787   1.6322   1.6574   1.7309
     1.7851   1.8432   1.9477   2.0027   2.0253   2.0939   2.1397   2.1736
     2.2420   2.3186   2.5492   2.6133   2.6774   2.7646   2.8536   3.0253
     3.1401   3.4330   3.7848   3.9990   4.1221   4.3641   4.3953   4.6387
     4.8565   4.9576   5.0698   5.2186   5.3736   5.6421

     occupation numbers 
     1.0000   1.0000   1.0000   1.0000   1.0000   1.0000   1.0000   1.0000
     1.0000   1.0000   1.0000   1.0000   1.0000   1.0000   1.0000   1.0000
     1.0000   1.0000   1.0000   1.0000   1.0000   1.0000   1.0000   1.0000
     1.0000   1.0000   1.0000   1.0000   1.0000   1.0000   1.0000   1.0000
     1.0000   1.0000   1.0000   1.0000   1.0000   1.0000   1.0000   1.0000
     1.0000   1.0000   1.0000   1.0000   1.0000   1.0000   1.0000   1.0000
     1.0000   1.0000   1.0000   1.0000   1.0000   1.0000

          k = 0.1667-0.4811-0.0626 (  6118 PWs)   bands (ev):

   -11.1650 -10.8148 -10.7598 -10.4682 -10.2141 -10.1283   0.3733   0.4309
     0.6105   0.6770   0.8561   0.9625   1.0688   1.1572   1.2343   1.2628
     1.3392   1.3858   1.4246   1.5293   1.5668   1.6254   1.6714   1.7329
     1.7879   1.8463   1.9399   2.0110   2.0205   2.0860   2.1406   2.1789
     2.2403   2.3192   2.5407   2.6126   2.6874   2.7652   2.8630   3.0020
     3.1547   3.4294   3.7782   4.0442   4.0719   4.3574   4.4565   4.5891
     4.8528   4.9448   5.1134   5.1988   5.3744   5.6419

     occupation numbers 
     1.0000   1.0000   1.0000   1.0000   1.0000   1.0000   1.0000   1.0000
     1.0000   1.0000   1.0000   1.0000   1.0000   1.0000   1.0000   1.0000
     1.0000   1.0000   1.0000   1.0000   1.0000   1.0000   1.0000   1.0000
     1.0000   1.0000   1.0000   1.0000   1.0000   1.0000   1.0000   1.0000
     1.0000   1.0000   1.0000   1.0000   1.0000   1.0000   1.0000   1.0000
     1.0000   1.0000   1.0000   1.0000   1.0000   1.0000   1.0000   1.0000
     1.0000   1.0000   1.0000   1.0000   1.0000   1.0000

          k =-0.3333 0.3849 0.0626 (  6118 PWs)   bands (ev):

   -11.1482 -10.8298 -10.7691 -10.4764 -10.2251 -10.1207   0.2843   0.6246
     0.6964   0.7769   0.8138   0.8496   0.9762   1.0712   1.1220   1.2066
     1.2362   1.3415   1.4300   1.4766   1.5441   1.6330   1.6903   1.7502
     1.8222   1.8324   1.9584   2.0031   2.0282   2.1006   2.1496   2.1641
     2.2370   2.3149   2.5402   2.6403   2.7169   2.8018   2.9231   3.0401
     3.1555   3.4622   3.7665   4.0335   4.1606   4.3473   4.3770   4.6798
     4.8258   5.0126   5.1116   5.3376   5.4474   5.6879

     occupation numbers 
     1.0000   1.0000   1.0000   1.0000   1.0000   1.0000   1.0000   1.0000
     1.0000   1.0000   1.0000   1.0000   1.0000   1.0000   1.0000   1.0000
     1.0000   1.0000   1.0000   1.0000   1.0000   1.0000   1.0000   1.0000
     1.0000   1.0000   1.0000   1.0000   1.0000   1.0000   1.0000   1.0000
     1.0000   1.0000   1.0000   1.0000   1.0000   1.0000   1.0000   1.0000
     1.0000   1.0000   1.0000   1.0000   1.0000   1.0000   1.0000   1.0000
     1.0000   1.0000   1.0000   1.0000   1.0000   1.0000

          k = 0.5000 0.0962 0.0626 (  6118 PWs)   bands (ev):

   -11.1391 -10.8126 -10.7722 -10.4722 -10.2365 -10.1175   0.2863   0.6079
     0.6263   0.7731   0.9140   1.0238   1.0974   1.1411   1.1915   1.2279
     1.2695   1.3370   1.3857   1.4440   1.4850   1.5923   1.6514   1.7128
     1.7303   1.7896   1.9099   1.9867   2.0131   2.0932   2.1277   2.1720
     2.2422   2.3028   2.4837   2.5904   2.7208   2.8481   2.9088   3.0802
     3.1409   3.5181   3.7526   3.9494   4.1917   4.3604   4.4299   4.6888
     4.8561   4.9380   5.1215   5.2710   5.3650   5.7164

     occupation numbers 
     1.0000   1.0000   1.0000   1.0000   1.0000   1.0000   1.0000   1.0000
     1.0000   1.0000   1.0000   1.0000   1.0000   1.0000   1.0000   1.0000
     1.0000   1.0000   1.0000   1.0000   1.0000   1.0000   1.0000   1.0000
     1.0000   1.0000   1.0000   1.0000   1.0000   1.0000   1.0000   1.0000
     1.0000   1.0000   1.0000   1.0000   1.0000   1.0000   1.0000   1.0000
     1.0000   1.0000   1.0000   1.0000   1.0000   1.0000   1.0000   1.0000
     1.0000   1.0000   1.0000   1.0000   1.0000   1.0000

          k =-0.5000-0.0962 0.0626 (  6118 PWs)   bands (ev):

   -11.1391 -10.8126 -10.7722 -10.4722 -10.2365 -10.1175   0.2863   0.6062
     0.6276   0.7750   0.9122   1.0254   1.0961   1.1352   1.2065   1.2180
     1.2705   1.3371   1.3871   1.4413   1.4858   1.5885   1.6554   1.7079
     1.7327   1.7939   1.9164   1.9846   2.0047   2.0896   2.1327   2.1768
     2.2390   2.3032   2.4781   2.5920   2.7281   2.8448   2.9059   3.0706
     3.1567   3.5086   3.7526   3.9714   4.1644   4.3348   4.5011   4.6353
     4.8713   4.9466   5.1090   5.2855   5.3578   5.7159

     occupation numbers 
     1.0000   1.0000   1.0000   1.0000   1.0000   1.0000   1.0000   1.0000
     1.0000   1.0000   1.0000   1.0000   1.0000   1.0000   1.0000   1.0000
     1.0000   1.0000   1.0000   1.0000   1.0000   1.0000   1.0000   1.0000
     1.0000   1.0000   1.0000   1.0000   1.0000   1.0000   1.0000   1.0000
     1.0000   1.0000   1.0000   1.0000   1.0000   1.0000   1.0000   1.0000
     1.0000   1.0000   1.0000   1.0000   1.0000   1.0000   1.0000   1.0000
     1.0000   1.0000   1.0000   1.0000   1.0000   1.0000

          k = 0.3333-0.3849 0.0626 (  6118 PWs)   bands (ev):

   -11.1482 -10.8298 -10.7691 -10.4764 -10.2251 -10.1207   0.2843   0.6233
     0.6984   0.7783   0.8125   0.8503   0.9713   1.0773   1.1221   1.1958
     1.2439   1.3402   1.4406   1.4701   1.5420   1.6300   1.6943   1.7503
     1.8158   1.8409   1.9500   2.0061   2.0314   2.0958   2.1438   2.1780
     2.2352   2.3122   2.5355   2.6391   2.7297   2.7883   2.9330   3.0291
     3.1739   3.4470   3.7819   4.0339   4.1155   4.3279   4.4772   4.6115
     4.8502   5.0195   5.1076   5.3205   5.4589   5.6876

     occupation numbers 
     1.0000   1.0000   1.0000   1.0000   1.0000   1.0000   1.0000   1.0000
     1.0000   1.0000   1.0000   1.0000   1.0000   1.0000   1.0000   1.0000
     1.0000   1.0000   1.0000   1.0000   1.0000   1.0000   1.0000   1.0000
     1.0000   1.0000   1.0000   1.0000   1.0000   1.0000   1.0000   1.0000
     1.0000   1.0000   1.0000   1.0000   1.0000   1.0000   1.0000   1.0000
     1.0000   1.0000   1.0000   1.0000   1.0000   1.0000   1.0000   1.0000
     1.0000   1.0000   1.0000   1.0000   1.0000   1.0000

          k =-0.3333-0.3849-0.0626 (  6118 PWs)   bands (ev):

   -11.1472 -10.8052 -10.7678 -10.4682 -10.2322 -10.1202   0.2748   0.6195
     0.6423   0.8025   0.8330   0.9618   1.0578   1.0998   1.1538   1.2704
     1.3417   1.3750   1.4686   1.5122   1.5791   1.6452   1.6900   1.7343
     1.7596   1.8384   1.9382   1.9893   2.0121   2.0977   2.1255   2.1405
     2.2222   2.3107   2.5144   2.5981   2.6582   2.7713   2.8172   3.0101
     3.0722   3.4946   3.7359   3.9853   4.1310   4.2694   4.3553   4.6836
     4.8448   5.0089   5.0922   5.2913   5.4373   5.6923

     occupation numbers 
     1.0000   1.0000   1.0000   1.0000   1.0000   1.0000   1.0000   1.0000
     1.0000   1.0000   1.0000   1.0000   1.0000   1.0000   1.0000   1.0000
     1.0000   1.0000   1.0000   1.0000   1.0000   1.0000   1.0000   1.0000
     1.0000   1.0000   1.0000   1.0000   1.0000   1.0000   1.0000   1.0000
     1.0000   1.0000   1.0000   1.0000   1.0000   1.0000   1.0000   1.0000
     1.0000   1.0000   1.0000   1.0000   1.0000   1.0000   1.0000   1.0000
     1.0000   1.0000   1.0000   1.0000   1.0000   1.0000

          k = 0.5000-0.0962-0.0626 (  6118 PWs)   bands (ev):

   -11.1397 -10.8291 -10.7731 -10.4777 -10.2319 -10.1177   0.2966   0.6020
     0.6861   0.7686   0.8351   0.9461   1.0235   1.0841   1.1563   1.2227
     1.2291   1.3184   1.4337   1.4537   1.5074   1.6039   1.6407   1.7169
     1.7708   1.7987   1.9087   1.9959   2.0233   2.0969   2.1331   2.1608
     2.2294   2.2944   2.4977   2.5960   2.7316   2.8726   2.9542   3.0714
     3.2010   3.5026   3.7827   3.9708   4.2114   4.3693   4.4429   4.6854
     4.8770   4.9811   5.1589   5.3153   5.3664   5.7090

     occupation numbers 
     1.0000   1.0000   1.0000   1.0000   1.0000   1.0000   1.0000   1.0000
     1.0000   1.0000   1.0000   1.0000   1.0000   1.0000   1.0000   1.0000
     1.0000   1.0000   1.0000   1.0000   1.0000   1.0000   1.0000   1.0000
     1.0000   1.0000   1.0000   1.0000   1.0000   1.0000   1.0000   1.0000
     1.0000   1.0000   1.0000   1.0000   1.0000   1.0000   1.0000   1.0000
     1.0000   1.0000   1.0000   1.0000   1.0000   1.0000   1.0000   1.0000
     1.0000   1.0000   1.0000   1.0000   1.0000   1.0000

          k =-0.5000 0.0962-0.0626 (  6118 PWs)   bands (ev):

   -11.1397 -10.8291 -10.7731 -10.4777 -10.2319 -10.1177   0.2966   0.6013
     0.6869   0.7692   0.8362   0.9433   1.0210   1.0883   1.1551   1.2187
     1.2377   1.3124   1.4347   1.4553   1.5070   1.6001   1.6444   1.7122
     1.7728   1.8055   1.9083   1.9921   2.0203   2.0930   2.1373   2.1677
     2.2263   2.2945   2.4916   2.5988   2.7385   2.8666   2.9502   3.0720
     3.2117   3.4910   3.7892   3.9842   4.1855   4.3401   4.5096   4.6521
     4.8764   4.9977   5.1510   5.3139   5.3658   5.7101

     occupation numbers 
     1.0000   1.0000   1.0000   1.0000   1.0000   1.0000   1.0000   1.0000
     1.0000   1.0000   1.0000   1.0000   1.0000   1.0000   1.0000   1.0000
     1.0000   1.0000   1.0000   1.0000   1.0000   1.0000   1.0000   1.0000
     1.0000   1.0000   1.0000   1.0000   1.0000   1.0000   1.0000   1.0000
     1.0000   1.0000   1.0000   1.0000   1.0000   1.0000   1.0000   1.0000
     1.0000   1.0000   1.0000   1.0000   1.0000   1.0000   1.0000   1.0000
     1.0000   1.0000   1.0000   1.0000   1.0000   1.0000

          k = 0.3333 0.3849-0.0626 (  6118 PWs)   bands (ev):

   -11.1472 -10.8052 -10.7678 -10.4682 -10.2322 -10.1202   0.2748   0.6169
     0.6450   0.8030   0.8334   0.9592   1.0602   1.1050   1.1442   1.2786
     1.3219   1.3995   1.4619   1.5130   1.5756   1.6446   1.6886   1.7364
     1.7614   1.8383   1.9395   1.9883   2.0087   2.0900   2.1227   2.1586
     2.2189   2.3087   2.5044   2.6019   2.6658   2.7645   2.8224   2.9945
     3.0943   3.4866   3.7502   3.9716   4.0988   4.2464   4.4620   4.6192
     4.8514   5.0281   5.0834   5.2821   5.4433   5.6919

     occupation numbers 
     1.0000   1.0000   1.0000   1.0000   1.0000   1.0000   1.0000   1.0000
     1.0000   1.0000   1.0000   1.0000   1.0000   1.0000   1.0000   1.0000
     1.0000   1.0000   1.0000   1.0000   1.0000   1.0000   1.0000   1.0000
     1.0000   1.0000   1.0000   1.0000   1.0000   1.0000   1.0000   1.0000
     1.0000   1.0000   1.0000   1.0000   1.0000   1.0000   1.0000   1.0000
     1.0000   1.0000   1.0000   1.0000   1.0000   1.0000   1.0000   1.0000
     1.0000   1.0000   1.0000   1.0000   1.0000   1.0000

          k =-0.1667 0.4811 0.0939 (  6122 PWs)   bands (ev):

   -11.1650 -10.8148 -10.7598 -10.4682 -10.2141 -10.1283   0.3732   0.4309
     0.6110   0.6765   0.8557   0.9617   1.0670   1.1719   1.2222   1.2646
     1.3367   1.3907   1.4200   1.5259   1.5769   1.6273   1.6654   1.7304
     1.7891   1.8411   1.9406   2.0100   2.0225   2.0904   2.1388   2.1796
     2.2391   2.3185   2.5466   2.6171   2.6749   2.7627   2.8664   3.0085
     3.1498   3.4336   3.7882   4.0066   4.1007   4.3512   4.4351   4.5953
     4.8714   4.9902   5.0563   5.2126   5.3716   5.6409

     occupation numbers 
     1.0000   1.0000   1.0000   1.0000   1.0000   1.0000   1.0000   1.0000
     1.0000   1.0000   1.0000   1.0000   1.0000   1.0000   1.0000   1.0000
     1.0000   1.0000   1.0000   1.0000   1.0000   1.0000   1.0000   1.0000
     1.0000   1.0000   1.0000   1.0000   1.0000   1.0000   1.0000   1.0000
     1.0000   1.0000   1.0000   1.0000   1.0000   1.0000   1.0000   1.0000
     1.0000   1.0000   1.0000   1.0000   1.0000   1.0000   1.0000   1.0000
     1.0000   1.0000   1.0000   1.0000   1.0000   1.0000

          k =-0.3333 0.3849-0.0939 (  6122 PWs)   bands (ev):

   -11.1482 -10.8298 -10.7691 -10.4764 -10.2251 -10.1207   0.2843   0.6233
     0.6981   0.7777   0.8128   0.8501   0.9738   1.0752   1.1224   1.1989
     1.2414   1.3405   1.4338   1.4763   1.5429   1.6288   1.6948   1.7485
     1.8182   1.8375   1.9505   2.0096   2.0291   2.0963   2.1491   2.1711
     2.2338   2.3137   2.5388   2.6424   2.7180   2.7942   2.9318   3.0322
     3.1674   3.4587   3.7788   4.0209   4.1398   4.3201   4.4340   4.6430
     4.8545   5.0350   5.0950   5.3278   5.4485   5.6878

     occupation numbers 
     1.0000   1.0000   1.0000   1.0000   1.0000   1.0000   1.0000   1.0000
     1.0000   1.0000   1.0000   1.0000   1.0000   1.0000   1.0000   1.0000
     1.0000   1.0000   1.0000   1.0000   1.0000   1.0000   1.0000   1.0000
     1.0000   1.0000   1.0000   1.0000   1.0000   1.0000   1.0000   1.0000
     1.0000   1.0000   1.0000   1.0000   1.0000   1.0000   1.0000   1.0000
     1.0000   1.0000   1.0000   1.0000   1.0000   1.0000   1.0000   1.0000
     1.0000   1.0000   1.0000   1.0000   1.0000   1.0000

          k = 0.5000 0.0962-0.0939 (  6122 PWs)   bands (ev):

   -11.1391 -10.8126 -10.7722 -10.4722 -10.2365 -10.1175   0.2863   0.6059
     0.6278   0.7742   0.9135   1.0237   1.1020   1.1333   1.1999   1.2239
     1.2682   1.3381   1.3848   1.4454   1.4831   1.5916   1.6552   1.7094
     1.7284   1.7944   1.9066   1.9912   2.0082   2.0909   2.1307   2.1757
     2.2390   2.3019   2.4831   2.5916   2.7220   2.8434   2.9124   3.0713
     3.1531   3.5173   3.7560   3.9496   4.1781   4.3447   4.4645   4.6479
     4.8837   4.9633   5.0955   5.2852   5.3548   5.7151

     occupation numbers 
     1.0000   1.0000   1.0000   1.0000   1.0000   1.0000   1.0000   1.0000
     1.0000   1.0000   1.0000   1.0000   1.0000   1.0000   1.0000   1.0000
     1.0000   1.0000   1.0000   1.0000   1.0000   1.0000   1.0000   1.0000
     1.0000   1.0000   1.0000   1.0000   1.0000   1.0000   1.0000   1.0000
     1.0000   1.0000   1.0000   1.0000   1.0000   1.0000   1.0000   1.0000
     1.0000   1.0000   1.0000   1.0000   1.0000   1.0000   1.0000   1.0000
     1.0000   1.0000   1.0000   1.0000   1.0000   1.0000

          k =-0.3333-0.3849 0.0939 (  6122 PWs)   bands (ev):

   -11.1472 -10.8052 -10.7678 -10.4682 -10.2322 -10.1202   0.2748   0.6170
     0.6447   0.8029   0.8334   0.9600   1.0607   1.0986   1.1526   1.2772
     1.3252   1.3882   1.4680   1.5123   1.5778   1.6434   1.6912   1.7353
     1.7577   1.8401   1.9350   1.9892   2.0118   2.0936   2.1261   2.1515
     2.2160   2.3108   2.5102   2.6112   2.6450   2.7722   2.8224   2.9997
     3.0842   3.4980   3.7446   3.9680   4.1197   4.2423   4.4076   4.6559
     4.8640   5.0267   5.0751   5.2895   5.4370   5.6908

     occupation numbers 
     1.0000   1.0000   1.0000   1.0000   1.0000   1.0000   1.0000   1.0000
     1.0000   1.0000   1.0000   1.0000   1.0000   1.0000   1.0000   1.0000
     1.0000   1.0000   1.0000   1.0000   1.0000   1.0000   1.0000   1.0000
     1.0000   1.0000   1.0000   1.0000   1.0000   1.0000   1.0000   1.0000
     1.0000   1.0000   1.0000   1.0000   1.0000   1.0000   1.0000   1.0000
     1.0000   1.0000   1.0000   1.0000   1.0000   1.0000   1.0000   1.0000
     1.0000   1.0000   1.0000   1.0000   1.0000   1.0000

          k = 0.5000-0.0962 0.0939 (  6122 PWs)   bands (ev):

   -11.1397 -10.8291 -10.7731 -10.4777 -10.2319 -10.1177   0.2966   0.6012
     0.6870   0.7686   0.8360   0.9443   1.0230   1.0868   1.1570   1.2210
     1.2297   1.3165   1.4375   1.4517   1.5071   1.6025   1.6417   1.7145
     1.7758   1.7987   1.9032   2.0020   2.0181   2.0937   2.1376   2.1635
     2.2272   2.2932   2.4966   2.5976   2.7333   2.8673   2.9548   3.0700
     3.2113   3.4986   3.7915   3.9661   4.1963   4.3462   4.4859   4.6496
     4.9026   5.0045   5.1403   5.3220   5.3537   5.7096

     occupation numbers 
     1.0000   1.0000   1.0000   1.0000   1.0000   1.0000   1.0000   1.0000
     1.0000   1.0000   1.0000   1.0000   1.0000   1.0000   1.0000   1.0000
     1.0000   1.0000   1.0000   1.0000   1.0000   1.0000   1.0000   1.0000
     1.0000   1.0000   1.0000   1.0000   1.0000   1.0000   1.0000   1.0000
     1.0000   1.0000   1.0000   1.0000   1.0000   1.0000   1.0000   1.0000
     1.0000   1.0000   1.0000   1.0000   1.0000   1.0000   1.0000   1.0000
     1.0000   1.0000   1.0000   1.0000   1.0000   1.0000

          k =-0.3333-0.5774 0.0313 (  6138 PWs)   bands (ev):

   -11.0847 -10.7483 -10.7040 -10.4201 -10.1291 -10.1003   0.4363   0.7743
     0.8141   0.9294   1.0155   1.0386   1.1833   1.2019   1.2416   1.2666
     1.4555   1.4815   1.5132   1.5775   1.6302   1.6781   1.7195   1.7657
     1.8771   1.8952   1.9207   1.9613   2.0085   2.1124   2.1661   2.2145
     2.2884   2.3645   2.5005   2.5649   2.6391   2.6777   2.8493   2.9302
     2.9980   3.0530   3.2010   3.3190   3.5749   3.9575   4.2752   4.4729
     4.6012   4.7300   4.8521   4.9635   5.2392   5.4036

     occupation numbers 
     1.0000   1.0000   1.0000   1.0000   1.0000   1.0000   1.0000   1.0000
     1.0000   1.0000   1.0000   1.0000   1.0000   1.0000   1.0000   1.0000
     1.0000   1.0000   1.0000   1.0000   1.0000   1.0000   1.0000   1.0000
     1.0000   1.0000   1.0000   1.0000   1.0000   1.0000   1.0000   1.0000
     1.0000   1.0000   1.0000   1.0000   1.0000   1.0000   1.0000   1.0000
     1.0000   1.0000   1.0000   1.0000   1.0000   1.0000   1.0000   1.0000
     1.0000   1.0000   1.0000   1.0000   1.0000   1.0000

          k =-0.3333-0.5774 0.0626 (  6144 PWs)   bands (ev):

   -11.0847 -10.7483 -10.7040 -10.4201 -10.1291 -10.1003   0.4363   0.7738
     0.8143   0.9297   1.0146   1.0363   1.1829   1.2044   1.2427   1.2716
     1.4525   1.4871   1.5115   1.5824   1.6279   1.6570   1.7175   1.7739
     1.8769   1.8961   1.9208   1.9644   2.0106   2.1203   2.1726   2.2074
     2.2675   2.3765   2.5008   2.5782   2.6339   2.6676   2.8487   2.9367
     3.0036   3.0574   3.2007   3.2744   3.6445   3.9004   4.2980   4.4776
     4.6190   4.7235   4.8257   4.9588   5.2479   5.4073

     occupation numbers 
     1.0000   1.0000   1.0000   1.0000   1.0000   1.0000   1.0000   1.0000
     1.0000   1.0000   1.0000   1.0000   1.0000   1.0000   1.0000   1.0000
     1.0000   1.0000   1.0000   1.0000   1.0000   1.0000   1.0000   1.0000
     1.0000   1.0000   1.0000   1.0000   1.0000   1.0000   1.0000   1.0000
     1.0000   1.0000   1.0000   1.0000   1.0000   1.0000   1.0000   1.0000
     1.0000   1.0000   1.0000   1.0000   1.0000   1.0000   1.0000   1.0000
     1.0000   1.0000   1.0000   1.0000   1.0000   1.0000

     highest occupied level (ev):     6.9019

!    total energy              =   -1084.83550530 Ry
     estimated scf accuracy    <          6.7E-09 Ry

     The total energy is the sum of the following terms:
     one-electron contribution =    -480.56510626 Ry
     hartree contribution      =     361.51885156 Ry
     xc contribution           =    -328.49345495 Ry
     ewald contribution        =    -637.29579564 Ry

     convergence has been achieved in  28 iterations

     Forces acting on atoms (cartesian axes, Ry/au):

     atom    1 type  1   force =    -0.00747592    0.04838222    0.01266272
     atom    2 type  1   force =     0.00086715   -0.03631572    0.03210063
     atom    3 type  2   force =    -0.03700923    0.00113569   -0.02677859
     atom    4 type  2   force =     0.00899795   -0.04718651   -0.01744834
     atom    5 type  1   force =     0.00875833    0.01136560    0.02108489
     atom    6 type  1   force =     0.03391547   -0.00048954    0.03845605
     atom    7 type  2   force =     0.00094652    0.01897703    0.02584665
     atom    8 type  2   force =    -0.00757503   -0.01645296   -0.04530903
     atom    9 type  1   force =    -0.01037374   -0.03867542    0.03227308
     atom   10 type  1   force =     0.00145399   -0.01637512   -0.01945120
     atom   11 type  2   force =     0.00033794    0.04051084   -0.03561382
     atom   12 type  2   force =     0.00715657    0.03512387   -0.01782304
     The non-local contrib.  to forces
     atom    1 type  1   force =    -0.06567627    0.17813917    0.31766956
     atom    2 type  1   force =     0.00337377   -0.13084828    0.25110469
     atom    3 type  2   force =     0.10283584   -0.03929989    0.23083904
     atom    4 type  2   force =    -0.05321774    0.13884880    0.33775296
     atom    5 type  1   force =     0.03764179    0.06275058    0.18403369
     atom    6 type  1   force =     0.15182491   -0.03381525    0.27313418
     atom    7 type  2   force =     0.00785085   -0.03333329    0.39581810
     atom    8 type  2   force =     0.04154485    0.01132718    0.19720864
     atom    9 type  1   force =    -0.02829369   -0.15177229    0.29232650
     atom   10 type  1   force =    -0.01054384   -0.07267931    0.34679700
     atom   11 type  2   force =     0.01197876   -0.06227858    0.23824542
     atom   12 type  2   force =    -0.04072055   -0.14760205    0.24685751
     The ionic contribution  to forces
     atom    1 type  1   force =    -0.49298030    1.27028065    1.06946005
     atom    2 type  1   force =     0.04609497   -0.95792879    2.90039744
     atom    3 type  2   force =    -1.00122145    0.31182538   -2.03519875
     atom    4 type  2   force =     0.41132286   -1.35874607   -2.86562188
     atom    5 type  1   force =     0.26228238    0.49986619   -0.11335382
     atom    6 type  1   force =     1.07929308   -0.27593109    2.76368255
     atom    7 type  2   force =     0.00478631    0.40826991   -1.59810598
     atom    8 type  2   force =    -0.27069266   -0.29097435   -3.34511457
     atom    9 type  1   force =    -0.21458274   -1.06489073    4.37467848
     atom   10 type  1   force =    -0.07704515   -0.43649240    1.94803839
     atom   11 type  2   force =    -0.07873439    0.75140159   -2.02500935
     atom   12 type  2   force =     0.33147709    1.14331971   -1.07385255
     The local contribution  to forces
     atom    1 type  1   force =     0.54597553   -1.38524399   -1.35362873
     atom    2 type  1   force =    -0.04829425    1.04131918   -3.09948238
     atom    3 type  2   force =     0.86207390   -0.27171774    1.77932538
     atom    4 type  2   force =    -0.34953283    1.17366530    2.51321727
     atom    5 type  1   force =    -0.28793457   -0.54624295   -0.03568503
     atom    6 type  1   force =    -1.18460848    0.30673182   -2.97570352
     atom    7 type  2   force =    -0.01160568   -0.35614562    1.23193919
     atom    8 type  2   force =     0.22189815    0.26318287    3.10398333
     atom    9 type  1   force =     0.23003101    1.16476328   -4.61175967
     atom   10 type  1   force =     0.08837633    0.48709653   -2.29573528
     atom   11 type  2   force =     0.06720212   -0.64893924    1.75294087
     atom   12 type  2   force =    -0.28391598   -0.96173120    0.81130015
     The core correction contribution to forces
     atom    1 type  1   force =     0.00520275   -0.01478422   -0.02090130
     atom    2 type  1   force =    -0.00030511    0.01113710   -0.02000212
     atom    3 type  2   force =    -0.00070103    0.00032932   -0.00185631
     atom    4 type  2   force =     0.00042610   -0.00095762   -0.00285596
     atom    5 type  1   force =    -0.00322842   -0.00500670   -0.01385523
     atom    6 type  1   force =    -0.01259313    0.00252305   -0.02283389
     atom    7 type  2   force =    -0.00008923    0.00018480   -0.00371483
     atom    8 type  2   force =    -0.00034145    0.00000744   -0.00138773
     atom    9 type  1   force =     0.00247157    0.01322267   -0.02290055
     atom   10 type  1   force =     0.00066150    0.00569517   -0.01829299
     atom   11 type  2   force =    -0.00010757    0.00032857   -0.00184382
     atom   12 type  2   force =     0.00031739    0.00113541   -0.00206100
     The Hubbard contrib.    to forces
     atom    1 type  1   force =     0.00000000    0.00000000    0.00000000
     atom    2 type  1   force =     0.00000000    0.00000000    0.00000000
     atom    3 type  2   force =     0.00000000    0.00000000    0.00000000
     atom    4 type  2   force =     0.00000000    0.00000000    0.00000000
     atom    5 type  1   force =     0.00000000    0.00000000    0.00000000
     atom    6 type  1   force =     0.00000000    0.00000000    0.00000000
     atom    7 type  2   force =     0.00000000    0.00000000    0.00000000
     atom    8 type  2   force =     0.00000000    0.00000000    0.00000000
     atom    9 type  1   force =     0.00000000    0.00000000    0.00000000
     atom   10 type  1   force =     0.00000000    0.00000000    0.00000000
     atom   11 type  2   force =     0.00000000    0.00000000    0.00000000
     atom   12 type  2   force =     0.00000000    0.00000000    0.00000000
     The SCF correction term to forces
     atom    1 type  1   force =     0.00000338   -0.00000845    0.00005858
     atom    2 type  1   force =    -0.00000123    0.00000602    0.00007844
     atom    3 type  2   force =     0.00000450   -0.00000043    0.00010748
     atom    4 type  2   force =     0.00000057    0.00000401    0.00005469
     atom    5 type  1   force =    -0.00000184   -0.00000057   -0.00005929
     atom    6 type  1   force =     0.00000010    0.00000288    0.00017217
     atom    7 type  2   force =     0.00000527    0.00000218   -0.00009439
     atom    8 type  2   force =     0.00001707    0.00000484   -0.00000327
     atom    9 type  1   force =     0.00000112    0.00000260   -0.00007625
     atom   10 type  1   force =     0.00000615    0.00000584   -0.00026288
     atom   11 type  2   force =     0.00000002   -0.00000054    0.00004850
     atom   12 type  2   force =    -0.00000038    0.00000295   -0.00007173

     Total force =     0.155251     Total SCF correction =     0.000386

     init_run     :     11.34s CPU      6.86s WALL (       1 calls)
     electrons    :    806.21s CPU    422.43s WALL (       1 calls)
     forces       :      3.66s CPU      1.98s WALL (       1 calls)

     Called by init_run:
     wfcinit      :      8.27s CPU      4.36s WALL (       1 calls)
     wfcinit:atom :      0.08s CPU      0.05s WALL (      14 calls)
     wfcinit:wfcr :      7.66s CPU      3.89s WALL (      14 calls)
     potinit      :      0.89s CPU      0.61s WALL (       1 calls)
     hinit0       :      1.96s CPU      1.71s WALL (       1 calls)

     Called by electrons:
     c_bands      :    704.53s CPU    371.59s WALL (      28 calls)
     sum_band     :     89.69s CPU     43.43s WALL (      28 calls)
     v_of_rho     :      7.00s CPU      4.40s WALL (      29 calls)
     v_h          :      0.40s CPU      0.29s WALL (      29 calls)
     v_xc         :      6.81s CPU      4.25s WALL (      30 calls)
     newd         :      3.35s CPU      1.84s WALL (      29 calls)
     mix_rho      :      1.15s CPU      0.80s WALL (      28 calls)

     Called by c_bands:
     init_us_2    :      5.19s CPU      2.59s WALL (     812 calls)
     init_us_2:cp :      5.18s CPU      2.59s WALL (     812 calls)
     cegterg      :    644.14s CPU    323.99s WALL (     392 calls)

     Called by sum_band:
     sum_band:wei :      0.03s CPU      0.02s WALL (      28 calls)
     sum_band:loo :     82.97s CPU     39.33s WALL (      28 calls)
     sum_band:buf :      0.86s CPU      0.45s WALL (     392 calls)
     sum_band:ini :      2.30s CPU      1.09s WALL (     392 calls)
     sum_band:cal :     10.28s CPU      5.20s WALL (     392 calls)
     sum_band:bec :      0.15s CPU      0.11s WALL (     392 calls)
     addusdens    :      4.24s CPU      2.17s WALL (      28 calls)
     addusd:skk   :      0.03s CPU      0.02s WALL (      56 calls)
     addusd:dgemm :      0.87s CPU      0.42s WALL (      56 calls)
     addusd:qvan2 :      2.52s CPU      1.17s WALL (      56 calls)

     Called by *egterg:
     cdiaghg      :     31.85s CPU     24.88s WALL (    2819 calls)
     cegterg:over :     46.02s CPU     24.78s WALL (    2427 calls)
     cegterg:upda :     22.74s CPU     10.31s WALL (    2427 calls)
     cegterg:last :     39.12s CPU     19.30s WALL (    1154 calls)
     h_psi        :    458.19s CPU    221.72s WALL (    2833 calls)
     s_psi        :     34.50s CPU     16.13s WALL (    2833 calls)
     g_psi        :      1.70s CPU      1.00s WALL (    2427 calls)

     Called by h_psi:
     h_psi:calbec :     43.77s CPU     21.95s WALL (    2833 calls)
     vloc_psi     :    380.82s CPU    182.37s WALL (    2833 calls)
     add_vuspsi   :     32.18s CPU     16.69s WALL (    2833 calls)

     General routines
     calbec       :     55.53s CPU     27.92s WALL (    3281 calls)
     fft          :      4.84s CPU      3.55s WALL (     386 calls)
     ffts         :      0.36s CPU      0.26s WALL (      57 calls)
     fftw         :    396.94s CPU    189.40s WALL (  160450 calls)
     interpolate  :      0.55s CPU      0.41s WALL (      29 calls)

     Parallel routines

     PWSCF        :  13m41.89s CPU   7m11.95s WALL


   This run was terminated on:   2:14: 7  25Sep2025            

=------------------------------------------------------------------------------=
   JOB DONE.
=------------------------------------------------------------------------------=
