
     Program PWSCF v.7.0 starts on 26Sep2025 at  2:20:43 

     This program is part of the open-source Quantum ESPRESSO suite
     for quantum simulation of materials; please cite
         "P. Giannozzi et al., J. Phys.:Condens. Matter 21 395502 (2009);
         "P. Giannozzi et al., J. Phys.:Condens. Matter 29 465901 (2017);
         "P. Giannozzi et al., J. Chem. Phys. 152 154105 (2020);
          URL http://www.quantum-espresso.org", 
     in publications or presentations arising from this work. More details at
     http://www.quantum-espresso.org/quote

     Parallel version (MPI & OpenMP), running on      32 processor cores
     Number of MPI processes:                16
     Threads/MPI process:                     2

     MPI processes distributed on     1 nodes
     K-points division:     npool     =       8
     R & G space division:  proc/nbgrp/npool/nimage =       2
     105682 MiB available memory on the printing compute node when the environment starts

     Reading input from /home/jvc/QEspresso7.2/ZnO_database/scripts/random_1x1x3.in/ZnO-3.53-1.65-113-0.04-1.in
Warning: card &CELL ignored
Warning: card / ignored
Warning: card &FCP ignored
Warning: card / ignored
Warning: card &RISM ignored
Warning: card / ignored

     Current dimensions of program PWSCF are:
     Max number of different atomic species (ntypx) = 10
     Max number of k-points (npk) =  40000
     Max angular momentum in pseudopotentials (lmaxx) =  4
     file Zn.upf: wavefunction(s)  3D renormalized

     Subspace diagonalization in iterative solution of the eigenvalue problem:
     a serial algorithm will be used


     Parallelization info
     --------------------
     sticks:   dense  smooth     PW     G-vecs:    dense   smooth      PW
     Min         618     305     93                85834    30278    4911
     Max         619     308     94                85843    30279    4920
     Sum        1237     613    187               171677    60557    9831

     Using Slab Decomposition



     bravais-lattice index     =            0
     lattice parameter (alat)  =       6.6732  a.u.
     unit-cell volume          =    1271.2971 (a.u.)^3
     number of atoms/cell      =           12
     number of atomic types    =            2
     number of electrons       =       108.00
     number of Kohn-Sham states=           54
     kinetic-energy cutoff     =      50.0000  Ry
     charge density cutoff     =     400.0000  Ry
     scf convergence threshold =      1.0E-08
     mixing beta               =       0.3000
     number of iterations used =            8  plain     mixing
     Exchange-correlation= PBE
                           (   1   4   3   4   0   0   0)

     celldm(1)=   6.673162  celldm(2)=   0.000000  celldm(3)=   0.000000
     celldm(4)=   0.000000  celldm(5)=   0.000000  celldm(6)=   0.000000

     crystal axes: (cart. coord. in units of alat)
               a(1) = (   1.000000   0.000000   0.000000 )  
               a(2) = (  -0.500000   0.866025   0.000000 )  
               a(3) = (   0.000000   0.000000   4.939937 )  

     reciprocal axes: (cart. coord. in units 2 pi/alat)
               b(1) = (  1.000000  0.577350 -0.000000 )  
               b(2) = (  0.000000  1.154701  0.000000 )  
               b(3) = (  0.000000 -0.000000  0.202432 )  


     PseudoPot. # 1 for Zn read from file:
     /home/jvc/QEspresso7.2/ZnO_database/pseudos/Zn.upf
     MD5 check sum: 7f56cabf9682ed8c977c2f7d0c5985c5
     Pseudo is Ultrasoft + core correction, Zval = 12.0
     Generated using &quot;atomic&quot; code by A. Dal Corso  v.6.2.2
     Using radial grid of 1201 points,  6 beta functions with: 
                l(1) =   0
                l(2) =   0
                l(3) =   1
                l(4) =   1
                l(5) =   2
                l(6) =   2
     Q(r) pseudized with 0 coefficients 


     PseudoPot. # 2 for O  read from file:
     /home/jvc/QEspresso7.2/ZnO_database/pseudos/O.upf
     MD5 check sum: 91400c9766925bcf19f520983a725ff0
     Pseudo is Ultrasoft + core correction, Zval =  6.0
     Generated using &quot;atomic&quot; code by A. Dal Corso  v.6.3MaX
     Using radial grid of 1095 points,  4 beta functions with: 
                l(1) =   0
                l(2) =   0
                l(3) =   1
                l(4) =   1
     Q(r) pseudized with 0 coefficients 


     atomic species   valence    mass     pseudopotential
        Zn            12.00    65.38000     Zn( 1.00)
        O              6.00    15.99900     O ( 1.00)

     No symmetry found


                                    s                        frac. trans.

      isym =  1     identity                                     

 cryst.   s( 1) = (     1          0          0      )
                  (     0          1          0      )
                  (     0          0          1      )

 cart.    s( 1) = (  1.0000000  0.0000000  0.0000000 )
                  (  0.0000000  1.0000000  0.0000000 )
                  (  0.0000000  0.0000000  1.0000000 )


   Cartesian axes

     site n.     atom                  positions (alat units)
         1           Zn  tau(   1) = (   0.5122207   0.2850521   0.8261393  )
         2           Zn  tau(   2) = (  -0.0016621   0.5682471  -0.0047744  )
         3           O   tau(   3) = (   0.4909948   0.2835728   1.4472520  )
         4           O   tau(   4) = (   0.0085011   0.5741907   0.6366301  )
         5           Zn  tau(   5) = (   0.4892800   0.2826661   2.4744519  )
         6           Zn  tau(   6) = (  -0.0018253   0.5684201   1.6511548  )
         7           O   tau(   7) = (   0.4818018   0.2855876   3.1002481  )
         8           O   tau(   8) = (  -0.0006122   0.5746133   2.2656820  )
         9           Zn  tau(   9) = (   0.4895932   0.3077424   4.1209725  )
        10           Zn  tau(  10) = (  -0.0157091   0.5759417   3.2994820  )
        11           O   tau(  11) = (   0.4835091   0.2732304   4.7400128  )
        12           O   tau(  12) = (  -0.0050640   0.5952699   3.9265543  )

   Crystallographic axes

     site n.     atom                  positions (cryst. coord.)
         1           Zn  tau(   1) = (  0.6767957  0.3291498  0.1672368  )
         2           Zn  tau(   2) = (  0.3264155  0.6561552 -0.0009665  )
         3           O   tau(   3) = (  0.6547157  0.3274417  0.2929697  )
         4           O   tau(   4) = (  0.3400103  0.6630183  0.1288741  )
         5           Zn  tau(   5) = (  0.6524773  0.3263947  0.5009076  )
         6           Zn  tau(   6) = (  0.3263522  0.6563549  0.3342462  )
         7           O   tau(   7) = (  0.6466859  0.3297682  0.6275886  )
         8           O   tau(   8) = (  0.3311410  0.6635063  0.4586460  )
         9           Zn  tau(   9) = (  0.6672684  0.3553503  0.8342157  )
        10           Zn  tau(  10) = (  0.3168110  0.6650402  0.6679199  )
        11           O   tau(  11) = (  0.6412587  0.3154993  0.9595291  )
        12           O   tau(  12) = (  0.3386153  0.6873585  0.7948593  )

     number of k points=   112
                       cart. coord. in units 2pi/alat
        k(    1) = (   0.0000000   0.0000000   0.0000000), wk =   0.0092593
        k(    2) = (   0.0000000   0.0000000   0.0337386), wk =   0.0185185
        k(    3) = (   0.0000000   0.0000000   0.0674772), wk =   0.0185185
        k(    4) = (   0.0000000   0.0000000  -0.1012159), wk =   0.0092593
        k(    5) = (   0.0000000   0.1924501   0.0000000), wk =   0.0185185
        k(    6) = (   0.0000000   0.1924501   0.0337386), wk =   0.0185185
        k(    7) = (   0.0000000   0.1924501   0.0674772), wk =   0.0185185
        k(    8) = (   0.0000000   0.1924501  -0.1012159), wk =   0.0185185
        k(    9) = (   0.0000000   0.3849002   0.0000000), wk =   0.0185185
        k(   10) = (   0.0000000   0.3849002   0.0337386), wk =   0.0185185
        k(   11) = (   0.0000000   0.3849002   0.0674772), wk =   0.0185185
        k(   12) = (   0.0000000   0.3849002  -0.1012159), wk =   0.0185185
        k(   13) = (   0.0000000  -0.5773503   0.0000000), wk =   0.0092593
        k(   14) = (   0.0000000  -0.5773503   0.0337386), wk =   0.0185185
        k(   15) = (   0.0000000  -0.5773503   0.0674772), wk =   0.0185185
        k(   16) = (   0.0000000  -0.5773503  -0.1012159), wk =   0.0092593
        k(   17) = (   0.1666667   0.2886751   0.0000000), wk =   0.0185185
        k(   18) = (   0.1666667   0.2886751   0.0337386), wk =   0.0185185
        k(   19) = (   0.1666667   0.2886751   0.0674772), wk =   0.0185185
        k(   20) = (   0.1666667   0.2886751  -0.1012159), wk =   0.0185185
        k(   21) = (   0.1666667   0.4811252   0.0000000), wk =   0.0185185
        k(   22) = (   0.1666667   0.4811252   0.0337386), wk =   0.0185185
        k(   23) = (   0.1666667   0.4811252   0.0674772), wk =   0.0185185
        k(   24) = (   0.1666667   0.4811252  -0.1012159), wk =   0.0185185
        k(   25) = (   0.3333333   0.5773503   0.0000000), wk =   0.0185185
        k(   26) = (   0.3333333   0.5773503   0.0337386), wk =   0.0185185
        k(   27) = (   0.3333333   0.5773503   0.0674772), wk =   0.0185185
        k(   28) = (   0.3333333   0.5773503  -0.1012159), wk =   0.0185185
        k(   29) = (  -0.1666667   0.0962250   0.0000000), wk =   0.0185185
        k(   30) = (   0.1666667   0.0962250   0.0000000), wk =   0.0185185
        k(   31) = (   0.0000000  -0.1924501   0.0337386), wk =   0.0185185
        k(   32) = (  -0.1666667   0.0962250   0.0337386), wk =   0.0185185
        k(   33) = (   0.1666667   0.0962250   0.0337386), wk =   0.0185185
        k(   34) = (  -0.1666667  -0.0962250   0.0337386), wk =   0.0185185
        k(   35) = (   0.1666667  -0.0962250   0.0337386), wk =   0.0185185
        k(   36) = (   0.0000000  -0.1924501   0.0674772), wk =   0.0185185
        k(   37) = (  -0.1666667   0.0962250   0.0674772), wk =   0.0185185
        k(   38) = (   0.1666667   0.0962250   0.0674772), wk =   0.0185185
        k(   39) = (  -0.1666667  -0.0962250   0.0674772), wk =   0.0185185
        k(   40) = (   0.1666667  -0.0962250   0.0674772), wk =   0.0185185
        k(   41) = (  -0.1666667   0.0962250  -0.1012159), wk =   0.0185185
        k(   42) = (   0.1666667   0.0962250  -0.1012159), wk =   0.0185185
        k(   43) = (  -0.3333333   0.1924501   0.0000000), wk =   0.0185185
        k(   44) = (   0.3333333   0.1924501   0.0000000), wk =   0.0185185
        k(   45) = (   0.0000000  -0.3849002   0.0337386), wk =   0.0185185
        k(   46) = (  -0.3333333   0.1924501   0.0337386), wk =   0.0185185
        k(   47) = (   0.3333333   0.1924501   0.0337386), wk =   0.0185185
        k(   48) = (  -0.3333333  -0.1924501   0.0337386), wk =   0.0185185
        k(   49) = (   0.3333333  -0.1924501   0.0337386), wk =   0.0185185
        k(   50) = (   0.0000000  -0.3849002   0.0674772), wk =   0.0185185
        k(   51) = (  -0.3333333   0.1924501   0.0674772), wk =   0.0185185
        k(   52) = (   0.3333333   0.1924501   0.0674772), wk =   0.0185185
        k(   53) = (  -0.3333333  -0.1924501   0.0674772), wk =   0.0185185
        k(   54) = (   0.3333333  -0.1924501   0.0674772), wk =   0.0185185
        k(   55) = (  -0.3333333   0.1924501  -0.1012159), wk =   0.0185185
        k(   56) = (   0.3333333   0.1924501  -0.1012159), wk =   0.0185185
        k(   57) = (   0.5000000  -0.2886751   0.0000000), wk =   0.0092593
        k(   58) = (  -0.5000000  -0.2886751   0.0000000), wk =   0.0092593
        k(   59) = (   0.5000000  -0.2886751   0.0337386), wk =   0.0185185
        k(   60) = (  -0.5000000  -0.2886751   0.0337386), wk =   0.0185185
        k(   61) = (   0.5000000  -0.2886751   0.0674772), wk =   0.0185185
        k(   62) = (  -0.5000000  -0.2886751   0.0674772), wk =   0.0185185
        k(   63) = (   0.5000000  -0.2886751  -0.1012159), wk =   0.0092593
        k(   64) = (  -0.5000000  -0.2886751  -0.1012159), wk =   0.0092593
        k(   65) = (  -0.1666667   0.2886751   0.0000000), wk =   0.0185185
        k(   66) = (   0.3333333   0.0000000   0.0000000), wk =   0.0185185
        k(   67) = (  -0.1666667  -0.2886751   0.0337386), wk =   0.0185185
        k(   68) = (  -0.1666667   0.2886751  -0.0337386), wk =   0.0185185
        k(   69) = (   0.1666667  -0.2886751  -0.0337386), wk =   0.0185185
        k(   70) = (   0.3333333   0.0000000   0.0337386), wk =   0.0185185
        k(   71) = (  -0.3333333  -0.0000000   0.0337386), wk =   0.0185185
        k(   72) = (  -0.1666667  -0.2886751   0.0674772), wk =   0.0185185
        k(   73) = (  -0.1666667   0.2886751  -0.0674772), wk =   0.0185185
        k(   74) = (   0.1666667  -0.2886751  -0.0674772), wk =   0.0185185
        k(   75) = (   0.3333333   0.0000000   0.0674772), wk =   0.0185185
        k(   76) = (  -0.3333333  -0.0000000   0.0674772), wk =   0.0185185
        k(   77) = (  -0.1666667   0.2886751   0.1012159), wk =   0.0185185
        k(   78) = (   0.3333333   0.0000000  -0.1012159), wk =   0.0185185
        k(   79) = (  -0.1666667   0.4811252   0.0000000), wk =   0.0185185
        k(   80) = (  -0.3333333   0.3849002   0.0000000), wk =   0.0185185
        k(   81) = (   0.5000000   0.0962250   0.0000000), wk =   0.0185185
        k(   82) = (  -0.3333333  -0.3849002   0.0000000), wk =   0.0185185
        k(   83) = (   0.5000000  -0.0962250   0.0000000), wk =   0.0185185
        k(   84) = (  -0.1666667  -0.4811252   0.0337386), wk =   0.0185185
        k(   85) = (  -0.1666667   0.4811252  -0.0337386), wk =   0.0185185
        k(   86) = (   0.1666667  -0.4811252  -0.0337386), wk =   0.0185185
        k(   87) = (  -0.3333333   0.3849002   0.0337386), wk =   0.0185185
        k(   88) = (   0.5000000   0.0962250   0.0337386), wk =   0.0185185
        k(   89) = (  -0.5000000  -0.0962250   0.0337386), wk =   0.0185185
        k(   90) = (   0.3333333  -0.3849002   0.0337386), wk =   0.0185185
        k(   91) = (  -0.3333333  -0.3849002  -0.0337386), wk =   0.0185185
        k(   92) = (   0.5000000  -0.0962250  -0.0337386), wk =   0.0185185
        k(   93) = (  -0.5000000   0.0962250  -0.0337386), wk =   0.0185185
        k(   94) = (   0.3333333   0.3849002  -0.0337386), wk =   0.0185185
        k(   95) = (  -0.1666667  -0.4811252   0.0674772), wk =   0.0185185
        k(   96) = (  -0.1666667   0.4811252  -0.0674772), wk =   0.0185185
        k(   97) = (   0.1666667  -0.4811252  -0.0674772), wk =   0.0185185
        k(   98) = (  -0.3333333   0.3849002   0.0674772), wk =   0.0185185
        k(   99) = (   0.5000000   0.0962250   0.0674772), wk =   0.0185185
        k(  100) = (  -0.5000000  -0.0962250   0.0674772), wk =   0.0185185
        k(  101) = (   0.3333333  -0.3849002   0.0674772), wk =   0.0185185
        k(  102) = (  -0.3333333  -0.3849002  -0.0674772), wk =   0.0185185
        k(  103) = (   0.5000000  -0.0962250  -0.0674772), wk =   0.0185185
        k(  104) = (  -0.5000000   0.0962250  -0.0674772), wk =   0.0185185
        k(  105) = (   0.3333333   0.3849002  -0.0674772), wk =   0.0185185
        k(  106) = (  -0.1666667   0.4811252   0.1012159), wk =   0.0185185
        k(  107) = (  -0.3333333   0.3849002  -0.1012159), wk =   0.0185185
        k(  108) = (   0.5000000   0.0962250  -0.1012159), wk =   0.0185185
        k(  109) = (  -0.3333333  -0.3849002   0.1012159), wk =   0.0185185
        k(  110) = (   0.5000000  -0.0962250   0.1012159), wk =   0.0185185
        k(  111) = (  -0.3333333  -0.5773503   0.0337386), wk =   0.0185185
        k(  112) = (  -0.3333333  -0.5773503   0.0674772), wk =   0.0185185

                       cryst. coord.
        k(    1) = (   0.0000000   0.0000000   0.0000000), wk =   0.0092593
        k(    2) = (   0.0000000   0.0000000   0.1666667), wk =   0.0185185
        k(    3) = (   0.0000000   0.0000000   0.3333333), wk =   0.0185185
        k(    4) = (   0.0000000   0.0000000  -0.5000000), wk =   0.0092593
        k(    5) = (   0.0000000   0.1666667   0.0000000), wk =   0.0185185
        k(    6) = (   0.0000000   0.1666667   0.1666667), wk =   0.0185185
        k(    7) = (   0.0000000   0.1666667   0.3333333), wk =   0.0185185
        k(    8) = (   0.0000000   0.1666667  -0.5000000), wk =   0.0185185
        k(    9) = (   0.0000000   0.3333333   0.0000000), wk =   0.0185185
        k(   10) = (   0.0000000   0.3333333   0.1666667), wk =   0.0185185
        k(   11) = (   0.0000000   0.3333333   0.3333333), wk =   0.0185185
        k(   12) = (   0.0000000   0.3333333  -0.5000000), wk =   0.0185185
        k(   13) = (   0.0000000  -0.5000000   0.0000000), wk =   0.0092593
        k(   14) = (   0.0000000  -0.5000000   0.1666667), wk =   0.0185185
        k(   15) = (   0.0000000  -0.5000000   0.3333333), wk =   0.0185185
        k(   16) = (   0.0000000  -0.5000000  -0.5000000), wk =   0.0092593
        k(   17) = (   0.1666667   0.1666667   0.0000000), wk =   0.0185185
        k(   18) = (   0.1666667   0.1666667   0.1666667), wk =   0.0185185
        k(   19) = (   0.1666667   0.1666667   0.3333333), wk =   0.0185185
        k(   20) = (   0.1666667   0.1666667  -0.5000000), wk =   0.0185185
        k(   21) = (   0.1666667   0.3333333   0.0000000), wk =   0.0185185
        k(   22) = (   0.1666667   0.3333333   0.1666667), wk =   0.0185185
        k(   23) = (   0.1666667   0.3333333   0.3333333), wk =   0.0185185
        k(   24) = (   0.1666667   0.3333333  -0.5000000), wk =   0.0185185
        k(   25) = (   0.3333333   0.3333333   0.0000000), wk =   0.0185185
        k(   26) = (   0.3333333   0.3333333   0.1666667), wk =   0.0185185
        k(   27) = (   0.3333333   0.3333333   0.3333333), wk =   0.0185185
        k(   28) = (   0.3333333   0.3333333  -0.5000000), wk =   0.0185185
        k(   29) = (  -0.1666667   0.1666667   0.0000000), wk =   0.0185185
        k(   30) = (   0.1666667   0.0000000   0.0000000), wk =   0.0185185
        k(   31) = (   0.0000000  -0.1666667   0.1666667), wk =   0.0185185
        k(   32) = (  -0.1666667   0.1666667   0.1666667), wk =   0.0185185
        k(   33) = (   0.1666667   0.0000000   0.1666667), wk =   0.0185185
        k(   34) = (  -0.1666667   0.0000000   0.1666667), wk =   0.0185185
        k(   35) = (   0.1666667  -0.1666667   0.1666667), wk =   0.0185185
        k(   36) = (   0.0000000  -0.1666667   0.3333333), wk =   0.0185185
        k(   37) = (  -0.1666667   0.1666667   0.3333333), wk =   0.0185185
        k(   38) = (   0.1666667   0.0000000   0.3333333), wk =   0.0185185
        k(   39) = (  -0.1666667   0.0000000   0.3333333), wk =   0.0185185
        k(   40) = (   0.1666667  -0.1666667   0.3333333), wk =   0.0185185
        k(   41) = (  -0.1666667   0.1666667  -0.5000000), wk =   0.0185185
        k(   42) = (   0.1666667   0.0000000  -0.5000000), wk =   0.0185185
        k(   43) = (  -0.3333333   0.3333333   0.0000000), wk =   0.0185185
        k(   44) = (   0.3333333   0.0000000   0.0000000), wk =   0.0185185
        k(   45) = (   0.0000000  -0.3333333   0.1666667), wk =   0.0185185
        k(   46) = (  -0.3333333   0.3333333   0.1666667), wk =   0.0185185
        k(   47) = (   0.3333333   0.0000000   0.1666667), wk =   0.0185185
        k(   48) = (  -0.3333333   0.0000000   0.1666667), wk =   0.0185185
        k(   49) = (   0.3333333  -0.3333333   0.1666667), wk =   0.0185185
        k(   50) = (   0.0000000  -0.3333333   0.3333333), wk =   0.0185185
        k(   51) = (  -0.3333333   0.3333333   0.3333333), wk =   0.0185185
        k(   52) = (   0.3333333   0.0000000   0.3333333), wk =   0.0185185
        k(   53) = (  -0.3333333   0.0000000   0.3333333), wk =   0.0185185
        k(   54) = (   0.3333333  -0.3333333   0.3333333), wk =   0.0185185
        k(   55) = (  -0.3333333   0.3333333  -0.5000000), wk =   0.0185185
        k(   56) = (   0.3333333   0.0000000  -0.5000000), wk =   0.0185185
        k(   57) = (   0.5000000  -0.5000000   0.0000000), wk =   0.0092593
        k(   58) = (  -0.5000000   0.0000000   0.0000000), wk =   0.0092593
        k(   59) = (   0.5000000  -0.5000000   0.1666667), wk =   0.0185185
        k(   60) = (  -0.5000000   0.0000000   0.1666667), wk =   0.0185185
        k(   61) = (   0.5000000  -0.5000000   0.3333333), wk =   0.0185185
        k(   62) = (  -0.5000000   0.0000000   0.3333333), wk =   0.0185185
        k(   63) = (   0.5000000  -0.5000000  -0.5000000), wk =   0.0092593
        k(   64) = (  -0.5000000   0.0000000  -0.5000000), wk =   0.0092593
        k(   65) = (  -0.1666667   0.3333333   0.0000000), wk =   0.0185185
        k(   66) = (   0.3333333  -0.1666667   0.0000000), wk =   0.0185185
        k(   67) = (  -0.1666667  -0.1666667   0.1666667), wk =   0.0185185
        k(   68) = (  -0.1666667   0.3333333  -0.1666667), wk =   0.0185185
        k(   69) = (   0.1666667  -0.3333333  -0.1666667), wk =   0.0185185
        k(   70) = (   0.3333333  -0.1666667   0.1666667), wk =   0.0185185
        k(   71) = (  -0.3333333   0.1666667   0.1666667), wk =   0.0185185
        k(   72) = (  -0.1666667  -0.1666667   0.3333333), wk =   0.0185185
        k(   73) = (  -0.1666667   0.3333333  -0.3333333), wk =   0.0185185
        k(   74) = (   0.1666667  -0.3333333  -0.3333333), wk =   0.0185185
        k(   75) = (   0.3333333  -0.1666667   0.3333333), wk =   0.0185185
        k(   76) = (  -0.3333333   0.1666667   0.3333333), wk =   0.0185185
        k(   77) = (  -0.1666667   0.3333333   0.5000000), wk =   0.0185185
        k(   78) = (   0.3333333  -0.1666667  -0.5000000), wk =   0.0185185
        k(   79) = (  -0.1666667   0.5000000   0.0000000), wk =   0.0185185
        k(   80) = (  -0.3333333   0.5000000   0.0000000), wk =   0.0185185
        k(   81) = (   0.5000000  -0.1666667   0.0000000), wk =   0.0185185
        k(   82) = (  -0.3333333  -0.1666667   0.0000000), wk =   0.0185185
        k(   83) = (   0.5000000  -0.3333333   0.0000000), wk =   0.0185185
        k(   84) = (  -0.1666667  -0.3333333   0.1666667), wk =   0.0185185
        k(   85) = (  -0.1666667   0.5000000  -0.1666667), wk =   0.0185185
        k(   86) = (   0.1666667  -0.5000000  -0.1666667), wk =   0.0185185
        k(   87) = (  -0.3333333   0.5000000   0.1666667), wk =   0.0185185
        k(   88) = (   0.5000000  -0.1666667   0.1666667), wk =   0.0185185
        k(   89) = (  -0.5000000   0.1666667   0.1666667), wk =   0.0185185
        k(   90) = (   0.3333333  -0.5000000   0.1666667), wk =   0.0185185
        k(   91) = (  -0.3333333  -0.1666667  -0.1666667), wk =   0.0185185
        k(   92) = (   0.5000000  -0.3333333  -0.1666667), wk =   0.0185185
        k(   93) = (  -0.5000000   0.3333333  -0.1666667), wk =   0.0185185
        k(   94) = (   0.3333333   0.1666667  -0.1666667), wk =   0.0185185
        k(   95) = (  -0.1666667  -0.3333333   0.3333333), wk =   0.0185185
        k(   96) = (  -0.1666667   0.5000000  -0.3333333), wk =   0.0185185
        k(   97) = (   0.1666667  -0.5000000  -0.3333333), wk =   0.0185185
        k(   98) = (  -0.3333333   0.5000000   0.3333333), wk =   0.0185185
        k(   99) = (   0.5000000  -0.1666667   0.3333333), wk =   0.0185185
        k(  100) = (  -0.5000000   0.1666667   0.3333333), wk =   0.0185185
        k(  101) = (   0.3333333  -0.5000000   0.3333333), wk =   0.0185185
        k(  102) = (  -0.3333333  -0.1666667  -0.3333333), wk =   0.0185185
        k(  103) = (   0.5000000  -0.3333333  -0.3333333), wk =   0.0185185
        k(  104) = (  -0.5000000   0.3333333  -0.3333333), wk =   0.0185185
        k(  105) = (   0.3333333   0.1666667  -0.3333333), wk =   0.0185185
        k(  106) = (  -0.1666667   0.5000000   0.5000000), wk =   0.0185185
        k(  107) = (  -0.3333333   0.5000000  -0.5000000), wk =   0.0185185
        k(  108) = (   0.5000000  -0.1666667  -0.5000000), wk =   0.0185185
        k(  109) = (  -0.3333333  -0.1666667   0.5000000), wk =   0.0185185
        k(  110) = (   0.5000000  -0.3333333   0.5000000), wk =   0.0185185
        k(  111) = (  -0.3333333  -0.3333333   0.1666667), wk =   0.0185185
        k(  112) = (  -0.3333333  -0.3333333   0.3333333), wk =   0.0185185

     Dense  grid:   171677 G-vectors     FFT dimensions: (  45,  45, 216)

     Smooth grid:    60557 G-vectors     FFT dimensions: (  32,  32, 150)

     Dynamical RAM for                 wfc:       3.13 MB

     Dynamical RAM for     wfc (w. buffer):      46.90 MB

     Dynamical RAM for           str. fact:       2.62 MB

     Dynamical RAM for           local pot:       0.00 MB

     Dynamical RAM for          nlocal pot:       9.03 MB

     Dynamical RAM for                qrad:       3.21 MB

     Dynamical RAM for          rho,v,vnew:       8.94 MB

     Dynamical RAM for               rhoin:       2.98 MB

     Dynamical RAM for            rho*nmix:      20.96 MB

     Dynamical RAM for           G-vectors:       5.14 MB

     Dynamical RAM for          h,s,v(r/c):       0.53 MB

     Dynamical RAM for          <psi|beta>:       0.13 MB

     Dynamical RAM for                 psi:       6.25 MB

     Dynamical RAM for                hpsi:       6.25 MB

     Dynamical RAM for                spsi:       6.25 MB

     Dynamical RAM for      wfcinit/wfcrot:       9.17 MB

     Dynamical RAM for           addusdens:      32.58 MB

     Dynamical RAM for          addusforce:      33.75 MB

     Estimated static dynamical RAM per process >      91.10 MB

     Estimated max dynamical RAM per process >     145.81 MB

     Estimated total dynamical RAM >       1.99 GB

     Check: negative core charge=   -0.000002

     Initial potential from superposition of free atoms

     starting charge     107.9776, renormalised to     108.0000
     Starting wfcs are   78 randomized atomic wfcs

     total cpu time spent up to now is        8.4 secs

     per-process dynamical memory:   108.4 Mb

     Self-consistent Calculation

     iteration #  1     ecut=    50.00 Ry     beta= 0.30
     Davidson diagonalization with overlap

---- Real-time Memory Report at c_bands before calling an iterative solver
           131 MiB given to the printing process from OS
           105 MiB allocation reported by mallinfo(arena+hblkhd)
        103828 MiB available memory on the node where the printing process lives
------------------
     ethr =  1.00E-02,  avg # of iterations =  1.2

     total cpu time spent up to now is       18.6 secs

     total energy              =   -1084.10236195 Ry
     estimated scf accuracy    <       2.47406111 Ry

     iteration #  2     ecut=    50.00 Ry     beta= 0.30
     Davidson diagonalization with overlap

---- Real-time Memory Report at c_bands before calling an iterative solver
           166 MiB given to the printing process from OS
           138 MiB allocation reported by mallinfo(arena+hblkhd)
        103482 MiB available memory on the node where the printing process lives
------------------
     ethr =  2.29E-03,  avg # of iterations =  2.3

     total cpu time spent up to now is       31.1 secs

     total energy              =   -1084.45674855 Ry
     estimated scf accuracy    <       0.29304326 Ry

     iteration #  3     ecut=    50.00 Ry     beta= 0.30
     Davidson diagonalization with overlap

---- Real-time Memory Report at c_bands before calling an iterative solver
           167 MiB given to the printing process from OS
           139 MiB allocation reported by mallinfo(arena+hblkhd)
        103518 MiB available memory on the node where the printing process lives
------------------
     ethr =  2.71E-04,  avg # of iterations =  5.7

     total cpu time spent up to now is       50.4 secs

     total energy              =   -1084.48423420 Ry
     estimated scf accuracy    <       0.50748785 Ry

     iteration #  4     ecut=    50.00 Ry     beta= 0.30
     Davidson diagonalization with overlap

---- Real-time Memory Report at c_bands before calling an iterative solver
           168 MiB given to the printing process from OS
           139 MiB allocation reported by mallinfo(arena+hblkhd)
        103528 MiB available memory on the node where the printing process lives
------------------
     ethr =  2.71E-04,  avg # of iterations =  7.3

     total cpu time spent up to now is       74.5 secs

     total energy              =   -1084.89067182 Ry
     estimated scf accuracy    <       0.50812212 Ry

     iteration #  5     ecut=    50.00 Ry     beta= 0.30
     Davidson diagonalization with overlap

---- Real-time Memory Report at c_bands before calling an iterative solver
           169 MiB given to the printing process from OS
           140 MiB allocation reported by mallinfo(arena+hblkhd)
        103522 MiB available memory on the node where the printing process lives
------------------
     ethr =  2.71E-04,  avg # of iterations =  1.3

     total cpu time spent up to now is       84.2 secs

     total energy              =   -1084.67911802 Ry
     estimated scf accuracy    <       0.66370885 Ry

     iteration #  6     ecut=    50.00 Ry     beta= 0.30
     Davidson diagonalization with overlap

---- Real-time Memory Report at c_bands before calling an iterative solver
           170 MiB given to the printing process from OS
           141 MiB allocation reported by mallinfo(arena+hblkhd)
        103523 MiB available memory on the node where the printing process lives
------------------
     ethr =  2.71E-04,  avg # of iterations =  2.0

     total cpu time spent up to now is       94.8 secs

     total energy              =   -1084.62282045 Ry
     estimated scf accuracy    <       0.30168753 Ry

     iteration #  7     ecut=    50.00 Ry     beta= 0.30
     Davidson diagonalization with overlap

---- Real-time Memory Report at c_bands before calling an iterative solver
           171 MiB given to the printing process from OS
           142 MiB allocation reported by mallinfo(arena+hblkhd)
        103527 MiB available memory on the node where the printing process lives
------------------
     ethr =  2.71E-04,  avg # of iterations =  3.4

     total cpu time spent up to now is      107.5 secs

     total energy              =   -1084.68562286 Ry
     estimated scf accuracy    <       0.03340478 Ry

     iteration #  8     ecut=    50.00 Ry     beta= 0.30
     Davidson diagonalization with overlap

---- Real-time Memory Report at c_bands before calling an iterative solver
           172 MiB given to the printing process from OS
           143 MiB allocation reported by mallinfo(arena+hblkhd)
        103521 MiB available memory on the node where the printing process lives
------------------
     ethr =  3.09E-05,  avg # of iterations =  6.5

     total cpu time spent up to now is      123.6 secs

     total energy              =   -1084.69989542 Ry
     estimated scf accuracy    <       0.01180328 Ry

     iteration #  9     ecut=    50.00 Ry     beta= 0.30
     Davidson diagonalization with overlap

---- Real-time Memory Report at c_bands before calling an iterative solver
           173 MiB given to the printing process from OS
           144 MiB allocation reported by mallinfo(arena+hblkhd)
        103515 MiB available memory on the node where the printing process lives
------------------
     ethr =  1.09E-05,  avg # of iterations =  1.6

     total cpu time spent up to now is      134.1 secs

     total energy              =   -1084.69393374 Ry
     estimated scf accuracy    <       0.01224585 Ry

     iteration # 10     ecut=    50.00 Ry     beta= 0.30
     Davidson diagonalization with overlap

---- Real-time Memory Report at c_bands before calling an iterative solver
           173 MiB given to the printing process from OS
           145 MiB allocation reported by mallinfo(arena+hblkhd)
        103522 MiB available memory on the node where the printing process lives
------------------
     ethr =  1.09E-05,  avg # of iterations =  5.6

     total cpu time spent up to now is      150.1 secs

     total energy              =   -1084.69852226 Ry
     estimated scf accuracy    <       0.00134721 Ry

     iteration # 11     ecut=    50.00 Ry     beta= 0.30
     Davidson diagonalization with overlap

---- Real-time Memory Report at c_bands before calling an iterative solver
           173 MiB given to the printing process from OS
           145 MiB allocation reported by mallinfo(arena+hblkhd)
        103522 MiB available memory on the node where the printing process lives
------------------
     ethr =  1.25E-06,  avg # of iterations =  6.2

     total cpu time spent up to now is      165.4 secs

     total energy              =   -1084.69793520 Ry
     estimated scf accuracy    <       0.00311988 Ry

     iteration # 12     ecut=    50.00 Ry     beta= 0.30
     Davidson diagonalization with overlap

---- Real-time Memory Report at c_bands before calling an iterative solver
           173 MiB given to the printing process from OS
           145 MiB allocation reported by mallinfo(arena+hblkhd)
        103522 MiB available memory on the node where the printing process lives
------------------
     ethr =  1.25E-06,  avg # of iterations =  2.1

     total cpu time spent up to now is      176.4 secs

     total energy              =   -1084.69935190 Ry
     estimated scf accuracy    <       0.00132375 Ry

     iteration # 13     ecut=    50.00 Ry     beta= 0.30
     Davidson diagonalization with overlap

---- Real-time Memory Report at c_bands before calling an iterative solver
           173 MiB given to the printing process from OS
           145 MiB allocation reported by mallinfo(arena+hblkhd)
        103522 MiB available memory on the node where the printing process lives
------------------
     ethr =  1.23E-06,  avg # of iterations =  3.1

     total cpu time spent up to now is      189.3 secs

     total energy              =   -1084.69833524 Ry
     estimated scf accuracy    <       0.00409809 Ry

     iteration # 14     ecut=    50.00 Ry     beta= 0.30
     Davidson diagonalization with overlap

---- Real-time Memory Report at c_bands before calling an iterative solver
           173 MiB given to the printing process from OS
           145 MiB allocation reported by mallinfo(arena+hblkhd)
        103522 MiB available memory on the node where the printing process lives
------------------
     ethr =  1.23E-06,  avg # of iterations =  2.1

     total cpu time spent up to now is      200.5 secs

     total energy              =   -1084.69813630 Ry
     estimated scf accuracy    <       0.00218582 Ry

     iteration # 15     ecut=    50.00 Ry     beta= 0.30
     Davidson diagonalization with overlap

---- Real-time Memory Report at c_bands before calling an iterative solver
           173 MiB given to the printing process from OS
           145 MiB allocation reported by mallinfo(arena+hblkhd)
        103522 MiB available memory on the node where the printing process lives
------------------
     ethr =  1.23E-06,  avg # of iterations =  2.1

     total cpu time spent up to now is      211.7 secs

     total energy              =   -1084.69822574 Ry
     estimated scf accuracy    <       0.00113727 Ry

     iteration # 16     ecut=    50.00 Ry     beta= 0.30
     Davidson diagonalization with overlap

---- Real-time Memory Report at c_bands before calling an iterative solver
           173 MiB given to the printing process from OS
           145 MiB allocation reported by mallinfo(arena+hblkhd)
        103522 MiB available memory on the node where the printing process lives
------------------
     ethr =  1.05E-06,  avg # of iterations =  1.6

     total cpu time spent up to now is      221.8 secs

     total energy              =   -1084.69873471 Ry
     estimated scf accuracy    <       0.00094684 Ry

     iteration # 17     ecut=    50.00 Ry     beta= 0.30
     Davidson diagonalization with overlap

---- Real-time Memory Report at c_bands before calling an iterative solver
           173 MiB given to the printing process from OS
           145 MiB allocation reported by mallinfo(arena+hblkhd)
        103522 MiB available memory on the node where the printing process lives
------------------
     ethr =  8.77E-07,  avg # of iterations =  2.0

     total cpu time spent up to now is      232.0 secs

     total energy              =   -1084.69819277 Ry
     estimated scf accuracy    <       0.00193197 Ry

     iteration # 18     ecut=    50.00 Ry     beta= 0.30
     Davidson diagonalization with overlap

---- Real-time Memory Report at c_bands before calling an iterative solver
           173 MiB given to the printing process from OS
           145 MiB allocation reported by mallinfo(arena+hblkhd)
        103522 MiB available memory on the node where the printing process lives
------------------
     ethr =  8.77E-07,  avg # of iterations =  2.4

     total cpu time spent up to now is      243.4 secs

     total energy              =   -1084.69812001 Ry
     estimated scf accuracy    <       0.00094651 Ry

     iteration # 19     ecut=    50.00 Ry     beta= 0.30
     Davidson diagonalization with overlap

---- Real-time Memory Report at c_bands before calling an iterative solver
           173 MiB given to the printing process from OS
           145 MiB allocation reported by mallinfo(arena+hblkhd)
        103522 MiB available memory on the node where the printing process lives
------------------
     c_bands:  1 eigenvalues not converged
     c_bands:  4 eigenvalues not converged
     c_bands:  1 eigenvalues not converged
     c_bands:  1 eigenvalues not converged
     ethr =  8.76E-07,  avg # of iterations = 13.0

     total cpu time spent up to now is      280.3 secs

     total energy              =   -1084.68991319 Ry
     estimated scf accuracy    <       0.03661108 Ry

     iteration # 20     ecut=    50.00 Ry     beta= 0.30
     Davidson diagonalization with overlap

---- Real-time Memory Report at c_bands before calling an iterative solver
           173 MiB given to the printing process from OS
           145 MiB allocation reported by mallinfo(arena+hblkhd)
        103522 MiB available memory on the node where the printing process lives
------------------
     c_bands:  1 eigenvalues not converged
     c_bands:  2 eigenvalues not converged
     c_bands:  2 eigenvalues not converged
     c_bands:  1 eigenvalues not converged
     ethr =  8.76E-07,  avg # of iterations = 12.4

     total cpu time spent up to now is      317.1 secs

     total energy              =   -1084.69799347 Ry
     estimated scf accuracy    <       0.00132114 Ry

     iteration # 21     ecut=    50.00 Ry     beta= 0.30
     Davidson diagonalization with overlap

---- Real-time Memory Report at c_bands before calling an iterative solver
           173 MiB given to the printing process from OS
           145 MiB allocation reported by mallinfo(arena+hblkhd)
        103522 MiB available memory on the node where the printing process lives
------------------
     ethr =  8.76E-07,  avg # of iterations =  2.3

     total cpu time spent up to now is      328.4 secs

     total energy              =   -1084.69776911 Ry
     estimated scf accuracy    <       0.00040508 Ry

     iteration # 22     ecut=    50.00 Ry     beta= 0.30
     Davidson diagonalization with overlap

---- Real-time Memory Report at c_bands before calling an iterative solver
           173 MiB given to the printing process from OS
           145 MiB allocation reported by mallinfo(arena+hblkhd)
        103522 MiB available memory on the node where the printing process lives
------------------
     c_bands:  1 eigenvalues not converged
     ethr =  3.75E-07,  avg # of iterations =  8.9

     total cpu time spent up to now is      355.2 secs

     total energy              =   -1084.69829417 Ry
     estimated scf accuracy    <       0.00191652 Ry

     iteration # 23     ecut=    50.00 Ry     beta= 0.30
     Davidson diagonalization with overlap

---- Real-time Memory Report at c_bands before calling an iterative solver
           173 MiB given to the printing process from OS
           145 MiB allocation reported by mallinfo(arena+hblkhd)
        103522 MiB available memory on the node where the printing process lives
------------------
     ethr =  3.75E-07,  avg # of iterations =  2.0

     total cpu time spent up to now is      365.2 secs

     total energy              =   -1084.69811913 Ry
     estimated scf accuracy    <       0.00126925 Ry

     iteration # 24     ecut=    50.00 Ry     beta= 0.30
     Davidson diagonalization with overlap

---- Real-time Memory Report at c_bands before calling an iterative solver
           173 MiB given to the printing process from OS
           145 MiB allocation reported by mallinfo(arena+hblkhd)
        103522 MiB available memory on the node where the printing process lives
------------------
     ethr =  3.75E-07,  avg # of iterations =  3.8

     total cpu time spent up to now is      378.3 secs

     total energy              =   -1084.69812545 Ry
     estimated scf accuracy    <       0.00048419 Ry

     iteration # 25     ecut=    50.00 Ry     beta= 0.30
     Davidson diagonalization with overlap

---- Real-time Memory Report at c_bands before calling an iterative solver
           173 MiB given to the printing process from OS
           145 MiB allocation reported by mallinfo(arena+hblkhd)
        103522 MiB available memory on the node where the printing process lives
------------------
     ethr =  3.75E-07,  avg # of iterations =  2.1

     total cpu time spent up to now is      388.9 secs

     total energy              =   -1084.69813867 Ry
     estimated scf accuracy    <       0.00027554 Ry

     iteration # 26     ecut=    50.00 Ry     beta= 0.30
     Davidson diagonalization with overlap

---- Real-time Memory Report at c_bands before calling an iterative solver
           173 MiB given to the printing process from OS
           145 MiB allocation reported by mallinfo(arena+hblkhd)
        103522 MiB available memory on the node where the printing process lives
------------------
     ethr =  2.55E-07,  avg # of iterations =  2.4

     total cpu time spent up to now is      399.7 secs

     total energy              =   -1084.69807595 Ry
     estimated scf accuracy    <       0.00019636 Ry

     iteration # 27     ecut=    50.00 Ry     beta= 0.30
     Davidson diagonalization with overlap

---- Real-time Memory Report at c_bands before calling an iterative solver
           173 MiB given to the printing process from OS
           145 MiB allocation reported by mallinfo(arena+hblkhd)
        103522 MiB available memory on the node where the printing process lives
------------------
     ethr =  1.82E-07,  avg # of iterations =  5.7

     total cpu time spent up to now is      416.7 secs

     total energy              =   -1084.69816963 Ry
     estimated scf accuracy    <       0.00002344 Ry

     iteration # 28     ecut=    50.00 Ry     beta= 0.30
     Davidson diagonalization with overlap

---- Real-time Memory Report at c_bands before calling an iterative solver
           173 MiB given to the printing process from OS
           145 MiB allocation reported by mallinfo(arena+hblkhd)
        103522 MiB available memory on the node where the printing process lives
------------------
     ethr =  2.17E-08,  avg # of iterations =  5.2

     total cpu time spent up to now is      431.8 secs

     total energy              =   -1084.69816848 Ry
     estimated scf accuracy    <       0.00003294 Ry

     iteration # 29     ecut=    50.00 Ry     beta= 0.30
     Davidson diagonalization with overlap

---- Real-time Memory Report at c_bands before calling an iterative solver
           173 MiB given to the printing process from OS
           145 MiB allocation reported by mallinfo(arena+hblkhd)
        103522 MiB available memory on the node where the printing process lives
------------------
     ethr =  2.17E-08,  avg # of iterations =  1.4

     total cpu time spent up to now is      442.5 secs

     total energy              =   -1084.69816369 Ry
     estimated scf accuracy    <       0.00002225 Ry

     iteration # 30     ecut=    50.00 Ry     beta= 0.30
     Davidson diagonalization with overlap

---- Real-time Memory Report at c_bands before calling an iterative solver
           173 MiB given to the printing process from OS
           145 MiB allocation reported by mallinfo(arena+hblkhd)
        103522 MiB available memory on the node where the printing process lives
------------------
     ethr =  2.06E-08,  avg # of iterations =  2.1

     total cpu time spent up to now is      453.3 secs

     total energy              =   -1084.69816380 Ry
     estimated scf accuracy    <       0.00000695 Ry

     iteration # 31     ecut=    50.00 Ry     beta= 0.30
     Davidson diagonalization with overlap

---- Real-time Memory Report at c_bands before calling an iterative solver
           173 MiB given to the printing process from OS
           145 MiB allocation reported by mallinfo(arena+hblkhd)
        103522 MiB available memory on the node where the printing process lives
------------------
     ethr =  6.43E-09,  avg # of iterations =  5.7

     total cpu time spent up to now is      467.3 secs

     total energy              =   -1084.69816508 Ry
     estimated scf accuracy    <       0.00000098 Ry

     iteration # 32     ecut=    50.00 Ry     beta= 0.30
     Davidson diagonalization with overlap

---- Real-time Memory Report at c_bands before calling an iterative solver
           173 MiB given to the printing process from OS
           145 MiB allocation reported by mallinfo(arena+hblkhd)
        103523 MiB available memory on the node where the printing process lives
------------------
     ethr =  9.08E-10,  avg # of iterations =  6.3

     total cpu time spent up to now is      486.1 secs

     total energy              =   -1084.69816575 Ry
     estimated scf accuracy    <       0.00000003 Ry

     iteration # 33     ecut=    50.00 Ry     beta= 0.30
     Davidson diagonalization with overlap

---- Real-time Memory Report at c_bands before calling an iterative solver
           173 MiB given to the printing process from OS
           145 MiB allocation reported by mallinfo(arena+hblkhd)
        103523 MiB available memory on the node where the printing process lives
------------------
     c_bands:  1 eigenvalues not converged
     ethr =  2.41E-11,  avg # of iterations = 10.2

     total cpu time spent up to now is      514.0 secs

     total energy              =   -1084.69816571 Ry
     estimated scf accuracy    <       0.00000021 Ry

     iteration # 34     ecut=    50.00 Ry     beta= 0.30
     Davidson diagonalization with overlap

---- Real-time Memory Report at c_bands before calling an iterative solver
           173 MiB given to the printing process from OS
           145 MiB allocation reported by mallinfo(arena+hblkhd)
        103523 MiB available memory on the node where the printing process lives
------------------
     c_bands:  1 eigenvalues not converged
     c_bands:  1 eigenvalues not converged
     c_bands:  1 eigenvalues not converged
     c_bands:  1 eigenvalues not converged
     ethr =  2.41E-11,  avg # of iterations =  9.7

     total cpu time spent up to now is      544.0 secs

     total energy              =   -1084.69816577 Ry
     estimated scf accuracy    <       0.00000004 Ry

     iteration # 35     ecut=    50.00 Ry     beta= 0.30
     Davidson diagonalization with overlap

---- Real-time Memory Report at c_bands before calling an iterative solver
           173 MiB given to the printing process from OS
           145 MiB allocation reported by mallinfo(arena+hblkhd)
        103523 MiB available memory on the node where the printing process lives
------------------
     ethr =  2.41E-11,  avg # of iterations =  3.0

     total cpu time spent up to now is      556.8 secs

     total energy              =   -1084.69816577 Ry
     estimated scf accuracy    <       0.00000002 Ry

     iteration # 36     ecut=    50.00 Ry     beta= 0.30
     Davidson diagonalization with overlap

---- Real-time Memory Report at c_bands before calling an iterative solver
           173 MiB given to the printing process from OS
           145 MiB allocation reported by mallinfo(arena+hblkhd)
        103523 MiB available memory on the node where the printing process lives
------------------
     ethr =  1.77E-11,  avg # of iterations =  3.8

     total cpu time spent up to now is      570.2 secs

     total energy              =   -1084.69816577 Ry
     estimated scf accuracy    <       0.00000001 Ry

     iteration # 37     ecut=    50.00 Ry     beta= 0.30
     Davidson diagonalization with overlap

---- Real-time Memory Report at c_bands before calling an iterative solver
           173 MiB given to the printing process from OS
           145 MiB allocation reported by mallinfo(arena+hblkhd)
        103523 MiB available memory on the node where the printing process lives
------------------
     ethr =  1.11E-11,  avg # of iterations =  5.5

     total cpu time spent up to now is      587.0 secs

     End of self-consistent calculation

          k = 0.0000 0.0000 0.0000 (  7605 PWs)   bands (ev):

   -12.6567 -12.5606 -12.4501 -12.3552 -12.2769 -12.0971  -1.2410  -1.2237
    -1.2198  -1.2087  -1.2016  -1.1717  -1.1617  -1.1272  -1.1249  -1.1006
    -1.0812  -0.9513  -0.9429  -0.9401  -0.9131  -0.8887  -0.8759  -0.6854
    -0.6755  -0.6429  -0.6363  -0.6069  -0.6046  -0.5881  -0.5813  -0.5232
    -0.3995  -0.3946  -0.3371  -0.3360   0.1326   0.9798   1.0574   2.3364
     2.3797   3.1799   3.2300   3.2917   3.3584   3.4158   3.4487   3.5761
     3.5982   3.6350   3.6425   3.6930   3.8379   3.8527

     occupation numbers 
     1.0000   1.0000   1.0000   1.0000   1.0000   1.0000   1.0000   1.0000
     1.0000   1.0000   1.0000   1.0000   1.0000   1.0000   1.0000   1.0000
     1.0000   1.0000   1.0000   1.0000   1.0000   1.0000   1.0000   1.0000
     1.0000   1.0000   1.0000   1.0000   1.0000   1.0000   1.0000   1.0000
     1.0000   1.0000   1.0000   1.0000   1.0000   1.0000   1.0000   1.0000
     1.0000   1.0000   1.0000   1.0000   1.0000   1.0000   1.0000   1.0000
     1.0000   1.0000   1.0000   1.0000   1.0000   1.0000

          k = 0.0000 0.0000 0.0337 (  7622 PWs)   bands (ev):

   -12.6563 -12.5624 -12.4460 -12.3599 -12.2748 -12.0972  -1.2410  -1.2237
    -1.2198  -1.2086  -1.2013  -1.1713  -1.1616  -1.1272  -1.1249  -1.1015
    -1.0846  -0.9586  -0.9503  -0.9399  -0.9031  -0.8817  -0.8622  -0.6855
    -0.6756  -0.6432  -0.6366  -0.6068  -0.6046  -0.5887  -0.5816  -0.5485
    -0.3996  -0.3946  -0.3372  -0.3361   0.1742   0.8124   1.2334   2.1250
     2.5943   3.1810   3.2309   3.2870   3.3528   3.4238   3.4586   3.5526
     3.5686   3.5846   3.6446   3.6495   3.8374   3.8524

     occupation numbers 
     1.0000   1.0000   1.0000   1.0000   1.0000   1.0000   1.0000   1.0000
     1.0000   1.0000   1.0000   1.0000   1.0000   1.0000   1.0000   1.0000
     1.0000   1.0000   1.0000   1.0000   1.0000   1.0000   1.0000   1.0000
     1.0000   1.0000   1.0000   1.0000   1.0000   1.0000   1.0000   1.0000
     1.0000   1.0000   1.0000   1.0000   1.0000   1.0000   1.0000   1.0000
     1.0000   1.0000   1.0000   1.0000   1.0000   1.0000   1.0000   1.0000
     1.0000   1.0000   1.0000   1.0000   1.0000   1.0000

          k = 0.0000 0.0000 0.0675 (  7586 PWs)   bands (ev):

   -12.6556 -12.5656 -12.4369 -12.3701 -12.2710 -12.0975  -1.2410  -1.2235
    -1.2197  -1.2083  -1.2008  -1.1702  -1.1614  -1.1271  -1.1249  -1.1046
    -1.0899  -0.9709  -0.9504  -0.9398  -0.9005  -0.8800  -0.8125  -0.6858
    -0.6758  -0.6442  -0.6376  -0.6099  -0.6061  -0.6017  -0.5857  -0.5811
    -0.3995  -0.3945  -0.3370  -0.3359   0.2805   0.6259   1.4487   1.8968
     2.8315   3.1833   3.2324   3.2777   3.3258   3.3432   3.4418   3.4807
     3.5457   3.5592   3.6557   3.6596   3.8366   3.8518

     occupation numbers 
     1.0000   1.0000   1.0000   1.0000   1.0000   1.0000   1.0000   1.0000
     1.0000   1.0000   1.0000   1.0000   1.0000   1.0000   1.0000   1.0000
     1.0000   1.0000   1.0000   1.0000   1.0000   1.0000   1.0000   1.0000
     1.0000   1.0000   1.0000   1.0000   1.0000   1.0000   1.0000   1.0000
     1.0000   1.0000   1.0000   1.0000   1.0000   1.0000   1.0000   1.0000
     1.0000   1.0000   1.0000   1.0000   1.0000   1.0000   1.0000   1.0000
     1.0000   1.0000   1.0000   1.0000   1.0000   1.0000

          k = 0.0000 0.0000-0.1012 (  7598 PWs)   bands (ev):

   -12.6552 -12.5672 -12.4315 -12.3759 -12.2692 -12.0977  -1.2410  -1.2235
    -1.2197  -1.2082  -1.2004  -1.1696  -1.1613  -1.1271  -1.1249  -1.1070
    -1.0917  -0.9747  -0.9504  -0.9398  -0.9001  -0.8799  -0.7780  -0.6873
    -0.6768  -0.6529  -0.6408  -0.6318  -0.6060  -0.6032  -0.5870  -0.5814
    -0.3995  -0.3946  -0.3371  -0.3360   0.3863   0.4956   1.6541   1.6875
     3.0370   3.1148   3.1869   3.2350   3.2748   3.3388   3.4519   3.4957
     3.5344   3.5433   3.6600   3.6637   3.8361   3.8515

     occupation numbers 
     1.0000   1.0000   1.0000   1.0000   1.0000   1.0000   1.0000   1.0000
     1.0000   1.0000   1.0000   1.0000   1.0000   1.0000   1.0000   1.0000
     1.0000   1.0000   1.0000   1.0000   1.0000   1.0000   1.0000   1.0000
     1.0000   1.0000   1.0000   1.0000   1.0000   1.0000   1.0000   1.0000
     1.0000   1.0000   1.0000   1.0000   1.0000   1.0000   1.0000   1.0000
     1.0000   1.0000   1.0000   1.0000   1.0000   1.0000   1.0000   1.0000
     1.0000   1.0000   1.0000   1.0000   1.0000   1.0000

          k = 0.0000 0.1925 0.0000 (  7635 PWs)   bands (ev):

   -12.5781 -12.4927 -12.3862 -12.3083 -12.2169 -12.0532  -1.2588  -1.2460
    -1.1864  -1.1677  -1.1465  -1.1348  -1.1300  -1.0971  -1.0724  -1.0411
    -1.0291  -0.9643  -0.9225  -0.8965  -0.8835  -0.8326  -0.8216  -0.6964
    -0.6836  -0.6503  -0.6402  -0.6174  -0.6053  -0.5920  -0.5784  -0.4581
    -0.4064  -0.3977  -0.3347  -0.3105   0.3245   1.0465   1.1200   2.0256
     2.0387   2.4366   2.6429   2.7713   2.8748   2.9819   3.1342   3.2302
     3.2967   3.3342   3.4399   3.4735   3.6079   3.7030

     occupation numbers 
     1.0000   1.0000   1.0000   1.0000   1.0000   1.0000   1.0000   1.0000
     1.0000   1.0000   1.0000   1.0000   1.0000   1.0000   1.0000   1.0000
     1.0000   1.0000   1.0000   1.0000   1.0000   1.0000   1.0000   1.0000
     1.0000   1.0000   1.0000   1.0000   1.0000   1.0000   1.0000   1.0000
     1.0000   1.0000   1.0000   1.0000   1.0000   1.0000   1.0000   1.0000
     1.0000   1.0000   1.0000   1.0000   1.0000   1.0000   1.0000   1.0000
     1.0000   1.0000   1.0000   1.0000   1.0000   1.0000

          k = 0.0000 0.1925 0.0337 (  7636 PWs)   bands (ev):

   -12.5778 -12.4938 -12.3834 -12.3111 -12.2159 -12.0533  -1.2586  -1.2461
    -1.1860  -1.1677  -1.1469  -1.1349  -1.1303  -1.0965  -1.0723  -1.0416
    -1.0364  -0.9584  -0.9236  -0.8969  -0.8843  -0.8291  -0.8121  -0.6943
    -0.6836  -0.6555  -0.6403  -0.6203  -0.6053  -0.5894  -0.5783  -0.4698
    -0.4062  -0.3977  -0.3347  -0.3136   0.3582   0.9111   1.2569   1.8946
     2.1554   2.4321   2.6415   2.7414   2.9132   2.9838   3.1242   3.2261
     3.2504   3.3879   3.4190   3.4902   3.6020   3.7022

     occupation numbers 
     1.0000   1.0000   1.0000   1.0000   1.0000   1.0000   1.0000   1.0000
     1.0000   1.0000   1.0000   1.0000   1.0000   1.0000   1.0000   1.0000
     1.0000   1.0000   1.0000   1.0000   1.0000   1.0000   1.0000   1.0000
     1.0000   1.0000   1.0000   1.0000   1.0000   1.0000   1.0000   1.0000
     1.0000   1.0000   1.0000   1.0000   1.0000   1.0000   1.0000   1.0000
     1.0000   1.0000   1.0000   1.0000   1.0000   1.0000   1.0000   1.0000
     1.0000   1.0000   1.0000   1.0000   1.0000   1.0000

          k = 0.0000 0.1925 0.0675 (  7633 PWs)   bands (ev):

   -12.5772 -12.4961 -12.3773 -12.3173 -12.2140 -12.0535  -1.2583  -1.2455
    -1.1866  -1.1679  -1.1475  -1.1344  -1.1296  -1.0960  -1.0725  -1.0495
    -1.0400  -0.9515  -0.9336  -0.8907  -0.8799  -0.8284  -0.7853  -0.6916
    -0.6840  -0.6697  -0.6406  -0.6260  -0.6049  -0.5838  -0.5781  -0.4946
    -0.4042  -0.3975  -0.3347  -0.3195   0.4467   0.7526   1.4232   1.7459
     2.2557   2.4226   2.6170   2.7191   2.9762   2.9920   3.1072   3.1460
     3.2797   3.3785   3.4458   3.5081   3.5875   3.7007

     occupation numbers 
     1.0000   1.0000   1.0000   1.0000   1.0000   1.0000   1.0000   1.0000
     1.0000   1.0000   1.0000   1.0000   1.0000   1.0000   1.0000   1.0000
     1.0000   1.0000   1.0000   1.0000   1.0000   1.0000   1.0000   1.0000
     1.0000   1.0000   1.0000   1.0000   1.0000   1.0000   1.0000   1.0000
     1.0000   1.0000   1.0000   1.0000   1.0000   1.0000   1.0000   1.0000
     1.0000   1.0000   1.0000   1.0000   1.0000   1.0000   1.0000   1.0000
     1.0000   1.0000   1.0000   1.0000   1.0000   1.0000

          k = 0.0000 0.1925-0.1012 (  7632 PWs)   bands (ev):

   -12.5769 -12.4972 -12.3739 -12.3208 -12.2130 -12.0536  -1.2583  -1.2449
    -1.1876  -1.1682  -1.1477  -1.1340  -1.1281  -1.0963  -1.0727  -1.0541
    -1.0400  -0.9484  -0.9404  -0.8892  -0.8742  -0.8286  -0.7652  -0.6976
    -0.6850  -0.6762  -0.6408  -0.6287  -0.6045  -0.5809  -0.5774  -0.5074
    -0.4027  -0.3972  -0.3348  -0.3224   0.5328   0.6447   1.5766   1.5984
     2.3016   2.4163   2.5933   2.7186   2.9868   3.0482   3.0694   3.1062
     3.3022   3.3556   3.4678   3.5148   3.5779   3.6999

     occupation numbers 
     1.0000   1.0000   1.0000   1.0000   1.0000   1.0000   1.0000   1.0000
     1.0000   1.0000   1.0000   1.0000   1.0000   1.0000   1.0000   1.0000
     1.0000   1.0000   1.0000   1.0000   1.0000   1.0000   1.0000   1.0000
     1.0000   1.0000   1.0000   1.0000   1.0000   1.0000   1.0000   1.0000
     1.0000   1.0000   1.0000   1.0000   1.0000   1.0000   1.0000   1.0000
     1.0000   1.0000   1.0000   1.0000   1.0000   1.0000   1.0000   1.0000
     1.0000   1.0000   1.0000   1.0000   1.0000   1.0000

          k = 0.0000 0.3849 0.0000 (  7593 PWs)   bands (ev):

   -12.4069 -12.3519 -12.2680 -12.2126 -12.0867 -11.9702  -1.2560  -1.2331
    -1.1591  -1.1054  -1.0841  -1.0364  -1.0147  -0.9510  -0.9494  -0.9294
    -0.9047  -0.8982  -0.8496  -0.8015  -0.7807  -0.7411  -0.6998  -0.6679
    -0.6486  -0.6301  -0.6065  -0.5854  -0.5769  -0.5591  -0.5419  -0.4380
    -0.3885  -0.3728  -0.3215  -0.2699   0.6921   0.8454   0.8798   1.1284
     1.1931   1.3416   1.8219   2.2935   2.3125   2.5280   2.7256   2.8229
     3.0409   3.0851   3.1312   3.1377   3.2941   3.4192

     occupation numbers 
     1.0000   1.0000   1.0000   1.0000   1.0000   1.0000   1.0000   1.0000
     1.0000   1.0000   1.0000   1.0000   1.0000   1.0000   1.0000   1.0000
     1.0000   1.0000   1.0000   1.0000   1.0000   1.0000   1.0000   1.0000
     1.0000   1.0000   1.0000   1.0000   1.0000   1.0000   1.0000   1.0000
     1.0000   1.0000   1.0000   1.0000   1.0000   1.0000   1.0000   1.0000
     1.0000   1.0000   1.0000   1.0000   1.0000   1.0000   1.0000   1.0000
     1.0000   1.0000   1.0000   1.0000   1.0000   1.0000

          k = 0.0000 0.3849 0.0337 (  7615 PWs)   bands (ev):

   -12.4068 -12.3522 -12.2675 -12.2130 -12.0866 -11.9702  -1.2556  -1.2337
    -1.1577  -1.1077  -1.0844  -1.0362  -1.0145  -0.9546  -0.9498  -0.9253
    -0.9052  -0.9002  -0.8444  -0.8026  -0.7807  -0.7419  -0.7000  -0.6634
    -0.6489  -0.6332  -0.6061  -0.5869  -0.5808  -0.5592  -0.5346  -0.4438
    -0.3874  -0.3728  -0.3216  -0.2713   0.6935   0.8220   0.9096   1.1070
     1.2100   1.3479   1.8268   2.1571   2.4578   2.5316   2.7066   2.8495
     2.9927   3.0791   3.1094   3.1768   3.2984   3.4179

     occupation numbers 
     1.0000   1.0000   1.0000   1.0000   1.0000   1.0000   1.0000   1.0000
     1.0000   1.0000   1.0000   1.0000   1.0000   1.0000   1.0000   1.0000
     1.0000   1.0000   1.0000   1.0000   1.0000   1.0000   1.0000   1.0000
     1.0000   1.0000   1.0000   1.0000   1.0000   1.0000   1.0000   1.0000
     1.0000   1.0000   1.0000   1.0000   1.0000   1.0000   1.0000   1.0000
     1.0000   1.0000   1.0000   1.0000   1.0000   1.0000   1.0000   1.0000
     1.0000   1.0000   1.0000   1.0000   1.0000   1.0000

          k = 0.0000 0.3849 0.0675 (  7610 PWs)   bands (ev):

   -12.4067 -12.3527 -12.2665 -12.2137 -12.0865 -11.9702  -1.2551  -1.2333
    -1.1600  -1.1078  -1.0844  -1.0359  -1.0149  -0.9569  -0.9482  -0.9277
    -0.9042  -0.9002  -0.8432  -0.7940  -0.7798  -0.7437  -0.7003  -0.6602
    -0.6492  -0.6352  -0.6062  -0.5923  -0.5843  -0.5591  -0.5206  -0.4587
    -0.3816  -0.3724  -0.3216  -0.2751   0.6986   0.7943   0.9579   1.0657
     1.2241   1.3716   1.8431   2.0355   2.5355   2.6154   2.6803   2.8930
     2.9023   3.0258   3.1260   3.2053   3.3059   3.4152

     occupation numbers 
     1.0000   1.0000   1.0000   1.0000   1.0000   1.0000   1.0000   1.0000
     1.0000   1.0000   1.0000   1.0000   1.0000   1.0000   1.0000   1.0000
     1.0000   1.0000   1.0000   1.0000   1.0000   1.0000   1.0000   1.0000
     1.0000   1.0000   1.0000   1.0000   1.0000   1.0000   1.0000   1.0000
     1.0000   1.0000   1.0000   1.0000   1.0000   1.0000   1.0000   1.0000
     1.0000   1.0000   1.0000   1.0000   1.0000   1.0000   1.0000   1.0000
     1.0000   1.0000   1.0000   1.0000   1.0000   1.0000

          k = 0.0000 0.3849-0.1012 (  7598 PWs)   bands (ev):

   -12.4066 -12.3530 -12.2661 -12.2141 -12.0864 -11.9703  -1.2549  -1.2323
    -1.1635  -1.1057  -1.0843  -1.0359  -1.0155  -0.9556  -0.9472  -0.9323
    -0.9048  -0.8974  -0.8463  -0.7854  -0.7777  -0.7457  -0.7003  -0.6634
    -0.6490  -0.6324  -0.6066  -0.5971  -0.5842  -0.5591  -0.5127  -0.4681
    -0.3777  -0.3717  -0.3215  -0.2777   0.7028   0.7819   1.0016   1.0245
     1.2258   1.3883   1.8601   1.9771   2.5398   2.6655   2.7529   2.7789
     2.9416   2.9849   3.1321   3.2156   3.3093   3.4137

     occupation numbers 
     1.0000   1.0000   1.0000   1.0000   1.0000   1.0000   1.0000   1.0000
     1.0000   1.0000   1.0000   1.0000   1.0000   1.0000   1.0000   1.0000
     1.0000   1.0000   1.0000   1.0000   1.0000   1.0000   1.0000   1.0000
     1.0000   1.0000   1.0000   1.0000   1.0000   1.0000   1.0000   1.0000
     1.0000   1.0000   1.0000   1.0000   1.0000   1.0000   1.0000   1.0000
     1.0000   1.0000   1.0000   1.0000   1.0000   1.0000   1.0000   1.0000
     1.0000   1.0000   1.0000   1.0000   1.0000   1.0000

          k = 0.0000-0.5774 0.0000 (  7566 PWs)   bands (ev):

   -12.3042 -12.2778 -12.2299 -12.1596 -12.0107 -11.9360  -1.2406  -1.2162
    -1.1265  -1.0578  -1.0556  -0.9867  -0.9638  -0.9018  -0.8539  -0.8305
    -0.8268  -0.8121  -0.7627  -0.7356  -0.7155  -0.6569  -0.6357  -0.6106
    -0.5722  -0.5609  -0.5591  -0.5332  -0.5294  -0.5206  -0.5002  -0.4381
    -0.3401  -0.3279  -0.2998  -0.2630   0.3821   0.4063   0.5126   0.6571
     0.6859   0.9972   1.7600   2.2905   2.3769   2.4306   2.5177   2.6142
     2.7832   2.9564   2.9674   2.9759   3.0850   3.2716

     occupation numbers 
     1.0000   1.0000   1.0000   1.0000   1.0000   1.0000   1.0000   1.0000
     1.0000   1.0000   1.0000   1.0000   1.0000   1.0000   1.0000   1.0000
     1.0000   1.0000   1.0000   1.0000   1.0000   1.0000   1.0000   1.0000
     1.0000   1.0000   1.0000   1.0000   1.0000   1.0000   1.0000   1.0000
     1.0000   1.0000   1.0000   1.0000   1.0000   1.0000   1.0000   1.0000
     1.0000   1.0000   1.0000   1.0000   1.0000   1.0000   1.0000   1.0000
     1.0000   1.0000   1.0000   1.0000   1.0000   1.0000

          k = 0.0000-0.5774 0.0337 (  7548 PWs)   bands (ev):

   -12.3042 -12.2778 -12.2299 -12.1596 -12.0107 -11.9360  -1.2403  -1.2159
    -1.1300  -1.0573  -1.0538  -0.9873  -0.9598  -0.8999  -0.8539  -0.8355
    -0.8285  -0.8124  -0.7614  -0.7349  -0.7151  -0.6557  -0.6357  -0.6105
    -0.5723  -0.5605  -0.5585  -0.5337  -0.5317  -0.5189  -0.5000  -0.4383
    -0.3401  -0.3279  -0.2997  -0.2629   0.3824   0.4092   0.5114   0.6273
     0.7159   0.9926   1.7840   2.2482   2.3011   2.4903   2.5500   2.6456
     2.7866   2.9082   2.9530   3.0148   3.0802   3.2697

     occupation numbers 
     1.0000   1.0000   1.0000   1.0000   1.0000   1.0000   1.0000   1.0000
     1.0000   1.0000   1.0000   1.0000   1.0000   1.0000   1.0000   1.0000
     1.0000   1.0000   1.0000   1.0000   1.0000   1.0000   1.0000   1.0000
     1.0000   1.0000   1.0000   1.0000   1.0000   1.0000   1.0000   1.0000
     1.0000   1.0000   1.0000   1.0000   1.0000   1.0000   1.0000   1.0000
     1.0000   1.0000   1.0000   1.0000   1.0000   1.0000   1.0000   1.0000
     1.0000   1.0000   1.0000   1.0000   1.0000   1.0000

          k = 0.0000-0.5774 0.0675 (  7542 PWs)   bands (ev):

   -12.3042 -12.2779 -12.2298 -12.1597 -12.0107 -11.9360  -1.2397  -1.2153
    -1.1364  -1.0569  -1.0506  -0.9887  -0.9510  -0.8960  -0.8541  -0.8460
    -0.8323  -0.8129  -0.7591  -0.7337  -0.7146  -0.6530  -0.6357  -0.6106
    -0.5723  -0.5597  -0.5574  -0.5368  -0.5333  -0.5167  -0.4998  -0.4387
    -0.3400  -0.3278  -0.2997  -0.2629   0.3840   0.4138   0.5110   0.5943
     0.7484   0.9824   1.8502   2.1113   2.3064   2.4594   2.6679   2.7051
     2.7900   2.8458   2.9177   3.0445   3.0719   3.2656

     occupation numbers 
     1.0000   1.0000   1.0000   1.0000   1.0000   1.0000   1.0000   1.0000
     1.0000   1.0000   1.0000   1.0000   1.0000   1.0000   1.0000   1.0000
     1.0000   1.0000   1.0000   1.0000   1.0000   1.0000   1.0000   1.0000
     1.0000   1.0000   1.0000   1.0000   1.0000   1.0000   1.0000   1.0000
     1.0000   1.0000   1.0000   1.0000   1.0000   1.0000   1.0000   1.0000
     1.0000   1.0000   1.0000   1.0000   1.0000   1.0000   1.0000   1.0000
     1.0000   1.0000   1.0000   1.0000   1.0000   1.0000

          k = 0.0000-0.5774-0.1012 (  7552 PWs)   bands (ev):

   -12.3042 -12.2779 -12.2298 -12.1597 -12.0107 -11.9360  -1.2394  -1.2149
    -1.1393  -1.0568  -1.0492  -0.9895  -0.9459  -0.8939  -0.8547  -0.8512
    -0.8344  -0.8131  -0.7581  -0.7332  -0.7145  -0.6516  -0.6358  -0.6106
    -0.5724  -0.5593  -0.5568  -0.5387  -0.5337  -0.5159  -0.4998  -0.4390
    -0.3401  -0.3279  -0.2997  -0.2629   0.3852   0.4155   0.5124   0.5800
     0.7616   0.9768   1.9164   2.0207   2.3109   2.4457   2.7328   2.7608
     2.7755   2.7971   2.8920   3.0512   3.0713   3.2634

     occupation numbers 
     1.0000   1.0000   1.0000   1.0000   1.0000   1.0000   1.0000   1.0000
     1.0000   1.0000   1.0000   1.0000   1.0000   1.0000   1.0000   1.0000
     1.0000   1.0000   1.0000   1.0000   1.0000   1.0000   1.0000   1.0000
     1.0000   1.0000   1.0000   1.0000   1.0000   1.0000   1.0000   1.0000
     1.0000   1.0000   1.0000   1.0000   1.0000   1.0000   1.0000   1.0000
     1.0000   1.0000   1.0000   1.0000   1.0000   1.0000   1.0000   1.0000
     1.0000   1.0000   1.0000   1.0000   1.0000   1.0000

          k = 0.1667 0.2887 0.0000 (  7595 PWs)   bands (ev):

   -12.4559 -12.3897 -12.2951 -12.2369 -12.1211 -11.9892  -1.2110  -1.1955
    -1.1697  -1.1549  -1.0929  -1.0815  -1.0580  -1.0241  -1.0114  -0.9533
    -0.9298  -0.9107  -0.8884  -0.8533  -0.8243  -0.7695  -0.7273  -0.7021
    -0.6593  -0.6414  -0.6273  -0.5948  -0.5888  -0.5653  -0.5523  -0.4367
    -0.4030  -0.3840  -0.3262  -0.2715   0.6552   1.0231   1.0782   1.4828
     1.4988   1.7612   1.9225   2.3929   2.4177   2.5137   2.6405   2.7612
     3.0483   3.0626   3.1606   3.1781   3.3423   3.4229

     occupation numbers 
     1.0000   1.0000   1.0000   1.0000   1.0000   1.0000   1.0000   1.0000
     1.0000   1.0000   1.0000   1.0000   1.0000   1.0000   1.0000   1.0000
     1.0000   1.0000   1.0000   1.0000   1.0000   1.0000   1.0000   1.0000
     1.0000   1.0000   1.0000   1.0000   1.0000   1.0000   1.0000   1.0000
     1.0000   1.0000   1.0000   1.0000   1.0000   1.0000   1.0000   1.0000
     1.0000   1.0000   1.0000   1.0000   1.0000   1.0000   1.0000   1.0000
     1.0000   1.0000   1.0000   1.0000   1.0000   1.0000

          k = 0.1667 0.2887 0.0337 (  7603 PWs)   bands (ev):

   -12.4558 -12.3902 -12.2941 -12.2378 -12.1209 -11.9892  -1.2108  -1.1955
    -1.1694  -1.1556  -1.0919  -1.0829  -1.0585  -1.0237  -1.0127  -0.9554
    -0.9305  -0.9090  -0.8890  -0.8517  -0.8175  -0.7689  -0.7272  -0.7029
    -0.6625  -0.6405  -0.6278  -0.6003  -0.5860  -0.5648  -0.5482  -0.4440
    -0.4016  -0.3817  -0.3262  -0.2740   0.6699   0.9687   1.1315   1.4314
     1.5420   1.7588   1.9343   2.2799   2.5086   2.5405   2.6388   2.7759
     3.0058   3.0672   3.1204   3.2255   3.3404   3.4251

     occupation numbers 
     1.0000   1.0000   1.0000   1.0000   1.0000   1.0000   1.0000   1.0000
     1.0000   1.0000   1.0000   1.0000   1.0000   1.0000   1.0000   1.0000
     1.0000   1.0000   1.0000   1.0000   1.0000   1.0000   1.0000   1.0000
     1.0000   1.0000   1.0000   1.0000   1.0000   1.0000   1.0000   1.0000
     1.0000   1.0000   1.0000   1.0000   1.0000   1.0000   1.0000   1.0000
     1.0000   1.0000   1.0000   1.0000   1.0000   1.0000   1.0000   1.0000
     1.0000   1.0000   1.0000   1.0000   1.0000   1.0000

          k = 0.1667 0.2887 0.0675 (  7604 PWs)   bands (ev):

   -12.4555 -12.3911 -12.2919 -12.2396 -12.1205 -11.9892  -1.2103  -1.1949
    -1.1699  -1.1565  -1.0915  -1.0837  -1.0577  -1.0241  -1.0164  -0.9582
    -0.9351  -0.9063  -0.8857  -0.8498  -0.8053  -0.7648  -0.7281  -0.7013
    -0.6712  -0.6389  -0.6309  -0.6067  -0.5836  -0.5647  -0.5390  -0.4593
    -0.3998  -0.3768  -0.3260  -0.2792   0.7105   0.8935   1.2069   1.3645
     1.5801   1.7530   1.9663   2.1766   2.5054   2.6107   2.6955   2.8070
     2.9520   2.9836   3.1390   3.2586   3.3367   3.4298

     occupation numbers 
     1.0000   1.0000   1.0000   1.0000   1.0000   1.0000   1.0000   1.0000
     1.0000   1.0000   1.0000   1.0000   1.0000   1.0000   1.0000   1.0000
     1.0000   1.0000   1.0000   1.0000   1.0000   1.0000   1.0000   1.0000
     1.0000   1.0000   1.0000   1.0000   1.0000   1.0000   1.0000   1.0000
     1.0000   1.0000   1.0000   1.0000   1.0000   1.0000   1.0000   1.0000
     1.0000   1.0000   1.0000   1.0000   1.0000   1.0000   1.0000   1.0000
     1.0000   1.0000   1.0000   1.0000   1.0000   1.0000

          k = 0.1667 0.2887-0.1012 (  7604 PWs)   bands (ev):

   -12.4553 -12.3916 -12.2908 -12.2406 -12.1203 -11.9893  -1.2100  -1.1943
    -1.1707  -1.1567  -1.0922  -1.0829  -1.0560  -1.0259  -1.0182  -0.9592
    -0.9378  -0.9056  -0.8829  -0.8489  -0.8009  -0.7596  -0.7294  -0.6966
    -0.6791  -0.6377  -0.6336  -0.6090  -0.5827  -0.5648  -0.5336  -0.4680
    -0.3993  -0.3744  -0.3259  -0.2818   0.7461   0.8461   1.2716   1.3031
     1.5952   1.7495   1.9924   2.1261   2.5027   2.6131   2.7940   2.8090
     2.9016   2.9365   3.1489   3.2691   3.3348   3.4324

     occupation numbers 
     1.0000   1.0000   1.0000   1.0000   1.0000   1.0000   1.0000   1.0000
     1.0000   1.0000   1.0000   1.0000   1.0000   1.0000   1.0000   1.0000
     1.0000   1.0000   1.0000   1.0000   1.0000   1.0000   1.0000   1.0000
     1.0000   1.0000   1.0000   1.0000   1.0000   1.0000   1.0000   1.0000
     1.0000   1.0000   1.0000   1.0000   1.0000   1.0000   1.0000   1.0000
     1.0000   1.0000   1.0000   1.0000   1.0000   1.0000   1.0000   1.0000
     1.0000   1.0000   1.0000   1.0000   1.0000   1.0000

          k = 0.1667 0.4811 0.0000 (  7566 PWs)   bands (ev):

   -12.3118 -12.2799 -12.2259 -12.1603 -12.0122 -11.9346  -1.1916  -1.1559
    -1.0921  -1.0567  -1.0054  -0.9794  -0.9376  -0.9039  -0.8810  -0.8711
    -0.8342  -0.8188  -0.7879  -0.7500  -0.7364  -0.7090  -0.6486  -0.6317
    -0.6218  -0.6033  -0.5825  -0.5394  -0.5288  -0.4979  -0.4664  -0.4299
    -0.3740  -0.3512  -0.2761  -0.2143   0.5789   0.6277   0.7258   0.8334
     0.8756   1.1019   1.7450   1.9738   2.0610   2.1502   2.4921   2.5264
     2.6196   2.6331   2.8435   2.9514   3.0294   3.1471

     occupation numbers 
     1.0000   1.0000   1.0000   1.0000   1.0000   1.0000   1.0000   1.0000
     1.0000   1.0000   1.0000   1.0000   1.0000   1.0000   1.0000   1.0000
     1.0000   1.0000   1.0000   1.0000   1.0000   1.0000   1.0000   1.0000
     1.0000   1.0000   1.0000   1.0000   1.0000   1.0000   1.0000   1.0000
     1.0000   1.0000   1.0000   1.0000   1.0000   1.0000   1.0000   1.0000
     1.0000   1.0000   1.0000   1.0000   1.0000   1.0000   1.0000   1.0000
     1.0000   1.0000   1.0000   1.0000   1.0000   1.0000

          k = 0.1667 0.4811 0.0337 (  7563 PWs)   bands (ev):

   -12.3118 -12.2800 -12.2258 -12.1603 -12.0122 -11.9346  -1.1914  -1.1565
    -1.0901  -1.0589  -1.0083  -0.9799  -0.9316  -0.9037  -0.8803  -0.8700
    -0.8342  -0.8220  -0.7917  -0.7471  -0.7375  -0.7059  -0.6510  -0.6309
    -0.6221  -0.6005  -0.5843  -0.5426  -0.5267  -0.4993  -0.4629  -0.4318
    -0.3742  -0.3510  -0.2761  -0.2142   0.5801   0.6284   0.7237   0.8173
     0.8914   1.1021   1.7544   1.9633   2.0545   2.1897   2.3900   2.5234
     2.6543   2.6870   2.8502   2.9440   3.0190   3.1430

     occupation numbers 
     1.0000   1.0000   1.0000   1.0000   1.0000   1.0000   1.0000   1.0000
     1.0000   1.0000   1.0000   1.0000   1.0000   1.0000   1.0000   1.0000
     1.0000   1.0000   1.0000   1.0000   1.0000   1.0000   1.0000   1.0000
     1.0000   1.0000   1.0000   1.0000   1.0000   1.0000   1.0000   1.0000
     1.0000   1.0000   1.0000   1.0000   1.0000   1.0000   1.0000   1.0000
     1.0000   1.0000   1.0000   1.0000   1.0000   1.0000   1.0000   1.0000
     1.0000   1.0000   1.0000   1.0000   1.0000   1.0000

          k = 0.1667 0.4811 0.0675 (  7561 PWs)   bands (ev):

   -12.3117 -12.2801 -12.2257 -12.1603 -12.0122 -11.9346  -1.1910  -1.1564
    -1.0909  -1.0608  -1.0128  -0.9765  -0.9235  -0.9060  -0.8787  -0.8654
    -0.8370  -0.8316  -0.7886  -0.7509  -0.7298  -0.7061  -0.6511  -0.6332
    -0.6217  -0.6012  -0.5830  -0.5459  -0.5253  -0.5007  -0.4563  -0.4367
    -0.3742  -0.3509  -0.2762  -0.2140   0.5801   0.6325   0.7239   0.7901
     0.9129   1.1023   1.7808   1.9297   2.0749   2.2474   2.2936   2.4517
     2.7101   2.7697   2.8629   2.9245   2.9937   3.1341

     occupation numbers 
     1.0000   1.0000   1.0000   1.0000   1.0000   1.0000   1.0000   1.0000
     1.0000   1.0000   1.0000   1.0000   1.0000   1.0000   1.0000   1.0000
     1.0000   1.0000   1.0000   1.0000   1.0000   1.0000   1.0000   1.0000
     1.0000   1.0000   1.0000   1.0000   1.0000   1.0000   1.0000   1.0000
     1.0000   1.0000   1.0000   1.0000   1.0000   1.0000   1.0000   1.0000
     1.0000   1.0000   1.0000   1.0000   1.0000   1.0000   1.0000   1.0000
     1.0000   1.0000   1.0000   1.0000   1.0000   1.0000

          k = 0.1667 0.4811-0.1012 (  7562 PWs)   bands (ev):

   -12.3117 -12.2801 -12.2257 -12.1604 -12.0122 -11.9346  -1.1908  -1.1557
    -1.0939  -1.0600  -1.0148  -0.9727  -0.9221  -0.9073  -0.8777  -0.8603
    -0.8452  -0.8340  -0.7821  -0.7551  -0.7229  -0.7107  -0.6491  -0.6355
    -0.6216  -0.6041  -0.5801  -0.5468  -0.5254  -0.5009  -0.4524  -0.4402
    -0.3740  -0.3508  -0.2762  -0.2140   0.5790   0.6358   0.7285   0.7738
     0.9218   1.1024   1.8019   1.9051   2.1060   2.1994   2.3492   2.3817
     2.7285   2.8314   2.8514   2.9127   2.9773   3.1292

     occupation numbers 
     1.0000   1.0000   1.0000   1.0000   1.0000   1.0000   1.0000   1.0000
     1.0000   1.0000   1.0000   1.0000   1.0000   1.0000   1.0000   1.0000
     1.0000   1.0000   1.0000   1.0000   1.0000   1.0000   1.0000   1.0000
     1.0000   1.0000   1.0000   1.0000   1.0000   1.0000   1.0000   1.0000
     1.0000   1.0000   1.0000   1.0000   1.0000   1.0000   1.0000   1.0000
     1.0000   1.0000   1.0000   1.0000   1.0000   1.0000   1.0000   1.0000
     1.0000   1.0000   1.0000   1.0000   1.0000   1.0000

          k = 0.3333 0.5774 0.0000 (  7566 PWs)   bands (ev):

   -12.2608 -12.2357 -12.2177 -12.1330 -11.9683 -11.9228  -1.1761  -1.0921
    -1.0293  -1.0151  -0.9861  -0.9690  -0.9177  -0.8458  -0.8303  -0.7857
    -0.7511  -0.7390  -0.7178  -0.7033  -0.6987  -0.6781  -0.6528  -0.6454
    -0.6223  -0.5786  -0.5408  -0.4898  -0.4636  -0.4293  -0.4236  -0.4208
    -0.3855  -0.3542  -0.2011  -0.1813   0.6144   0.6319   0.7358   0.7776
     0.8957   0.9722   1.1274   1.4820   1.5505   2.1496   2.1790   2.3750
     2.4463   2.5752   2.7093   2.7594   2.9129   2.9392

     occupation numbers 
     1.0000   1.0000   1.0000   1.0000   1.0000   1.0000   1.0000   1.0000
     1.0000   1.0000   1.0000   1.0000   1.0000   1.0000   1.0000   1.0000
     1.0000   1.0000   1.0000   1.0000   1.0000   1.0000   1.0000   1.0000
     1.0000   1.0000   1.0000   1.0000   1.0000   1.0000   1.0000   1.0000
     1.0000   1.0000   1.0000   1.0000   1.0000   1.0000   1.0000   1.0000
     1.0000   1.0000   1.0000   1.0000   1.0000   1.0000   1.0000   1.0000
     1.0000   1.0000   1.0000   1.0000   1.0000   1.0000

          k = 0.3333 0.5774 0.0337 (  7533 PWs)   bands (ev):

   -12.2608 -12.2357 -12.2177 -12.1330 -11.9683 -11.9228  -1.1757  -1.0936
    -1.0306  -1.0160  -0.9825  -0.9661  -0.9154  -0.8502  -0.8386  -0.7766
    -0.7501  -0.7387  -0.7210  -0.7010  -0.6976  -0.6779  -0.6528  -0.6453
    -0.6228  -0.5803  -0.5404  -0.4913  -0.4607  -0.4298  -0.4238  -0.4210
    -0.3854  -0.3543  -0.2010  -0.1812   0.6133   0.6318   0.7349   0.7852
     0.8929   0.9680   1.1363   1.4171   1.6262   2.0645   2.2499   2.3883
     2.4625   2.5674   2.6819   2.7310   2.9305   2.9521

     occupation numbers 
     1.0000   1.0000   1.0000   1.0000   1.0000   1.0000   1.0000   1.0000
     1.0000   1.0000   1.0000   1.0000   1.0000   1.0000   1.0000   1.0000
     1.0000   1.0000   1.0000   1.0000   1.0000   1.0000   1.0000   1.0000
     1.0000   1.0000   1.0000   1.0000   1.0000   1.0000   1.0000   1.0000
     1.0000   1.0000   1.0000   1.0000   1.0000   1.0000   1.0000   1.0000
     1.0000   1.0000   1.0000   1.0000   1.0000   1.0000   1.0000   1.0000
     1.0000   1.0000   1.0000   1.0000   1.0000   1.0000

          k = 0.3333 0.5774 0.0675 (  7545 PWs)   bands (ev):

   -12.2608 -12.2357 -12.2177 -12.1330 -11.9683 -11.9228  -1.1750  -1.0967
    -1.0332  -1.0178  -0.9758  -0.9603  -0.9109  -0.8649  -0.8448  -0.7650
    -0.7477  -0.7381  -0.7265  -0.6982  -0.6958  -0.6772  -0.6529  -0.6450
    -0.6242  -0.5845  -0.5397  -0.4939  -0.4551  -0.4318  -0.4238  -0.4215
    -0.3855  -0.3547  -0.2010  -0.1813   0.6123   0.6292   0.7371   0.8002
     0.8834   0.9606   1.1579   1.3464   1.7329   1.9582   2.3111   2.4236
     2.5025   2.5500   2.6245   2.6738   2.9572   2.9728

     occupation numbers 
     1.0000   1.0000   1.0000   1.0000   1.0000   1.0000   1.0000   1.0000
     1.0000   1.0000   1.0000   1.0000   1.0000   1.0000   1.0000   1.0000
     1.0000   1.0000   1.0000   1.0000   1.0000   1.0000   1.0000   1.0000
     1.0000   1.0000   1.0000   1.0000   1.0000   1.0000   1.0000   1.0000
     1.0000   1.0000   1.0000   1.0000   1.0000   1.0000   1.0000   1.0000
     1.0000   1.0000   1.0000   1.0000   1.0000   1.0000   1.0000   1.0000
     1.0000   1.0000   1.0000   1.0000   1.0000   1.0000

          k = 0.3333 0.5774-0.1012 (  7548 PWs)   bands (ev):

   -12.2608 -12.2357 -12.2177 -12.1330 -11.9683 -11.9228  -1.1747  -1.0981
    -1.0343  -1.0186  -0.9725  -0.9570  -0.9087  -0.8726  -0.8467  -0.7608
    -0.7462  -0.7378  -0.7294  -0.6966  -0.6954  -0.6766  -0.6530  -0.6448
    -0.6250  -0.5866  -0.5393  -0.4951  -0.4520  -0.4332  -0.4238  -0.4217
    -0.3855  -0.3549  -0.2010  -0.1813   0.6123   0.6271   0.7397   0.8092
     0.8754   0.9576   1.1724   1.3152   1.8295   1.8618   2.3356   2.4500
     2.5270   2.5485   2.5861   2.6371   2.9681   2.9817

     occupation numbers 
     1.0000   1.0000   1.0000   1.0000   1.0000   1.0000   1.0000   1.0000
     1.0000   1.0000   1.0000   1.0000   1.0000   1.0000   1.0000   1.0000
     1.0000   1.0000   1.0000   1.0000   1.0000   1.0000   1.0000   1.0000
     1.0000   1.0000   1.0000   1.0000   1.0000   1.0000   1.0000   1.0000
     1.0000   1.0000   1.0000   1.0000   1.0000   1.0000   1.0000   1.0000
     1.0000   1.0000   1.0000   1.0000   1.0000   1.0000   1.0000   1.0000
     1.0000   1.0000   1.0000   1.0000   1.0000   1.0000

          k =-0.1667 0.0962 0.0000 (  7635 PWs)   bands (ev):

   -12.5783 -12.4925 -12.3856 -12.3078 -12.2169 -12.0532  -1.2685  -1.2480
    -1.1946  -1.1628  -1.1456  -1.1269  -1.1199  -1.1016  -1.0676  -1.0375
    -1.0315  -0.9623  -0.9165  -0.8930  -0.8903  -0.8429  -0.8137  -0.7008
    -0.6794  -0.6503  -0.6387  -0.6194  -0.6055  -0.5910  -0.5822  -0.4538
    -0.4051  -0.3987  -0.3354  -0.3106   0.3271   1.0502   1.1185   2.0265
     2.0305   2.4163   2.6445   2.7554   2.8593   2.9948   3.1429   3.2371
     3.2950   3.3234   3.4458   3.4680   3.6080   3.7107

     occupation numbers 
     1.0000   1.0000   1.0000   1.0000   1.0000   1.0000   1.0000   1.0000
     1.0000   1.0000   1.0000   1.0000   1.0000   1.0000   1.0000   1.0000
     1.0000   1.0000   1.0000   1.0000   1.0000   1.0000   1.0000   1.0000
     1.0000   1.0000   1.0000   1.0000   1.0000   1.0000   1.0000   1.0000
     1.0000   1.0000   1.0000   1.0000   1.0000   1.0000   1.0000   1.0000
     1.0000   1.0000   1.0000   1.0000   1.0000   1.0000   1.0000   1.0000
     1.0000   1.0000   1.0000   1.0000   1.0000   1.0000

          k = 0.1667 0.0962 0.0000 (  7635 PWs)   bands (ev):

   -12.5798 -12.4937 -12.3865 -12.3078 -12.2168 -12.0528  -1.2565  -1.2359
    -1.1995  -1.1855  -1.1650  -1.1399  -1.1014  -1.0915  -1.0771  -1.0637
    -1.0253  -0.9679  -0.9198  -0.8952  -0.8819  -0.8308  -0.8185  -0.7031
    -0.6756  -0.6544  -0.6342  -0.6206  -0.6027  -0.5940  -0.5787  -0.4566
    -0.4092  -0.3954  -0.3350  -0.3089   0.3318   1.0556   1.1292   2.0368
     2.0565   2.4206   2.6908   2.7964   2.8744   2.9629   3.1004   3.2215
     3.2961   3.3234   3.4311   3.4714   3.6159   3.7028

     occupation numbers 
     1.0000   1.0000   1.0000   1.0000   1.0000   1.0000   1.0000   1.0000
     1.0000   1.0000   1.0000   1.0000   1.0000   1.0000   1.0000   1.0000
     1.0000   1.0000   1.0000   1.0000   1.0000   1.0000   1.0000   1.0000
     1.0000   1.0000   1.0000   1.0000   1.0000   1.0000   1.0000   1.0000
     1.0000   1.0000   1.0000   1.0000   1.0000   1.0000   1.0000   1.0000
     1.0000   1.0000   1.0000   1.0000   1.0000   1.0000   1.0000   1.0000
     1.0000   1.0000   1.0000   1.0000   1.0000   1.0000

          k = 0.0000-0.1925 0.0337 (  7636 PWs)   bands (ev):

   -12.5778 -12.4938 -12.3834 -12.3111 -12.2159 -12.0533  -1.2588  -1.2455
    -1.1873  -1.1680  -1.1468  -1.1342  -1.1288  -1.0975  -1.0724  -1.0424
    -1.0342  -0.9620  -0.9310  -0.8902  -0.8755  -0.8315  -0.8142  -0.6984
    -0.6836  -0.6528  -0.6405  -0.6212  -0.6049  -0.5889  -0.5785  -0.4708
    -0.4039  -0.3974  -0.3347  -0.3149   0.3586   0.9099   1.2583   1.8925
     2.1567   2.4378   2.6219   2.7636   2.9030   2.9835   3.1253   3.2254
     3.2550   3.3859   3.4178   3.4902   3.6024   3.7023

     occupation numbers 
     1.0000   1.0000   1.0000   1.0000   1.0000   1.0000   1.0000   1.0000
     1.0000   1.0000   1.0000   1.0000   1.0000   1.0000   1.0000   1.0000
     1.0000   1.0000   1.0000   1.0000   1.0000   1.0000   1.0000   1.0000
     1.0000   1.0000   1.0000   1.0000   1.0000   1.0000   1.0000   1.0000
     1.0000   1.0000   1.0000   1.0000   1.0000   1.0000   1.0000   1.0000
     1.0000   1.0000   1.0000   1.0000   1.0000   1.0000   1.0000   1.0000
     1.0000   1.0000   1.0000   1.0000   1.0000   1.0000

          k =-0.1667 0.0962 0.0337 (  7636 PWs)   bands (ev):

   -12.5780 -12.4936 -12.3828 -12.3107 -12.2158 -12.0532  -1.2684  -1.2476
    -1.1956  -1.1628  -1.1468  -1.1269  -1.1175  -1.1019  -1.0679  -1.0414
    -1.0332  -0.9570  -0.9263  -0.8914  -0.8884  -0.8264  -0.8128  -0.7029
    -0.6797  -0.6520  -0.6393  -0.6243  -0.6051  -0.5871  -0.5823  -0.4677
    -0.4024  -0.3985  -0.3354  -0.3144   0.3620   0.9092   1.2610   1.8906
     2.1484   2.4198   2.6237   2.7465   2.8894   2.9966   3.1340   3.2186
     3.2596   3.3832   3.4205   3.4867   3.6017   3.7101

     occupation numbers 
     1.0000   1.0000   1.0000   1.0000   1.0000   1.0000   1.0000   1.0000
     1.0000   1.0000   1.0000   1.0000   1.0000   1.0000   1.0000   1.0000
     1.0000   1.0000   1.0000   1.0000   1.0000   1.0000   1.0000   1.0000
     1.0000   1.0000   1.0000   1.0000   1.0000   1.0000   1.0000   1.0000
     1.0000   1.0000   1.0000   1.0000   1.0000   1.0000   1.0000   1.0000
     1.0000   1.0000   1.0000   1.0000   1.0000   1.0000   1.0000   1.0000
     1.0000   1.0000   1.0000   1.0000   1.0000   1.0000

          k = 0.1667 0.0962 0.0337 (  7636 PWs)   bands (ev):

   -12.5795 -12.4948 -12.3837 -12.3107 -12.2157 -12.0529  -1.2562  -1.2353
    -1.2005  -1.1856  -1.1650  -1.1408  -1.1007  -1.0910  -1.0773  -1.0636
    -1.0290  -0.9669  -0.9304  -0.8854  -0.8721  -0.8308  -0.8152  -0.7064
    -0.6756  -0.6551  -0.6349  -0.6246  -0.6023  -0.5898  -0.5789  -0.4677
    -0.4069  -0.3954  -0.3350  -0.3130   0.3639   0.9221   1.2646   1.9128
     2.1635   2.4212   2.6733   2.7890   2.9028   2.9646   3.0921   3.2240
     3.2409   3.3803   3.4113   3.4871   3.6089   3.7021

     occupation numbers 
     1.0000   1.0000   1.0000   1.0000   1.0000   1.0000   1.0000   1.0000
     1.0000   1.0000   1.0000   1.0000   1.0000   1.0000   1.0000   1.0000
     1.0000   1.0000   1.0000   1.0000   1.0000   1.0000   1.0000   1.0000
     1.0000   1.0000   1.0000   1.0000   1.0000   1.0000   1.0000   1.0000
     1.0000   1.0000   1.0000   1.0000   1.0000   1.0000   1.0000   1.0000
     1.0000   1.0000   1.0000   1.0000   1.0000   1.0000   1.0000   1.0000
     1.0000   1.0000   1.0000   1.0000   1.0000   1.0000

          k =-0.1667-0.0962 0.0337 (  7636 PWs)   bands (ev):

   -12.5795 -12.4949 -12.3837 -12.3107 -12.2157 -12.0529  -1.2563  -1.2362
    -1.1990  -1.1853  -1.1649  -1.1395  -1.1023  -1.0925  -1.0762  -1.0636
    -1.0337  -0.9610  -0.9213  -0.8943  -0.8823  -0.8309  -0.8061  -0.7005
    -0.6757  -0.6600  -0.6343  -0.6242  -0.6027  -0.5920  -0.5783  -0.4688
    -0.4077  -0.3954  -0.3350  -0.3120   0.3668   0.9145   1.2725   1.9061
     2.1691   2.4194   2.6815   2.7723   2.9134   2.9649   3.0929   3.2205
     3.2378   3.3857   3.4111   3.4863   3.6084   3.7020

     occupation numbers 
     1.0000   1.0000   1.0000   1.0000   1.0000   1.0000   1.0000   1.0000
     1.0000   1.0000   1.0000   1.0000   1.0000   1.0000   1.0000   1.0000
     1.0000   1.0000   1.0000   1.0000   1.0000   1.0000   1.0000   1.0000
     1.0000   1.0000   1.0000   1.0000   1.0000   1.0000   1.0000   1.0000
     1.0000   1.0000   1.0000   1.0000   1.0000   1.0000   1.0000   1.0000
     1.0000   1.0000   1.0000   1.0000   1.0000   1.0000   1.0000   1.0000
     1.0000   1.0000   1.0000   1.0000   1.0000   1.0000

          k = 0.1667-0.0962 0.0337 (  7636 PWs)   bands (ev):

   -12.5780 -12.4936 -12.3829 -12.3106 -12.2158 -12.0532  -1.2684  -1.2481
    -1.1942  -1.1627  -1.1449  -1.1273  -1.1210  -1.1008  -1.0674  -1.0426
    -1.0345  -0.9579  -0.9167  -0.8937  -0.8884  -0.8325  -0.8134  -0.6987
    -0.6796  -0.6561  -0.6388  -0.6213  -0.6055  -0.5898  -0.5821  -0.4631
    -0.4048  -0.3986  -0.3354  -0.3141   0.3597   0.9153   1.2550   1.8931
     2.1497   2.4129   2.6423   2.7257   2.8978   2.9962   3.1332   3.2232
     3.2548   3.3814   3.4212   3.4879   3.6018   3.7101

     occupation numbers 
     1.0000   1.0000   1.0000   1.0000   1.0000   1.0000   1.0000   1.0000
     1.0000   1.0000   1.0000   1.0000   1.0000   1.0000   1.0000   1.0000
     1.0000   1.0000   1.0000   1.0000   1.0000   1.0000   1.0000   1.0000
     1.0000   1.0000   1.0000   1.0000   1.0000   1.0000   1.0000   1.0000
     1.0000   1.0000   1.0000   1.0000   1.0000   1.0000   1.0000   1.0000
     1.0000   1.0000   1.0000   1.0000   1.0000   1.0000   1.0000   1.0000
     1.0000   1.0000   1.0000   1.0000   1.0000   1.0000

          k = 0.0000-0.1925 0.0675 (  7633 PWs)   bands (ev):

   -12.5772 -12.4961 -12.3773 -12.3173 -12.2140 -12.0535  -1.2585  -1.2449
    -1.1879  -1.1682  -1.1474  -1.1339  -1.1277  -1.0972  -1.0726  -1.0494
    -1.0392  -0.9544  -0.9376  -0.8891  -0.8717  -0.8293  -0.7857  -0.7005
    -0.6838  -0.6636  -0.6408  -0.6267  -0.6045  -0.5832  -0.5784  -0.4950
    -0.4025  -0.3971  -0.3347  -0.3206   0.4473   0.7516   1.4248   1.7439
     2.2555   2.4309   2.5966   2.7368   2.9699   2.9890   3.1100   3.1488
     3.2801   3.3791   3.4433   3.5082   3.5881   3.7008

     occupation numbers 
     1.0000   1.0000   1.0000   1.0000   1.0000   1.0000   1.0000   1.0000
     1.0000   1.0000   1.0000   1.0000   1.0000   1.0000   1.0000   1.0000
     1.0000   1.0000   1.0000   1.0000   1.0000   1.0000   1.0000   1.0000
     1.0000   1.0000   1.0000   1.0000   1.0000   1.0000   1.0000   1.0000
     1.0000   1.0000   1.0000   1.0000   1.0000   1.0000   1.0000   1.0000
     1.0000   1.0000   1.0000   1.0000   1.0000   1.0000   1.0000   1.0000
     1.0000   1.0000   1.0000   1.0000   1.0000   1.0000

          k =-0.1667 0.0962 0.0675 (  7633 PWs)   bands (ev):

   -12.5775 -12.4958 -12.3767 -12.3169 -12.2139 -12.0534  -1.2681  -1.2470
    -1.1963  -1.1628  -1.1474  -1.1271  -1.1163  -1.1012  -1.0685  -1.0515
    -1.0345  -0.9466  -0.9351  -0.8917  -0.8865  -0.8152  -0.7907  -0.7056
    -0.6810  -0.6624  -0.6401  -0.6294  -0.6047  -0.5835  -0.5806  -0.4903
    -0.4009  -0.3979  -0.3354  -0.3202   0.4511   0.7509   1.4272   1.7423
     2.2407   2.4200   2.5967   2.7198   2.9588   3.0014   3.1167   3.1397
     3.2865   3.3828   3.4414   3.5050   3.5859   3.7089

     occupation numbers 
     1.0000   1.0000   1.0000   1.0000   1.0000   1.0000   1.0000   1.0000
     1.0000   1.0000   1.0000   1.0000   1.0000   1.0000   1.0000   1.0000
     1.0000   1.0000   1.0000   1.0000   1.0000   1.0000   1.0000   1.0000
     1.0000   1.0000   1.0000   1.0000   1.0000   1.0000   1.0000   1.0000
     1.0000   1.0000   1.0000   1.0000   1.0000   1.0000   1.0000   1.0000
     1.0000   1.0000   1.0000   1.0000   1.0000   1.0000   1.0000   1.0000
     1.0000   1.0000   1.0000   1.0000   1.0000   1.0000

          k = 0.1667 0.0962 0.0675 (  7633 PWs)   bands (ev):

   -12.5790 -12.4971 -12.3775 -12.3170 -12.2137 -12.0531  -1.2557  -1.2351
    -1.2009  -1.1855  -1.1651  -1.1414  -1.1007  -1.0917  -1.0767  -1.0636
    -1.0395  -0.9595  -0.9372  -0.8844  -0.8640  -0.8309  -0.7897  -0.7113
    -0.6757  -0.6624  -0.6364  -0.6302  -0.6020  -0.5843  -0.5782  -0.4907
    -0.4045  -0.3953  -0.3350  -0.3187   0.4509   0.7624   1.4329   1.7644
     2.2546   2.4195   2.6468   2.7668   2.9659   2.9739   3.0783   3.1442
     3.2645   3.3732   3.4436   3.5046   3.5908   3.7006

     occupation numbers 
     1.0000   1.0000   1.0000   1.0000   1.0000   1.0000   1.0000   1.0000
     1.0000   1.0000   1.0000   1.0000   1.0000   1.0000   1.0000   1.0000
     1.0000   1.0000   1.0000   1.0000   1.0000   1.0000   1.0000   1.0000
     1.0000   1.0000   1.0000   1.0000   1.0000   1.0000   1.0000   1.0000
     1.0000   1.0000   1.0000   1.0000   1.0000   1.0000   1.0000   1.0000
     1.0000   1.0000   1.0000   1.0000   1.0000   1.0000   1.0000   1.0000
     1.0000   1.0000   1.0000   1.0000   1.0000   1.0000

          k =-0.1667-0.0962 0.0675 (  7633 PWs)   bands (ev):

   -12.5790 -12.4971 -12.3775 -12.3170 -12.2137 -12.0531  -1.2558  -1.2360
    -1.1994  -1.1852  -1.1649  -1.1401  -1.1024  -1.0931  -1.0756  -1.0636
    -1.0429  -0.9548  -0.9328  -0.8851  -0.8761  -0.8309  -0.7825  -0.7012
    -0.6769  -0.6707  -0.6356  -0.6300  -0.6024  -0.5865  -0.5775  -0.4917
    -0.4052  -0.3954  -0.3350  -0.3178   0.4557   0.7554   1.4406   1.7572
     2.2588   2.4168   2.6533   2.7560   2.9657   2.9832   3.0791   3.1384
     3.2626   3.3757   3.4452   3.5041   3.5899   3.7005

     occupation numbers 
     1.0000   1.0000   1.0000   1.0000   1.0000   1.0000   1.0000   1.0000
     1.0000   1.0000   1.0000   1.0000   1.0000   1.0000   1.0000   1.0000
     1.0000   1.0000   1.0000   1.0000   1.0000   1.0000   1.0000   1.0000
     1.0000   1.0000   1.0000   1.0000   1.0000   1.0000   1.0000   1.0000
     1.0000   1.0000   1.0000   1.0000   1.0000   1.0000   1.0000   1.0000
     1.0000   1.0000   1.0000   1.0000   1.0000   1.0000   1.0000   1.0000
     1.0000   1.0000   1.0000   1.0000   1.0000   1.0000

          k = 0.1667-0.0962 0.0675 (  7633 PWs)   bands (ev):

   -12.5775 -12.4958 -12.3768 -12.3169 -12.2139 -12.0534  -1.2681  -1.2475
    -1.1949  -1.1627  -1.1457  -1.1275  -1.1199  -1.0999  -1.0679  -1.0531
    -1.0350  -0.9504  -0.9255  -0.8926  -0.8865  -0.8153  -0.7981  -0.6966
    -0.6819  -0.6686  -0.6395  -0.6269  -0.6051  -0.5851  -0.5814  -0.4860
    -0.4024  -0.3984  -0.3354  -0.3199   0.4473   0.7565   1.4216   1.7461
     2.2441   2.4094   2.6162   2.7031   2.9664   2.9994   3.1168   3.1385
     3.2869   3.3799   3.4426   3.5060   3.5859   3.7089

     occupation numbers 
     1.0000   1.0000   1.0000   1.0000   1.0000   1.0000   1.0000   1.0000
     1.0000   1.0000   1.0000   1.0000   1.0000   1.0000   1.0000   1.0000
     1.0000   1.0000   1.0000   1.0000   1.0000   1.0000   1.0000   1.0000
     1.0000   1.0000   1.0000   1.0000   1.0000   1.0000   1.0000   1.0000
     1.0000   1.0000   1.0000   1.0000   1.0000   1.0000   1.0000   1.0000
     1.0000   1.0000   1.0000   1.0000   1.0000   1.0000   1.0000   1.0000
     1.0000   1.0000   1.0000   1.0000   1.0000   1.0000

          k =-0.1667 0.0962-0.1012 (  7632 PWs)   bands (ev):

   -12.5772 -12.4969 -12.3733 -12.3204 -12.2129 -12.0535  -1.2679  -1.2470
    -1.1960  -1.1628  -1.1469  -1.1273  -1.1175  -1.0999  -1.0690  -1.0567
    -1.0349  -0.9437  -0.9349  -0.8920  -0.8860  -0.8148  -0.7732  -0.7033
    -0.6855  -0.6721  -0.6402  -0.6302  -0.6048  -0.5834  -0.5790  -0.4996
    -0.4010  -0.3979  -0.3354  -0.3224   0.5349   0.6462   1.5773   1.5978
     2.2821   2.4117   2.5914   2.7023   2.9988   3.0352   3.0614   3.1142
     3.3100   3.3571   3.4669   3.5121   3.5747   3.7082

     occupation numbers 
     1.0000   1.0000   1.0000   1.0000   1.0000   1.0000   1.0000   1.0000
     1.0000   1.0000   1.0000   1.0000   1.0000   1.0000   1.0000   1.0000
     1.0000   1.0000   1.0000   1.0000   1.0000   1.0000   1.0000   1.0000
     1.0000   1.0000   1.0000   1.0000   1.0000   1.0000   1.0000   1.0000
     1.0000   1.0000   1.0000   1.0000   1.0000   1.0000   1.0000   1.0000
     1.0000   1.0000   1.0000   1.0000   1.0000   1.0000   1.0000   1.0000
     1.0000   1.0000   1.0000   1.0000   1.0000   1.0000

          k = 0.1667 0.0962-0.1012 (  7632 PWs)   bands (ev):

   -12.5787 -12.4982 -12.3740 -12.3205 -12.2128 -12.0532  -1.2555  -1.2354
    -1.2004  -1.1853  -1.1650  -1.1411  -1.1015  -1.0928  -1.0757  -1.0636
    -1.0453  -0.9536  -0.9391  -0.8843  -0.8669  -0.8309  -0.7666  -0.7128
    -0.6775  -0.6717  -0.6373  -0.6318  -0.6020  -0.5832  -0.5766  -0.5028
    -0.4039  -0.3954  -0.3350  -0.3206   0.5387   0.6514   1.5891   1.6152
     2.2941   2.4153   2.6359   2.7539   2.9697   3.0500   3.0619   3.0737
     3.2817   3.3549   3.4708   3.5110   3.5773   3.6997

     occupation numbers 
     1.0000   1.0000   1.0000   1.0000   1.0000   1.0000   1.0000   1.0000
     1.0000   1.0000   1.0000   1.0000   1.0000   1.0000   1.0000   1.0000
     1.0000   1.0000   1.0000   1.0000   1.0000   1.0000   1.0000   1.0000
     1.0000   1.0000   1.0000   1.0000   1.0000   1.0000   1.0000   1.0000
     1.0000   1.0000   1.0000   1.0000   1.0000   1.0000   1.0000   1.0000
     1.0000   1.0000   1.0000   1.0000   1.0000   1.0000   1.0000   1.0000
     1.0000   1.0000   1.0000   1.0000   1.0000   1.0000

          k =-0.3333 0.1925 0.0000 (  7593 PWs)   bands (ev):

   -12.4089 -12.3511 -12.2645 -12.2120 -12.0863 -11.9702  -1.2584  -1.2375
    -1.1711  -1.1065  -1.0742  -1.0239  -1.0128  -0.9467  -0.9401  -0.9202
    -0.9064  -0.8921  -0.8525  -0.7994  -0.7785  -0.7511  -0.6872  -0.6790
    -0.6455  -0.6335  -0.6043  -0.5863  -0.5735  -0.5607  -0.5393  -0.4363
    -0.3858  -0.3731  -0.3227  -0.2704   0.6962   0.8207   0.8820   1.1395
     1.1832   1.3252   1.8053   2.2784   2.2992   2.5356   2.7299   2.8218
     3.0450   3.0658   3.1347   3.1358   3.2881   3.4178

     occupation numbers 
     1.0000   1.0000   1.0000   1.0000   1.0000   1.0000   1.0000   1.0000
     1.0000   1.0000   1.0000   1.0000   1.0000   1.0000   1.0000   1.0000
     1.0000   1.0000   1.0000   1.0000   1.0000   1.0000   1.0000   1.0000
     1.0000   1.0000   1.0000   1.0000   1.0000   1.0000   1.0000   1.0000
     1.0000   1.0000   1.0000   1.0000   1.0000   1.0000   1.0000   1.0000
     1.0000   1.0000   1.0000   1.0000   1.0000   1.0000   1.0000   1.0000
     1.0000   1.0000   1.0000   1.0000   1.0000   1.0000

          k = 0.3333 0.1925 0.0000 (  7593 PWs)   bands (ev):

   -12.4150 -12.3550 -12.2659 -12.2119 -12.0863 -11.9684  -1.2589  -1.2408
    -1.1854  -1.1206  -1.1038  -1.0642  -1.0116  -0.9792  -0.9416  -0.9264
    -0.9124  -0.8907  -0.8376  -0.7945  -0.7815  -0.7485  -0.7004  -0.6599
    -0.6427  -0.6356  -0.6003  -0.5827  -0.5736  -0.5565  -0.5424  -0.4380
    -0.3885  -0.3709  -0.3205  -0.2673   0.7224   0.8697   0.9184   1.1792
     1.2246   1.3484   1.8452   2.2558   2.2861   2.5242   2.7144   2.8205
     3.0600   3.0758   3.1269   3.1405   3.3066   3.4174

     occupation numbers 
     1.0000   1.0000   1.0000   1.0000   1.0000   1.0000   1.0000   1.0000
     1.0000   1.0000   1.0000   1.0000   1.0000   1.0000   1.0000   1.0000
     1.0000   1.0000   1.0000   1.0000   1.0000   1.0000   1.0000   1.0000
     1.0000   1.0000   1.0000   1.0000   1.0000   1.0000   1.0000   1.0000
     1.0000   1.0000   1.0000   1.0000   1.0000   1.0000   1.0000   1.0000
     1.0000   1.0000   1.0000   1.0000   1.0000   1.0000   1.0000   1.0000
     1.0000   1.0000   1.0000   1.0000   1.0000   1.0000

          k = 0.0000-0.3849 0.0337 (  7615 PWs)   bands (ev):

   -12.4068 -12.3522 -12.2675 -12.2130 -12.0866 -11.9702  -1.2558  -1.2322
    -1.1625  -1.1035  -1.0841  -1.0364  -1.0155  -0.9497  -0.9463  -0.9373
    -0.9039  -0.8960  -0.8525  -0.7933  -0.7800  -0.7421  -0.6999  -0.6703
    -0.6486  -0.6288  -0.6071  -0.5854  -0.5832  -0.5592  -0.5351  -0.4460
    -0.3830  -0.3726  -0.3216  -0.2725   0.6950   0.8180   0.9142   1.1092
     1.1964   1.3590   1.8259   2.1531   2.4630   2.5308   2.7087   2.8468
     2.9880   3.0828   3.1103   3.1762   3.2985   3.4179

     occupation numbers 
     1.0000   1.0000   1.0000   1.0000   1.0000   1.0000   1.0000   1.0000
     1.0000   1.0000   1.0000   1.0000   1.0000   1.0000   1.0000   1.0000
     1.0000   1.0000   1.0000   1.0000   1.0000   1.0000   1.0000   1.0000
     1.0000   1.0000   1.0000   1.0000   1.0000   1.0000   1.0000   1.0000
     1.0000   1.0000   1.0000   1.0000   1.0000   1.0000   1.0000   1.0000
     1.0000   1.0000   1.0000   1.0000   1.0000   1.0000   1.0000   1.0000
     1.0000   1.0000   1.0000   1.0000   1.0000   1.0000

          k =-0.3333 0.1925 0.0337 (  7615 PWs)   bands (ev):

   -12.4088 -12.3513 -12.2639 -12.2124 -12.0862 -11.9702  -1.2581  -1.2368
    -1.1742  -1.1050  -1.0742  -1.0231  -1.0141  -0.9458  -0.9389  -0.9255
    -0.9025  -0.8932  -0.8549  -0.7916  -0.7781  -0.7509  -0.6894  -0.6805
    -0.6453  -0.6315  -0.6050  -0.5855  -0.5813  -0.5612  -0.5310  -0.4447
    -0.3807  -0.3731  -0.3228  -0.2728   0.7002   0.7987   0.9100   1.1179
     1.1895   1.3412   1.8103   2.1390   2.4489   2.5389   2.7124   2.8455
     2.9806   3.0772   3.1118   3.1743   3.2923   3.4164

     occupation numbers 
     1.0000   1.0000   1.0000   1.0000   1.0000   1.0000   1.0000   1.0000
     1.0000   1.0000   1.0000   1.0000   1.0000   1.0000   1.0000   1.0000
     1.0000   1.0000   1.0000   1.0000   1.0000   1.0000   1.0000   1.0000
     1.0000   1.0000   1.0000   1.0000   1.0000   1.0000   1.0000   1.0000
     1.0000   1.0000   1.0000   1.0000   1.0000   1.0000   1.0000   1.0000
     1.0000   1.0000   1.0000   1.0000   1.0000   1.0000   1.0000   1.0000
     1.0000   1.0000   1.0000   1.0000   1.0000   1.0000

          k = 0.3333 0.1925 0.0337 (  7615 PWs)   bands (ev):

   -12.4149 -12.3553 -12.2653 -12.2123 -12.0862 -11.9684  -1.2582  -1.2407
    -1.1884  -1.1188  -1.1037  -1.0644  -1.0115  -0.9788  -0.9430  -0.9260
    -0.9137  -0.8886  -0.8396  -0.7882  -0.7813  -0.7504  -0.7006  -0.6639
    -0.6425  -0.6324  -0.6010  -0.5826  -0.5799  -0.5563  -0.5356  -0.4448
    -0.3835  -0.3709  -0.3207  -0.2697   0.7251   0.8469   0.9474   1.1570
     1.2378   1.3589   1.8456   2.1315   2.4246   2.5276   2.6967   2.8456
     2.9845   3.0763   3.1294   3.1766   3.3094   3.4160

     occupation numbers 
     1.0000   1.0000   1.0000   1.0000   1.0000   1.0000   1.0000   1.0000
     1.0000   1.0000   1.0000   1.0000   1.0000   1.0000   1.0000   1.0000
     1.0000   1.0000   1.0000   1.0000   1.0000   1.0000   1.0000   1.0000
     1.0000   1.0000   1.0000   1.0000   1.0000   1.0000   1.0000   1.0000
     1.0000   1.0000   1.0000   1.0000   1.0000   1.0000   1.0000   1.0000
     1.0000   1.0000   1.0000   1.0000   1.0000   1.0000   1.0000   1.0000
     1.0000   1.0000   1.0000   1.0000   1.0000   1.0000

          k =-0.3333-0.1925 0.0337 (  7615 PWs)   bands (ev):

   -12.4149 -12.3553 -12.2653 -12.2124 -12.0862 -11.9684  -1.2592  -1.2409
    -1.1841  -1.1224  -1.1041  -1.0644  -1.0107  -0.9791  -0.9409  -0.9278
    -0.9129  -0.8911  -0.8346  -0.7939  -0.7815  -0.7495  -0.7004  -0.6554
    -0.6431  -0.6381  -0.5999  -0.5834  -0.5812  -0.5563  -0.5328  -0.4453
    -0.3864  -0.3710  -0.3206  -0.2686   0.7262   0.8438   0.9512   1.1614
     1.2282   1.3626   1.8455   2.1297   2.4279   2.5273   2.6975   2.8443
     2.9827   3.0787   3.1284   3.1750   3.3106   3.4161

     occupation numbers 
     1.0000   1.0000   1.0000   1.0000   1.0000   1.0000   1.0000   1.0000
     1.0000   1.0000   1.0000   1.0000   1.0000   1.0000   1.0000   1.0000
     1.0000   1.0000   1.0000   1.0000   1.0000   1.0000   1.0000   1.0000
     1.0000   1.0000   1.0000   1.0000   1.0000   1.0000   1.0000   1.0000
     1.0000   1.0000   1.0000   1.0000   1.0000   1.0000   1.0000   1.0000
     1.0000   1.0000   1.0000   1.0000   1.0000   1.0000   1.0000   1.0000
     1.0000   1.0000   1.0000   1.0000   1.0000   1.0000

          k = 0.3333-0.1925 0.0337 (  7615 PWs)   bands (ev):

   -12.4088 -12.3513 -12.2640 -12.2123 -12.0862 -11.9702  -1.2582  -1.2379
    -1.1698  -1.1091  -1.0743  -1.0238  -1.0124  -0.9485  -0.9396  -0.9228
    -0.9034  -0.8923  -0.8479  -0.8011  -0.7782  -0.7523  -0.6854  -0.6749
    -0.6463  -0.6384  -0.6039  -0.5874  -0.5758  -0.5607  -0.5342  -0.4413
    -0.3844  -0.3732  -0.3228  -0.2717   0.6976   0.8034   0.9060   1.1111
     1.2065   1.3325   1.8088   2.1440   2.4438   2.5384   2.7106   2.8489
     2.9879   3.0695   3.1124   3.1753   3.2919   3.4163

     occupation numbers 
     1.0000   1.0000   1.0000   1.0000   1.0000   1.0000   1.0000   1.0000
     1.0000   1.0000   1.0000   1.0000   1.0000   1.0000   1.0000   1.0000
     1.0000   1.0000   1.0000   1.0000   1.0000   1.0000   1.0000   1.0000
     1.0000   1.0000   1.0000   1.0000   1.0000   1.0000   1.0000   1.0000
     1.0000   1.0000   1.0000   1.0000   1.0000   1.0000   1.0000   1.0000
     1.0000   1.0000   1.0000   1.0000   1.0000   1.0000   1.0000   1.0000
     1.0000   1.0000   1.0000   1.0000   1.0000   1.0000

          k = 0.0000-0.3849 0.0675 (  7610 PWs)   bands (ev):

   -12.4067 -12.3527 -12.2666 -12.2137 -12.0865 -11.9702  -1.2553  -1.2317
    -1.1647  -1.1037  -1.0842  -1.0361  -1.0159  -0.9507  -0.9478  -0.9369
    -0.9046  -0.8955  -0.8505  -0.7857  -0.7779  -0.7446  -0.7002  -0.6686
    -0.6487  -0.6293  -0.6071  -0.5938  -0.5839  -0.5593  -0.5214  -0.4599
    -0.3781  -0.3720  -0.3216  -0.2765   0.7004   0.7914   0.9624   1.0645
     1.2137   1.3819   1.8420   2.0330   2.5363   2.6159   2.6863   2.8752
     2.9121   3.0272   3.1273   3.2050   3.3061   3.4152

     occupation numbers 
     1.0000   1.0000   1.0000   1.0000   1.0000   1.0000   1.0000   1.0000
     1.0000   1.0000   1.0000   1.0000   1.0000   1.0000   1.0000   1.0000
     1.0000   1.0000   1.0000   1.0000   1.0000   1.0000   1.0000   1.0000
     1.0000   1.0000   1.0000   1.0000   1.0000   1.0000   1.0000   1.0000
     1.0000   1.0000   1.0000   1.0000   1.0000   1.0000   1.0000   1.0000
     1.0000   1.0000   1.0000   1.0000   1.0000   1.0000   1.0000   1.0000
     1.0000   1.0000   1.0000   1.0000   1.0000   1.0000

          k =-0.3333 0.1925 0.0675 (  7610 PWs)   bands (ev):

   -12.4086 -12.3518 -12.2629 -12.2131 -12.0861 -11.9702  -1.2575  -1.2365
    -1.1760  -1.1059  -1.0742  -1.0222  -1.0148  -0.9467  -0.9372  -0.9302
    -0.8991  -0.8944  -0.8531  -0.7850  -0.7762  -0.7523  -0.6888  -0.6797
    -0.6456  -0.6334  -0.6051  -0.5900  -0.5846  -0.5614  -0.5179  -0.4585
    -0.3754  -0.3730  -0.3228  -0.2764   0.7074   0.7723   0.9556   1.0697
     1.2113   1.3631   1.8259   2.0203   2.5435   2.6048   2.6878   2.8652
     2.9098   3.0257   3.1296   3.2020   3.2997   3.4135

     occupation numbers 
     1.0000   1.0000   1.0000   1.0000   1.0000   1.0000   1.0000   1.0000
     1.0000   1.0000   1.0000   1.0000   1.0000   1.0000   1.0000   1.0000
     1.0000   1.0000   1.0000   1.0000   1.0000   1.0000   1.0000   1.0000
     1.0000   1.0000   1.0000   1.0000   1.0000   1.0000   1.0000   1.0000
     1.0000   1.0000   1.0000   1.0000   1.0000   1.0000   1.0000   1.0000
     1.0000   1.0000   1.0000   1.0000   1.0000   1.0000   1.0000   1.0000
     1.0000   1.0000   1.0000   1.0000   1.0000   1.0000

          k = 0.3333 0.1925 0.0675 (  7610 PWs)   bands (ev):

   -12.4147 -12.3559 -12.2641 -12.2133 -12.0861 -11.9684  -1.2576  -1.2409
    -1.1900  -1.1187  -1.1037  -1.0648  -1.0105  -0.9783  -0.9439  -0.9269
    -0.9149  -0.8877  -0.8383  -0.7813  -0.7787  -0.7550  -0.7006  -0.6646
    -0.6425  -0.6297  -0.6010  -0.5920  -0.5817  -0.5563  -0.5205  -0.4588
    -0.3777  -0.3707  -0.3206  -0.2733   0.7330   0.8168   0.9972   1.1150
     1.2525   1.3809   1.8491   2.0253   2.5315   2.5843   2.6706   2.8683
     2.8998   3.0227   3.1581   3.2052   3.3159   3.4130

     occupation numbers 
     1.0000   1.0000   1.0000   1.0000   1.0000   1.0000   1.0000   1.0000
     1.0000   1.0000   1.0000   1.0000   1.0000   1.0000   1.0000   1.0000
     1.0000   1.0000   1.0000   1.0000   1.0000   1.0000   1.0000   1.0000
     1.0000   1.0000   1.0000   1.0000   1.0000   1.0000   1.0000   1.0000
     1.0000   1.0000   1.0000   1.0000   1.0000   1.0000   1.0000   1.0000
     1.0000   1.0000   1.0000   1.0000   1.0000   1.0000   1.0000   1.0000
     1.0000   1.0000   1.0000   1.0000   1.0000   1.0000

          k =-0.3333-0.1925 0.0675 (  7610 PWs)   bands (ev):

   -12.4147 -12.3559 -12.2641 -12.2133 -12.0861 -11.9684  -1.2587  -1.2410
    -1.1858  -1.1222  -1.1041  -1.0648  -1.0098  -0.9786  -0.9418  -0.9286
    -0.9142  -0.8899  -0.8338  -0.7858  -0.7813  -0.7528  -0.7004  -0.6564
    -0.6428  -0.6354  -0.6001  -0.5923  -0.5830  -0.5562  -0.5175  -0.4605
    -0.3803  -0.3708  -0.3207  -0.2721   0.7344   0.8144   1.0007   1.1159
     1.2463   1.3840   1.8489   2.0245   2.5319   2.5868   2.6713   2.8663
     2.8976   3.0246   3.1574   3.2042   3.3170   3.4131

     occupation numbers 
     1.0000   1.0000   1.0000   1.0000   1.0000   1.0000   1.0000   1.0000
     1.0000   1.0000   1.0000   1.0000   1.0000   1.0000   1.0000   1.0000
     1.0000   1.0000   1.0000   1.0000   1.0000   1.0000   1.0000   1.0000
     1.0000   1.0000   1.0000   1.0000   1.0000   1.0000   1.0000   1.0000
     1.0000   1.0000   1.0000   1.0000   1.0000   1.0000   1.0000   1.0000
     1.0000   1.0000   1.0000   1.0000   1.0000   1.0000   1.0000   1.0000
     1.0000   1.0000   1.0000   1.0000   1.0000   1.0000

          k = 0.3333-0.1925 0.0675 (  7610 PWs)   bands (ev):

   -12.4086 -12.3518 -12.2629 -12.2131 -12.0861 -11.9702  -1.2576  -1.2377
    -1.1716  -1.1099  -1.0742  -1.0231  -1.0129  -0.9495  -0.9381  -0.9271
    -0.9000  -0.8937  -0.8462  -0.7940  -0.7771  -0.7534  -0.6852  -0.6715
    -0.6475  -0.6416  -0.6041  -0.5883  -0.5828  -0.5609  -0.5208  -0.4551
    -0.3784  -0.3731  -0.3228  -0.2753   0.7040   0.7766   0.9520   1.0678
     1.2230   1.3555   1.8236   2.0244   2.5445   2.5987   2.6846   2.8794
     2.9067   3.0220   3.1288   3.2025   3.2993   3.4134

     occupation numbers 
     1.0000   1.0000   1.0000   1.0000   1.0000   1.0000   1.0000   1.0000
     1.0000   1.0000   1.0000   1.0000   1.0000   1.0000   1.0000   1.0000
     1.0000   1.0000   1.0000   1.0000   1.0000   1.0000   1.0000   1.0000
     1.0000   1.0000   1.0000   1.0000   1.0000   1.0000   1.0000   1.0000
     1.0000   1.0000   1.0000   1.0000   1.0000   1.0000   1.0000   1.0000
     1.0000   1.0000   1.0000   1.0000   1.0000   1.0000   1.0000   1.0000
     1.0000   1.0000   1.0000   1.0000   1.0000   1.0000

          k =-0.3333 0.1925-0.1012 (  7598 PWs)   bands (ev):

   -12.4086 -12.3521 -12.2624 -12.2135 -12.0860 -11.9703  -1.2572  -1.2369
    -1.1747  -1.1083  -1.0742  -1.0223  -1.0141  -0.9487  -0.9370  -0.9299
    -0.8986  -0.8946  -0.8490  -0.7858  -0.7755  -0.7540  -0.6862  -0.6754
    -0.6464  -0.6387  -0.6048  -0.5912  -0.5848  -0.5611  -0.5115  -0.4650
    -0.3746  -0.3728  -0.3227  -0.2777   0.7105   0.7624   0.9888   1.0335
     1.2250   1.3704   1.8406   1.9673   2.5480   2.6677   2.7386   2.7678
     2.9420   2.9829   3.1356   3.2121   3.3029   3.4119

     occupation numbers 
     1.0000   1.0000   1.0000   1.0000   1.0000   1.0000   1.0000   1.0000
     1.0000   1.0000   1.0000   1.0000   1.0000   1.0000   1.0000   1.0000
     1.0000   1.0000   1.0000   1.0000   1.0000   1.0000   1.0000   1.0000
     1.0000   1.0000   1.0000   1.0000   1.0000   1.0000   1.0000   1.0000
     1.0000   1.0000   1.0000   1.0000   1.0000   1.0000   1.0000   1.0000
     1.0000   1.0000   1.0000   1.0000   1.0000   1.0000   1.0000   1.0000
     1.0000   1.0000   1.0000   1.0000   1.0000   1.0000

          k = 0.3333 0.1925-0.1012 (  7598 PWs)   bands (ev):

   -12.4147 -12.3562 -12.2635 -12.2138 -12.0860 -11.9684  -1.2578  -1.2410
    -1.1887  -1.1203  -1.1040  -1.0649  -1.0096  -0.9782  -0.9433  -0.9281
    -0.9150  -0.8884  -0.8356  -0.7812  -0.7766  -0.7572  -0.7005  -0.6614
    -0.6426  -0.6300  -0.6006  -0.5974  -0.5821  -0.5562  -0.5099  -0.4687
    -0.3765  -0.3705  -0.3206  -0.2745   0.7392   0.8024   1.0370   1.0786
     1.2576   1.3925   1.8535   1.9814   2.5366   2.6590   2.7226   2.7481
     2.9352   2.9833   3.1669   3.2152   3.3195   3.4115

     occupation numbers 
     1.0000   1.0000   1.0000   1.0000   1.0000   1.0000   1.0000   1.0000
     1.0000   1.0000   1.0000   1.0000   1.0000   1.0000   1.0000   1.0000
     1.0000   1.0000   1.0000   1.0000   1.0000   1.0000   1.0000   1.0000
     1.0000   1.0000   1.0000   1.0000   1.0000   1.0000   1.0000   1.0000
     1.0000   1.0000   1.0000   1.0000   1.0000   1.0000   1.0000   1.0000
     1.0000   1.0000   1.0000   1.0000   1.0000   1.0000   1.0000   1.0000
     1.0000   1.0000   1.0000   1.0000   1.0000   1.0000

          k = 0.5000-0.2887 0.0000 (  7566 PWs)   bands (ev):

   -12.3107 -12.2761 -12.2210 -12.1596 -12.0096 -11.9365  -1.2345  -1.2231
    -1.1376  -1.0600  -1.0451  -0.9768  -0.9648  -0.8903  -0.8506  -0.8328
    -0.8165  -0.8004  -0.7574  -0.7247  -0.7110  -0.6612  -0.6235  -0.6078
    -0.5691  -0.5658  -0.5613  -0.5376  -0.5339  -0.5172  -0.5028  -0.4416
    -0.3369  -0.3288  -0.3020  -0.2633   0.3209   0.4067   0.5199   0.6675
     0.6928   0.9610   1.7608   2.2977   2.3662   2.4142   2.5210   2.6092
     2.7936   2.9269   2.9651   2.9762   3.0778   3.2662

     occupation numbers 
     1.0000   1.0000   1.0000   1.0000   1.0000   1.0000   1.0000   1.0000
     1.0000   1.0000   1.0000   1.0000   1.0000   1.0000   1.0000   1.0000
     1.0000   1.0000   1.0000   1.0000   1.0000   1.0000   1.0000   1.0000
     1.0000   1.0000   1.0000   1.0000   1.0000   1.0000   1.0000   1.0000
     1.0000   1.0000   1.0000   1.0000   1.0000   1.0000   1.0000   1.0000
     1.0000   1.0000   1.0000   1.0000   1.0000   1.0000   1.0000   1.0000
     1.0000   1.0000   1.0000   1.0000   1.0000   1.0000

          k =-0.5000-0.2887 0.0000 (  7566 PWs)   bands (ev):

   -12.3223 -12.2817 -12.2187 -12.1604 -12.0110 -11.9325  -1.2410  -1.2363
    -1.1593  -1.0833  -1.0759  -1.0243  -0.9709  -0.9309  -0.8590  -0.8576
    -0.8372  -0.8017  -0.7513  -0.7357  -0.6754  -0.6443  -0.6386  -0.6066
    -0.5665  -0.5602  -0.5585  -0.5293  -0.5274  -0.5222  -0.5030  -0.4336
    -0.3384  -0.3227  -0.2976  -0.2651   0.3512   0.4577   0.5296   0.7372
     0.7835   1.0789   1.7049   2.2901   2.3098   2.3803   2.5174   2.6118
     2.8597   2.9612   2.9715   2.9897   3.0825   3.2708

     occupation numbers 
     1.0000   1.0000   1.0000   1.0000   1.0000   1.0000   1.0000   1.0000
     1.0000   1.0000   1.0000   1.0000   1.0000   1.0000   1.0000   1.0000
     1.0000   1.0000   1.0000   1.0000   1.0000   1.0000   1.0000   1.0000
     1.0000   1.0000   1.0000   1.0000   1.0000   1.0000   1.0000   1.0000
     1.0000   1.0000   1.0000   1.0000   1.0000   1.0000   1.0000   1.0000
     1.0000   1.0000   1.0000   1.0000   1.0000   1.0000   1.0000   1.0000
     1.0000   1.0000   1.0000   1.0000   1.0000   1.0000

          k = 0.5000-0.2887 0.0337 (  7548 PWs)   bands (ev):

   -12.3106 -12.2762 -12.2209 -12.1596 -12.0096 -11.9365  -1.2342  -1.2229
    -1.1405  -1.0583  -1.0449  -0.9774  -0.9612  -0.8885  -0.8511  -0.8353
    -0.8181  -0.8027  -0.7561  -0.7241  -0.7103  -0.6604  -0.6234  -0.6077
    -0.5683  -0.5655  -0.5607  -0.5397  -0.5341  -0.5164  -0.5027  -0.4418
    -0.3369  -0.3288  -0.3019  -0.2632   0.3204   0.4102   0.5189   0.6336
     0.7294   0.9541   1.7831   2.2439   2.3039   2.4868   2.5386   2.6410
     2.7975   2.8996   2.9316   3.0145   3.0718   3.2643

     occupation numbers 
     1.0000   1.0000   1.0000   1.0000   1.0000   1.0000   1.0000   1.0000
     1.0000   1.0000   1.0000   1.0000   1.0000   1.0000   1.0000   1.0000
     1.0000   1.0000   1.0000   1.0000   1.0000   1.0000   1.0000   1.0000
     1.0000   1.0000   1.0000   1.0000   1.0000   1.0000   1.0000   1.0000
     1.0000   1.0000   1.0000   1.0000   1.0000   1.0000   1.0000   1.0000
     1.0000   1.0000   1.0000   1.0000   1.0000   1.0000   1.0000   1.0000
     1.0000   1.0000   1.0000   1.0000   1.0000   1.0000

          k =-0.5000-0.2887 0.0337 (  7548 PWs)   bands (ev):

   -12.3223 -12.2817 -12.2187 -12.1604 -12.0110 -11.9325  -1.2410  -1.2360
    -1.1619  -1.0813  -1.0748  -1.0248  -0.9685  -0.9298  -0.8627  -0.8579
    -0.8377  -0.8025  -0.7504  -0.7353  -0.6757  -0.6425  -0.6384  -0.6066
    -0.5668  -0.5596  -0.5581  -0.5307  -0.5291  -0.5198  -0.5029  -0.4339
    -0.3383  -0.3226  -0.2975  -0.2650   0.3500   0.4588   0.5358   0.6970
     0.8241   1.0707   1.7266   2.1864   2.3022   2.4905   2.4972   2.6440
     2.8556   2.9102   2.9680   3.0198   3.0819   3.2689

     occupation numbers 
     1.0000   1.0000   1.0000   1.0000   1.0000   1.0000   1.0000   1.0000
     1.0000   1.0000   1.0000   1.0000   1.0000   1.0000   1.0000   1.0000
     1.0000   1.0000   1.0000   1.0000   1.0000   1.0000   1.0000   1.0000
     1.0000   1.0000   1.0000   1.0000   1.0000   1.0000   1.0000   1.0000
     1.0000   1.0000   1.0000   1.0000   1.0000   1.0000   1.0000   1.0000
     1.0000   1.0000   1.0000   1.0000   1.0000   1.0000   1.0000   1.0000
     1.0000   1.0000   1.0000   1.0000   1.0000   1.0000

          k = 0.5000-0.2887 0.0675 (  7542 PWs)   bands (ev):

   -12.3106 -12.2762 -12.2209 -12.1596 -12.0096 -11.9365  -1.2337  -1.2223
    -1.1460  -1.0554  -1.0445  -0.9786  -0.9532  -0.8849  -0.8531  -0.8407
    -0.8216  -0.8060  -0.7538  -0.7231  -0.7092  -0.6585  -0.6232  -0.6077
    -0.5678  -0.5629  -0.5596  -0.5447  -0.5347  -0.5151  -0.5027  -0.4424
    -0.3369  -0.3287  -0.3019  -0.2632   0.3196   0.4173   0.5178   0.5998
     0.7701   0.9379   1.8437   2.1115   2.3114   2.4586   2.6507   2.6996
     2.8010   2.8421   2.8970   3.0433   3.0610   3.2603

     occupation numbers 
     1.0000   1.0000   1.0000   1.0000   1.0000   1.0000   1.0000   1.0000
     1.0000   1.0000   1.0000   1.0000   1.0000   1.0000   1.0000   1.0000
     1.0000   1.0000   1.0000   1.0000   1.0000   1.0000   1.0000   1.0000
     1.0000   1.0000   1.0000   1.0000   1.0000   1.0000   1.0000   1.0000
     1.0000   1.0000   1.0000   1.0000   1.0000   1.0000   1.0000   1.0000
     1.0000   1.0000   1.0000   1.0000   1.0000   1.0000   1.0000   1.0000
     1.0000   1.0000   1.0000   1.0000   1.0000   1.0000

          k =-0.5000-0.2887 0.0675 (  7542 PWs)   bands (ev):

   -12.3223 -12.2818 -12.2185 -12.1605 -12.0110 -11.9325  -1.2409  -1.2356
    -1.1668  -1.0791  -1.0717  -1.0257  -0.9629  -0.9278  -0.8704  -0.8593
    -0.8385  -0.8039  -0.7487  -0.7346  -0.6766  -0.6399  -0.6371  -0.6065
    -0.5673  -0.5588  -0.5575  -0.5345  -0.5296  -0.5174  -0.5028  -0.4347
    -0.3383  -0.3226  -0.2975  -0.2649   0.3477   0.4600   0.5550   0.6460
     0.8732   1.0508   1.7856   2.0521   2.3105   2.4597   2.6289   2.7032
     2.8270   2.8463   2.9450   3.0523   3.0789   3.2647

     occupation numbers 
     1.0000   1.0000   1.0000   1.0000   1.0000   1.0000   1.0000   1.0000
     1.0000   1.0000   1.0000   1.0000   1.0000   1.0000   1.0000   1.0000
     1.0000   1.0000   1.0000   1.0000   1.0000   1.0000   1.0000   1.0000
     1.0000   1.0000   1.0000   1.0000   1.0000   1.0000   1.0000   1.0000
     1.0000   1.0000   1.0000   1.0000   1.0000   1.0000   1.0000   1.0000
     1.0000   1.0000   1.0000   1.0000   1.0000   1.0000   1.0000   1.0000
     1.0000   1.0000   1.0000   1.0000   1.0000   1.0000

          k = 0.5000-0.2887-0.1012 (  7552 PWs)   bands (ev):

   -12.3106 -12.2762 -12.2209 -12.1597 -12.0096 -11.9365  -1.2334  -1.2220
    -1.1485  -1.0542  -1.0444  -0.9793  -0.9488  -0.8832  -0.8549  -0.8433
    -0.8234  -0.8072  -0.7529  -0.7227  -0.7088  -0.6576  -0.6232  -0.6077
    -0.5678  -0.5607  -0.5590  -0.5480  -0.5351  -0.5146  -0.5027  -0.4427
    -0.3369  -0.3287  -0.3019  -0.2632   0.3193   0.4211   0.5180   0.5858
     0.7884   0.9279   1.8985   2.0322   2.3162   2.4449   2.7104   2.7526
     2.7844   2.7988   2.8771   3.0458   3.0627   3.2582

     occupation numbers 
     1.0000   1.0000   1.0000   1.0000   1.0000   1.0000   1.0000   1.0000
     1.0000   1.0000   1.0000   1.0000   1.0000   1.0000   1.0000   1.0000
     1.0000   1.0000   1.0000   1.0000   1.0000   1.0000   1.0000   1.0000
     1.0000   1.0000   1.0000   1.0000   1.0000   1.0000   1.0000   1.0000
     1.0000   1.0000   1.0000   1.0000   1.0000   1.0000   1.0000   1.0000
     1.0000   1.0000   1.0000   1.0000   1.0000   1.0000   1.0000   1.0000
     1.0000   1.0000   1.0000   1.0000   1.0000   1.0000

          k =-0.5000-0.2887-0.1012 (  7552 PWs)   bands (ev):

   -12.3222 -12.2819 -12.2185 -12.1605 -12.0110 -11.9325  -1.2408  -1.2354
    -1.1690  -1.0786  -1.0699  -1.0262  -0.9596  -0.9269  -0.8747  -0.8602
    -0.8389  -0.8045  -0.7478  -0.7343  -0.6772  -0.6394  -0.6355  -0.6066
    -0.5675  -0.5586  -0.5572  -0.5360  -0.5298  -0.5165  -0.5028  -0.4351
    -0.3383  -0.3226  -0.2975  -0.2650   0.3467   0.4602   0.5753   0.6146
     0.8961   1.0380   1.8392   1.9730   2.3155   2.4453   2.7301   2.7445
     2.7721   2.7942   2.9382   3.0644   3.0767   3.2624

     occupation numbers 
     1.0000   1.0000   1.0000   1.0000   1.0000   1.0000   1.0000   1.0000
     1.0000   1.0000   1.0000   1.0000   1.0000   1.0000   1.0000   1.0000
     1.0000   1.0000   1.0000   1.0000   1.0000   1.0000   1.0000   1.0000
     1.0000   1.0000   1.0000   1.0000   1.0000   1.0000   1.0000   1.0000
     1.0000   1.0000   1.0000   1.0000   1.0000   1.0000   1.0000   1.0000
     1.0000   1.0000   1.0000   1.0000   1.0000   1.0000   1.0000   1.0000
     1.0000   1.0000   1.0000   1.0000   1.0000   1.0000

          k =-0.1667 0.2887 0.0000 (  7595 PWs)   bands (ev):

   -12.4522 -12.3871 -12.2938 -12.2370 -12.1212 -11.9902  -1.2182  -1.1957
    -1.1682  -1.1207  -1.0951  -1.0713  -1.0473  -1.0168  -0.9993  -0.9526
    -0.9173  -0.9092  -0.8843  -0.8352  -0.8250  -0.7805  -0.7274  -0.7039
    -0.6612  -0.6373  -0.6268  -0.5977  -0.5915  -0.5644  -0.5589  -0.4340
    -0.4007  -0.3856  -0.3285  -0.2753   0.6422   0.9980   1.0332   1.4403
     1.4615   1.7525   1.8777   2.3564   2.4166   2.5262   2.6885   2.7723
     3.0687   3.0830   3.1502   3.1774   3.3626   3.4108

     occupation numbers 
     1.0000   1.0000   1.0000   1.0000   1.0000   1.0000   1.0000   1.0000
     1.0000   1.0000   1.0000   1.0000   1.0000   1.0000   1.0000   1.0000
     1.0000   1.0000   1.0000   1.0000   1.0000   1.0000   1.0000   1.0000
     1.0000   1.0000   1.0000   1.0000   1.0000   1.0000   1.0000   1.0000
     1.0000   1.0000   1.0000   1.0000   1.0000   1.0000   1.0000   1.0000
     1.0000   1.0000   1.0000   1.0000   1.0000   1.0000   1.0000   1.0000
     1.0000   1.0000   1.0000   1.0000   1.0000   1.0000

          k = 0.3333 0.0000 0.0000 (  7595 PWs)   bands (ev):

   -12.4568 -12.3892 -12.2933 -12.2363 -12.1209 -11.9891  -1.2203  -1.1987
    -1.1690  -1.1545  -1.0931  -1.0829  -1.0433  -1.0233  -1.0069  -0.9478
    -0.9320  -0.9076  -0.8868  -0.8414  -0.8273  -0.7746  -0.7232  -0.7044
    -0.6590  -0.6428  -0.6281  -0.5958  -0.5862  -0.5613  -0.5549  -0.4343
    -0.4009  -0.3845  -0.3275  -0.2727   0.6577   1.0213   1.0751   1.4774
     1.4858   1.7501   1.8978   2.3728   2.4060   2.5339   2.6497   2.7575
     3.0523   3.0645   3.1563   3.1714   3.3571   3.4193

     occupation numbers 
     1.0000   1.0000   1.0000   1.0000   1.0000   1.0000   1.0000   1.0000
     1.0000   1.0000   1.0000   1.0000   1.0000   1.0000   1.0000   1.0000
     1.0000   1.0000   1.0000   1.0000   1.0000   1.0000   1.0000   1.0000
     1.0000   1.0000   1.0000   1.0000   1.0000   1.0000   1.0000   1.0000
     1.0000   1.0000   1.0000   1.0000   1.0000   1.0000   1.0000   1.0000
     1.0000   1.0000   1.0000   1.0000   1.0000   1.0000   1.0000   1.0000
     1.0000   1.0000   1.0000   1.0000   1.0000   1.0000

          k =-0.1667-0.2887 0.0337 (  7603 PWs)   bands (ev):

   -12.4558 -12.3902 -12.2941 -12.2378 -12.1209 -11.9892  -1.2109  -1.1950
    -1.1703  -1.1552  -1.0935  -1.0809  -1.0565  -1.0251  -1.0139  -0.9551
    -0.9352  -0.9074  -0.8842  -0.8522  -0.8203  -0.7669  -0.7287  -0.6985
    -0.6646  -0.6400  -0.6295  -0.5998  -0.5860  -0.5648  -0.5484  -0.4455
    -0.4011  -0.3811  -0.3262  -0.2741   0.6723   0.9616   1.1390   1.4255
     1.5455   1.7585   1.9345   2.2803   2.5013   2.5477   2.6393   2.7761
     3.0038   3.0744   3.1127   3.2269   3.3406   3.4254

     occupation numbers 
     1.0000   1.0000   1.0000   1.0000   1.0000   1.0000   1.0000   1.0000
     1.0000   1.0000   1.0000   1.0000   1.0000   1.0000   1.0000   1.0000
     1.0000   1.0000   1.0000   1.0000   1.0000   1.0000   1.0000   1.0000
     1.0000   1.0000   1.0000   1.0000   1.0000   1.0000   1.0000   1.0000
     1.0000   1.0000   1.0000   1.0000   1.0000   1.0000   1.0000   1.0000
     1.0000   1.0000   1.0000   1.0000   1.0000   1.0000   1.0000   1.0000
     1.0000   1.0000   1.0000   1.0000   1.0000   1.0000

          k =-0.1667 0.2887-0.0337 (  7603 PWs)   bands (ev):

   -12.4521 -12.3876 -12.2928 -12.2378 -12.1210 -11.9902  -1.2181  -1.1955
    -1.1684  -1.1207  -1.0953  -1.0715  -1.0464  -1.0180  -1.0015  -0.9537
    -0.9273  -0.9011  -0.8794  -0.8415  -0.8135  -0.7791  -0.7279  -0.7027
    -0.6635  -0.6390  -0.6281  -0.6012  -0.5898  -0.5649  -0.5546  -0.4422
    -0.3981  -0.3833  -0.3285  -0.2781   0.6570   0.9374   1.0943   1.3851
     1.5083   1.7487   1.8909   2.2521   2.5084   2.5441   2.6811   2.7908
     3.0293   3.0669   3.1350   3.2163   3.3609   3.4136

     occupation numbers 
     1.0000   1.0000   1.0000   1.0000   1.0000   1.0000   1.0000   1.0000
     1.0000   1.0000   1.0000   1.0000   1.0000   1.0000   1.0000   1.0000
     1.0000   1.0000   1.0000   1.0000   1.0000   1.0000   1.0000   1.0000
     1.0000   1.0000   1.0000   1.0000   1.0000   1.0000   1.0000   1.0000
     1.0000   1.0000   1.0000   1.0000   1.0000   1.0000   1.0000   1.0000
     1.0000   1.0000   1.0000   1.0000   1.0000   1.0000   1.0000   1.0000
     1.0000   1.0000   1.0000   1.0000   1.0000   1.0000

          k = 0.1667-0.2887-0.0337 (  7603 PWs)   bands (ev):

   -12.4521 -12.3876 -12.2928 -12.2378 -12.1210 -11.9902  -1.2179  -1.1956
    -1.1684  -1.1210  -1.0950  -1.0712  -1.0483  -1.0168  -1.0005  -0.9545
    -0.9250  -0.8993  -0.8832  -0.8446  -0.8143  -0.7752  -0.7276  -0.7026
    -0.6637  -0.6387  -0.6282  -0.6027  -0.5891  -0.5641  -0.5544  -0.4429
    -0.3986  -0.3835  -0.3285  -0.2779   0.6579   0.9365   1.0940   1.3862
     1.5078   1.7485   1.8900   2.2538   2.5194   2.5330   2.6783   2.7933
     3.0260   3.0711   3.1328   3.2174   3.3614   3.4131

     occupation numbers 
     1.0000   1.0000   1.0000   1.0000   1.0000   1.0000   1.0000   1.0000
     1.0000   1.0000   1.0000   1.0000   1.0000   1.0000   1.0000   1.0000
     1.0000   1.0000   1.0000   1.0000   1.0000   1.0000   1.0000   1.0000
     1.0000   1.0000   1.0000   1.0000   1.0000   1.0000   1.0000   1.0000
     1.0000   1.0000   1.0000   1.0000   1.0000   1.0000   1.0000   1.0000
     1.0000   1.0000   1.0000   1.0000   1.0000   1.0000   1.0000   1.0000
     1.0000   1.0000   1.0000   1.0000   1.0000   1.0000

          k = 0.3333 0.0000 0.0337 (  7603 PWs)   bands (ev):

   -12.4567 -12.3897 -12.2923 -12.2371 -12.1207 -11.9891  -1.2202  -1.1984
    -1.1694  -1.1548  -1.0921  -1.0838  -1.0448  -1.0227  -1.0088  -0.9486
    -0.9326  -0.9075  -0.8839  -0.8448  -0.8163  -0.7753  -0.7236  -0.7055
    -0.6621  -0.6419  -0.6289  -0.5996  -0.5850  -0.5623  -0.5495  -0.4413
    -0.3988  -0.3824  -0.3275  -0.2752   0.6717   0.9688   1.1269   1.4245
     1.5304   1.7482   1.9103   2.2596   2.5234   2.5357   2.6450   2.7728
     3.0087   3.0738   3.1081   3.2233   3.3559   3.4211

     occupation numbers 
     1.0000   1.0000   1.0000   1.0000   1.0000   1.0000   1.0000   1.0000
     1.0000   1.0000   1.0000   1.0000   1.0000   1.0000   1.0000   1.0000
     1.0000   1.0000   1.0000   1.0000   1.0000   1.0000   1.0000   1.0000
     1.0000   1.0000   1.0000   1.0000   1.0000   1.0000   1.0000   1.0000
     1.0000   1.0000   1.0000   1.0000   1.0000   1.0000   1.0000   1.0000
     1.0000   1.0000   1.0000   1.0000   1.0000   1.0000   1.0000   1.0000
     1.0000   1.0000   1.0000   1.0000   1.0000   1.0000

          k =-0.3333-0.0000 0.0337 (  7603 PWs)   bands (ev):

   -12.4567 -12.3897 -12.2923 -12.2372 -12.1207 -11.9891  -1.2200  -1.1983
    -1.1704  -1.1541  -1.0936  -1.0829  -1.0417  -1.0242  -1.0092  -0.9480
    -0.9379  -0.9028  -0.8823  -0.8497  -0.8170  -0.7711  -0.7244  -0.7014
    -0.6652  -0.6409  -0.6308  -0.6002  -0.5843  -0.5616  -0.5493  -0.4434
    -0.3987  -0.3821  -0.3275  -0.2751   0.6755   0.9583   1.1368   1.4173
     1.5350   1.7476   1.9094   2.2623   2.5147   2.5434   2.6450   2.7731
     3.0072   3.0773   3.1030   3.2255   3.3558   3.4212

     occupation numbers 
     1.0000   1.0000   1.0000   1.0000   1.0000   1.0000   1.0000   1.0000
     1.0000   1.0000   1.0000   1.0000   1.0000   1.0000   1.0000   1.0000
     1.0000   1.0000   1.0000   1.0000   1.0000   1.0000   1.0000   1.0000
     1.0000   1.0000   1.0000   1.0000   1.0000   1.0000   1.0000   1.0000
     1.0000   1.0000   1.0000   1.0000   1.0000   1.0000   1.0000   1.0000
     1.0000   1.0000   1.0000   1.0000   1.0000   1.0000   1.0000   1.0000
     1.0000   1.0000   1.0000   1.0000   1.0000   1.0000

          k =-0.1667-0.2887 0.0675 (  7604 PWs)   bands (ev):

   -12.4555 -12.3911 -12.2919 -12.2396 -12.1205 -11.9892  -1.2104  -1.1944
    -1.1709  -1.1561  -1.0932  -1.0816  -1.0553  -1.0265  -1.0170  -0.9580
    -0.9380  -0.9058  -0.8821  -0.8497  -0.8086  -0.7619  -0.7300  -0.6943
    -0.6756  -0.6384  -0.6326  -0.6063  -0.5835  -0.5647  -0.5391  -0.4606
    -0.3996  -0.3763  -0.3260  -0.2794   0.7143   0.8873   1.2144   1.3579
     1.5820   1.7527   1.9665   2.1767   2.5033   2.6129   2.6955   2.8086
     2.9487   2.9857   3.1375   3.2589   3.3369   3.4301

     occupation numbers 
     1.0000   1.0000   1.0000   1.0000   1.0000   1.0000   1.0000   1.0000
     1.0000   1.0000   1.0000   1.0000   1.0000   1.0000   1.0000   1.0000
     1.0000   1.0000   1.0000   1.0000   1.0000   1.0000   1.0000   1.0000
     1.0000   1.0000   1.0000   1.0000   1.0000   1.0000   1.0000   1.0000
     1.0000   1.0000   1.0000   1.0000   1.0000   1.0000   1.0000   1.0000
     1.0000   1.0000   1.0000   1.0000   1.0000   1.0000   1.0000   1.0000
     1.0000   1.0000   1.0000   1.0000   1.0000   1.0000

          k =-0.1667 0.2887-0.0675 (  7604 PWs)   bands (ev):

   -12.4518 -12.3885 -12.2909 -12.2395 -12.1207 -11.9902  -1.2176  -1.1950
    -1.1689  -1.1211  -1.0953  -1.0716  -1.0464  -1.0197  -1.0044  -0.9556
    -0.9336  -0.8965  -0.8718  -0.8499  -0.8016  -0.7673  -0.7287  -0.6991
    -0.6715  -0.6424  -0.6304  -0.6068  -0.5877  -0.5651  -0.5454  -0.4577
    -0.3962  -0.3788  -0.3284  -0.2834   0.6961   0.8662   1.1686   1.3167
     1.5494   1.7399   1.9255   2.1445   2.5204   2.6296   2.7042   2.8252
     2.9747   2.9836   3.1579   3.2460   3.3579   3.4188

     occupation numbers 
     1.0000   1.0000   1.0000   1.0000   1.0000   1.0000   1.0000   1.0000
     1.0000   1.0000   1.0000   1.0000   1.0000   1.0000   1.0000   1.0000
     1.0000   1.0000   1.0000   1.0000   1.0000   1.0000   1.0000   1.0000
     1.0000   1.0000   1.0000   1.0000   1.0000   1.0000   1.0000   1.0000
     1.0000   1.0000   1.0000   1.0000   1.0000   1.0000   1.0000   1.0000
     1.0000   1.0000   1.0000   1.0000   1.0000   1.0000   1.0000   1.0000
     1.0000   1.0000   1.0000   1.0000   1.0000   1.0000

          k = 0.1667-0.2887-0.0675 (  7604 PWs)   bands (ev):

   -12.4518 -12.3885 -12.2908 -12.2395 -12.1207 -11.9902  -1.2175  -1.1951
    -1.1690  -1.1214  -1.0950  -1.0713  -1.0485  -1.0180  -1.0038  -0.9563
    -0.9324  -0.8944  -0.8744  -0.8522  -0.8039  -0.7632  -0.7280  -0.6993
    -0.6718  -0.6421  -0.6306  -0.6077  -0.5873  -0.5648  -0.5447  -0.4586
    -0.3964  -0.3790  -0.3284  -0.2832   0.6974   0.8650   1.1679   1.3179
     1.5492   1.7396   1.9242   2.1463   2.5226   2.6293   2.6988   2.8296
     2.9665   2.9904   3.1576   3.2464   3.3584   3.4183

     occupation numbers 
     1.0000   1.0000   1.0000   1.0000   1.0000   1.0000   1.0000   1.0000
     1.0000   1.0000   1.0000   1.0000   1.0000   1.0000   1.0000   1.0000
     1.0000   1.0000   1.0000   1.0000   1.0000   1.0000   1.0000   1.0000
     1.0000   1.0000   1.0000   1.0000   1.0000   1.0000   1.0000   1.0000
     1.0000   1.0000   1.0000   1.0000   1.0000   1.0000   1.0000   1.0000
     1.0000   1.0000   1.0000   1.0000   1.0000   1.0000   1.0000   1.0000
     1.0000   1.0000   1.0000   1.0000   1.0000   1.0000

          k = 0.3333 0.0000 0.0675 (  7604 PWs)   bands (ev):

   -12.4564 -12.3906 -12.2901 -12.2390 -12.1203 -11.9892  -1.2197  -1.1975
    -1.1711  -1.1548  -1.0916  -1.0849  -1.0448  -1.0229  -1.0126  -0.9494
    -0.9370  -0.9048  -0.8772  -0.8512  -0.7986  -0.7711  -0.7258  -0.7049
    -0.6708  -0.6401  -0.6325  -0.6055  -0.5832  -0.5629  -0.5393  -0.4563
    -0.3967  -0.3778  -0.3274  -0.2802   0.7119   0.8936   1.2020   1.3584
     1.5674   1.7433   1.9434   2.1544   2.5278   2.6181   2.6814   2.8033
     2.9571   2.9810   3.1331   3.2585   3.3534   3.4248

     occupation numbers 
     1.0000   1.0000   1.0000   1.0000   1.0000   1.0000   1.0000   1.0000
     1.0000   1.0000   1.0000   1.0000   1.0000   1.0000   1.0000   1.0000
     1.0000   1.0000   1.0000   1.0000   1.0000   1.0000   1.0000   1.0000
     1.0000   1.0000   1.0000   1.0000   1.0000   1.0000   1.0000   1.0000
     1.0000   1.0000   1.0000   1.0000   1.0000   1.0000   1.0000   1.0000
     1.0000   1.0000   1.0000   1.0000   1.0000   1.0000   1.0000   1.0000
     1.0000   1.0000   1.0000   1.0000   1.0000   1.0000

          k =-0.3333-0.0000 0.0675 (  7604 PWs)   bands (ev):

   -12.4564 -12.3906 -12.2901 -12.2391 -12.1203 -11.9892  -1.2195  -1.1974
    -1.1721  -1.1541  -1.0933  -1.0837  -1.0414  -1.0249  -1.0129  -0.9488
    -0.9409  -0.9019  -0.8741  -0.8559  -0.8027  -0.7645  -0.7263  -0.6995
    -0.6756  -0.6392  -0.6342  -0.6058  -0.5828  -0.5625  -0.5386  -0.4584
    -0.3967  -0.3776  -0.3274  -0.2800   0.7181   0.8841   1.2115   1.3503
     1.5700   1.7426   1.9420   2.1568   2.5264   2.6186   2.6826   2.8035
     2.9534   2.9828   3.1324   3.2596   3.3534   3.4250

     occupation numbers 
     1.0000   1.0000   1.0000   1.0000   1.0000   1.0000   1.0000   1.0000
     1.0000   1.0000   1.0000   1.0000   1.0000   1.0000   1.0000   1.0000
     1.0000   1.0000   1.0000   1.0000   1.0000   1.0000   1.0000   1.0000
     1.0000   1.0000   1.0000   1.0000   1.0000   1.0000   1.0000   1.0000
     1.0000   1.0000   1.0000   1.0000   1.0000   1.0000   1.0000   1.0000
     1.0000   1.0000   1.0000   1.0000   1.0000   1.0000   1.0000   1.0000
     1.0000   1.0000   1.0000   1.0000   1.0000   1.0000

          k =-0.1667 0.2887 0.1012 (  7604 PWs)   bands (ev):

   -12.4517 -12.3889 -12.2898 -12.2403 -12.1205 -11.9902  -1.2173  -1.1948
    -1.1692  -1.1214  -1.0952  -1.0715  -1.0475  -1.0197  -1.0055  -0.9565
    -0.9352  -0.8947  -0.8681  -0.8550  -0.7997  -0.7560  -0.7288  -0.6957
    -0.6791  -0.6439  -0.6315  -0.6093  -0.5868  -0.5653  -0.5397  -0.4662
    -0.3958  -0.3768  -0.3283  -0.2859   0.7288   0.8237   1.2295   1.2579
     1.5655   1.7346   1.9530   2.0919   2.5215   2.6373   2.7903   2.8197
     2.9225   2.9505   3.1678   3.2556   3.3564   3.4211

     occupation numbers 
     1.0000   1.0000   1.0000   1.0000   1.0000   1.0000   1.0000   1.0000
     1.0000   1.0000   1.0000   1.0000   1.0000   1.0000   1.0000   1.0000
     1.0000   1.0000   1.0000   1.0000   1.0000   1.0000   1.0000   1.0000
     1.0000   1.0000   1.0000   1.0000   1.0000   1.0000   1.0000   1.0000
     1.0000   1.0000   1.0000   1.0000   1.0000   1.0000   1.0000   1.0000
     1.0000   1.0000   1.0000   1.0000   1.0000   1.0000   1.0000   1.0000
     1.0000   1.0000   1.0000   1.0000   1.0000   1.0000

          k = 0.3333 0.0000-0.1012 (  7604 PWs)   bands (ev):

   -12.4563 -12.3910 -12.2890 -12.2400 -12.1201 -11.9892  -1.2193  -1.1969
    -1.1725  -1.1544  -1.0922  -1.0847  -1.0432  -1.0242  -1.0144  -0.9495
    -0.9402  -0.9031  -0.8721  -0.8560  -0.7946  -0.7618  -0.7277  -0.7027
    -0.6781  -0.6392  -0.6350  -0.6079  -0.5824  -0.5630  -0.5332  -0.4651
    -0.3962  -0.3755  -0.3273  -0.2825   0.7494   0.8440   1.2687   1.2952
     1.5822   1.7402   1.9696   2.1038   2.5258   2.6202   2.7844   2.7927
     2.9095   2.9373   3.1434   3.2700   3.3522   3.4268

     occupation numbers 
     1.0000   1.0000   1.0000   1.0000   1.0000   1.0000   1.0000   1.0000
     1.0000   1.0000   1.0000   1.0000   1.0000   1.0000   1.0000   1.0000
     1.0000   1.0000   1.0000   1.0000   1.0000   1.0000   1.0000   1.0000
     1.0000   1.0000   1.0000   1.0000   1.0000   1.0000   1.0000   1.0000
     1.0000   1.0000   1.0000   1.0000   1.0000   1.0000   1.0000   1.0000
     1.0000   1.0000   1.0000   1.0000   1.0000   1.0000   1.0000   1.0000
     1.0000   1.0000   1.0000   1.0000   1.0000   1.0000

          k =-0.1667 0.4811 0.0000 (  7566 PWs)   bands (ev):

   -12.3087 -12.2786 -12.2267 -12.1600 -12.0119 -11.9355  -1.1887  -1.1523
    -1.0881  -1.0508  -1.0080  -0.9802  -0.9289  -0.9024  -0.8643  -0.8611
    -0.8289  -0.8146  -0.7850  -0.7460  -0.7321  -0.7080  -0.6467  -0.6328
    -0.6180  -0.5978  -0.5776  -0.5447  -0.5291  -0.5010  -0.4732  -0.4327
    -0.3721  -0.3516  -0.2788  -0.2212   0.5642   0.5928   0.6982   0.8080
     0.8620   1.0961   1.7380   1.9679   2.0793   2.1436   2.4701   2.5113
     2.6511   2.6755   2.8347   2.9579   3.0362   3.1372

     occupation numbers 
     1.0000   1.0000   1.0000   1.0000   1.0000   1.0000   1.0000   1.0000
     1.0000   1.0000   1.0000   1.0000   1.0000   1.0000   1.0000   1.0000
     1.0000   1.0000   1.0000   1.0000   1.0000   1.0000   1.0000   1.0000
     1.0000   1.0000   1.0000   1.0000   1.0000   1.0000   1.0000   1.0000
     1.0000   1.0000   1.0000   1.0000   1.0000   1.0000   1.0000   1.0000
     1.0000   1.0000   1.0000   1.0000   1.0000   1.0000   1.0000   1.0000
     1.0000   1.0000   1.0000   1.0000   1.0000   1.0000

          k =-0.3333 0.3849 0.0000 (  7566 PWs)   bands (ev):

   -12.3117 -12.2778 -12.2224 -12.1600 -12.0114 -11.9358  -1.1879  -1.1571
    -1.0898  -1.0514  -1.0020  -0.9826  -0.9277  -0.8969  -0.8638  -0.8533
    -0.8262  -0.8087  -0.7844  -0.7431  -0.7312  -0.7043  -0.6414  -0.6278
    -0.6165  -0.6015  -0.5816  -0.5508  -0.5314  -0.5024  -0.4704  -0.4288
    -0.3735  -0.3514  -0.2789  -0.2205   0.5303   0.5852   0.6987   0.8216
     0.8729   1.0735   1.7228   1.9859   2.0804   2.1280   2.4777   2.5136
     2.6442   2.6727   2.8384   2.9629   3.0188   3.1339

     occupation numbers 
     1.0000   1.0000   1.0000   1.0000   1.0000   1.0000   1.0000   1.0000
     1.0000   1.0000   1.0000   1.0000   1.0000   1.0000   1.0000   1.0000
     1.0000   1.0000   1.0000   1.0000   1.0000   1.0000   1.0000   1.0000
     1.0000   1.0000   1.0000   1.0000   1.0000   1.0000   1.0000   1.0000
     1.0000   1.0000   1.0000   1.0000   1.0000   1.0000   1.0000   1.0000
     1.0000   1.0000   1.0000   1.0000   1.0000   1.0000   1.0000   1.0000
     1.0000   1.0000   1.0000   1.0000   1.0000   1.0000

          k = 0.5000 0.0962 0.0000 (  7566 PWs)   bands (ev):

   -12.3216 -12.2816 -12.2189 -12.1606 -12.0121 -11.9330  -1.1835  -1.1692
    -1.1110  -1.0769  -1.0312  -1.0011  -0.9425  -0.9169  -0.8723  -0.8548
    -0.8299  -0.8145  -0.7788  -0.7449  -0.7366  -0.7189  -0.6449  -0.6325
    -0.6166  -0.5964  -0.5716  -0.5398  -0.5247  -0.4976  -0.4687  -0.4275
    -0.3710  -0.3492  -0.2770  -0.2162   0.5601   0.6520   0.7271   0.8883
     0.9092   1.1387   1.7254   1.9727   2.0458   2.1206   2.4643   2.5115
     2.6111   2.6331   2.8876   2.9480   3.0567   3.1360

     occupation numbers 
     1.0000   1.0000   1.0000   1.0000   1.0000   1.0000   1.0000   1.0000
     1.0000   1.0000   1.0000   1.0000   1.0000   1.0000   1.0000   1.0000
     1.0000   1.0000   1.0000   1.0000   1.0000   1.0000   1.0000   1.0000
     1.0000   1.0000   1.0000   1.0000   1.0000   1.0000   1.0000   1.0000
     1.0000   1.0000   1.0000   1.0000   1.0000   1.0000   1.0000   1.0000
     1.0000   1.0000   1.0000   1.0000   1.0000   1.0000   1.0000   1.0000
     1.0000   1.0000   1.0000   1.0000   1.0000   1.0000

          k =-0.3333-0.3849 0.0000 (  7566 PWs)   bands (ev):

   -12.3205 -12.2819 -12.2206 -12.1607 -12.0124 -11.9329  -1.1864  -1.1661
    -1.1087  -1.0748  -1.0368  -1.0010  -0.9487  -0.9125  -0.8794  -0.8531
    -0.8310  -0.8155  -0.7787  -0.7465  -0.7360  -0.7197  -0.6464  -0.6295
    -0.6167  -0.5986  -0.5772  -0.5372  -0.5275  -0.4998  -0.4686  -0.4288
    -0.3723  -0.3505  -0.2760  -0.2127   0.5628   0.6547   0.7329   0.8912
     0.9302   1.1516   1.7066   1.9709   2.0482   2.1129   2.4793   2.5183
     2.6100   2.6332   2.8803   2.9512   3.0457   3.1424

     occupation numbers 
     1.0000   1.0000   1.0000   1.0000   1.0000   1.0000   1.0000   1.0000
     1.0000   1.0000   1.0000   1.0000   1.0000   1.0000   1.0000   1.0000
     1.0000   1.0000   1.0000   1.0000   1.0000   1.0000   1.0000   1.0000
     1.0000   1.0000   1.0000   1.0000   1.0000   1.0000   1.0000   1.0000
     1.0000   1.0000   1.0000   1.0000   1.0000   1.0000   1.0000   1.0000
     1.0000   1.0000   1.0000   1.0000   1.0000   1.0000   1.0000   1.0000
     1.0000   1.0000   1.0000   1.0000   1.0000   1.0000

          k = 0.5000-0.0962 0.0000 (  7566 PWs)   bands (ev):

   -12.3159 -12.2788 -12.2199 -12.1602 -12.0114 -11.9349  -1.1882  -1.1638
    -1.0958  -1.0568  -1.0001  -0.9801  -0.9294  -0.9028  -0.8705  -0.8652
    -0.8283  -0.8150  -0.7873  -0.7493  -0.7349  -0.7034  -0.6425  -0.6277
    -0.6193  -0.6057  -0.5820  -0.5483  -0.5271  -0.4973  -0.4638  -0.4248
    -0.3739  -0.3497  -0.2772  -0.2171   0.5478   0.6115   0.7167   0.8344
     0.8811   1.0677   1.7481   1.9862   2.0641   2.1420   2.4857   2.5205
     2.6051   2.6394   2.8559   2.9492   3.0241   3.1391

     occupation numbers 
     1.0000   1.0000   1.0000   1.0000   1.0000   1.0000   1.0000   1.0000
     1.0000   1.0000   1.0000   1.0000   1.0000   1.0000   1.0000   1.0000
     1.0000   1.0000   1.0000   1.0000   1.0000   1.0000   1.0000   1.0000
     1.0000   1.0000   1.0000   1.0000   1.0000   1.0000   1.0000   1.0000
     1.0000   1.0000   1.0000   1.0000   1.0000   1.0000   1.0000   1.0000
     1.0000   1.0000   1.0000   1.0000   1.0000   1.0000   1.0000   1.0000
     1.0000   1.0000   1.0000   1.0000   1.0000   1.0000

          k =-0.1667-0.4811 0.0337 (  7563 PWs)   bands (ev):

   -12.3118 -12.2800 -12.2258 -12.1603 -12.0122 -11.9346  -1.1914  -1.1551
    -1.0947  -1.0566  -1.0077  -0.9752  -0.9358  -0.9053  -0.8796  -0.8695
    -0.8368  -0.8241  -0.7819  -0.7537  -0.7289  -0.7134  -0.6471  -0.6325
    -0.6231  -0.6057  -0.5800  -0.5405  -0.5286  -0.4982  -0.4642  -0.4316
    -0.3738  -0.3512  -0.2760  -0.2143   0.5775   0.6317   0.7262   0.8114
     0.8935   1.1024   1.7575   1.9675   2.0400   2.1938   2.3939   2.5263
     2.6532   2.6845   2.8482   2.9458   3.0194   3.1426

     occupation numbers 
     1.0000   1.0000   1.0000   1.0000   1.0000   1.0000   1.0000   1.0000
     1.0000   1.0000   1.0000   1.0000   1.0000   1.0000   1.0000   1.0000
     1.0000   1.0000   1.0000   1.0000   1.0000   1.0000   1.0000   1.0000
     1.0000   1.0000   1.0000   1.0000   1.0000   1.0000   1.0000   1.0000
     1.0000   1.0000   1.0000   1.0000   1.0000   1.0000   1.0000   1.0000
     1.0000   1.0000   1.0000   1.0000   1.0000   1.0000   1.0000   1.0000
     1.0000   1.0000   1.0000   1.0000   1.0000   1.0000

          k =-0.1667 0.4811-0.0337 (  7563 PWs)   bands (ev):

   -12.3086 -12.2787 -12.2266 -12.1600 -12.0119 -11.9355  -1.1886  -1.1516
    -1.0904  -1.0511  -1.0099  -0.9762  -0.9275  -0.9024  -0.8637  -0.8615
    -0.8322  -0.8159  -0.7823  -0.7405  -0.7358  -0.7090  -0.6460  -0.6333
    -0.6179  -0.5998  -0.5763  -0.5440  -0.5308  -0.5015  -0.4705  -0.4344
    -0.3719  -0.3516  -0.2787  -0.2211   0.5620   0.5980   0.6964   0.7931
     0.8756   1.0947   1.7497   1.9634   2.0623   2.1850   2.3745   2.5298
     2.6738   2.7156   2.8374   2.9524   3.0281   3.1322

     occupation numbers 
     1.0000   1.0000   1.0000   1.0000   1.0000   1.0000   1.0000   1.0000
     1.0000   1.0000   1.0000   1.0000   1.0000   1.0000   1.0000   1.0000
     1.0000   1.0000   1.0000   1.0000   1.0000   1.0000   1.0000   1.0000
     1.0000   1.0000   1.0000   1.0000   1.0000   1.0000   1.0000   1.0000
     1.0000   1.0000   1.0000   1.0000   1.0000   1.0000   1.0000   1.0000
     1.0000   1.0000   1.0000   1.0000   1.0000   1.0000   1.0000   1.0000
     1.0000   1.0000   1.0000   1.0000   1.0000   1.0000

          k = 0.1667-0.4811-0.0337 (  7563 PWs)   bands (ev):

   -12.3086 -12.2787 -12.2266 -12.1601 -12.0119 -11.9355  -1.1884  -1.1530
    -1.0860  -1.0530  -1.0117  -0.9789  -0.9228  -0.9014  -0.8645  -0.8599
    -0.8301  -0.8227  -0.7831  -0.7464  -0.7284  -0.7067  -0.6479  -0.6328
    -0.6190  -0.5947  -0.5794  -0.5477  -0.5272  -0.5032  -0.4692  -0.4346
    -0.3722  -0.3515  -0.2788  -0.2210   0.5669   0.5923   0.6956   0.7927
     0.8771   1.0958   1.7518   1.9664   2.0409   2.1971   2.3980   2.5026
     2.6863   2.7076   2.8423   2.9501   3.0275   3.1327

     occupation numbers 
     1.0000   1.0000   1.0000   1.0000   1.0000   1.0000   1.0000   1.0000
     1.0000   1.0000   1.0000   1.0000   1.0000   1.0000   1.0000   1.0000
     1.0000   1.0000   1.0000   1.0000   1.0000   1.0000   1.0000   1.0000
     1.0000   1.0000   1.0000   1.0000   1.0000   1.0000   1.0000   1.0000
     1.0000   1.0000   1.0000   1.0000   1.0000   1.0000   1.0000   1.0000
     1.0000   1.0000   1.0000   1.0000   1.0000   1.0000   1.0000   1.0000
     1.0000   1.0000   1.0000   1.0000   1.0000   1.0000

          k =-0.3333 0.3849 0.0337 (  7563 PWs)   bands (ev):

   -12.3117 -12.2779 -12.2223 -12.1600 -12.0114 -11.9358  -1.1878  -1.1565
    -1.0929  -1.0506  -1.0028  -0.9797  -0.9256  -0.8990  -0.8624  -0.8545
    -0.8277  -0.8117  -0.7814  -0.7388  -0.7302  -0.7080  -0.6409  -0.6286
    -0.6145  -0.6056  -0.5796  -0.5505  -0.5328  -0.5028  -0.4677  -0.4308
    -0.3731  -0.3515  -0.2788  -0.2205   0.5299   0.5866   0.7018   0.7964
     0.8972   1.0690   1.7344   1.9783   2.0574   2.1754   2.3885   2.5247
     2.6734   2.7101   2.8413   2.9586   3.0098   3.1286

     occupation numbers 
     1.0000   1.0000   1.0000   1.0000   1.0000   1.0000   1.0000   1.0000
     1.0000   1.0000   1.0000   1.0000   1.0000   1.0000   1.0000   1.0000
     1.0000   1.0000   1.0000   1.0000   1.0000   1.0000   1.0000   1.0000
     1.0000   1.0000   1.0000   1.0000   1.0000   1.0000   1.0000   1.0000
     1.0000   1.0000   1.0000   1.0000   1.0000   1.0000   1.0000   1.0000
     1.0000   1.0000   1.0000   1.0000   1.0000   1.0000   1.0000   1.0000
     1.0000   1.0000   1.0000   1.0000   1.0000   1.0000

          k = 0.5000 0.0962 0.0337 (  7563 PWs)   bands (ev):

   -12.3216 -12.2816 -12.2188 -12.1606 -12.0121 -11.9330  -1.1833  -1.1689
    -1.1133  -1.0769  -1.0332  -0.9959  -0.9408  -0.9179  -0.8723  -0.8562
    -0.8309  -0.8151  -0.7773  -0.7464  -0.7358  -0.7182  -0.6441  -0.6332
    -0.6170  -0.5972  -0.5707  -0.5389  -0.5267  -0.4979  -0.4659  -0.4298
    -0.3705  -0.3491  -0.2770  -0.2162   0.5592   0.6532   0.7308   0.8533
     0.9428   1.1357   1.7360   1.9560   2.0396   2.1614   2.3719   2.5137
     2.6417   2.6815   2.8914   2.9417   3.0455   3.1329

     occupation numbers 
     1.0000   1.0000   1.0000   1.0000   1.0000   1.0000   1.0000   1.0000
     1.0000   1.0000   1.0000   1.0000   1.0000   1.0000   1.0000   1.0000
     1.0000   1.0000   1.0000   1.0000   1.0000   1.0000   1.0000   1.0000
     1.0000   1.0000   1.0000   1.0000   1.0000   1.0000   1.0000   1.0000
     1.0000   1.0000   1.0000   1.0000   1.0000   1.0000   1.0000   1.0000
     1.0000   1.0000   1.0000   1.0000   1.0000   1.0000   1.0000   1.0000
     1.0000   1.0000   1.0000   1.0000   1.0000   1.0000

          k =-0.5000-0.0962 0.0337 (  7563 PWs)   bands (ev):

   -12.3216 -12.2816 -12.2188 -12.1606 -12.0121 -11.9330  -1.1834  -1.1698
    -1.1100  -1.0781  -1.0322  -1.0016  -0.9399  -0.9129  -0.8738  -0.8527
    -0.8334  -0.8196  -0.7785  -0.7445  -0.7333  -0.7178  -0.6469  -0.6304
    -0.6186  -0.5936  -0.5730  -0.5433  -0.5222  -0.4997  -0.4645  -0.4298
    -0.3711  -0.3491  -0.2770  -0.2160   0.5583   0.6537   0.7321   0.8535
     0.9402   1.1381   1.7363   1.9569   2.0293   2.1709   2.3767   2.4996
     2.6548   2.6794   2.8873   2.9415   3.0473   3.1324

     occupation numbers 
     1.0000   1.0000   1.0000   1.0000   1.0000   1.0000   1.0000   1.0000
     1.0000   1.0000   1.0000   1.0000   1.0000   1.0000   1.0000   1.0000
     1.0000   1.0000   1.0000   1.0000   1.0000   1.0000   1.0000   1.0000
     1.0000   1.0000   1.0000   1.0000   1.0000   1.0000   1.0000   1.0000
     1.0000   1.0000   1.0000   1.0000   1.0000   1.0000   1.0000   1.0000
     1.0000   1.0000   1.0000   1.0000   1.0000   1.0000   1.0000   1.0000
     1.0000   1.0000   1.0000   1.0000   1.0000   1.0000

          k = 0.3333-0.3849 0.0337 (  7563 PWs)   bands (ev):

   -12.3117 -12.2778 -12.2224 -12.1600 -12.0114 -11.9358  -1.1877  -1.1577
    -1.0879  -1.0534  -1.0063  -0.9817  -0.9205  -0.8945  -0.8648  -0.8525
    -0.8284  -0.8166  -0.7821  -0.7452  -0.7280  -0.7010  -0.6416  -0.6281
    -0.6177  -0.5990  -0.5832  -0.5535  -0.5299  -0.5042  -0.4667  -0.4307
    -0.3737  -0.3513  -0.2789  -0.2203   0.5286   0.5904   0.6927   0.8128
     0.8837   1.0730   1.7355   1.9742   2.0504   2.1860   2.4011   2.5042
     2.6828   2.7060   2.8452   2.9543   3.0112   3.1290

     occupation numbers 
     1.0000   1.0000   1.0000   1.0000   1.0000   1.0000   1.0000   1.0000
     1.0000   1.0000   1.0000   1.0000   1.0000   1.0000   1.0000   1.0000
     1.0000   1.0000   1.0000   1.0000   1.0000   1.0000   1.0000   1.0000
     1.0000   1.0000   1.0000   1.0000   1.0000   1.0000   1.0000   1.0000
     1.0000   1.0000   1.0000   1.0000   1.0000   1.0000   1.0000   1.0000
     1.0000   1.0000   1.0000   1.0000   1.0000   1.0000   1.0000   1.0000
     1.0000   1.0000   1.0000   1.0000   1.0000   1.0000

          k =-0.3333-0.3849-0.0337 (  7563 PWs)   bands (ev):

   -12.3205 -12.2820 -12.2206 -12.1607 -12.0124 -11.9329  -1.1862  -1.1658
    -1.1112  -1.0748  -1.0381  -0.9968  -0.9452  -0.9154  -0.8791  -0.8553
    -0.8308  -0.8170  -0.7765  -0.7481  -0.7340  -0.7201  -0.6444  -0.6304
    -0.6184  -0.6000  -0.5752  -0.5371  -0.5288  -0.5001  -0.4660  -0.4307
    -0.3719  -0.3505  -0.2760  -0.2128   0.5621   0.6554   0.7373   0.8599
     0.9605   1.1479   1.7174   1.9528   2.0365   2.1582   2.3896   2.5133
     2.6494   2.6805   2.8788   2.9487   3.0358   3.1382

     occupation numbers 
     1.0000   1.0000   1.0000   1.0000   1.0000   1.0000   1.0000   1.0000
     1.0000   1.0000   1.0000   1.0000   1.0000   1.0000   1.0000   1.0000
     1.0000   1.0000   1.0000   1.0000   1.0000   1.0000   1.0000   1.0000
     1.0000   1.0000   1.0000   1.0000   1.0000   1.0000   1.0000   1.0000
     1.0000   1.0000   1.0000   1.0000   1.0000   1.0000   1.0000   1.0000
     1.0000   1.0000   1.0000   1.0000   1.0000   1.0000   1.0000   1.0000
     1.0000   1.0000   1.0000   1.0000   1.0000   1.0000

          k = 0.5000-0.0962-0.0337 (  7563 PWs)   bands (ev):

   -12.3159 -12.2788 -12.2198 -12.1603 -12.0114 -11.9349  -1.1880  -1.1632
    -1.0988  -1.0557  -1.0027  -0.9754  -0.9291  -0.9030  -0.8706  -0.8634
    -0.8295  -0.8214  -0.7815  -0.7523  -0.7268  -0.7086  -0.6416  -0.6287
    -0.6195  -0.6077  -0.5803  -0.5487  -0.5275  -0.4973  -0.4614  -0.4271
    -0.3734  -0.3497  -0.2771  -0.2171   0.5466   0.6133   0.7214   0.8071
     0.9048   1.0655   1.7606   1.9758   2.0450   2.1881   2.3896   2.5198
     2.6411   2.6860   2.8648   2.9418   3.0123   3.1350

     occupation numbers 
     1.0000   1.0000   1.0000   1.0000   1.0000   1.0000   1.0000   1.0000
     1.0000   1.0000   1.0000   1.0000   1.0000   1.0000   1.0000   1.0000
     1.0000   1.0000   1.0000   1.0000   1.0000   1.0000   1.0000   1.0000
     1.0000   1.0000   1.0000   1.0000   1.0000   1.0000   1.0000   1.0000
     1.0000   1.0000   1.0000   1.0000   1.0000   1.0000   1.0000   1.0000
     1.0000   1.0000   1.0000   1.0000   1.0000   1.0000   1.0000   1.0000
     1.0000   1.0000   1.0000   1.0000   1.0000   1.0000

          k =-0.5000 0.0962-0.0337 (  7563 PWs)   bands (ev):

   -12.3159 -12.2788 -12.2198 -12.1603 -12.0114 -11.9349  -1.1880  -1.1644
    -1.0943  -1.0586  -1.0025  -0.9820  -0.9207  -0.9019  -0.8696  -0.8661
    -0.8307  -0.8178  -0.7901  -0.7465  -0.7364  -0.6992  -0.6446  -0.6262
    -0.6201  -0.6045  -0.5828  -0.5507  -0.5258  -0.4990  -0.4602  -0.4266
    -0.3741  -0.3496  -0.2773  -0.2170   0.5464   0.6162   0.7116   0.8246
     0.8917   1.0685   1.7578   1.9768   2.0502   2.1867   2.3851   2.5191
     2.6466   2.6861   2.8574   2.9433   3.0168   3.1337

     occupation numbers 
     1.0000   1.0000   1.0000   1.0000   1.0000   1.0000   1.0000   1.0000
     1.0000   1.0000   1.0000   1.0000   1.0000   1.0000   1.0000   1.0000
     1.0000   1.0000   1.0000   1.0000   1.0000   1.0000   1.0000   1.0000
     1.0000   1.0000   1.0000   1.0000   1.0000   1.0000   1.0000   1.0000
     1.0000   1.0000   1.0000   1.0000   1.0000   1.0000   1.0000   1.0000
     1.0000   1.0000   1.0000   1.0000   1.0000   1.0000   1.0000   1.0000
     1.0000   1.0000   1.0000   1.0000   1.0000   1.0000

          k = 0.3333 0.3849-0.0337 (  7563 PWs)   bands (ev):

   -12.3205 -12.2820 -12.2206 -12.1607 -12.0124 -11.9329  -1.1863  -1.1667
    -1.1073  -1.0761  -1.0385  -1.0008  -0.9468  -0.9083  -0.8800  -0.8502
    -0.8338  -0.8223  -0.7785  -0.7459  -0.7351  -0.7168  -0.6479  -0.6280
    -0.6178  -0.5960  -0.5793  -0.5414  -0.5243  -0.5014  -0.4646  -0.4311
    -0.3725  -0.3503  -0.2761  -0.2126   0.5610   0.6568   0.7372   0.8621
     0.9562   1.1504   1.7159   1.9476   2.0454   2.1597   2.3855   2.5039
     2.6610   2.6787   2.8855   2.9426   3.0332   3.1397

     occupation numbers 
     1.0000   1.0000   1.0000   1.0000   1.0000   1.0000   1.0000   1.0000
     1.0000   1.0000   1.0000   1.0000   1.0000   1.0000   1.0000   1.0000
     1.0000   1.0000   1.0000   1.0000   1.0000   1.0000   1.0000   1.0000
     1.0000   1.0000   1.0000   1.0000   1.0000   1.0000   1.0000   1.0000
     1.0000   1.0000   1.0000   1.0000   1.0000   1.0000   1.0000   1.0000
     1.0000   1.0000   1.0000   1.0000   1.0000   1.0000   1.0000   1.0000
     1.0000   1.0000   1.0000   1.0000   1.0000   1.0000

          k =-0.1667-0.4811 0.0675 (  7561 PWs)   bands (ev):

   -12.3117 -12.2801 -12.2257 -12.1603 -12.0122 -11.9346  -1.1911  -1.1550
    -1.0957  -1.0581  -1.0126  -0.9719  -0.9287  -0.9063  -0.8779  -0.8644
    -0.8425  -0.8311  -0.7790  -0.7558  -0.7203  -0.7168  -0.6476  -0.6339
    -0.6232  -0.6059  -0.5789  -0.5444  -0.5266  -0.4998  -0.4578  -0.4361
    -0.3738  -0.3510  -0.2761  -0.2141   0.5776   0.6358   0.7276   0.7841
     0.9140   1.1026   1.7851   1.9294   2.0648   2.2401   2.3117   2.4479
     2.7142   2.7662   2.8575   2.9289   2.9941   3.1336

     occupation numbers 
     1.0000   1.0000   1.0000   1.0000   1.0000   1.0000   1.0000   1.0000
     1.0000   1.0000   1.0000   1.0000   1.0000   1.0000   1.0000   1.0000
     1.0000   1.0000   1.0000   1.0000   1.0000   1.0000   1.0000   1.0000
     1.0000   1.0000   1.0000   1.0000   1.0000   1.0000   1.0000   1.0000
     1.0000   1.0000   1.0000   1.0000   1.0000   1.0000   1.0000   1.0000
     1.0000   1.0000   1.0000   1.0000   1.0000   1.0000   1.0000   1.0000
     1.0000   1.0000   1.0000   1.0000   1.0000   1.0000

          k =-0.1667 0.4811-0.0675 (  7561 PWs)   bands (ev):

   -12.3086 -12.2787 -12.2266 -12.1601 -12.0119 -11.9355  -1.1882  -1.1515
    -1.0911  -1.0528  -1.0149  -0.9712  -0.9218  -0.8997  -0.8636  -0.8598
    -0.8401  -0.8219  -0.7786  -0.7403  -0.7310  -0.7090  -0.6462  -0.6345
    -0.6186  -0.5989  -0.5763  -0.5468  -0.5301  -0.5038  -0.4633  -0.4389
    -0.3718  -0.3515  -0.2788  -0.2209   0.5627   0.6026   0.6931   0.7706
     0.8958   1.0926   1.7808   1.9337   2.0721   2.2260   2.3050   2.4631
     2.7375   2.7779   2.8444   2.9355   3.0079   3.1223

     occupation numbers 
     1.0000   1.0000   1.0000   1.0000   1.0000   1.0000   1.0000   1.0000
     1.0000   1.0000   1.0000   1.0000   1.0000   1.0000   1.0000   1.0000
     1.0000   1.0000   1.0000   1.0000   1.0000   1.0000   1.0000   1.0000
     1.0000   1.0000   1.0000   1.0000   1.0000   1.0000   1.0000   1.0000
     1.0000   1.0000   1.0000   1.0000   1.0000   1.0000   1.0000   1.0000
     1.0000   1.0000   1.0000   1.0000   1.0000   1.0000   1.0000   1.0000
     1.0000   1.0000   1.0000   1.0000   1.0000   1.0000

          k = 0.1667-0.4811-0.0675 (  7561 PWs)   bands (ev):

   -12.3086 -12.2787 -12.2266 -12.1601 -12.0119 -11.9355  -1.1881  -1.1529
    -1.0865  -1.0552  -1.0162  -0.9744  -0.9154  -0.9005  -0.8646  -0.8574
    -0.8379  -0.8291  -0.7798  -0.7444  -0.7258  -0.7063  -0.6482  -0.6339
    -0.6196  -0.5937  -0.5796  -0.5499  -0.5269  -0.5052  -0.4619  -0.4394
    -0.3721  -0.3515  -0.2789  -0.2208   0.5675   0.5968   0.6926   0.7706
     0.8969   1.0937   1.7844   1.9323   2.0537   2.2370   2.3261   2.4455
     2.7363   2.7746   2.8559   2.9292   3.0078   3.1228

     occupation numbers 
     1.0000   1.0000   1.0000   1.0000   1.0000   1.0000   1.0000   1.0000
     1.0000   1.0000   1.0000   1.0000   1.0000   1.0000   1.0000   1.0000
     1.0000   1.0000   1.0000   1.0000   1.0000   1.0000   1.0000   1.0000
     1.0000   1.0000   1.0000   1.0000   1.0000   1.0000   1.0000   1.0000
     1.0000   1.0000   1.0000   1.0000   1.0000   1.0000   1.0000   1.0000
     1.0000   1.0000   1.0000   1.0000   1.0000   1.0000   1.0000   1.0000
     1.0000   1.0000   1.0000   1.0000   1.0000   1.0000

          k =-0.3333 0.3849 0.0675 (  7561 PWs)   bands (ev):

   -12.3117 -12.2779 -12.2223 -12.1601 -12.0114 -11.9358  -1.1875  -1.1565
    -1.0944  -1.0511  -1.0079  -0.9758  -0.9165  -0.8988  -0.8614  -0.8550
    -0.8335  -0.8195  -0.7769  -0.7403  -0.7220  -0.7096  -0.6403  -0.6304
    -0.6129  -0.6079  -0.5789  -0.5532  -0.5322  -0.5047  -0.4605  -0.4357
    -0.3729  -0.3513  -0.2789  -0.2203   0.5280   0.5928   0.7002   0.7741
     0.9205   1.0628   1.7639   1.9364   2.0776   2.2218   2.3185   2.4561
     2.7361   2.7744   2.8481   2.9418   2.9899   3.1179

     occupation numbers 
     1.0000   1.0000   1.0000   1.0000   1.0000   1.0000   1.0000   1.0000
     1.0000   1.0000   1.0000   1.0000   1.0000   1.0000   1.0000   1.0000
     1.0000   1.0000   1.0000   1.0000   1.0000   1.0000   1.0000   1.0000
     1.0000   1.0000   1.0000   1.0000   1.0000   1.0000   1.0000   1.0000
     1.0000   1.0000   1.0000   1.0000   1.0000   1.0000   1.0000   1.0000
     1.0000   1.0000   1.0000   1.0000   1.0000   1.0000   1.0000   1.0000
     1.0000   1.0000   1.0000   1.0000   1.0000   1.0000

          k = 0.5000 0.0962 0.0675 (  7561 PWs)   bands (ev):

   -12.3215 -12.2817 -12.2187 -12.1607 -12.0121 -11.9330  -1.1829  -1.1693
    -1.1147  -1.0778  -1.0360  -0.9916  -0.9370  -0.9142  -0.8738  -0.8563
    -0.8348  -0.8208  -0.7747  -0.7492  -0.7305  -0.7169  -0.6450  -0.6326
    -0.6188  -0.5955  -0.5710  -0.5422  -0.5252  -0.5000  -0.4578  -0.4357
    -0.3701  -0.3490  -0.2770  -0.2161   0.5568   0.6554   0.7453   0.8126
     0.9739   1.1311   1.7629   1.9110   2.0645   2.2129   2.2925   2.4355
     2.7147   2.7569   2.8884   2.9254   3.0224   3.1257

     occupation numbers 
     1.0000   1.0000   1.0000   1.0000   1.0000   1.0000   1.0000   1.0000
     1.0000   1.0000   1.0000   1.0000   1.0000   1.0000   1.0000   1.0000
     1.0000   1.0000   1.0000   1.0000   1.0000   1.0000   1.0000   1.0000
     1.0000   1.0000   1.0000   1.0000   1.0000   1.0000   1.0000   1.0000
     1.0000   1.0000   1.0000   1.0000   1.0000   1.0000   1.0000   1.0000
     1.0000   1.0000   1.0000   1.0000   1.0000   1.0000   1.0000   1.0000
     1.0000   1.0000   1.0000   1.0000   1.0000   1.0000

          k =-0.5000-0.0962 0.0675 (  7561 PWs)   bands (ev):

   -12.3215 -12.2817 -12.2187 -12.1607 -12.0121 -11.9330  -1.1830  -1.1702
    -1.1114  -1.0791  -1.0350  -0.9972  -0.9355  -0.9091  -0.8754  -0.8517
    -0.8402  -0.8230  -0.7773  -0.7461  -0.7284  -0.7165  -0.6477  -0.6296
    -0.6205  -0.5919  -0.5736  -0.5458  -0.5216  -0.5016  -0.4563  -0.4360
    -0.3708  -0.3490  -0.2770  -0.2159   0.5559   0.6558   0.7474   0.8114
     0.9717   1.1337   1.7636   1.9095   2.0563   2.2286   2.2891   2.4294
     2.7139   2.7650   2.8853   2.9202   3.0262   3.1251

     occupation numbers 
     1.0000   1.0000   1.0000   1.0000   1.0000   1.0000   1.0000   1.0000
     1.0000   1.0000   1.0000   1.0000   1.0000   1.0000   1.0000   1.0000
     1.0000   1.0000   1.0000   1.0000   1.0000   1.0000   1.0000   1.0000
     1.0000   1.0000   1.0000   1.0000   1.0000   1.0000   1.0000   1.0000
     1.0000   1.0000   1.0000   1.0000   1.0000   1.0000   1.0000   1.0000
     1.0000   1.0000   1.0000   1.0000   1.0000   1.0000   1.0000   1.0000
     1.0000   1.0000   1.0000   1.0000   1.0000   1.0000

          k = 0.3333-0.3849 0.0675 (  7561 PWs)   bands (ev):

   -12.3117 -12.2779 -12.2223 -12.1601 -12.0114 -11.9358  -1.1874  -1.1577
    -1.0894  -1.0540  -1.0106  -0.9783  -0.9110  -0.8947  -0.8642  -0.8516
    -0.8337  -0.8260  -0.7779  -0.7445  -0.7237  -0.7006  -0.6407  -0.6309
    -0.6166  -0.6007  -0.5822  -0.5558  -0.5297  -0.5059  -0.4595  -0.4358
    -0.3736  -0.3511  -0.2789  -0.2202   0.5269   0.5970   0.6895   0.7871
     0.9110   1.0673   1.7658   1.9315   2.0706   2.2364   2.3236   2.4443
     2.7338   2.7753   2.8566   2.9333   2.9925   3.1183

     occupation numbers 
     1.0000   1.0000   1.0000   1.0000   1.0000   1.0000   1.0000   1.0000
     1.0000   1.0000   1.0000   1.0000   1.0000   1.0000   1.0000   1.0000
     1.0000   1.0000   1.0000   1.0000   1.0000   1.0000   1.0000   1.0000
     1.0000   1.0000   1.0000   1.0000   1.0000   1.0000   1.0000   1.0000
     1.0000   1.0000   1.0000   1.0000   1.0000   1.0000   1.0000   1.0000
     1.0000   1.0000   1.0000   1.0000   1.0000   1.0000   1.0000   1.0000
     1.0000   1.0000   1.0000   1.0000   1.0000   1.0000

          k =-0.3333-0.3849-0.0675 (  7561 PWs)   bands (ev):

   -12.3204 -12.2821 -12.2205 -12.1607 -12.0124 -11.9329  -1.1858  -1.1661
    -1.1126  -1.0755  -1.0410  -0.9928  -0.9398  -0.9142  -0.8790  -0.8562
    -0.8316  -0.8254  -0.7735  -0.7512  -0.7299  -0.7178  -0.6429  -0.6320
    -0.6197  -0.5993  -0.5748  -0.5419  -0.5261  -0.5018  -0.4586  -0.4361
    -0.3717  -0.3502  -0.2760  -0.2126   0.5598   0.6574   0.7520   0.8197
     0.9926   1.1416   1.7426   1.9036   2.0676   2.2096   2.3106   2.4328
     2.7226   2.7586   2.8749   2.9346   3.0108   3.1308

     occupation numbers 
     1.0000   1.0000   1.0000   1.0000   1.0000   1.0000   1.0000   1.0000
     1.0000   1.0000   1.0000   1.0000   1.0000   1.0000   1.0000   1.0000
     1.0000   1.0000   1.0000   1.0000   1.0000   1.0000   1.0000   1.0000
     1.0000   1.0000   1.0000   1.0000   1.0000   1.0000   1.0000   1.0000
     1.0000   1.0000   1.0000   1.0000   1.0000   1.0000   1.0000   1.0000
     1.0000   1.0000   1.0000   1.0000   1.0000   1.0000   1.0000   1.0000
     1.0000   1.0000   1.0000   1.0000   1.0000   1.0000

          k = 0.5000-0.0962-0.0675 (  7561 PWs)   bands (ev):

   -12.3158 -12.2789 -12.2197 -12.1603 -12.0114 -11.9349  -1.1877  -1.1632
    -1.1005  -1.0560  -1.0073  -0.9730  -0.9209  -0.9018  -0.8698  -0.8606
    -0.8345  -0.8301  -0.7783  -0.7535  -0.7193  -0.7105  -0.6429  -0.6284
    -0.6202  -0.6086  -0.5793  -0.5516  -0.5266  -0.4990  -0.4543  -0.4325
    -0.3732  -0.3495  -0.2772  -0.2169   0.5443   0.6191   0.7242   0.7810
     0.9259   1.0633   1.7885   1.9344   2.0690   2.2382   2.3075   2.4425
     2.7056   2.7623   2.8754   2.9239   2.9875   3.1254

     occupation numbers 
     1.0000   1.0000   1.0000   1.0000   1.0000   1.0000   1.0000   1.0000
     1.0000   1.0000   1.0000   1.0000   1.0000   1.0000   1.0000   1.0000
     1.0000   1.0000   1.0000   1.0000   1.0000   1.0000   1.0000   1.0000
     1.0000   1.0000   1.0000   1.0000   1.0000   1.0000   1.0000   1.0000
     1.0000   1.0000   1.0000   1.0000   1.0000   1.0000   1.0000   1.0000
     1.0000   1.0000   1.0000   1.0000   1.0000   1.0000   1.0000   1.0000
     1.0000   1.0000   1.0000   1.0000   1.0000   1.0000

          k =-0.5000 0.0962-0.0675 (  7561 PWs)   bands (ev):

   -12.3158 -12.2789 -12.2197 -12.1603 -12.0114 -11.9349  -1.1876  -1.1644
    -1.0960  -1.0590  -1.0069  -0.9792  -0.9104  -0.9025  -0.8690  -0.8645
    -0.8350  -0.8277  -0.7860  -0.7492  -0.7298  -0.6983  -0.6456  -0.6272
    -0.6199  -0.6056  -0.5816  -0.5533  -0.5251  -0.5004  -0.4533  -0.4321
    -0.3739  -0.3493  -0.2773  -0.2168   0.5441   0.6224   0.7113   0.7965
     0.9172   1.0666   1.7847   1.9378   2.0719   2.2501   2.2883   2.4469
     2.7068   2.7657   2.8653   2.9233   2.9955   3.1239

     occupation numbers 
     1.0000   1.0000   1.0000   1.0000   1.0000   1.0000   1.0000   1.0000
     1.0000   1.0000   1.0000   1.0000   1.0000   1.0000   1.0000   1.0000
     1.0000   1.0000   1.0000   1.0000   1.0000   1.0000   1.0000   1.0000
     1.0000   1.0000   1.0000   1.0000   1.0000   1.0000   1.0000   1.0000
     1.0000   1.0000   1.0000   1.0000   1.0000   1.0000   1.0000   1.0000
     1.0000   1.0000   1.0000   1.0000   1.0000   1.0000   1.0000   1.0000
     1.0000   1.0000   1.0000   1.0000   1.0000   1.0000

          k = 0.3333 0.3849-0.0675 (  7561 PWs)   bands (ev):

   -12.3204 -12.2821 -12.2205 -12.1607 -12.0124 -11.9329  -1.1859  -1.1671
    -1.1087  -1.0770  -1.0413  -0.9967  -0.9420  -0.9065  -0.8794  -0.8478
    -0.8412  -0.8273  -0.7767  -0.7486  -0.7305  -0.7150  -0.6469  -0.6290
    -0.6190  -0.5954  -0.5790  -0.5447  -0.5230  -0.5029  -0.4568  -0.4370
    -0.3724  -0.3500  -0.2761  -0.2125   0.5588   0.6587   0.7520   0.8207
     0.9891   1.1444   1.7408   1.9019   2.0720   2.2217   2.2944   2.4325
     2.7172   2.7678   2.8869   2.9233   3.0076   3.1324

     occupation numbers 
     1.0000   1.0000   1.0000   1.0000   1.0000   1.0000   1.0000   1.0000
     1.0000   1.0000   1.0000   1.0000   1.0000   1.0000   1.0000   1.0000
     1.0000   1.0000   1.0000   1.0000   1.0000   1.0000   1.0000   1.0000
     1.0000   1.0000   1.0000   1.0000   1.0000   1.0000   1.0000   1.0000
     1.0000   1.0000   1.0000   1.0000   1.0000   1.0000   1.0000   1.0000
     1.0000   1.0000   1.0000   1.0000   1.0000   1.0000   1.0000   1.0000
     1.0000   1.0000   1.0000   1.0000   1.0000   1.0000

          k =-0.1667 0.4811 0.1012 (  7562 PWs)   bands (ev):

   -12.3086 -12.2788 -12.2266 -12.1601 -12.0119 -11.9355  -1.1880  -1.1522
    -1.0893  -1.0547  -1.0176  -0.9706  -0.9161  -0.8983  -0.8643  -0.8552
    -0.8463  -0.8272  -0.7776  -0.7426  -0.7257  -0.7078  -0.6471  -0.6351
    -0.6193  -0.5961  -0.5778  -0.5496  -0.5283  -0.5054  -0.4579  -0.4428
    -0.3719  -0.3515  -0.2789  -0.2207   0.5655   0.6017   0.6920   0.7606
     0.9046   1.0918   1.8057   1.9061   2.0950   2.1907   2.3625   2.3887
     2.7536   2.8277   2.8478   2.9161   2.9957   3.1173

     occupation numbers 
     1.0000   1.0000   1.0000   1.0000   1.0000   1.0000   1.0000   1.0000
     1.0000   1.0000   1.0000   1.0000   1.0000   1.0000   1.0000   1.0000
     1.0000   1.0000   1.0000   1.0000   1.0000   1.0000   1.0000   1.0000
     1.0000   1.0000   1.0000   1.0000   1.0000   1.0000   1.0000   1.0000
     1.0000   1.0000   1.0000   1.0000   1.0000   1.0000   1.0000   1.0000
     1.0000   1.0000   1.0000   1.0000   1.0000   1.0000   1.0000   1.0000
     1.0000   1.0000   1.0000   1.0000   1.0000   1.0000

          k =-0.3333 0.3849-0.1012 (  7562 PWs)   bands (ev):

   -12.3116 -12.2779 -12.2223 -12.1601 -12.0114 -11.9358  -1.1873  -1.1571
    -1.0928  -1.0526  -1.0114  -0.9753  -0.9087  -0.8972  -0.8622  -0.8521
    -0.8391  -0.8252  -0.7754  -0.7429  -0.7203  -0.7049  -0.6397  -0.6324
    -0.6143  -0.6050  -0.5800  -0.5558  -0.5308  -0.5060  -0.4552  -0.4396
    -0.3732  -0.3512  -0.2789  -0.2202   0.5267   0.5979   0.6938   0.7707
     0.9267   1.0616   1.7857   1.9063   2.1078   2.1979   2.3643   2.3801
     2.7516   2.8300   2.8459   2.9212   2.9800   3.1124

     occupation numbers 
     1.0000   1.0000   1.0000   1.0000   1.0000   1.0000   1.0000   1.0000
     1.0000   1.0000   1.0000   1.0000   1.0000   1.0000   1.0000   1.0000
     1.0000   1.0000   1.0000   1.0000   1.0000   1.0000   1.0000   1.0000
     1.0000   1.0000   1.0000   1.0000   1.0000   1.0000   1.0000   1.0000
     1.0000   1.0000   1.0000   1.0000   1.0000   1.0000   1.0000   1.0000
     1.0000   1.0000   1.0000   1.0000   1.0000   1.0000   1.0000   1.0000
     1.0000   1.0000   1.0000   1.0000   1.0000   1.0000

          k = 0.5000 0.0962-0.1012 (  7562 PWs)   bands (ev):

   -12.3215 -12.2818 -12.2187 -12.1607 -12.0121 -11.9330  -1.1828  -1.1699
    -1.1139  -1.0787  -1.0367  -0.9924  -0.9343  -0.9094  -0.8754  -0.8544
    -0.8402  -0.8238  -0.7751  -0.7489  -0.7266  -0.7164  -0.6466  -0.6312
    -0.6202  -0.5930  -0.5724  -0.5455  -0.5230  -0.5016  -0.4504  -0.4415
    -0.3703  -0.3489  -0.2770  -0.2160   0.5552   0.6562   0.7672   0.7819
     0.9852   1.1297   1.7832   1.8821   2.0940   2.1866   2.3361   2.3608
     2.7333   2.8360   2.8547   2.9111   3.0130   3.1216

     occupation numbers 
     1.0000   1.0000   1.0000   1.0000   1.0000   1.0000   1.0000   1.0000
     1.0000   1.0000   1.0000   1.0000   1.0000   1.0000   1.0000   1.0000
     1.0000   1.0000   1.0000   1.0000   1.0000   1.0000   1.0000   1.0000
     1.0000   1.0000   1.0000   1.0000   1.0000   1.0000   1.0000   1.0000
     1.0000   1.0000   1.0000   1.0000   1.0000   1.0000   1.0000   1.0000
     1.0000   1.0000   1.0000   1.0000   1.0000   1.0000   1.0000   1.0000
     1.0000   1.0000   1.0000   1.0000   1.0000   1.0000

          k =-0.3333-0.3849 0.1012 (  7562 PWs)   bands (ev):

   -12.3204 -12.2821 -12.2204 -12.1608 -12.0124 -11.9329  -1.1857  -1.1668
    -1.1115  -1.0764  -1.0424  -0.9928  -0.9384  -0.9095  -0.8786  -0.8538
    -0.8372  -0.8290  -0.7738  -0.7517  -0.7277  -0.7158  -0.6437  -0.6323
    -0.6192  -0.5975  -0.5765  -0.5451  -0.5239  -0.5030  -0.4518  -0.4416
    -0.3720  -0.3500  -0.2761  -0.2125   0.5582   0.6586   0.7704   0.7925
     1.0042   1.1393   1.7592   1.8762   2.1044   2.1913   2.3362   2.3624
     2.7381   2.8430   2.8480   2.9166   2.9956   3.1277

     occupation numbers 
     1.0000   1.0000   1.0000   1.0000   1.0000   1.0000   1.0000   1.0000
     1.0000   1.0000   1.0000   1.0000   1.0000   1.0000   1.0000   1.0000
     1.0000   1.0000   1.0000   1.0000   1.0000   1.0000   1.0000   1.0000
     1.0000   1.0000   1.0000   1.0000   1.0000   1.0000   1.0000   1.0000
     1.0000   1.0000   1.0000   1.0000   1.0000   1.0000   1.0000   1.0000
     1.0000   1.0000   1.0000   1.0000   1.0000   1.0000   1.0000   1.0000
     1.0000   1.0000   1.0000   1.0000   1.0000   1.0000

          k = 0.5000-0.0962 0.1012 (  7562 PWs)   bands (ev):

   -12.3158 -12.2790 -12.2197 -12.1603 -12.0114 -11.9349  -1.1875  -1.1639
    -1.0991  -1.0575  -1.0092  -0.9749  -0.9114  -0.9016  -0.8691  -0.8601
    -0.8394  -0.8324  -0.7801  -0.7526  -0.7230  -0.7029  -0.6448  -0.6283
    -0.6197  -0.6078  -0.5799  -0.5538  -0.5256  -0.5004  -0.4485  -0.4368
    -0.3735  -0.3493  -0.2773  -0.2168   0.5432   0.6235   0.7192   0.7769
     0.9311   1.0636   1.8059   1.9102   2.1046   2.2020   2.3490   2.3733
     2.7243   2.8214   2.8634   2.9094   2.9774   3.1196

     occupation numbers 
     1.0000   1.0000   1.0000   1.0000   1.0000   1.0000   1.0000   1.0000
     1.0000   1.0000   1.0000   1.0000   1.0000   1.0000   1.0000   1.0000
     1.0000   1.0000   1.0000   1.0000   1.0000   1.0000   1.0000   1.0000
     1.0000   1.0000   1.0000   1.0000   1.0000   1.0000   1.0000   1.0000
     1.0000   1.0000   1.0000   1.0000   1.0000   1.0000   1.0000   1.0000
     1.0000   1.0000   1.0000   1.0000   1.0000   1.0000   1.0000   1.0000
     1.0000   1.0000   1.0000   1.0000   1.0000   1.0000

          k =-0.3333-0.5774 0.0337 (  7533 PWs)   bands (ev):

   -12.2608 -12.2357 -12.2177 -12.1330 -11.9683 -11.9228  -1.1757  -1.0936
    -1.0306  -1.0157  -0.9824  -0.9669  -0.9153  -0.8482  -0.8403  -0.7766
    -0.7502  -0.7387  -0.7206  -0.7013  -0.6979  -0.6777  -0.6527  -0.6453
    -0.6229  -0.5804  -0.5403  -0.4914  -0.4606  -0.4296  -0.4241  -0.4209
    -0.3854  -0.3543  -0.2010  -0.1813   0.6143   0.6297   0.7379   0.7846
     0.8903   0.9694   1.1356   1.4187   1.6250   2.0648   2.2499   2.3896
     2.4593   2.5708   2.6790   2.7325   2.9285   2.9540

     occupation numbers 
     1.0000   1.0000   1.0000   1.0000   1.0000   1.0000   1.0000   1.0000
     1.0000   1.0000   1.0000   1.0000   1.0000   1.0000   1.0000   1.0000
     1.0000   1.0000   1.0000   1.0000   1.0000   1.0000   1.0000   1.0000
     1.0000   1.0000   1.0000   1.0000   1.0000   1.0000   1.0000   1.0000
     1.0000   1.0000   1.0000   1.0000   1.0000   1.0000   1.0000   1.0000
     1.0000   1.0000   1.0000   1.0000   1.0000   1.0000   1.0000   1.0000
     1.0000   1.0000   1.0000   1.0000   1.0000   1.0000

          k =-0.3333-0.5774 0.0675 (  7545 PWs)   bands (ev):

   -12.2608 -12.2357 -12.2177 -12.1330 -11.9683 -11.9228  -1.1750  -1.0967
    -1.0332  -1.0176  -0.9756  -0.9612  -0.9109  -0.8636  -0.8457  -0.7649
    -0.7480  -0.7381  -0.7262  -0.6978  -0.6966  -0.6770  -0.6529  -0.6450
    -0.6243  -0.5845  -0.5396  -0.4940  -0.4550  -0.4315  -0.4243  -0.4213
    -0.3855  -0.3547  -0.2010  -0.1813   0.6132   0.6273   0.7396   0.8005
     0.8801   0.9621   1.1569   1.3479   1.7320   1.9586   2.3113   2.4249
     2.4956   2.5588   2.6205   2.6746   2.9555   2.9745

     occupation numbers 
     1.0000   1.0000   1.0000   1.0000   1.0000   1.0000   1.0000   1.0000
     1.0000   1.0000   1.0000   1.0000   1.0000   1.0000   1.0000   1.0000
     1.0000   1.0000   1.0000   1.0000   1.0000   1.0000   1.0000   1.0000
     1.0000   1.0000   1.0000   1.0000   1.0000   1.0000   1.0000   1.0000
     1.0000   1.0000   1.0000   1.0000   1.0000   1.0000   1.0000   1.0000
     1.0000   1.0000   1.0000   1.0000   1.0000   1.0000   1.0000   1.0000
     1.0000   1.0000   1.0000   1.0000   1.0000   1.0000

     highest occupied level (ev):     3.8527

!    total energy              =   -1084.69816577 Ry
     estimated scf accuracy    <          2.3E-09 Ry

     The total energy is the sum of the following terms:
     one-electron contribution =    -547.15885368 Ry
     hartree contribution      =     385.33507058 Ry
     xc contribution           =    -327.29962322 Ry
     ewald contribution        =    -595.57475945 Ry

     convergence has been achieved in  37 iterations

     Forces acting on atoms (cartesian axes, Ry/au):

     atom    1 type  1   force =    -0.00279732   -0.00007157    0.00299092
     atom    2 type  1   force =    -0.00153146   -0.00014616    0.00542379
     atom    3 type  2   force =     0.00419596   -0.00051393    0.00617102
     atom    4 type  2   force =    -0.00166716   -0.00099972   -0.00887915
     atom    5 type  1   force =     0.00076540    0.00061184   -0.00734382
     atom    6 type  1   force =    -0.00125237    0.00134967   -0.00815375
     atom    7 type  2   force =     0.00220585    0.00076634    0.00124716
     atom    8 type  2   force =    -0.00241255   -0.00088874    0.01153423
     atom    9 type  1   force =     0.00061099   -0.00357058   -0.00102694
     atom   10 type  1   force =     0.00057567    0.00143620   -0.00135601
     atom   11 type  2   force =     0.00415562    0.00560152    0.00159901
     atom   12 type  2   force =    -0.00284862   -0.00357486   -0.00220646
     The non-local contrib.  to forces
     atom    1 type  1   force =    -0.00179448    0.00156216    0.02294186
     atom    2 type  1   force =    -0.05846781   -0.02042720    0.06177460
     atom    3 type  2   force =    -0.00506045    0.01825182    0.07830064
     atom    4 type  2   force =    -0.03454582   -0.00491608    0.04932405
     atom    5 type  1   force =     0.04026151    0.00786158    0.07213928
     atom    6 type  1   force =    -0.02619696    0.01048020    0.04577377
     atom    7 type  2   force =     0.00384274   -0.00305131    0.06294756
     atom    8 type  2   force =     0.03189526    0.00655114    0.08273548
     atom    9 type  1   force =     0.02372809    0.01535241    0.02991200
     atom   10 type  1   force =    -0.01496842   -0.01780589    0.05159086
     atom   11 type  2   force =    -0.04443412    0.01592579    0.04757374
     atom   12 type  2   force =     0.00781606   -0.03726070    0.05002931
     The ionic contribution  to forces
     atom    1 type  1   force =     0.00411153    0.00913640   -0.06900055
     atom    2 type  1   force =    -0.42028766   -0.14740553    1.72083661
     atom    3 type  2   force =     0.06857944   -0.10949485   -0.33311353
     atom    4 type  2   force =     0.14384318    0.01880553   -0.86997234
     atom    5 type  1   force =     0.29656023    0.05728488    0.68182712
     atom    6 type  1   force =    -0.19400248    0.07095736    0.30533416
     atom    7 type  2   force =     0.02579962    0.06017194   -0.67354198
     atom    8 type  2   force =    -0.24307439   -0.03401559   -0.07213927
     atom    9 type  1   force =     0.18880566    0.12865923   -0.07067324
     atom   10 type  1   force =    -0.11701337   -0.13730198   -0.07080159
     atom   11 type  2   force =     0.33475277   -0.05323789    0.15750085
     atom   12 type  2   force =    -0.08807453    0.13644050   -0.70625624
     The local contribution  to forces
     atom    1 type  1   force =    -0.00547494   -0.01067605    0.05083106
     atom    2 type  1   force =     0.47347607    0.16634342   -1.77232736
     atom    3 type  2   force =    -0.05934686    0.09089548    0.26177214
     atom    4 type  2   force =    -0.11130311   -0.01494037    0.81212477
     atom    5 type  1   force =    -0.33350999   -0.06397451   -0.75777159
     atom    6 type  1   force =     0.21720747   -0.07933510   -0.35757372
     atom    7 type  2   force =    -0.02738271   -0.05636836    0.61241100
     atom    8 type  2   force =     0.20903887    0.02663511    0.00178661
     atom    9 type  1   force =    -0.21039686   -0.14692058    0.04144885
     atom   10 type  1   force =     0.13168055    0.15557501    0.02096573
     atom   11 type  2   force =    -0.28653943    0.04308615   -0.20300970
     atom   12 type  2   force =     0.07746225   -0.10313050    0.65445518
     The core correction contribution to forces
     atom    1 type  1   force =     0.00036070   -0.00009482   -0.00179261
     atom    2 type  1   force =     0.00375159    0.00134527   -0.00485838
     atom    3 type  2   force =     0.00002325   -0.00016606   -0.00076764
     atom    4 type  2   force =     0.00033831    0.00005138   -0.00036001
     atom    5 type  1   force =    -0.00254936   -0.00056132   -0.00356063
     atom    6 type  1   force =     0.00174107   -0.00075291   -0.00165113
     atom    7 type  2   force =    -0.00005402    0.00001418   -0.00057811
     atom    8 type  2   force =    -0.00027230   -0.00005913   -0.00085342
     atom    9 type  1   force =    -0.00152767   -0.00066339   -0.00172179
     atom   10 type  1   force =     0.00087756    0.00097021   -0.00312394
     atom   11 type  2   force =     0.00037572   -0.00017313   -0.00046347
     atom   12 type  2   force =    -0.00005217    0.00037621   -0.00043522
     The Hubbard contrib.    to forces
     atom    1 type  1   force =     0.00000000    0.00000000    0.00000000
     atom    2 type  1   force =     0.00000000    0.00000000    0.00000000
     atom    3 type  2   force =     0.00000000    0.00000000    0.00000000
     atom    4 type  2   force =     0.00000000    0.00000000    0.00000000
     atom    5 type  1   force =     0.00000000    0.00000000    0.00000000
     atom    6 type  1   force =     0.00000000    0.00000000    0.00000000
     atom    7 type  2   force =     0.00000000    0.00000000    0.00000000
     atom    8 type  2   force =     0.00000000    0.00000000    0.00000000
     atom    9 type  1   force =     0.00000000    0.00000000    0.00000000
     atom   10 type  1   force =     0.00000000    0.00000000    0.00000000
     atom   11 type  2   force =     0.00000000    0.00000000    0.00000000
     atom   12 type  2   force =     0.00000000    0.00000000    0.00000000
     The SCF correction term to forces
     atom    1 type  1   force =    -0.00000024    0.00000079    0.00001191
     atom    2 type  1   force =    -0.00000376   -0.00000207   -0.00000093
     atom    3 type  2   force =     0.00000046   -0.00000026   -0.00001984
     atom    4 type  2   force =     0.00000016   -0.00000011    0.00000513
     atom    5 type  1   force =     0.00000288    0.00000126    0.00002275
     atom    6 type  1   force =    -0.00000159    0.00000017   -0.00003607
     atom    7 type  2   force =     0.00000012   -0.00000006    0.00000946
     atom    8 type  2   force =    -0.00000011   -0.00000021    0.00000559
     atom    9 type  1   force =     0.00000166    0.00000179    0.00000800
     atom   10 type  1   force =    -0.00000076   -0.00000111    0.00001369
     atom   11 type  2   force =     0.00000057    0.00000064   -0.00000165
     atom   12 type  2   force =    -0.00000035   -0.00000032    0.00000127

     Total force =     0.023536     Total SCF correction =     0.000053

     init_run     :     12.84s CPU      7.79s WALL (       1 calls)
     electrons    :   1115.62s CPU    578.69s WALL (       1 calls)
     forces       :      4.90s CPU      2.82s WALL (       1 calls)

     Called by init_run:
     wfcinit      :      9.37s CPU      5.01s WALL (       1 calls)
     wfcinit:atom :      0.11s CPU      0.07s WALL (      14 calls)
     wfcinit:wfcr :      8.57s CPU      4.41s WALL (      14 calls)
     potinit      :      1.13s CPU      0.79s WALL (       1 calls)
     hinit0       :      2.06s CPU      1.78s WALL (       1 calls)

     Called by electrons:
     c_bands      :    961.63s CPU    501.15s WALL (      37 calls)
     sum_band     :    134.38s CPU     65.30s WALL (      37 calls)
     v_of_rho     :     11.37s CPU      7.29s WALL (      38 calls)
     v_h          :      0.67s CPU      0.47s WALL (      38 calls)
     v_xc         :     10.97s CPU      7.00s WALL (      39 calls)
     newd         :      5.42s CPU      2.91s WALL (      38 calls)
     mix_rho      :      1.91s CPU      1.30s WALL (      37 calls)

     Called by c_bands:
     init_us_2    :      8.13s CPU      4.10s WALL (    1064 calls)
     init_us_2:cp :      8.12s CPU      4.10s WALL (    1064 calls)
     cegterg      :    885.85s CPU    445.38s WALL (     518 calls)

     Called by sum_band:
     sum_band:wei :      0.02s CPU      0.03s WALL (      37 calls)
     sum_band:loo :    123.99s CPU     58.94s WALL (      37 calls)
     sum_band:buf :      1.47s CPU      0.75s WALL (     518 calls)
     sum_band:ini :      3.55s CPU      1.73s WALL (     518 calls)
     sum_band:cal :     16.52s CPU      8.24s WALL (     518 calls)
     sum_band:bec :      0.20s CPU      0.15s WALL (     518 calls)
     addusdens    :      6.77s CPU      3.52s WALL (      37 calls)
     addusd:skk   :      0.05s CPU      0.03s WALL (      74 calls)
     addusd:dgemm :      1.46s CPU      0.71s WALL (      74 calls)
     addusd:qvan2 :      3.90s CPU      1.81s WALL (      74 calls)

     Called by *egterg:
     cdiaghg      :     37.37s CPU     29.21s WALL (    3333 calls)
     cegterg:over :     66.26s CPU     34.75s WALL (    2815 calls)
     cegterg:upda :     33.25s CPU     15.26s WALL (    2815 calls)
     cegterg:last :     60.45s CPU     29.93s WALL (    1452 calls)
     h_psi        :    616.51s CPU    300.57s WALL (    3347 calls)
     s_psi        :     51.95s CPU     24.47s WALL (    3347 calls)
     g_psi        :      2.66s CPU      1.52s WALL (    2815 calls)

     Called by h_psi:
     h_psi:calbec :     64.38s CPU     31.84s WALL (    3347 calls)
     vloc_psi     :    500.69s CPU    242.21s WALL (    3347 calls)
     add_vuspsi   :     48.88s CPU     25.27s WALL (    3347 calls)

     General routines
     calbec       :     82.64s CPU     40.97s WALL (    3921 calls)
     fft          :      7.65s CPU      5.42s WALL (     503 calls)
     ffts         :      0.49s CPU      0.37s WALL (      75 calls)
     fftw         :    513.81s CPU    247.52s WALL (  200714 calls)
     interpolate  :      0.89s CPU      0.68s WALL (      38 calls)

     Parallel routines

     PWSCF        :  18m53.98s CPU   9m49.94s WALL


   This run was terminated on:   2:30:33  26Sep2025            

=------------------------------------------------------------------------------=
   JOB DONE.
=------------------------------------------------------------------------------=
