
     Program PWSCF v.7.0 starts on 25Sep2025 at  4:15: 8 

     This program is part of the open-source Quantum ESPRESSO suite
     for quantum simulation of materials; please cite
         "P. Giannozzi et al., J. Phys.:Condens. Matter 21 395502 (2009);
         "P. Giannozzi et al., J. Phys.:Condens. Matter 29 465901 (2017);
         "P. Giannozzi et al., J. Chem. Phys. 152 154105 (2020);
          URL http://www.quantum-espresso.org", 
     in publications or presentations arising from this work. More details at
     http://www.quantum-espresso.org/quote

     Parallel version (MPI & OpenMP), running on      32 processor cores
     Number of MPI processes:                16
     Threads/MPI process:                     2

     MPI processes distributed on     1 nodes
     K-points division:     npool     =       8
     R & G space division:  proc/nbgrp/npool/nimage =       2
     105563 MiB available memory on the printing compute node when the environment starts

     Reading input from /home/jvc/QEspresso7.2/ZnO_database/scripts/random_1x1x3.in/ZnO-3.27-1.58-113-0.12-3.in
Warning: card &CELL ignored
Warning: card / ignored
Warning: card &FCP ignored
Warning: card / ignored
Warning: card &RISM ignored
Warning: card / ignored

     Current dimensions of program PWSCF are:
     Max number of different atomic species (ntypx) = 10
     Max number of k-points (npk) =  40000
     Max angular momentum in pseudopotentials (lmaxx) =  4
     file Zn.upf: wavefunction(s)  3D renormalized

     Subspace diagonalization in iterative solution of the eigenvalue problem:
     a serial algorithm will be used


     Parallelization info
     --------------------
     sticks:   dense  smooth     PW     G-vecs:    dense   smooth      PW
     Min         522     258     81                65433    23086    3854
     Max         523     259     82                65434    23091    3857
     Sum        1045     517    163               130867    46177    7711

     Using Slab Decomposition



     bravais-lattice index     =            0
     lattice parameter (alat)  =       6.1789  a.u.
     unit-cell volume          =     969.6203 (a.u.)^3
     number of atoms/cell      =           12
     number of atomic types    =            2
     number of electrons       =       108.00
     number of Kohn-Sham states=           54
     kinetic-energy cutoff     =      50.0000  Ry
     charge density cutoff     =     400.0000  Ry
     scf convergence threshold =      1.0E-08
     mixing beta               =       0.3000
     number of iterations used =            8  plain     mixing
     Exchange-correlation= PBE
                           (   1   4   3   4   0   0   0)

     celldm(1)=   6.178854  celldm(2)=   0.000000  celldm(3)=   0.000000
     celldm(4)=   0.000000  celldm(5)=   0.000000  celldm(6)=   0.000000

     crystal axes: (cart. coord. in units of alat)
               a(1) = (   1.000000   0.000000   0.000000 )  
               a(2) = (  -0.500000   0.866025   0.000000 )  
               a(3) = (   0.000000   0.000000   4.746214 )  

     reciprocal axes: (cart. coord. in units 2 pi/alat)
               b(1) = (  1.000000  0.577350 -0.000000 )  
               b(2) = (  0.000000  1.154701  0.000000 )  
               b(3) = (  0.000000 -0.000000  0.210694 )  


     PseudoPot. # 1 for Zn read from file:
     /home/jvc/QEspresso7.2/ZnO_database/pseudos/Zn.upf
     MD5 check sum: 7f56cabf9682ed8c977c2f7d0c5985c5
     Pseudo is Ultrasoft + core correction, Zval = 12.0
     Generated using &quot;atomic&quot; code by A. Dal Corso  v.6.2.2
     Using radial grid of 1201 points,  6 beta functions with: 
                l(1) =   0
                l(2) =   0
                l(3) =   1
                l(4) =   1
                l(5) =   2
                l(6) =   2
     Q(r) pseudized with 0 coefficients 


     PseudoPot. # 2 for O  read from file:
     /home/jvc/QEspresso7.2/ZnO_database/pseudos/O.upf
     MD5 check sum: 91400c9766925bcf19f520983a725ff0
     Pseudo is Ultrasoft + core correction, Zval =  6.0
     Generated using &quot;atomic&quot; code by A. Dal Corso  v.6.3MaX
     Using radial grid of 1095 points,  4 beta functions with: 
                l(1) =   0
                l(2) =   0
                l(3) =   1
                l(4) =   1
     Q(r) pseudized with 0 coefficients 


     atomic species   valence    mass     pseudopotential
        Zn            12.00    65.38000     Zn( 1.00)
        O              6.00    15.99900     O ( 1.00)

     No symmetry found


                                    s                        frac. trans.

      isym =  1     identity                                     

 cryst.   s( 1) = (     1          0          0      )
                  (     0          1          0      )
                  (     0          0          1      )

 cart.    s( 1) = (  1.0000000  0.0000000  0.0000000 )
                  (  0.0000000  1.0000000  0.0000000 )
                  (  0.0000000  0.0000000  1.0000000 )


   Cartesian axes

     site n.     atom                  positions (alat units)
         1           Zn  tau(   1) = (   0.5462073   0.2678619   0.7246599  )
         2           Zn  tau(   2) = (   0.0429981   0.6337574  -0.0142283  )
         3           O   tau(   3) = (   0.5452649   0.2893391   1.3469326  )
         4           O   tau(   4) = (  -0.0089168   0.5179556   0.5290699  )
         5           Zn  tau(   5) = (   0.4838776   0.3000196   2.3433254  )
         6           Zn  tau(   6) = (   0.0198623   0.5680130   1.6333832  )
         7           O   tau(   7) = (   0.5089610   0.2189538   3.0535704  )
         8           O   tau(   8) = (  -0.0337392   0.5948134   2.1609057  )
         9           Zn  tau(   9) = (   0.4869723   0.2807243   3.9864595  )
        10           Zn  tau(  10) = (  -0.0785511   0.5507671   3.1456475  )
        11           O   tau(  11) = (   0.4923112   0.2895012   4.5598619  )
        12           O   tau(  12) = (   0.0003046   0.5480441   3.8156988  )

   Crystallographic axes

     site n.     atom                  positions (cryst. coord.)
         1           Zn  tau(   1) = (  0.7008574  0.3093003  0.1526817  )
         2           Zn  tau(   2) = (  0.4088981  0.7318000 -0.0029978  )
         3           O   tau(   3) = (  0.7123149  0.3341001  0.2837910  )
         4           O   tau(   4) = (  0.2901250  0.5980836  0.1114720  )
         5           Zn  tau(   5) = (  0.6570940  0.3464328  0.4937252  )
         6           Zn  tau(   6) = (  0.3478048  0.6558849  0.3441445  )
         7           O   tau(   7) = (  0.6353740  0.2528260  0.6433698  )
         8           O   tau(   8) = (  0.3096765  0.6868314  0.4552904  )
         9           Zn  tau(   9) = (  0.6490485  0.3241525  0.8399242  )
        10           Zn  tau(  10) = (  0.2394345  0.6359711  0.6627699  )
        11           O   tau(  11) = (  0.6594548  0.3342872  0.9607368  )
        12           O   tau(  12) = (  0.3167180  0.6328268  0.8039459  )

     number of k points=   112
                       cart. coord. in units 2pi/alat
        k(    1) = (   0.0000000   0.0000000   0.0000000), wk =   0.0092593
        k(    2) = (   0.0000000   0.0000000   0.0351157), wk =   0.0185185
        k(    3) = (   0.0000000   0.0000000   0.0702314), wk =   0.0185185
        k(    4) = (   0.0000000   0.0000000  -0.1053471), wk =   0.0092593
        k(    5) = (   0.0000000   0.1924501   0.0000000), wk =   0.0185185
        k(    6) = (   0.0000000   0.1924501   0.0351157), wk =   0.0185185
        k(    7) = (   0.0000000   0.1924501   0.0702314), wk =   0.0185185
        k(    8) = (   0.0000000   0.1924501  -0.1053471), wk =   0.0185185
        k(    9) = (   0.0000000   0.3849002   0.0000000), wk =   0.0185185
        k(   10) = (   0.0000000   0.3849002   0.0351157), wk =   0.0185185
        k(   11) = (   0.0000000   0.3849002   0.0702314), wk =   0.0185185
        k(   12) = (   0.0000000   0.3849002  -0.1053471), wk =   0.0185185
        k(   13) = (   0.0000000  -0.5773503   0.0000000), wk =   0.0092593
        k(   14) = (   0.0000000  -0.5773503   0.0351157), wk =   0.0185185
        k(   15) = (   0.0000000  -0.5773503   0.0702314), wk =   0.0185185
        k(   16) = (   0.0000000  -0.5773503  -0.1053471), wk =   0.0092593
        k(   17) = (   0.1666667   0.2886751   0.0000000), wk =   0.0185185
        k(   18) = (   0.1666667   0.2886751   0.0351157), wk =   0.0185185
        k(   19) = (   0.1666667   0.2886751   0.0702314), wk =   0.0185185
        k(   20) = (   0.1666667   0.2886751  -0.1053471), wk =   0.0185185
        k(   21) = (   0.1666667   0.4811252   0.0000000), wk =   0.0185185
        k(   22) = (   0.1666667   0.4811252   0.0351157), wk =   0.0185185
        k(   23) = (   0.1666667   0.4811252   0.0702314), wk =   0.0185185
        k(   24) = (   0.1666667   0.4811252  -0.1053471), wk =   0.0185185
        k(   25) = (   0.3333333   0.5773503   0.0000000), wk =   0.0185185
        k(   26) = (   0.3333333   0.5773503   0.0351157), wk =   0.0185185
        k(   27) = (   0.3333333   0.5773503   0.0702314), wk =   0.0185185
        k(   28) = (   0.3333333   0.5773503  -0.1053471), wk =   0.0185185
        k(   29) = (  -0.1666667   0.0962250   0.0000000), wk =   0.0185185
        k(   30) = (   0.1666667   0.0962250   0.0000000), wk =   0.0185185
        k(   31) = (   0.0000000  -0.1924501   0.0351157), wk =   0.0185185
        k(   32) = (  -0.1666667   0.0962250   0.0351157), wk =   0.0185185
        k(   33) = (   0.1666667   0.0962250   0.0351157), wk =   0.0185185
        k(   34) = (  -0.1666667  -0.0962250   0.0351157), wk =   0.0185185
        k(   35) = (   0.1666667  -0.0962250   0.0351157), wk =   0.0185185
        k(   36) = (   0.0000000  -0.1924501   0.0702314), wk =   0.0185185
        k(   37) = (  -0.1666667   0.0962250   0.0702314), wk =   0.0185185
        k(   38) = (   0.1666667   0.0962250   0.0702314), wk =   0.0185185
        k(   39) = (  -0.1666667  -0.0962250   0.0702314), wk =   0.0185185
        k(   40) = (   0.1666667  -0.0962250   0.0702314), wk =   0.0185185
        k(   41) = (  -0.1666667   0.0962250  -0.1053471), wk =   0.0185185
        k(   42) = (   0.1666667   0.0962250  -0.1053471), wk =   0.0185185
        k(   43) = (  -0.3333333   0.1924501   0.0000000), wk =   0.0185185
        k(   44) = (   0.3333333   0.1924501   0.0000000), wk =   0.0185185
        k(   45) = (   0.0000000  -0.3849002   0.0351157), wk =   0.0185185
        k(   46) = (  -0.3333333   0.1924501   0.0351157), wk =   0.0185185
        k(   47) = (   0.3333333   0.1924501   0.0351157), wk =   0.0185185
        k(   48) = (  -0.3333333  -0.1924501   0.0351157), wk =   0.0185185
        k(   49) = (   0.3333333  -0.1924501   0.0351157), wk =   0.0185185
        k(   50) = (   0.0000000  -0.3849002   0.0702314), wk =   0.0185185
        k(   51) = (  -0.3333333   0.1924501   0.0702314), wk =   0.0185185
        k(   52) = (   0.3333333   0.1924501   0.0702314), wk =   0.0185185
        k(   53) = (  -0.3333333  -0.1924501   0.0702314), wk =   0.0185185
        k(   54) = (   0.3333333  -0.1924501   0.0702314), wk =   0.0185185
        k(   55) = (  -0.3333333   0.1924501  -0.1053471), wk =   0.0185185
        k(   56) = (   0.3333333   0.1924501  -0.1053471), wk =   0.0185185
        k(   57) = (   0.5000000  -0.2886751   0.0000000), wk =   0.0092593
        k(   58) = (  -0.5000000  -0.2886751   0.0000000), wk =   0.0092593
        k(   59) = (   0.5000000  -0.2886751   0.0351157), wk =   0.0185185
        k(   60) = (  -0.5000000  -0.2886751   0.0351157), wk =   0.0185185
        k(   61) = (   0.5000000  -0.2886751   0.0702314), wk =   0.0185185
        k(   62) = (  -0.5000000  -0.2886751   0.0702314), wk =   0.0185185
        k(   63) = (   0.5000000  -0.2886751  -0.1053471), wk =   0.0092593
        k(   64) = (  -0.5000000  -0.2886751  -0.1053471), wk =   0.0092593
        k(   65) = (  -0.1666667   0.2886751   0.0000000), wk =   0.0185185
        k(   66) = (   0.3333333  -0.0000000   0.0000000), wk =   0.0185185
        k(   67) = (  -0.1666667  -0.2886751   0.0351157), wk =   0.0185185
        k(   68) = (  -0.1666667   0.2886751  -0.0351157), wk =   0.0185185
        k(   69) = (   0.1666667  -0.2886751  -0.0351157), wk =   0.0185185
        k(   70) = (   0.3333333  -0.0000000   0.0351157), wk =   0.0185185
        k(   71) = (  -0.3333333   0.0000000   0.0351157), wk =   0.0185185
        k(   72) = (  -0.1666667  -0.2886751   0.0702314), wk =   0.0185185
        k(   73) = (  -0.1666667   0.2886751  -0.0702314), wk =   0.0185185
        k(   74) = (   0.1666667  -0.2886751  -0.0702314), wk =   0.0185185
        k(   75) = (   0.3333333  -0.0000000   0.0702314), wk =   0.0185185
        k(   76) = (  -0.3333333   0.0000000   0.0702314), wk =   0.0185185
        k(   77) = (  -0.1666667   0.2886751   0.1053471), wk =   0.0185185
        k(   78) = (   0.3333333  -0.0000000  -0.1053471), wk =   0.0185185
        k(   79) = (  -0.1666667   0.4811252   0.0000000), wk =   0.0185185
        k(   80) = (  -0.3333333   0.3849002   0.0000000), wk =   0.0185185
        k(   81) = (   0.5000000   0.0962250   0.0000000), wk =   0.0185185
        k(   82) = (  -0.3333333  -0.3849002   0.0000000), wk =   0.0185185
        k(   83) = (   0.5000000  -0.0962250   0.0000000), wk =   0.0185185
        k(   84) = (  -0.1666667  -0.4811252   0.0351157), wk =   0.0185185
        k(   85) = (  -0.1666667   0.4811252  -0.0351157), wk =   0.0185185
        k(   86) = (   0.1666667  -0.4811252  -0.0351157), wk =   0.0185185
        k(   87) = (  -0.3333333   0.3849002   0.0351157), wk =   0.0185185
        k(   88) = (   0.5000000   0.0962250   0.0351157), wk =   0.0185185
        k(   89) = (  -0.5000000  -0.0962250   0.0351157), wk =   0.0185185
        k(   90) = (   0.3333333  -0.3849002   0.0351157), wk =   0.0185185
        k(   91) = (  -0.3333333  -0.3849002  -0.0351157), wk =   0.0185185
        k(   92) = (   0.5000000  -0.0962250  -0.0351157), wk =   0.0185185
        k(   93) = (  -0.5000000   0.0962250  -0.0351157), wk =   0.0185185
        k(   94) = (   0.3333333   0.3849002  -0.0351157), wk =   0.0185185
        k(   95) = (  -0.1666667  -0.4811252   0.0702314), wk =   0.0185185
        k(   96) = (  -0.1666667   0.4811252  -0.0702314), wk =   0.0185185
        k(   97) = (   0.1666667  -0.4811252  -0.0702314), wk =   0.0185185
        k(   98) = (  -0.3333333   0.3849002   0.0702314), wk =   0.0185185
        k(   99) = (   0.5000000   0.0962250   0.0702314), wk =   0.0185185
        k(  100) = (  -0.5000000  -0.0962250   0.0702314), wk =   0.0185185
        k(  101) = (   0.3333333  -0.3849002   0.0702314), wk =   0.0185185
        k(  102) = (  -0.3333333  -0.3849002  -0.0702314), wk =   0.0185185
        k(  103) = (   0.5000000  -0.0962250  -0.0702314), wk =   0.0185185
        k(  104) = (  -0.5000000   0.0962250  -0.0702314), wk =   0.0185185
        k(  105) = (   0.3333333   0.3849002  -0.0702314), wk =   0.0185185
        k(  106) = (  -0.1666667   0.4811252   0.1053471), wk =   0.0185185
        k(  107) = (  -0.3333333   0.3849002  -0.1053471), wk =   0.0185185
        k(  108) = (   0.5000000   0.0962250  -0.1053471), wk =   0.0185185
        k(  109) = (  -0.3333333  -0.3849002   0.1053471), wk =   0.0185185
        k(  110) = (   0.5000000  -0.0962250   0.1053471), wk =   0.0185185
        k(  111) = (  -0.3333333  -0.5773503   0.0351157), wk =   0.0185185
        k(  112) = (  -0.3333333  -0.5773503   0.0702314), wk =   0.0185185

                       cryst. coord.
        k(    1) = (   0.0000000   0.0000000   0.0000000), wk =   0.0092593
        k(    2) = (   0.0000000   0.0000000   0.1666667), wk =   0.0185185
        k(    3) = (   0.0000000   0.0000000   0.3333333), wk =   0.0185185
        k(    4) = (   0.0000000   0.0000000  -0.5000000), wk =   0.0092593
        k(    5) = (   0.0000000   0.1666667   0.0000000), wk =   0.0185185
        k(    6) = (   0.0000000   0.1666667   0.1666667), wk =   0.0185185
        k(    7) = (   0.0000000   0.1666667   0.3333333), wk =   0.0185185
        k(    8) = (   0.0000000   0.1666667  -0.5000000), wk =   0.0185185
        k(    9) = (   0.0000000   0.3333333   0.0000000), wk =   0.0185185
        k(   10) = (   0.0000000   0.3333333   0.1666667), wk =   0.0185185
        k(   11) = (   0.0000000   0.3333333   0.3333333), wk =   0.0185185
        k(   12) = (   0.0000000   0.3333333  -0.5000000), wk =   0.0185185
        k(   13) = (   0.0000000  -0.5000000   0.0000000), wk =   0.0092593
        k(   14) = (   0.0000000  -0.5000000   0.1666667), wk =   0.0185185
        k(   15) = (   0.0000000  -0.5000000   0.3333333), wk =   0.0185185
        k(   16) = (   0.0000000  -0.5000000  -0.5000000), wk =   0.0092593
        k(   17) = (   0.1666667   0.1666667   0.0000000), wk =   0.0185185
        k(   18) = (   0.1666667   0.1666667   0.1666667), wk =   0.0185185
        k(   19) = (   0.1666667   0.1666667   0.3333333), wk =   0.0185185
        k(   20) = (   0.1666667   0.1666667  -0.5000000), wk =   0.0185185
        k(   21) = (   0.1666667   0.3333333   0.0000000), wk =   0.0185185
        k(   22) = (   0.1666667   0.3333333   0.1666667), wk =   0.0185185
        k(   23) = (   0.1666667   0.3333333   0.3333333), wk =   0.0185185
        k(   24) = (   0.1666667   0.3333333  -0.5000000), wk =   0.0185185
        k(   25) = (   0.3333333   0.3333333   0.0000000), wk =   0.0185185
        k(   26) = (   0.3333333   0.3333333   0.1666667), wk =   0.0185185
        k(   27) = (   0.3333333   0.3333333   0.3333333), wk =   0.0185185
        k(   28) = (   0.3333333   0.3333333  -0.5000000), wk =   0.0185185
        k(   29) = (  -0.1666667   0.1666667   0.0000000), wk =   0.0185185
        k(   30) = (   0.1666667  -0.0000000   0.0000000), wk =   0.0185185
        k(   31) = (   0.0000000  -0.1666667   0.1666667), wk =   0.0185185
        k(   32) = (  -0.1666667   0.1666667   0.1666667), wk =   0.0185185
        k(   33) = (   0.1666667  -0.0000000   0.1666667), wk =   0.0185185
        k(   34) = (  -0.1666667   0.0000000   0.1666667), wk =   0.0185185
        k(   35) = (   0.1666667  -0.1666667   0.1666667), wk =   0.0185185
        k(   36) = (   0.0000000  -0.1666667   0.3333333), wk =   0.0185185
        k(   37) = (  -0.1666667   0.1666667   0.3333333), wk =   0.0185185
        k(   38) = (   0.1666667  -0.0000000   0.3333333), wk =   0.0185185
        k(   39) = (  -0.1666667   0.0000000   0.3333333), wk =   0.0185185
        k(   40) = (   0.1666667  -0.1666667   0.3333333), wk =   0.0185185
        k(   41) = (  -0.1666667   0.1666667  -0.5000000), wk =   0.0185185
        k(   42) = (   0.1666667  -0.0000000  -0.5000000), wk =   0.0185185
        k(   43) = (  -0.3333333   0.3333333   0.0000000), wk =   0.0185185
        k(   44) = (   0.3333333  -0.0000000   0.0000000), wk =   0.0185185
        k(   45) = (   0.0000000  -0.3333333   0.1666667), wk =   0.0185185
        k(   46) = (  -0.3333333   0.3333333   0.1666667), wk =   0.0185185
        k(   47) = (   0.3333333  -0.0000000   0.1666667), wk =   0.0185185
        k(   48) = (  -0.3333333   0.0000000   0.1666667), wk =   0.0185185
        k(   49) = (   0.3333333  -0.3333333   0.1666667), wk =   0.0185185
        k(   50) = (   0.0000000  -0.3333333   0.3333333), wk =   0.0185185
        k(   51) = (  -0.3333333   0.3333333   0.3333333), wk =   0.0185185
        k(   52) = (   0.3333333  -0.0000000   0.3333333), wk =   0.0185185
        k(   53) = (  -0.3333333   0.0000000   0.3333333), wk =   0.0185185
        k(   54) = (   0.3333333  -0.3333333   0.3333333), wk =   0.0185185
        k(   55) = (  -0.3333333   0.3333333  -0.5000000), wk =   0.0185185
        k(   56) = (   0.3333333  -0.0000000  -0.5000000), wk =   0.0185185
        k(   57) = (   0.5000000  -0.5000000   0.0000000), wk =   0.0092593
        k(   58) = (  -0.5000000   0.0000000   0.0000000), wk =   0.0092593
        k(   59) = (   0.5000000  -0.5000000   0.1666667), wk =   0.0185185
        k(   60) = (  -0.5000000   0.0000000   0.1666667), wk =   0.0185185
        k(   61) = (   0.5000000  -0.5000000   0.3333333), wk =   0.0185185
        k(   62) = (  -0.5000000   0.0000000   0.3333333), wk =   0.0185185
        k(   63) = (   0.5000000  -0.5000000  -0.5000000), wk =   0.0092593
        k(   64) = (  -0.5000000   0.0000000  -0.5000000), wk =   0.0092593
        k(   65) = (  -0.1666667   0.3333333   0.0000000), wk =   0.0185185
        k(   66) = (   0.3333333  -0.1666667   0.0000000), wk =   0.0185185
        k(   67) = (  -0.1666667  -0.1666667   0.1666667), wk =   0.0185185
        k(   68) = (  -0.1666667   0.3333333  -0.1666667), wk =   0.0185185
        k(   69) = (   0.1666667  -0.3333333  -0.1666667), wk =   0.0185185
        k(   70) = (   0.3333333  -0.1666667   0.1666667), wk =   0.0185185
        k(   71) = (  -0.3333333   0.1666667   0.1666667), wk =   0.0185185
        k(   72) = (  -0.1666667  -0.1666667   0.3333333), wk =   0.0185185
        k(   73) = (  -0.1666667   0.3333333  -0.3333333), wk =   0.0185185
        k(   74) = (   0.1666667  -0.3333333  -0.3333333), wk =   0.0185185
        k(   75) = (   0.3333333  -0.1666667   0.3333333), wk =   0.0185185
        k(   76) = (  -0.3333333   0.1666667   0.3333333), wk =   0.0185185
        k(   77) = (  -0.1666667   0.3333333   0.5000000), wk =   0.0185185
        k(   78) = (   0.3333333  -0.1666667  -0.5000000), wk =   0.0185185
        k(   79) = (  -0.1666667   0.5000000   0.0000000), wk =   0.0185185
        k(   80) = (  -0.3333333   0.5000000   0.0000000), wk =   0.0185185
        k(   81) = (   0.5000000  -0.1666667   0.0000000), wk =   0.0185185
        k(   82) = (  -0.3333333  -0.1666667   0.0000000), wk =   0.0185185
        k(   83) = (   0.5000000  -0.3333333   0.0000000), wk =   0.0185185
        k(   84) = (  -0.1666667  -0.3333333   0.1666667), wk =   0.0185185
        k(   85) = (  -0.1666667   0.5000000  -0.1666667), wk =   0.0185185
        k(   86) = (   0.1666667  -0.5000000  -0.1666667), wk =   0.0185185
        k(   87) = (  -0.3333333   0.5000000   0.1666667), wk =   0.0185185
        k(   88) = (   0.5000000  -0.1666667   0.1666667), wk =   0.0185185
        k(   89) = (  -0.5000000   0.1666667   0.1666667), wk =   0.0185185
        k(   90) = (   0.3333333  -0.5000000   0.1666667), wk =   0.0185185
        k(   91) = (  -0.3333333  -0.1666667  -0.1666667), wk =   0.0185185
        k(   92) = (   0.5000000  -0.3333333  -0.1666667), wk =   0.0185185
        k(   93) = (  -0.5000000   0.3333333  -0.1666667), wk =   0.0185185
        k(   94) = (   0.3333333   0.1666667  -0.1666667), wk =   0.0185185
        k(   95) = (  -0.1666667  -0.3333333   0.3333333), wk =   0.0185185
        k(   96) = (  -0.1666667   0.5000000  -0.3333333), wk =   0.0185185
        k(   97) = (   0.1666667  -0.5000000  -0.3333333), wk =   0.0185185
        k(   98) = (  -0.3333333   0.5000000   0.3333333), wk =   0.0185185
        k(   99) = (   0.5000000  -0.1666667   0.3333333), wk =   0.0185185
        k(  100) = (  -0.5000000   0.1666667   0.3333333), wk =   0.0185185
        k(  101) = (   0.3333333  -0.5000000   0.3333333), wk =   0.0185185
        k(  102) = (  -0.3333333  -0.1666667  -0.3333333), wk =   0.0185185
        k(  103) = (   0.5000000  -0.3333333  -0.3333333), wk =   0.0185185
        k(  104) = (  -0.5000000   0.3333333  -0.3333333), wk =   0.0185185
        k(  105) = (   0.3333333   0.1666667  -0.3333333), wk =   0.0185185
        k(  106) = (  -0.1666667   0.5000000   0.5000000), wk =   0.0185185
        k(  107) = (  -0.3333333   0.5000000  -0.5000000), wk =   0.0185185
        k(  108) = (   0.5000000  -0.1666667  -0.5000000), wk =   0.0185185
        k(  109) = (  -0.3333333  -0.1666667   0.5000000), wk =   0.0185185
        k(  110) = (   0.5000000  -0.3333333   0.5000000), wk =   0.0185185
        k(  111) = (  -0.3333333  -0.3333333   0.1666667), wk =   0.0185185
        k(  112) = (  -0.3333333  -0.3333333   0.3333333), wk =   0.0185185

     Dense  grid:   130867 G-vectors     FFT dimensions: (  40,  40, 192)

     Smooth grid:    46177 G-vectors     FFT dimensions: (  27,  27, 135)

     Dynamical RAM for                 wfc:       2.38 MB

     Dynamical RAM for     wfc (w. buffer):      35.77 MB

     Dynamical RAM for           str. fact:       2.00 MB

     Dynamical RAM for           local pot:       0.00 MB

     Dynamical RAM for          nlocal pot:       6.89 MB

     Dynamical RAM for                qrad:       3.21 MB

     Dynamical RAM for          rho,v,vnew:       6.51 MB

     Dynamical RAM for               rhoin:       2.17 MB

     Dynamical RAM for            rho*nmix:      15.97 MB

     Dynamical RAM for           G-vectors:       3.92 MB

     Dynamical RAM for          h,s,v(r/c):       0.53 MB

     Dynamical RAM for          <psi|beta>:       0.13 MB

     Dynamical RAM for                 psi:       4.77 MB

     Dynamical RAM for                hpsi:       4.77 MB

     Dynamical RAM for                spsi:       4.77 MB

     Dynamical RAM for      wfcinit/wfcrot:       7.03 MB

     Dynamical RAM for           addusdens:      24.84 MB

     Dynamical RAM for          addusforce:      25.73 MB

     Estimated static dynamical RAM per process >      69.32 MB

     Estimated max dynamical RAM per process >     111.03 MB

     Estimated total dynamical RAM >       1.52 GB

     Check: negative core charge=   -0.000002

     Initial potential from superposition of free atoms

     starting charge     107.9776, renormalised to     108.0000
     Starting wfcs are   78 randomized atomic wfcs

     total cpu time spent up to now is        7.1 secs

     per-process dynamical memory:    87.9 Mb

     Self-consistent Calculation

     iteration #  1     ecut=    50.00 Ry     beta= 0.30
     Davidson diagonalization with overlap

---- Real-time Memory Report at c_bands before calling an iterative solver
           112 MiB given to the printing process from OS
            85 MiB allocation reported by mallinfo(arena+hblkhd)
        104174 MiB available memory on the node where the printing process lives
------------------
     ethr =  1.00E-02,  avg # of iterations =  2.0

     total cpu time spent up to now is       15.4 secs

     total energy              =   -1084.17109379 Ry
     estimated scf accuracy    <       2.34907980 Ry

     iteration #  2     ecut=    50.00 Ry     beta= 0.30
     Davidson diagonalization with overlap

---- Real-time Memory Report at c_bands before calling an iterative solver
           135 MiB given to the printing process from OS
           107 MiB allocation reported by mallinfo(arena+hblkhd)
        103885 MiB available memory on the node where the printing process lives
------------------
     ethr =  2.18E-03,  avg # of iterations =  2.2

     total cpu time spent up to now is       26.3 secs

     total energy              =   -1084.49119989 Ry
     estimated scf accuracy    <       0.29378328 Ry

     iteration #  3     ecut=    50.00 Ry     beta= 0.30
     Davidson diagonalization with overlap

---- Real-time Memory Report at c_bands before calling an iterative solver
           136 MiB given to the printing process from OS
           108 MiB allocation reported by mallinfo(arena+hblkhd)
        103911 MiB available memory on the node where the printing process lives
------------------
     c_bands:  4 eigenvalues not converged
     ethr =  2.72E-04,  avg # of iterations = 10.5

     total cpu time spent up to now is       53.4 secs

     total energy              =   -1084.85471267 Ry
     estimated scf accuracy    <       0.99459484 Ry

     iteration #  4     ecut=    50.00 Ry     beta= 0.30
     Davidson diagonalization with overlap

---- Real-time Memory Report at c_bands before calling an iterative solver
           137 MiB given to the printing process from OS
           109 MiB allocation reported by mallinfo(arena+hblkhd)
        103914 MiB available memory on the node where the printing process lives
------------------
     ethr =  2.72E-04,  avg # of iterations =  1.3

     total cpu time spent up to now is       61.4 secs

     total energy              =   -1084.67801121 Ry
     estimated scf accuracy    <       1.08174830 Ry

     iteration #  5     ecut=    50.00 Ry     beta= 0.30
     Davidson diagonalization with overlap

---- Real-time Memory Report at c_bands before calling an iterative solver
           138 MiB given to the printing process from OS
           110 MiB allocation reported by mallinfo(arena+hblkhd)
        103906 MiB available memory on the node where the printing process lives
------------------
     ethr =  2.72E-04,  avg # of iterations =  6.3

     total cpu time spent up to now is       75.8 secs

     total energy              =   -1084.65324788 Ry
     estimated scf accuracy    <       0.30825883 Ry

     iteration #  6     ecut=    50.00 Ry     beta= 0.30
     Davidson diagonalization with overlap

---- Real-time Memory Report at c_bands before calling an iterative solver
           139 MiB given to the printing process from OS
           110 MiB allocation reported by mallinfo(arena+hblkhd)
        103911 MiB available memory on the node where the printing process lives
------------------
     ethr =  2.72E-04,  avg # of iterations =  6.2

     total cpu time spent up to now is       90.4 secs

     total energy              =   -1084.78169611 Ry
     estimated scf accuracy    <       0.47029193 Ry

     iteration #  7     ecut=    50.00 Ry     beta= 0.30
     Davidson diagonalization with overlap

---- Real-time Memory Report at c_bands before calling an iterative solver
           139 MiB given to the printing process from OS
           111 MiB allocation reported by mallinfo(arena+hblkhd)
        103910 MiB available memory on the node where the printing process lives
------------------
     ethr =  2.72E-04,  avg # of iterations =  1.8

     total cpu time spent up to now is       98.7 secs

     total energy              =   -1084.71638385 Ry
     estimated scf accuracy    <       0.43162331 Ry

     iteration #  8     ecut=    50.00 Ry     beta= 0.30
     Davidson diagonalization with overlap

---- Real-time Memory Report at c_bands before calling an iterative solver
           140 MiB given to the printing process from OS
           112 MiB allocation reported by mallinfo(arena+hblkhd)
        103910 MiB available memory on the node where the printing process lives
------------------
     ethr =  2.72E-04,  avg # of iterations =  2.5

     total cpu time spent up to now is      108.4 secs

     total energy              =   -1084.68690745 Ry
     estimated scf accuracy    <       0.20613065 Ry

     iteration #  9     ecut=    50.00 Ry     beta= 0.30
     Davidson diagonalization with overlap

---- Real-time Memory Report at c_bands before calling an iterative solver
           141 MiB given to the printing process from OS
           113 MiB allocation reported by mallinfo(arena+hblkhd)
        103907 MiB available memory on the node where the printing process lives
------------------
     ethr =  1.91E-04,  avg # of iterations =  4.1

     total cpu time spent up to now is      120.5 secs

     total energy              =   -1084.70670806 Ry
     estimated scf accuracy    <       0.05096671 Ry

     iteration # 10     ecut=    50.00 Ry     beta= 0.30
     Davidson diagonalization with overlap

---- Real-time Memory Report at c_bands before calling an iterative solver
           142 MiB given to the printing process from OS
           113 MiB allocation reported by mallinfo(arena+hblkhd)
        103907 MiB available memory on the node where the printing process lives
------------------
     ethr =  4.72E-05,  avg # of iterations =  5.5

     total cpu time spent up to now is      133.0 secs

     total energy              =   -1084.71305479 Ry
     estimated scf accuracy    <       0.03703140 Ry

     iteration # 11     ecut=    50.00 Ry     beta= 0.30
     Davidson diagonalization with overlap

---- Real-time Memory Report at c_bands before calling an iterative solver
           142 MiB given to the printing process from OS
           113 MiB allocation reported by mallinfo(arena+hblkhd)
        103907 MiB available memory on the node where the printing process lives
------------------
     ethr =  3.43E-05,  avg # of iterations =  2.1

     total cpu time spent up to now is      142.3 secs

     total energy              =   -1084.71218494 Ry
     estimated scf accuracy    <       0.02810772 Ry

     iteration # 12     ecut=    50.00 Ry     beta= 0.30
     Davidson diagonalization with overlap

---- Real-time Memory Report at c_bands before calling an iterative solver
           142 MiB given to the printing process from OS
           113 MiB allocation reported by mallinfo(arena+hblkhd)
        103907 MiB available memory on the node where the printing process lives
------------------
     c_bands:  2 eigenvalues not converged
     ethr =  2.60E-05,  avg # of iterations =  7.7

     total cpu time spent up to now is      158.5 secs

     total energy              =   -1084.69052464 Ry
     estimated scf accuracy    <       0.11418037 Ry

     iteration # 13     ecut=    50.00 Ry     beta= 0.30
     Davidson diagonalization with overlap

---- Real-time Memory Report at c_bands before calling an iterative solver
           142 MiB given to the printing process from OS
           113 MiB allocation reported by mallinfo(arena+hblkhd)
        103907 MiB available memory on the node where the printing process lives
------------------
     c_bands:  1 eigenvalues not converged
     c_bands:  1 eigenvalues not converged
     c_bands:  1 eigenvalues not converged
     ethr =  2.60E-05,  avg # of iterations =  7.8

     total cpu time spent up to now is      175.0 secs

     total energy              =   -1084.71720669 Ry
     estimated scf accuracy    <       0.03171762 Ry

     iteration # 14     ecut=    50.00 Ry     beta= 0.30
     Davidson diagonalization with overlap

---- Real-time Memory Report at c_bands before calling an iterative solver
           142 MiB given to the printing process from OS
           113 MiB allocation reported by mallinfo(arena+hblkhd)
        103907 MiB available memory on the node where the printing process lives
------------------
     ethr =  2.60E-05,  avg # of iterations =  1.4

     total cpu time spent up to now is      183.6 secs

     total energy              =   -1084.71858747 Ry
     estimated scf accuracy    <       0.03707447 Ry

     iteration # 15     ecut=    50.00 Ry     beta= 0.30
     Davidson diagonalization with overlap

---- Real-time Memory Report at c_bands before calling an iterative solver
           142 MiB given to the printing process from OS
           113 MiB allocation reported by mallinfo(arena+hblkhd)
        103907 MiB available memory on the node where the printing process lives
------------------
     ethr =  2.60E-05,  avg # of iterations =  1.0

     total cpu time spent up to now is      191.1 secs

     total energy              =   -1084.71910295 Ry
     estimated scf accuracy    <       0.03921729 Ry

     iteration # 16     ecut=    50.00 Ry     beta= 0.30
     Davidson diagonalization with overlap

---- Real-time Memory Report at c_bands before calling an iterative solver
           142 MiB given to the printing process from OS
           113 MiB allocation reported by mallinfo(arena+hblkhd)
        103907 MiB available memory on the node where the printing process lives
------------------
     ethr =  2.60E-05,  avg # of iterations =  1.0

     total cpu time spent up to now is      198.5 secs

     total energy              =   -1084.71714754 Ry
     estimated scf accuracy    <       0.04097810 Ry

     iteration # 17     ecut=    50.00 Ry     beta= 0.30
     Davidson diagonalization with overlap

---- Real-time Memory Report at c_bands before calling an iterative solver
           142 MiB given to the printing process from OS
           113 MiB allocation reported by mallinfo(arena+hblkhd)
        103907 MiB available memory on the node where the printing process lives
------------------
     ethr =  2.60E-05,  avg # of iterations =  1.0

     total cpu time spent up to now is      207.2 secs

     total energy              =   -1084.71178630 Ry
     estimated scf accuracy    <       0.03669918 Ry

     iteration # 18     ecut=    50.00 Ry     beta= 0.30
     Davidson diagonalization with overlap

---- Real-time Memory Report at c_bands before calling an iterative solver
           142 MiB given to the printing process from OS
           113 MiB allocation reported by mallinfo(arena+hblkhd)
        103907 MiB available memory on the node where the printing process lives
------------------
     ethr =  2.60E-05,  avg # of iterations =  2.0

     total cpu time spent up to now is      215.9 secs

     total energy              =   -1084.70531552 Ry
     estimated scf accuracy    <       0.02552556 Ry

     iteration # 19     ecut=    50.00 Ry     beta= 0.30
     Davidson diagonalization with overlap

---- Real-time Memory Report at c_bands before calling an iterative solver
           142 MiB given to the printing process from OS
           113 MiB allocation reported by mallinfo(arena+hblkhd)
        103907 MiB available memory on the node where the printing process lives
------------------
     c_bands:  1 eigenvalues not converged
     ethr =  2.36E-05,  avg # of iterations =  5.9

     total cpu time spent up to now is      229.0 secs

     total energy              =   -1084.70807530 Ry
     estimated scf accuracy    <       0.01439407 Ry

     iteration # 20     ecut=    50.00 Ry     beta= 0.30
     Davidson diagonalization with overlap

---- Real-time Memory Report at c_bands before calling an iterative solver
           142 MiB given to the printing process from OS
           113 MiB allocation reported by mallinfo(arena+hblkhd)
        103907 MiB available memory on the node where the printing process lives
------------------
     ethr =  1.33E-05,  avg # of iterations =  2.9

     total cpu time spent up to now is      239.2 secs

     total energy              =   -1084.70876754 Ry
     estimated scf accuracy    <       0.00400073 Ry

     iteration # 21     ecut=    50.00 Ry     beta= 0.30
     Davidson diagonalization with overlap

---- Real-time Memory Report at c_bands before calling an iterative solver
           142 MiB given to the printing process from OS
           113 MiB allocation reported by mallinfo(arena+hblkhd)
        103907 MiB available memory on the node where the printing process lives
------------------
     c_bands:  2 eigenvalues not converged
     ethr =  3.70E-06,  avg # of iterations =  6.4

     total cpu time spent up to now is      254.8 secs

     total energy              =   -1084.71024267 Ry
     estimated scf accuracy    <       0.00095968 Ry

     iteration # 22     ecut=    50.00 Ry     beta= 0.30
     Davidson diagonalization with overlap

---- Real-time Memory Report at c_bands before calling an iterative solver
           142 MiB given to the printing process from OS
           113 MiB allocation reported by mallinfo(arena+hblkhd)
        103907 MiB available memory on the node where the printing process lives
------------------
     c_bands:  1 eigenvalues not converged
     c_bands:  5 eigenvalues not converged
     c_bands:  1 eigenvalues not converged
     ethr =  8.89E-07,  avg # of iterations =  7.5

     total cpu time spent up to now is      270.8 secs

     total energy              =   -1084.71016404 Ry
     estimated scf accuracy    <       0.00180375 Ry

     iteration # 23     ecut=    50.00 Ry     beta= 0.30
     Davidson diagonalization with overlap

---- Real-time Memory Report at c_bands before calling an iterative solver
           142 MiB given to the printing process from OS
           113 MiB allocation reported by mallinfo(arena+hblkhd)
        103907 MiB available memory on the node where the printing process lives
------------------
     c_bands:  2 eigenvalues not converged
     c_bands:  1 eigenvalues not converged
     ethr =  8.89E-07,  avg # of iterations =  7.2

     total cpu time spent up to now is      286.9 secs

     total energy              =   -1084.71050650 Ry
     estimated scf accuracy    <       0.00064774 Ry

     iteration # 24     ecut=    50.00 Ry     beta= 0.30
     Davidson diagonalization with overlap

---- Real-time Memory Report at c_bands before calling an iterative solver
           142 MiB given to the printing process from OS
           113 MiB allocation reported by mallinfo(arena+hblkhd)
        103907 MiB available memory on the node where the printing process lives
------------------
     c_bands:  2 eigenvalues not converged
     c_bands:  2 eigenvalues not converged
     ethr =  6.00E-07,  avg # of iterations =  6.7

     total cpu time spent up to now is      301.1 secs

     total energy              =   -1084.71036446 Ry
     estimated scf accuracy    <       0.00175242 Ry

     iteration # 25     ecut=    50.00 Ry     beta= 0.30
     Davidson diagonalization with overlap

---- Real-time Memory Report at c_bands before calling an iterative solver
           142 MiB given to the printing process from OS
           113 MiB allocation reported by mallinfo(arena+hblkhd)
        103906 MiB available memory on the node where the printing process lives
------------------
     ethr =  6.00E-07,  avg # of iterations =  2.7

     total cpu time spent up to now is      311.3 secs

     total energy              =   -1084.71033058 Ry
     estimated scf accuracy    <       0.00091063 Ry

     iteration # 26     ecut=    50.00 Ry     beta= 0.30
     Davidson diagonalization with overlap

---- Real-time Memory Report at c_bands before calling an iterative solver
           142 MiB given to the printing process from OS
           113 MiB allocation reported by mallinfo(arena+hblkhd)
        103906 MiB available memory on the node where the printing process lives
------------------
     ethr =  6.00E-07,  avg # of iterations =  2.0

     total cpu time spent up to now is      320.1 secs

     total energy              =   -1084.71030614 Ry
     estimated scf accuracy    <       0.00060426 Ry

     iteration # 27     ecut=    50.00 Ry     beta= 0.30
     Davidson diagonalization with overlap

---- Real-time Memory Report at c_bands before calling an iterative solver
           142 MiB given to the printing process from OS
           113 MiB allocation reported by mallinfo(arena+hblkhd)
        103906 MiB available memory on the node where the printing process lives
------------------
     c_bands:  1 eigenvalues not converged
     ethr =  5.59E-07,  avg # of iterations =  3.2

     total cpu time spent up to now is      331.9 secs

     total energy              =   -1084.71032577 Ry
     estimated scf accuracy    <       0.00026082 Ry

     iteration # 28     ecut=    50.00 Ry     beta= 0.30
     Davidson diagonalization with overlap

---- Real-time Memory Report at c_bands before calling an iterative solver
           142 MiB given to the printing process from OS
           113 MiB allocation reported by mallinfo(arena+hblkhd)
        103906 MiB available memory on the node where the printing process lives
------------------
     c_bands:  2 eigenvalues not converged
     ethr =  2.41E-07,  avg # of iterations =  4.1

     total cpu time spent up to now is      343.5 secs

     total energy              =   -1084.71034609 Ry
     estimated scf accuracy    <       0.00008591 Ry

     iteration # 29     ecut=    50.00 Ry     beta= 0.30
     Davidson diagonalization with overlap

---- Real-time Memory Report at c_bands before calling an iterative solver
           142 MiB given to the printing process from OS
           113 MiB allocation reported by mallinfo(arena+hblkhd)
        103906 MiB available memory on the node where the printing process lives
------------------
     c_bands:  1 eigenvalues not converged
     c_bands:  2 eigenvalues not converged
     ethr =  7.95E-08,  avg # of iterations =  4.0

     total cpu time spent up to now is      355.4 secs

     total energy              =   -1084.71034419 Ry
     estimated scf accuracy    <       0.00003265 Ry

     iteration # 30     ecut=    50.00 Ry     beta= 0.30
     Davidson diagonalization with overlap

---- Real-time Memory Report at c_bands before calling an iterative solver
           142 MiB given to the printing process from OS
           113 MiB allocation reported by mallinfo(arena+hblkhd)
        103906 MiB available memory on the node where the printing process lives
------------------
     c_bands:  2 eigenvalues not converged
     c_bands:  2 eigenvalues not converged
     ethr =  3.02E-08,  avg # of iterations =  7.0

     total cpu time spent up to now is      371.7 secs

     total energy              =   -1084.71035963 Ry
     estimated scf accuracy    <       0.00000668 Ry

     iteration # 31     ecut=    50.00 Ry     beta= 0.30
     Davidson diagonalization with overlap

---- Real-time Memory Report at c_bands before calling an iterative solver
           142 MiB given to the printing process from OS
           113 MiB allocation reported by mallinfo(arena+hblkhd)
        103907 MiB available memory on the node where the printing process lives
------------------
     ethr =  6.19E-09,  avg # of iterations =  2.8

     total cpu time spent up to now is      381.8 secs

     total energy              =   -1084.71035768 Ry
     estimated scf accuracy    <       0.00000475 Ry

     iteration # 32     ecut=    50.00 Ry     beta= 0.30
     Davidson diagonalization with overlap

---- Real-time Memory Report at c_bands before calling an iterative solver
           142 MiB given to the printing process from OS
           113 MiB allocation reported by mallinfo(arena+hblkhd)
        103907 MiB available memory on the node where the printing process lives
------------------
     c_bands:  1 eigenvalues not converged
     c_bands:  1 eigenvalues not converged
     c_bands:  2 eigenvalues not converged
     ethr =  4.39E-09,  avg # of iterations =  7.7

     total cpu time spent up to now is      401.1 secs

     total energy              =   -1084.71035890 Ry
     estimated scf accuracy    <       0.00000567 Ry

     iteration # 33     ecut=    50.00 Ry     beta= 0.30
     Davidson diagonalization with overlap

---- Real-time Memory Report at c_bands before calling an iterative solver
           142 MiB given to the printing process from OS
           113 MiB allocation reported by mallinfo(arena+hblkhd)
        103906 MiB available memory on the node where the printing process lives
------------------
     ethr =  4.39E-09,  avg # of iterations =  5.3

     total cpu time spent up to now is      413.5 secs

     total energy              =   -1084.71035943 Ry
     estimated scf accuracy    <       0.00000045 Ry

     iteration # 34     ecut=    50.00 Ry     beta= 0.30
     Davidson diagonalization with overlap

---- Real-time Memory Report at c_bands before calling an iterative solver
           142 MiB given to the printing process from OS
           113 MiB allocation reported by mallinfo(arena+hblkhd)
        103907 MiB available memory on the node where the printing process lives
------------------
     c_bands:  2 eigenvalues not converged
     c_bands:  1 eigenvalues not converged
     c_bands:  2 eigenvalues not converged
     ethr =  4.17E-10,  avg # of iterations =  9.2

     total cpu time spent up to now is      433.8 secs

     total energy              =   -1084.71035978 Ry
     estimated scf accuracy    <       0.00000046 Ry

     iteration # 35     ecut=    50.00 Ry     beta= 0.30
     Davidson diagonalization with overlap

---- Real-time Memory Report at c_bands before calling an iterative solver
           142 MiB given to the printing process from OS
           113 MiB allocation reported by mallinfo(arena+hblkhd)
        103907 MiB available memory on the node where the printing process lives
------------------
     ethr =  4.17E-10,  avg # of iterations =  3.8

     total cpu time spent up to now is      445.7 secs

     total energy              =   -1084.71035978 Ry
     estimated scf accuracy    <       0.00000012 Ry

     iteration # 36     ecut=    50.00 Ry     beta= 0.30
     Davidson diagonalization with overlap

---- Real-time Memory Report at c_bands before calling an iterative solver
           142 MiB given to the printing process from OS
           113 MiB allocation reported by mallinfo(arena+hblkhd)
        103907 MiB available memory on the node where the printing process lives
------------------
     c_bands:  1 eigenvalues not converged
     c_bands:  2 eigenvalues not converged
     ethr =  1.09E-10,  avg # of iterations =  7.6

     total cpu time spent up to now is      463.8 secs

     total energy              =   -1084.71035984 Ry
     estimated scf accuracy    <       0.00000022 Ry

     iteration # 37     ecut=    50.00 Ry     beta= 0.30
     Davidson diagonalization with overlap

---- Real-time Memory Report at c_bands before calling an iterative solver
           142 MiB given to the printing process from OS
           113 MiB allocation reported by mallinfo(arena+hblkhd)
        103907 MiB available memory on the node where the printing process lives
------------------
     c_bands:  2 eigenvalues not converged
     ethr =  1.09E-10,  avg # of iterations =  1.6

     total cpu time spent up to now is      472.4 secs

     total energy              =   -1084.71035978 Ry
     estimated scf accuracy    <       0.00000013 Ry

     iteration # 38     ecut=    50.00 Ry     beta= 0.30
     Davidson diagonalization with overlap

---- Real-time Memory Report at c_bands before calling an iterative solver
           142 MiB given to the printing process from OS
           113 MiB allocation reported by mallinfo(arena+hblkhd)
        103907 MiB available memory on the node where the printing process lives
------------------
     c_bands:  1 eigenvalues not converged
     c_bands:  3 eigenvalues not converged
     c_bands:  2 eigenvalues not converged
     ethr =  1.09E-10,  avg # of iterations =  7.6

     total cpu time spent up to now is      489.6 secs

     total energy              =   -1084.71035984 Ry
     estimated scf accuracy    <       0.00000004 Ry

     iteration # 39     ecut=    50.00 Ry     beta= 0.30
     Davidson diagonalization with overlap

---- Real-time Memory Report at c_bands before calling an iterative solver
           142 MiB given to the printing process from OS
           113 MiB allocation reported by mallinfo(arena+hblkhd)
        103907 MiB available memory on the node where the printing process lives
------------------
     c_bands:  1 eigenvalues not converged
     ethr =  3.97E-11,  avg # of iterations =  2.3

     total cpu time spent up to now is      498.8 secs

     total energy              =   -1084.71035984 Ry
     estimated scf accuracy    <       0.00000005 Ry

     iteration # 40     ecut=    50.00 Ry     beta= 0.30
     Davidson diagonalization with overlap

---- Real-time Memory Report at c_bands before calling an iterative solver
           142 MiB given to the printing process from OS
           113 MiB allocation reported by mallinfo(arena+hblkhd)
        103907 MiB available memory on the node where the printing process lives
------------------
     ethr =  3.97E-11,  avg # of iterations =  1.2

     total cpu time spent up to now is      506.6 secs

     total energy              =   -1084.71035985 Ry
     estimated scf accuracy    <       0.00000006 Ry

     iteration # 41     ecut=    50.00 Ry     beta= 0.30
     Davidson diagonalization with overlap

---- Real-time Memory Report at c_bands before calling an iterative solver
           142 MiB given to the printing process from OS
           113 MiB allocation reported by mallinfo(arena+hblkhd)
        103907 MiB available memory on the node where the printing process lives
------------------
     c_bands:  1 eigenvalues not converged
     ethr =  3.97E-11,  avg # of iterations =  1.3

     total cpu time spent up to now is      514.7 secs

     total energy              =   -1084.71035985 Ry
     estimated scf accuracy    <       0.00000008 Ry

     iteration # 42     ecut=    50.00 Ry     beta= 0.30
     Davidson diagonalization with overlap

---- Real-time Memory Report at c_bands before calling an iterative solver
           142 MiB given to the printing process from OS
           113 MiB allocation reported by mallinfo(arena+hblkhd)
        103907 MiB available memory on the node where the printing process lives
------------------
     ethr =  3.97E-11,  avg # of iterations =  1.1

     total cpu time spent up to now is      522.3 secs

     total energy              =   -1084.71035984 Ry
     estimated scf accuracy    <       0.00000008 Ry

     iteration # 43     ecut=    50.00 Ry     beta= 0.30
     Davidson diagonalization with overlap

---- Real-time Memory Report at c_bands before calling an iterative solver
           142 MiB given to the printing process from OS
           113 MiB allocation reported by mallinfo(arena+hblkhd)
        103907 MiB available memory on the node where the printing process lives
------------------
     c_bands:  2 eigenvalues not converged
     ethr =  3.97E-11,  avg # of iterations =  1.2

     total cpu time spent up to now is      530.6 secs

     total energy              =   -1084.71035984 Ry
     estimated scf accuracy    <       0.00000007 Ry

     iteration # 44     ecut=    50.00 Ry     beta= 0.30
     Davidson diagonalization with overlap

---- Real-time Memory Report at c_bands before calling an iterative solver
           142 MiB given to the printing process from OS
           113 MiB allocation reported by mallinfo(arena+hblkhd)
        103907 MiB available memory on the node where the printing process lives
------------------
     ethr =  3.97E-11,  avg # of iterations =  3.8

     total cpu time spent up to now is      542.8 secs

     total energy              =   -1084.71035984 Ry
     estimated scf accuracy    <       0.00000007 Ry

     iteration # 45     ecut=    50.00 Ry     beta= 0.30
     Davidson diagonalization with overlap

---- Real-time Memory Report at c_bands before calling an iterative solver
           142 MiB given to the printing process from OS
           113 MiB allocation reported by mallinfo(arena+hblkhd)
        103907 MiB available memory on the node where the printing process lives
------------------
     ethr =  3.97E-11,  avg # of iterations =  1.2

     total cpu time spent up to now is      550.7 secs

     total energy              =   -1084.71035982 Ry
     estimated scf accuracy    <       0.00000005 Ry

     iteration # 46     ecut=    50.00 Ry     beta= 0.30
     Davidson diagonalization with overlap

---- Real-time Memory Report at c_bands before calling an iterative solver
           142 MiB given to the printing process from OS
           113 MiB allocation reported by mallinfo(arena+hblkhd)
        103907 MiB available memory on the node where the printing process lives
------------------
     c_bands:  1 eigenvalues not converged
     c_bands:  2 eigenvalues not converged
     c_bands:  2 eigenvalues not converged
     ethr =  3.97E-11,  avg # of iterations =  7.1

     total cpu time spent up to now is      567.1 secs

     total energy              =   -1084.71035982 Ry
     estimated scf accuracy    <       0.00000003 Ry

     iteration # 47     ecut=    50.00 Ry     beta= 0.30
     Davidson diagonalization with overlap

---- Real-time Memory Report at c_bands before calling an iterative solver
           142 MiB given to the printing process from OS
           113 MiB allocation reported by mallinfo(arena+hblkhd)
        103907 MiB available memory on the node where the printing process lives
------------------
     c_bands:  1 eigenvalues not converged
     c_bands:  2 eigenvalues not converged
     ethr =  2.93E-11,  avg # of iterations =  7.8

     total cpu time spent up to now is      584.2 secs

     total energy              =   -1084.71035983 Ry
     estimated scf accuracy    <       0.00000003 Ry

     iteration # 48     ecut=    50.00 Ry     beta= 0.30
     Davidson diagonalization with overlap

---- Real-time Memory Report at c_bands before calling an iterative solver
           142 MiB given to the printing process from OS
           113 MiB allocation reported by mallinfo(arena+hblkhd)
        103907 MiB available memory on the node where the printing process lives
------------------
     c_bands:  2 eigenvalues not converged
     c_bands:  1 eigenvalues not converged
     ethr =  2.52E-11,  avg # of iterations =  6.4

     total cpu time spent up to now is      598.0 secs

     total energy              =   -1084.71035984 Ry
     estimated scf accuracy    <       0.00000005 Ry

     iteration # 49     ecut=    50.00 Ry     beta= 0.30
     Davidson diagonalization with overlap

---- Real-time Memory Report at c_bands before calling an iterative solver
           142 MiB given to the printing process from OS
           113 MiB allocation reported by mallinfo(arena+hblkhd)
        103898 MiB available memory on the node where the printing process lives
------------------
     c_bands:  2 eigenvalues not converged
     ethr =  2.52E-11,  avg # of iterations =  1.5

     total cpu time spent up to now is      606.6 secs

     total energy              =   -1084.71035984 Ry
     estimated scf accuracy    <       0.00000004 Ry

     iteration # 50     ecut=    50.00 Ry     beta= 0.30
     Davidson diagonalization with overlap

---- Real-time Memory Report at c_bands before calling an iterative solver
           142 MiB given to the printing process from OS
           113 MiB allocation reported by mallinfo(arena+hblkhd)
        103898 MiB available memory on the node where the printing process lives
------------------
     ethr =  2.52E-11,  avg # of iterations =  1.1

     total cpu time spent up to now is      615.2 secs

     total energy              =   -1084.71035983 Ry
     estimated scf accuracy    <       0.00000004 Ry

     iteration # 51     ecut=    50.00 Ry     beta= 0.30
     Davidson diagonalization with overlap

---- Real-time Memory Report at c_bands before calling an iterative solver
           142 MiB given to the printing process from OS
           113 MiB allocation reported by mallinfo(arena+hblkhd)
        103898 MiB available memory on the node where the printing process lives
------------------
     ethr =  2.52E-11,  avg # of iterations =  3.2

     total cpu time spent up to now is      627.1 secs

     total energy              =   -1084.71035983 Ry
     estimated scf accuracy    <       0.00000002 Ry

     iteration # 52     ecut=    50.00 Ry     beta= 0.30
     Davidson diagonalization with overlap

---- Real-time Memory Report at c_bands before calling an iterative solver
           142 MiB given to the printing process from OS
           113 MiB allocation reported by mallinfo(arena+hblkhd)
        103898 MiB available memory on the node where the printing process lives
------------------
     ethr =  1.49E-11,  avg # of iterations =  2.4

     total cpu time spent up to now is      636.1 secs

     total energy              =   -1084.71035983 Ry
     estimated scf accuracy    <       0.00000001 Ry

     iteration # 53     ecut=    50.00 Ry     beta= 0.30
     Davidson diagonalization with overlap

---- Real-time Memory Report at c_bands before calling an iterative solver
           142 MiB given to the printing process from OS
           113 MiB allocation reported by mallinfo(arena+hblkhd)
        103898 MiB available memory on the node where the printing process lives
------------------
     ethr =  1.18E-11,  avg # of iterations =  4.3

     total cpu time spent up to now is      647.0 secs

     End of self-consistent calculation

          k = 0.0000 0.0000 0.0000 (  5689 PWs)   bands (ev):

   -12.8426 -11.3073 -10.6366 -10.0342  -9.5508  -9.2642  -0.6984  -0.4768
    -0.3297   0.4559   0.7057   0.8356   0.9057   1.1617   1.2179   1.5047
     1.6508   1.6748   1.7453   1.8071   1.8910   2.0681   2.0878   2.1052
     2.1881   2.2554   2.2907   2.3542   2.5744   2.6614   2.7141   2.9593
     2.9833   3.3149   3.3391   3.7352   3.7570   4.0025   4.2803   4.8352
     4.9042   5.5560   5.9924   6.0210   6.6470   6.6945   6.7250   6.9831
     7.1523   7.3216   7.4399   7.5544   7.6429   7.9922

     occupation numbers 
     1.0000   1.0000   1.0000   1.0000   1.0000   1.0000   1.0000   1.0000
     1.0000   1.0000   1.0000   1.0000   1.0000   1.0000   1.0000   1.0000
     1.0000   1.0000   1.0000   1.0000   1.0000   1.0000   1.0000   1.0000
     1.0000   1.0000   1.0000   1.0000   1.0000   1.0000   1.0000   1.0000
     1.0000   1.0000   1.0000   1.0000   1.0000   1.0000   1.0000   1.0000
     1.0000   1.0000   1.0000   1.0000   1.0000   1.0000   1.0000   1.0000
     1.0000   1.0000   1.0000   1.0000   1.0000   1.0000

          k = 0.0000 0.0000 0.0351 (  5688 PWs)   bands (ev):

   -12.8426 -11.3073 -10.6366 -10.0343  -9.5508  -9.2643  -0.6983  -0.4768
    -0.3297   0.4559   0.7057   0.8356   0.9057   1.1624   1.2172   1.5096
     1.6485   1.6740   1.7456   1.8074   1.8853   2.0670   2.0895   2.1058
     2.1873   2.2552   2.2865   2.3491   2.5741   2.6601   2.7409   2.9619
     2.9842   3.3151   3.3392   3.7341   3.7566   3.9032   4.3973   4.8352
     4.9042   5.4589   5.9972   6.1144   6.6392   6.6934   6.7269   6.9824
     7.1415   7.2394   7.4099   7.5515   7.7679   7.9923

     occupation numbers 
     1.0000   1.0000   1.0000   1.0000   1.0000   1.0000   1.0000   1.0000
     1.0000   1.0000   1.0000   1.0000   1.0000   1.0000   1.0000   1.0000
     1.0000   1.0000   1.0000   1.0000   1.0000   1.0000   1.0000   1.0000
     1.0000   1.0000   1.0000   1.0000   1.0000   1.0000   1.0000   1.0000
     1.0000   1.0000   1.0000   1.0000   1.0000   1.0000   1.0000   1.0000
     1.0000   1.0000   1.0000   1.0000   1.0000   1.0000   1.0000   1.0000
     1.0000   1.0000   1.0000   1.0000   1.0000   1.0000

          k = 0.0000 0.0000 0.0702 (  5730 PWs)   bands (ev):

   -12.8426 -11.3073 -10.6365 -10.0344  -9.5506  -9.2643  -0.6984  -0.4769
    -0.3298   0.4558   0.7055   0.8354   0.9055   1.1636   1.2155   1.5204
     1.6426   1.6726   1.7461   1.8080   1.8737   2.0652   2.0919   2.1072
     2.1852   2.2543   2.2778   2.3422   2.5735   2.6591   2.7901   2.9680
     2.9880   3.3156   3.3391   3.7230   3.7530   3.7848   4.5767   4.8353
     4.9042   5.2896   5.9978   6.2917   6.6066   6.6917   6.7313   6.9767
     7.0505   7.1762   7.4016   7.5509   7.9203   7.9925

     occupation numbers 
     1.0000   1.0000   1.0000   1.0000   1.0000   1.0000   1.0000   1.0000
     1.0000   1.0000   1.0000   1.0000   1.0000   1.0000   1.0000   1.0000
     1.0000   1.0000   1.0000   1.0000   1.0000   1.0000   1.0000   1.0000
     1.0000   1.0000   1.0000   1.0000   1.0000   1.0000   1.0000   1.0000
     1.0000   1.0000   1.0000   1.0000   1.0000   1.0000   1.0000   1.0000
     1.0000   1.0000   1.0000   1.0000   1.0000   1.0000   1.0000   1.0000
     1.0000   1.0000   1.0000   1.0000   1.0000   1.0000

          k = 0.0000 0.0000-0.1053 (  5742 PWs)   bands (ev):

   -12.8427 -11.3073 -10.6365 -10.0345  -9.5505  -9.2644  -0.6985  -0.4769
    -0.3298   0.4558   0.7053   0.8354   0.9055   1.1642   1.2146   1.5264
     1.6388   1.6720   1.7464   1.8083   1.8677   2.0646   2.0929   2.1081
     2.1840   2.2538   2.2738   2.3398   2.5734   2.6588   2.8127   2.9713
     2.9927   3.3161   3.3392   3.6940   3.7467   3.7641   4.6712   4.8355
     4.9042   5.1969   5.9978   6.4086   6.5570   6.6911   6.7342   6.9552
     7.0034   7.1711   7.4003   7.5508   7.9669   7.9929

     occupation numbers 
     1.0000   1.0000   1.0000   1.0000   1.0000   1.0000   1.0000   1.0000
     1.0000   1.0000   1.0000   1.0000   1.0000   1.0000   1.0000   1.0000
     1.0000   1.0000   1.0000   1.0000   1.0000   1.0000   1.0000   1.0000
     1.0000   1.0000   1.0000   1.0000   1.0000   1.0000   1.0000   1.0000
     1.0000   1.0000   1.0000   1.0000   1.0000   1.0000   1.0000   1.0000
     1.0000   1.0000   1.0000   1.0000   1.0000   1.0000   1.0000   1.0000
     1.0000   1.0000   1.0000   1.0000   1.0000   1.0000

          k = 0.0000 0.1925 0.0000 (  5754 PWs)   bands (ev):

   -12.7406 -11.1715 -10.5071  -9.9392  -9.4613  -9.1800  -0.6227  -0.5098
    -0.2661   0.2943   0.7133   0.8332   0.9928   1.2031   1.3303   1.4823
     1.5975   1.6870   1.7532   1.8461   1.9632   2.0392   2.0703   2.1112
     2.1747   2.2481   2.3692   2.4663   2.6224   2.6672   2.9181   2.9561
     2.9961   3.3349   3.3516   3.7240   3.7496   3.9739   4.1218   4.5320
     4.6125   5.0098   5.4675   5.8924   5.9220   6.2489   6.4005   6.5175
     6.8594   6.9655   7.1413   7.1853   7.6871   7.7901

     occupation numbers 
     1.0000   1.0000   1.0000   1.0000   1.0000   1.0000   1.0000   1.0000
     1.0000   1.0000   1.0000   1.0000   1.0000   1.0000   1.0000   1.0000
     1.0000   1.0000   1.0000   1.0000   1.0000   1.0000   1.0000   1.0000
     1.0000   1.0000   1.0000   1.0000   1.0000   1.0000   1.0000   1.0000
     1.0000   1.0000   1.0000   1.0000   1.0000   1.0000   1.0000   1.0000
     1.0000   1.0000   1.0000   1.0000   1.0000   1.0000   1.0000   1.0000
     1.0000   1.0000   1.0000   1.0000   1.0000   1.0000

          k = 0.0000 0.1925 0.0351 (  5756 PWs)   bands (ev):

   -12.7406 -11.1715 -10.5070  -9.9393  -9.4613  -9.1800  -0.6227  -0.5098
    -0.2661   0.2943   0.7132   0.8331   0.9926   1.2033   1.3310   1.4833
     1.6007   1.6853   1.7535   1.8451   1.9510   2.0383   2.0749   2.1108
     2.1796   2.2465   2.3619   2.4822   2.6136   2.6670   2.9223   2.9529
     3.0057   3.3356   3.3540   3.7331   3.7496   3.9371   4.1103   4.5544
     4.6323   5.0160   5.4257   5.8997   5.9535   6.2382   6.3994   6.5157
     6.8542   6.9524   7.1489   7.1878   7.6968   7.7920

     occupation numbers 
     1.0000   1.0000   1.0000   1.0000   1.0000   1.0000   1.0000   1.0000
     1.0000   1.0000   1.0000   1.0000   1.0000   1.0000   1.0000   1.0000
     1.0000   1.0000   1.0000   1.0000   1.0000   1.0000   1.0000   1.0000
     1.0000   1.0000   1.0000   1.0000   1.0000   1.0000   1.0000   1.0000
     1.0000   1.0000   1.0000   1.0000   1.0000   1.0000   1.0000   1.0000
     1.0000   1.0000   1.0000   1.0000   1.0000   1.0000   1.0000   1.0000
     1.0000   1.0000   1.0000   1.0000   1.0000   1.0000

          k = 0.0000 0.1925 0.0702 (  5755 PWs)   bands (ev):

   -12.7406 -11.1715 -10.5070  -9.9393  -9.4612  -9.1800  -0.6227  -0.5098
    -0.2661   0.2943   0.7130   0.8332   0.9922   1.2040   1.3297   1.4961
     1.5935   1.6876   1.7547   1.8444   1.9315   2.0383   2.0774   2.1103
     2.1826   2.2462   2.3583   2.4807   2.6101   2.6663   2.9174   2.9647
     3.0492   3.3342   3.3581   3.7388   3.7517   3.8399   4.1078   4.5871
     4.7044   4.9890   5.3850   5.8883   6.0032   6.2260   6.4032   6.5076
     6.8330   6.9432   7.1650   7.2033   7.6943   7.7905

     occupation numbers 
     1.0000   1.0000   1.0000   1.0000   1.0000   1.0000   1.0000   1.0000
     1.0000   1.0000   1.0000   1.0000   1.0000   1.0000   1.0000   1.0000
     1.0000   1.0000   1.0000   1.0000   1.0000   1.0000   1.0000   1.0000
     1.0000   1.0000   1.0000   1.0000   1.0000   1.0000   1.0000   1.0000
     1.0000   1.0000   1.0000   1.0000   1.0000   1.0000   1.0000   1.0000
     1.0000   1.0000   1.0000   1.0000   1.0000   1.0000   1.0000   1.0000
     1.0000   1.0000   1.0000   1.0000   1.0000   1.0000

          k = 0.0000 0.1925-0.1053 (  5758 PWs)   bands (ev):

   -12.7406 -11.1715 -10.5070  -9.9394  -9.4612  -9.1800  -0.6227  -0.5098
    -0.2661   0.2944   0.7129   0.8331   0.9920   1.2046   1.3278   1.5108
     1.5804   1.6915   1.7556   1.8451   1.9227   2.0387   2.0765   2.1102
     2.1809   2.2476   2.3610   2.4659   2.6148   2.6659   2.9141   2.9693
     3.0908   3.3314   3.3596   3.7214   3.7523   3.7976   4.1103   4.5964
     4.7777   4.9334   5.3856   5.8774   6.0139   6.2276   6.4090   6.5006
     6.8191   6.9445   7.1700   7.2211   7.6812   7.7874

     occupation numbers 
     1.0000   1.0000   1.0000   1.0000   1.0000   1.0000   1.0000   1.0000
     1.0000   1.0000   1.0000   1.0000   1.0000   1.0000   1.0000   1.0000
     1.0000   1.0000   1.0000   1.0000   1.0000   1.0000   1.0000   1.0000
     1.0000   1.0000   1.0000   1.0000   1.0000   1.0000   1.0000   1.0000
     1.0000   1.0000   1.0000   1.0000   1.0000   1.0000   1.0000   1.0000
     1.0000   1.0000   1.0000   1.0000   1.0000   1.0000   1.0000   1.0000
     1.0000   1.0000   1.0000   1.0000   1.0000   1.0000

          k = 0.0000 0.3849 0.0000 (  5798 PWs)   bands (ev):

   -12.5297 -10.8848 -10.2317  -9.7473  -9.2754  -9.0078  -0.7264  -0.2662
    -0.0990   0.1893   0.7156   0.8560   0.9777   1.1335   1.3891   1.5409
     1.6226   1.7202   1.7847   1.8746   1.9159   1.9632   2.1602   2.2029
     2.2506   2.4388   2.5922   2.6600   2.7202   2.8798   2.9132   3.0241
     3.0756   3.2451   3.3452   3.3935   3.5576   3.7516   3.7707   4.0610
     4.2828   4.4803   4.8830   5.0903   5.1650   5.5541   5.6383   5.9583
     6.1338   6.3937   6.7418   6.8164   7.3033   7.3626

     occupation numbers 
     1.0000   1.0000   1.0000   1.0000   1.0000   1.0000   1.0000   1.0000
     1.0000   1.0000   1.0000   1.0000   1.0000   1.0000   1.0000   1.0000
     1.0000   1.0000   1.0000   1.0000   1.0000   1.0000   1.0000   1.0000
     1.0000   1.0000   1.0000   1.0000   1.0000   1.0000   1.0000   1.0000
     1.0000   1.0000   1.0000   1.0000   1.0000   1.0000   1.0000   1.0000
     1.0000   1.0000   1.0000   1.0000   1.0000   1.0000   1.0000   1.0000
     1.0000   1.0000   1.0000   1.0000   1.0000   1.0000

          k = 0.0000 0.3849 0.0351 (  5797 PWs)   bands (ev):

   -12.5297 -10.8848 -10.2317  -9.7473  -9.2754  -9.0078  -0.7264  -0.2662
    -0.0990   0.1893   0.7154   0.8560   0.9778   1.1337   1.3965   1.5309
     1.6246   1.7183   1.7841   1.8732   1.9155   1.9686   2.1605   2.2023
     2.2508   2.4398   2.5937   2.6588   2.7198   2.8757   2.9131   3.0214
     3.0876   3.2257   3.3362   3.3996   3.5935   3.7477   3.7676   4.0620
     4.2456   4.5177   4.8380   5.1141   5.1733   5.5529   5.6519   5.9483
     6.1243   6.3940   6.7503   6.8182   7.3019   7.3591

     occupation numbers 
     1.0000   1.0000   1.0000   1.0000   1.0000   1.0000   1.0000   1.0000
     1.0000   1.0000   1.0000   1.0000   1.0000   1.0000   1.0000   1.0000
     1.0000   1.0000   1.0000   1.0000   1.0000   1.0000   1.0000   1.0000
     1.0000   1.0000   1.0000   1.0000   1.0000   1.0000   1.0000   1.0000
     1.0000   1.0000   1.0000   1.0000   1.0000   1.0000   1.0000   1.0000
     1.0000   1.0000   1.0000   1.0000   1.0000   1.0000   1.0000   1.0000
     1.0000   1.0000   1.0000   1.0000   1.0000   1.0000

          k = 0.0000 0.3849 0.0702 (  5801 PWs)   bands (ev):

   -12.5297 -10.8848 -10.2317  -9.7473  -9.2754  -9.0078  -0.7264  -0.2662
    -0.0990   0.1894   0.7149   0.8559   0.9774   1.1338   1.4085   1.5204
     1.6279   1.7165   1.7814   1.8736   1.9122   1.9705   2.1569   2.2030
     2.2510   2.4444   2.6008   2.6446   2.7220   2.8733   2.9067   3.0180
     3.0944   3.2162   3.3423   3.4071   3.6256   3.7547   3.7660   4.0628
     4.1994   4.5488   4.7910   5.0773   5.2228   5.5547   5.6840   5.9388
     6.1272   6.3921   6.7431   6.8159   7.3022   7.3584

     occupation numbers 
     1.0000   1.0000   1.0000   1.0000   1.0000   1.0000   1.0000   1.0000
     1.0000   1.0000   1.0000   1.0000   1.0000   1.0000   1.0000   1.0000
     1.0000   1.0000   1.0000   1.0000   1.0000   1.0000   1.0000   1.0000
     1.0000   1.0000   1.0000   1.0000   1.0000   1.0000   1.0000   1.0000
     1.0000   1.0000   1.0000   1.0000   1.0000   1.0000   1.0000   1.0000
     1.0000   1.0000   1.0000   1.0000   1.0000   1.0000   1.0000   1.0000
     1.0000   1.0000   1.0000   1.0000   1.0000   1.0000

          k = 0.0000 0.3849-0.1053 (  5798 PWs)   bands (ev):

   -12.5297 -10.8848 -10.2317  -9.7473  -9.2754  -9.0078  -0.7264  -0.2662
    -0.0990   0.1894   0.7148   0.8559   0.9770   1.1337   1.4121   1.5211
     1.6299   1.7164   1.7793   1.8757   1.9084   1.9678   2.1534   2.2040
     2.2510   2.4480   2.6134   2.6252   2.7241   2.8753   2.9003   3.0167
     3.0902   3.2233   3.3529   3.4137   3.6183   3.7631   3.7761   4.0619
     4.1841   4.5438   4.7865   5.0481   5.2406   5.5573   5.6995   5.9430
     6.1391   6.3904   6.7249   6.8134   7.3038   7.3611

     occupation numbers 
     1.0000   1.0000   1.0000   1.0000   1.0000   1.0000   1.0000   1.0000
     1.0000   1.0000   1.0000   1.0000   1.0000   1.0000   1.0000   1.0000
     1.0000   1.0000   1.0000   1.0000   1.0000   1.0000   1.0000   1.0000
     1.0000   1.0000   1.0000   1.0000   1.0000   1.0000   1.0000   1.0000
     1.0000   1.0000   1.0000   1.0000   1.0000   1.0000   1.0000   1.0000
     1.0000   1.0000   1.0000   1.0000   1.0000   1.0000   1.0000   1.0000
     1.0000   1.0000   1.0000   1.0000   1.0000   1.0000

          k = 0.0000-0.5774 0.0000 (  5778 PWs)   bands (ev):

   -12.4206 -10.7328 -10.0839  -9.6516  -9.1785  -8.9201  -0.7581  -0.0802
    -0.0165   0.2211   0.7086   0.8998   0.9756   1.1032   1.3418   1.3856
     1.5782   1.6984   1.8004   1.8828   1.8984   2.0639   2.2143   2.2485
     2.3028   2.3707   2.5905   2.7065   2.8748   2.9046   2.9853   3.0473
     3.0599   3.1566   3.3525   3.4195   3.5669   3.7400   3.7614   3.7965
     4.0867   4.1337   4.5006   4.6872   4.9284   5.3189   5.4931   5.6061
     5.9393   6.1185   6.5257   6.6522   7.0555   7.1191

     occupation numbers 
     1.0000   1.0000   1.0000   1.0000   1.0000   1.0000   1.0000   1.0000
     1.0000   1.0000   1.0000   1.0000   1.0000   1.0000   1.0000   1.0000
     1.0000   1.0000   1.0000   1.0000   1.0000   1.0000   1.0000   1.0000
     1.0000   1.0000   1.0000   1.0000   1.0000   1.0000   1.0000   1.0000
     1.0000   1.0000   1.0000   1.0000   1.0000   1.0000   1.0000   1.0000
     1.0000   1.0000   1.0000   1.0000   1.0000   1.0000   1.0000   1.0000
     1.0000   1.0000   1.0000   1.0000   1.0000   1.0000

          k = 0.0000-0.5774 0.0351 (  5790 PWs)   bands (ev):

   -12.4206 -10.7328 -10.0839  -9.6516  -9.1785  -8.9201  -0.7581  -0.0803
    -0.0165   0.2211   0.7083   0.8997   0.9756   1.1031   1.3456   1.3848
     1.5757   1.6990   1.8030   1.8739   1.9006   2.0670   2.2140   2.2490
     2.3023   2.3698   2.5910   2.7064   2.8748   2.9040   2.9853   3.0474
     3.0612   3.1549   3.3533   3.4192   3.5666   3.7405   3.7605   3.7971
     4.0855   4.1379   4.5065   4.6822   4.9281   5.3060   5.4822   5.6119
     5.9662   6.1160   6.5197   6.6503   7.0538   7.1182

     occupation numbers 
     1.0000   1.0000   1.0000   1.0000   1.0000   1.0000   1.0000   1.0000
     1.0000   1.0000   1.0000   1.0000   1.0000   1.0000   1.0000   1.0000
     1.0000   1.0000   1.0000   1.0000   1.0000   1.0000   1.0000   1.0000
     1.0000   1.0000   1.0000   1.0000   1.0000   1.0000   1.0000   1.0000
     1.0000   1.0000   1.0000   1.0000   1.0000   1.0000   1.0000   1.0000
     1.0000   1.0000   1.0000   1.0000   1.0000   1.0000   1.0000   1.0000
     1.0000   1.0000   1.0000   1.0000   1.0000   1.0000

          k = 0.0000-0.5774 0.0702 (  5796 PWs)   bands (ev):

   -12.4206 -10.7328 -10.0839  -9.6516  -9.1785  -8.9201  -0.7582  -0.0804
    -0.0165   0.2212   0.7078   0.8997   0.9756   1.1029   1.3543   1.3821
     1.5706   1.7004   1.8092   1.8590   1.9014   2.0731   2.2135   2.2500
     2.3014   2.3682   2.5921   2.7060   2.8752   2.9030   2.9853   3.0475
     3.0641   3.1516   3.3549   3.4186   3.5661   3.7417   3.7586   3.7982
     4.0837   4.1459   4.5200   4.6714   4.9267   5.2790   5.4680   5.6214
     6.0189   6.1092   6.5060   6.6467   7.0503   7.1166

     occupation numbers 
     1.0000   1.0000   1.0000   1.0000   1.0000   1.0000   1.0000   1.0000
     1.0000   1.0000   1.0000   1.0000   1.0000   1.0000   1.0000   1.0000
     1.0000   1.0000   1.0000   1.0000   1.0000   1.0000   1.0000   1.0000
     1.0000   1.0000   1.0000   1.0000   1.0000   1.0000   1.0000   1.0000
     1.0000   1.0000   1.0000   1.0000   1.0000   1.0000   1.0000   1.0000
     1.0000   1.0000   1.0000   1.0000   1.0000   1.0000   1.0000   1.0000
     1.0000   1.0000   1.0000   1.0000   1.0000   1.0000

          k = 0.0000-0.5774-0.1053 (  5804 PWs)   bands (ev):

   -12.4206 -10.7328 -10.0839  -9.6516  -9.1785  -8.9201  -0.7582  -0.0805
    -0.0166   0.2212   0.7076   0.8997   0.9756   1.1028   1.3598   1.3797
     1.5679   1.7012   1.8132   1.8514   1.9011   2.0760   2.2132   2.2506
     2.3008   2.3674   2.5926   2.7059   2.8753   2.9024   2.9852   3.0476
     3.0656   3.1499   3.3557   3.4183   3.5658   3.7423   3.7576   3.7987
     4.0829   4.1497   4.5278   4.6653   4.9254   5.2654   5.4632   5.6257
     6.0469   6.1035   6.4982   6.6450   7.0486   7.1159

     occupation numbers 
     1.0000   1.0000   1.0000   1.0000   1.0000   1.0000   1.0000   1.0000
     1.0000   1.0000   1.0000   1.0000   1.0000   1.0000   1.0000   1.0000
     1.0000   1.0000   1.0000   1.0000   1.0000   1.0000   1.0000   1.0000
     1.0000   1.0000   1.0000   1.0000   1.0000   1.0000   1.0000   1.0000
     1.0000   1.0000   1.0000   1.0000   1.0000   1.0000   1.0000   1.0000
     1.0000   1.0000   1.0000   1.0000   1.0000   1.0000   1.0000   1.0000
     1.0000   1.0000   1.0000   1.0000   1.0000   1.0000

          k = 0.1667 0.2887 0.0000 (  5793 PWs)   bands (ev):

   -12.5820 -10.9368 -10.2976  -9.8126  -9.3237  -9.0511  -0.6261  -0.3892
    -0.1377   0.1767   0.7001   0.8621   0.9982   1.2299   1.4544   1.5515
     1.6711   1.7125   1.7886   1.8377   1.9196   2.0549   2.1478   2.1808
     2.2488   2.3242   2.4636   2.5683   2.6594   2.8660   2.9292   3.0217
     3.1300   3.2373   3.3309   3.4185   3.5959   3.7667   3.8276   4.0364
     4.3286   4.6868   5.0706   5.2516   5.4102   5.6534   5.8069   5.9815
     6.2939   6.3766   6.6801   6.9432   7.2612   7.5087

     occupation numbers 
     1.0000   1.0000   1.0000   1.0000   1.0000   1.0000   1.0000   1.0000
     1.0000   1.0000   1.0000   1.0000   1.0000   1.0000   1.0000   1.0000
     1.0000   1.0000   1.0000   1.0000   1.0000   1.0000   1.0000   1.0000
     1.0000   1.0000   1.0000   1.0000   1.0000   1.0000   1.0000   1.0000
     1.0000   1.0000   1.0000   1.0000   1.0000   1.0000   1.0000   1.0000
     1.0000   1.0000   1.0000   1.0000   1.0000   1.0000   1.0000   1.0000
     1.0000   1.0000   1.0000   1.0000   1.0000   1.0000

          k = 0.1667 0.2887 0.0351 (  5792 PWs)   bands (ev):

   -12.5820 -10.9368 -10.2976  -9.8126  -9.3237  -9.0511  -0.6261  -0.3892
    -0.1377   0.1767   0.6999   0.8622   0.9976   1.2319   1.4565   1.5484
     1.6703   1.7157   1.7853   1.8381   1.9199   2.0600   2.1405   2.1827
     2.2482   2.3242   2.4529   2.5702   2.6715   2.8619   2.9327   3.0145
     3.1405   3.2289   3.3290   3.4133   3.6221   3.7640   3.8241   4.0374
     4.3106   4.7061   5.0256   5.2700   5.4190   5.6692   5.8063   5.9837
     6.2862   6.3684   6.6810   6.9491   7.2624   7.5050

     occupation numbers 
     1.0000   1.0000   1.0000   1.0000   1.0000   1.0000   1.0000   1.0000
     1.0000   1.0000   1.0000   1.0000   1.0000   1.0000   1.0000   1.0000
     1.0000   1.0000   1.0000   1.0000   1.0000   1.0000   1.0000   1.0000
     1.0000   1.0000   1.0000   1.0000   1.0000   1.0000   1.0000   1.0000
     1.0000   1.0000   1.0000   1.0000   1.0000   1.0000   1.0000   1.0000
     1.0000   1.0000   1.0000   1.0000   1.0000   1.0000   1.0000   1.0000
     1.0000   1.0000   1.0000   1.0000   1.0000   1.0000

          k = 0.1667 0.2887 0.0702 (  5797 PWs)   bands (ev):

   -12.5820 -10.9368 -10.2976  -9.8126  -9.3237  -9.0512  -0.6261  -0.3892
    -0.1377   0.1767   0.6994   0.8622   0.9966   1.2352   1.4658   1.5396
     1.6694   1.7181   1.7831   1.8370   1.9198   2.0626   2.1296   2.1852
     2.2482   2.3334   2.4463   2.5634   2.6708   2.8602   2.9297   3.0046
     3.1705   3.2220   3.3276   3.4119   3.6759   3.7552   3.8212   4.0396
     4.2335   4.7692   4.9588   5.2881   5.4305   5.7059   5.7937   5.9871
     6.2829   6.3546   6.6832   6.9470   7.2607   7.5072

     occupation numbers 
     1.0000   1.0000   1.0000   1.0000   1.0000   1.0000   1.0000   1.0000
     1.0000   1.0000   1.0000   1.0000   1.0000   1.0000   1.0000   1.0000
     1.0000   1.0000   1.0000   1.0000   1.0000   1.0000   1.0000   1.0000
     1.0000   1.0000   1.0000   1.0000   1.0000   1.0000   1.0000   1.0000
     1.0000   1.0000   1.0000   1.0000   1.0000   1.0000   1.0000   1.0000
     1.0000   1.0000   1.0000   1.0000   1.0000   1.0000   1.0000   1.0000
     1.0000   1.0000   1.0000   1.0000   1.0000   1.0000

          k = 0.1667 0.2887-0.1053 (  5806 PWs)   bands (ev):

   -12.5820 -10.9368 -10.2976  -9.8126  -9.3237  -9.0512  -0.6261  -0.3893
    -0.1377   0.1767   0.6991   0.8621   0.9962   1.2365   1.4740   1.5328
     1.6693   1.7170   1.7842   1.8354   1.9193   2.0589   2.1275   2.1858
     2.2490   2.3428   2.4504   2.5526   2.6603   2.8627   2.9238   3.0028
     3.1846   3.2256   3.3288   3.4144   3.7171   3.7407   3.8231   4.0419
     4.1729   4.8169   4.9228   5.2940   5.4337   5.7321   5.7761   5.9875
     6.2892   6.3475   6.6845   6.9393   7.2580   7.5129

     occupation numbers 
     1.0000   1.0000   1.0000   1.0000   1.0000   1.0000   1.0000   1.0000
     1.0000   1.0000   1.0000   1.0000   1.0000   1.0000   1.0000   1.0000
     1.0000   1.0000   1.0000   1.0000   1.0000   1.0000   1.0000   1.0000
     1.0000   1.0000   1.0000   1.0000   1.0000   1.0000   1.0000   1.0000
     1.0000   1.0000   1.0000   1.0000   1.0000   1.0000   1.0000   1.0000
     1.0000   1.0000   1.0000   1.0000   1.0000   1.0000   1.0000   1.0000
     1.0000   1.0000   1.0000   1.0000   1.0000   1.0000

          k = 0.1667 0.4811 0.0000 (  5814 PWs)   bands (ev):

   -12.4220 -10.7348 -10.0793  -9.6691  -9.1801  -8.9188  -0.5925  -0.1859
    -0.0044   0.2659   0.7177   0.9062   0.9892   1.2504   1.3557   1.4756
     1.6074   1.6658   1.8194   1.9467   2.0076   2.0635   2.2028   2.2201
     2.2455   2.5369   2.5900   2.6731   2.7699   2.9012   2.9611   3.0068
     3.0963   3.2247   3.2953   3.3769   3.4724   3.4971   3.7342   3.8718
     4.0625   4.3998   4.5318   4.7056   4.8588   5.0689   5.3298   5.5992
     5.6919   6.0715   6.2225   6.5246   6.7945   7.1135

     occupation numbers 
     1.0000   1.0000   1.0000   1.0000   1.0000   1.0000   1.0000   1.0000
     1.0000   1.0000   1.0000   1.0000   1.0000   1.0000   1.0000   1.0000
     1.0000   1.0000   1.0000   1.0000   1.0000   1.0000   1.0000   1.0000
     1.0000   1.0000   1.0000   1.0000   1.0000   1.0000   1.0000   1.0000
     1.0000   1.0000   1.0000   1.0000   1.0000   1.0000   1.0000   1.0000
     1.0000   1.0000   1.0000   1.0000   1.0000   1.0000   1.0000   1.0000
     1.0000   1.0000   1.0000   1.0000   1.0000   1.0000

          k = 0.1667 0.4811 0.0351 (  5807 PWs)   bands (ev):

   -12.4220 -10.7348 -10.0793  -9.6691  -9.1801  -8.9188  -0.5925  -0.1859
    -0.0044   0.2659   0.7175   0.9062   0.9892   1.2511   1.3568   1.4776
     1.6025   1.6669   1.8179   1.9474   2.0058   2.0690   2.2072   2.2100
     2.2477   2.5414   2.5867   2.6731   2.7769   2.8898   2.9620   3.0072
     3.0912   3.2291   3.3065   3.3577   3.4638   3.5258   3.7317   3.8655
     4.0603   4.4137   4.5411   4.6754   4.8530   5.0818   5.3484   5.5862
     5.6860   6.0669   6.2307   6.5247   6.7940   7.1132

     occupation numbers 
     1.0000   1.0000   1.0000   1.0000   1.0000   1.0000   1.0000   1.0000
     1.0000   1.0000   1.0000   1.0000   1.0000   1.0000   1.0000   1.0000
     1.0000   1.0000   1.0000   1.0000   1.0000   1.0000   1.0000   1.0000
     1.0000   1.0000   1.0000   1.0000   1.0000   1.0000   1.0000   1.0000
     1.0000   1.0000   1.0000   1.0000   1.0000   1.0000   1.0000   1.0000
     1.0000   1.0000   1.0000   1.0000   1.0000   1.0000   1.0000   1.0000
     1.0000   1.0000   1.0000   1.0000   1.0000   1.0000

          k = 0.1667 0.4811 0.0702 (  5810 PWs)   bands (ev):

   -12.4220 -10.7348 -10.0793  -9.6691  -9.1801  -8.9188  -0.5925  -0.1859
    -0.0044   0.2659   0.7169   0.9063   0.9889   1.2522   1.3591   1.4832
     1.5945   1.6683   1.8144   1.9455   2.0091   2.0716   2.1959   2.2147
     2.2516   2.5443   2.5824   2.6758   2.7799   2.8785   2.9690   3.0045
     3.0941   3.2157   3.2886   3.3796   3.4555   3.5625   3.7211   3.8579
     4.0564   4.4241   4.5716   4.6555   4.8332   5.0649   5.3881   5.5600
     5.6728   6.0705   6.2579   6.5214   6.7889   7.1088

     occupation numbers 
     1.0000   1.0000   1.0000   1.0000   1.0000   1.0000   1.0000   1.0000
     1.0000   1.0000   1.0000   1.0000   1.0000   1.0000   1.0000   1.0000
     1.0000   1.0000   1.0000   1.0000   1.0000   1.0000   1.0000   1.0000
     1.0000   1.0000   1.0000   1.0000   1.0000   1.0000   1.0000   1.0000
     1.0000   1.0000   1.0000   1.0000   1.0000   1.0000   1.0000   1.0000
     1.0000   1.0000   1.0000   1.0000   1.0000   1.0000   1.0000   1.0000
     1.0000   1.0000   1.0000   1.0000   1.0000   1.0000

          k = 0.1667 0.4811-0.1053 (  5812 PWs)   bands (ev):

   -12.4220 -10.7348 -10.0793  -9.6691  -9.1801  -8.9188  -0.5925  -0.1860
    -0.0045   0.2659   0.7166   0.9063   0.9887   1.2525   1.3601   1.4869
     1.5914   1.6686   1.8125   1.9432   2.0138   2.0687   2.1899   2.2192
     2.2541   2.5419   2.5823   2.6784   2.7747   2.8795   2.9774   2.9996
     3.1038   3.1943   3.2782   3.4034   3.4484   3.5791   3.7119   3.8570
     4.0546   4.4209   4.5806   4.6854   4.8109   5.0378   5.4019   5.5596
     5.6585   6.0778   6.2784   6.5174   6.7840   7.1046

     occupation numbers 
     1.0000   1.0000   1.0000   1.0000   1.0000   1.0000   1.0000   1.0000
     1.0000   1.0000   1.0000   1.0000   1.0000   1.0000   1.0000   1.0000
     1.0000   1.0000   1.0000   1.0000   1.0000   1.0000   1.0000   1.0000
     1.0000   1.0000   1.0000   1.0000   1.0000   1.0000   1.0000   1.0000
     1.0000   1.0000   1.0000   1.0000   1.0000   1.0000   1.0000   1.0000
     1.0000   1.0000   1.0000   1.0000   1.0000   1.0000   1.0000   1.0000
     1.0000   1.0000   1.0000   1.0000   1.0000   1.0000

          k = 0.3333 0.5774 0.0000 (  5745 PWs)   bands (ev):

   -12.3718 -10.7300  -9.9952  -9.6398  -9.1326  -8.8678  -0.3574  -0.2359
     0.0762   0.3869   0.7289   0.8043   0.9832   1.3640   1.4710   1.5850
     1.6849   1.7363   1.8071   1.9106   2.0517   2.1362   2.1482   2.2343
     2.4675   2.5585   2.6253   2.6943   2.7784   2.8689   2.9129   3.0334
     3.0634   3.1975   3.3994   3.4856   3.5136   3.6007   3.7005   3.7451
     3.9538   4.0441   4.1467   4.3164   4.5694   4.8156   4.9659   5.2823
     5.5394   5.8274   6.0035   6.3561   6.6460   6.8970

     occupation numbers 
     1.0000   1.0000   1.0000   1.0000   1.0000   1.0000   1.0000   1.0000
     1.0000   1.0000   1.0000   1.0000   1.0000   1.0000   1.0000   1.0000
     1.0000   1.0000   1.0000   1.0000   1.0000   1.0000   1.0000   1.0000
     1.0000   1.0000   1.0000   1.0000   1.0000   1.0000   1.0000   1.0000
     1.0000   1.0000   1.0000   1.0000   1.0000   1.0000   1.0000   1.0000
     1.0000   1.0000   1.0000   1.0000   1.0000   1.0000   1.0000   1.0000
     1.0000   1.0000   1.0000   1.0000   1.0000   1.0000

          k = 0.3333 0.5774 0.0351 (  5793 PWs)   bands (ev):

   -12.3718 -10.7300  -9.9952  -9.6398  -9.1326  -8.8678  -0.3576  -0.2361
     0.0761   0.3868   0.7284   0.8042   0.9831   1.3663   1.4681   1.5859
     1.6846   1.7397   1.8066   1.9064   2.0532   2.1303   2.1481   2.2391
     2.4751   2.5477   2.6204   2.6988   2.7815   2.8825   2.8999   3.0292
     3.0656   3.1967   3.3975   3.4901   3.4992   3.6102   3.7090   3.7422
     3.9487   4.0497   4.1456   4.3100   4.5755   4.8115   4.9668   5.2916
     5.5428   5.8078   6.0056   6.3540   6.6525   6.8980

     occupation numbers 
     1.0000   1.0000   1.0000   1.0000   1.0000   1.0000   1.0000   1.0000
     1.0000   1.0000   1.0000   1.0000   1.0000   1.0000   1.0000   1.0000
     1.0000   1.0000   1.0000   1.0000   1.0000   1.0000   1.0000   1.0000
     1.0000   1.0000   1.0000   1.0000   1.0000   1.0000   1.0000   1.0000
     1.0000   1.0000   1.0000   1.0000   1.0000   1.0000   1.0000   1.0000
     1.0000   1.0000   1.0000   1.0000   1.0000   1.0000   1.0000   1.0000
     1.0000   1.0000   1.0000   1.0000   1.0000   1.0000

          k = 0.3333 0.5774 0.0702 (  5790 PWs)   bands (ev):

   -12.3718 -10.7300  -9.9952  -9.6398  -9.1326  -8.8678  -0.3575  -0.2361
     0.0760   0.3868   0.7280   0.8041   0.9832   1.3666   1.4708   1.5863
     1.6840   1.7457   1.8024   1.8976   2.0590   2.1261   2.1485   2.2435
     2.4815   2.5400   2.6089   2.7037   2.7847   2.8853   2.9037   3.0262
     3.0695   3.1945   3.3893   3.4780   3.5120   3.6179   3.7045   3.7341
     3.9549   4.0617   4.1430   4.3028   4.5738   4.8115   4.9731   5.3040
     5.5527   5.7782   6.0027   6.3470   6.6573   6.9080

     occupation numbers 
     1.0000   1.0000   1.0000   1.0000   1.0000   1.0000   1.0000   1.0000
     1.0000   1.0000   1.0000   1.0000   1.0000   1.0000   1.0000   1.0000
     1.0000   1.0000   1.0000   1.0000   1.0000   1.0000   1.0000   1.0000
     1.0000   1.0000   1.0000   1.0000   1.0000   1.0000   1.0000   1.0000
     1.0000   1.0000   1.0000   1.0000   1.0000   1.0000   1.0000   1.0000
     1.0000   1.0000   1.0000   1.0000   1.0000   1.0000   1.0000   1.0000
     1.0000   1.0000   1.0000   1.0000   1.0000   1.0000

          k = 0.3333 0.5774-0.1053 (  5760 PWs)   bands (ev):

   -12.3718 -10.7300  -9.9952  -9.6398  -9.1326  -8.8678  -0.3574  -0.2361
     0.0761   0.3869   0.7280   0.8042   0.9834   1.3646   1.4763   1.5860
     1.6829   1.7491   1.7982   1.8932   2.0631   2.1274   2.1489   2.2434
     2.4775   2.5470   2.6001   2.7049   2.7840   2.8766   2.9192   3.0262
     3.0724   3.1928   3.3830   3.4721   3.5279   3.6172   3.6880   3.7329
     3.9637   4.0698   4.1411   4.3017   4.5664   4.8151   4.9790   5.3058
     5.5605   5.7675   5.9977   6.3425   6.6560   6.9168

     occupation numbers 
     1.0000   1.0000   1.0000   1.0000   1.0000   1.0000   1.0000   1.0000
     1.0000   1.0000   1.0000   1.0000   1.0000   1.0000   1.0000   1.0000
     1.0000   1.0000   1.0000   1.0000   1.0000   1.0000   1.0000   1.0000
     1.0000   1.0000   1.0000   1.0000   1.0000   1.0000   1.0000   1.0000
     1.0000   1.0000   1.0000   1.0000   1.0000   1.0000   1.0000   1.0000
     1.0000   1.0000   1.0000   1.0000   1.0000   1.0000   1.0000   1.0000
     1.0000   1.0000   1.0000   1.0000   1.0000   1.0000

          k =-0.1667 0.0962 0.0000 (  5754 PWs)   bands (ev):

   -12.7426 -11.2117 -10.5060  -9.9401  -9.4616  -9.1771  -0.7130  -0.3950
    -0.3122   0.5157   0.6519   0.8466   0.9158   1.1874   1.2412   1.5254
     1.6199   1.6779   1.7461   1.8471   1.9925   2.0813   2.0977   2.1083
     2.1452   2.2576   2.3001   2.4513   2.5637   2.7816   2.8617   2.9353
     2.9947   3.3216   3.3529   3.7160   3.7529   4.0078   4.1068   4.5027
     4.5972   5.3877   5.6259   5.7870   5.9756   6.0446   6.3564   6.5070
     6.8129   6.9109   7.1908   7.2473   7.6796   7.7767

     occupation numbers 
     1.0000   1.0000   1.0000   1.0000   1.0000   1.0000   1.0000   1.0000
     1.0000   1.0000   1.0000   1.0000   1.0000   1.0000   1.0000   1.0000
     1.0000   1.0000   1.0000   1.0000   1.0000   1.0000   1.0000   1.0000
     1.0000   1.0000   1.0000   1.0000   1.0000   1.0000   1.0000   1.0000
     1.0000   1.0000   1.0000   1.0000   1.0000   1.0000   1.0000   1.0000
     1.0000   1.0000   1.0000   1.0000   1.0000   1.0000   1.0000   1.0000
     1.0000   1.0000   1.0000   1.0000   1.0000   1.0000

          k = 0.1667 0.0962 0.0000 (  5754 PWs)   bands (ev):

   -12.7401 -11.1711 -10.5046  -9.9480  -9.4617  -9.1792  -0.6125  -0.5252
    -0.2598   0.3008   0.6942   0.8451   0.9950   1.2376   1.3483   1.5266
     1.5961   1.7186   1.7896   1.8024   1.9477   2.0405   2.0687   2.1012
     2.1815   2.2505   2.3149   2.4367   2.5632   2.7481   2.9437   2.9729
     2.9842   3.3134   3.3343   3.7229   3.7558   3.9612   4.0789   4.5078
     4.6287   4.9904   5.4791   5.7674   6.1296   6.2888   6.3529   6.4370
     6.7739   6.8661   7.2366   7.2980   7.7230   7.7842

     occupation numbers 
     1.0000   1.0000   1.0000   1.0000   1.0000   1.0000   1.0000   1.0000
     1.0000   1.0000   1.0000   1.0000   1.0000   1.0000   1.0000   1.0000
     1.0000   1.0000   1.0000   1.0000   1.0000   1.0000   1.0000   1.0000
     1.0000   1.0000   1.0000   1.0000   1.0000   1.0000   1.0000   1.0000
     1.0000   1.0000   1.0000   1.0000   1.0000   1.0000   1.0000   1.0000
     1.0000   1.0000   1.0000   1.0000   1.0000   1.0000   1.0000   1.0000
     1.0000   1.0000   1.0000   1.0000   1.0000   1.0000

          k = 0.0000-0.1925 0.0351 (  5756 PWs)   bands (ev):

   -12.7406 -11.1715 -10.5071  -9.9393  -9.4613  -9.1800  -0.6227  -0.5098
    -0.2661   0.2944   0.7132   0.8332   0.9926   1.2037   1.3283   1.4941
     1.5874   1.6905   1.7538   1.8468   1.9546   2.0396   2.0695   2.1110
     2.1733   2.2494   2.3736   2.4501   2.6255   2.6666   2.9127   2.9697
     3.0271   3.3324   3.3522   3.7137   3.7499   3.9210   4.1213   4.5981
     4.6147   4.9825   5.4672   5.8656   5.9482   6.2510   6.4044   6.5121
     6.8450   6.9624   7.1588   7.1954   7.6739   7.7873

     occupation numbers 
     1.0000   1.0000   1.0000   1.0000   1.0000   1.0000   1.0000   1.0000
     1.0000   1.0000   1.0000   1.0000   1.0000   1.0000   1.0000   1.0000
     1.0000   1.0000   1.0000   1.0000   1.0000   1.0000   1.0000   1.0000
     1.0000   1.0000   1.0000   1.0000   1.0000   1.0000   1.0000   1.0000
     1.0000   1.0000   1.0000   1.0000   1.0000   1.0000   1.0000   1.0000
     1.0000   1.0000   1.0000   1.0000   1.0000   1.0000   1.0000   1.0000
     1.0000   1.0000   1.0000   1.0000   1.0000   1.0000

          k =-0.1667 0.0962 0.0351 (  5756 PWs)   bands (ev):

   -12.7426 -11.2117 -10.5060  -9.9401  -9.4615  -9.1771  -0.7130  -0.3950
    -0.3122   0.5158   0.6519   0.8466   0.9159   1.1894   1.2391   1.5255
     1.6245   1.6806   1.7462   1.8458   1.9764   2.0792   2.0977   2.1106
     2.1434   2.2580   2.3146   2.4411   2.5598   2.7820   2.8720   2.9335
     3.0155   3.3215   3.3486   3.7170   3.7581   3.9526   4.0870   4.5723
     4.6196   5.2883   5.7160   5.7889   5.9372   6.0498   6.3642   6.5017
     6.8211   6.9007   7.1920   7.2480   7.6804   7.7756

     occupation numbers 
     1.0000   1.0000   1.0000   1.0000   1.0000   1.0000   1.0000   1.0000
     1.0000   1.0000   1.0000   1.0000   1.0000   1.0000   1.0000   1.0000
     1.0000   1.0000   1.0000   1.0000   1.0000   1.0000   1.0000   1.0000
     1.0000   1.0000   1.0000   1.0000   1.0000   1.0000   1.0000   1.0000
     1.0000   1.0000   1.0000   1.0000   1.0000   1.0000   1.0000   1.0000
     1.0000   1.0000   1.0000   1.0000   1.0000   1.0000   1.0000   1.0000
     1.0000   1.0000   1.0000   1.0000   1.0000   1.0000

          k = 0.1667 0.0962 0.0351 (  5756 PWs)   bands (ev):

   -12.7401 -11.1711 -10.5046  -9.9481  -9.4617  -9.1793  -0.6126  -0.5252
    -0.2598   0.3009   0.6941   0.8451   0.9944   1.2380   1.3492   1.5334
     1.5954   1.7158   1.7850   1.8003   1.9510   2.0412   2.0725   2.0970
     2.1779   2.2475   2.2936   2.4691   2.5607   2.7482   2.9287   2.9566
     3.0169   3.3226   3.3350   3.7335   3.7581   3.9194   4.0593   4.5571
     4.6319   4.9759   5.4592   5.7884   6.1648   6.2367   6.3587   6.4467
     6.7695   6.8531   7.2491   7.2991   7.7290   7.7846

     occupation numbers 
     1.0000   1.0000   1.0000   1.0000   1.0000   1.0000   1.0000   1.0000
     1.0000   1.0000   1.0000   1.0000   1.0000   1.0000   1.0000   1.0000
     1.0000   1.0000   1.0000   1.0000   1.0000   1.0000   1.0000   1.0000
     1.0000   1.0000   1.0000   1.0000   1.0000   1.0000   1.0000   1.0000
     1.0000   1.0000   1.0000   1.0000   1.0000   1.0000   1.0000   1.0000
     1.0000   1.0000   1.0000   1.0000   1.0000   1.0000   1.0000   1.0000
     1.0000   1.0000   1.0000   1.0000   1.0000   1.0000

          k =-0.1667-0.0962 0.0351 (  5756 PWs)   bands (ev):

   -12.7401 -11.1711 -10.5046  -9.9481  -9.4617  -9.1793  -0.6126  -0.5252
    -0.2598   0.3008   0.6940   0.8450   0.9949   1.2393   1.3470   1.5344
     1.5940   1.7076   1.7933   1.8047   1.9418   2.0406   2.0677   2.1000
     2.1891   2.2536   2.3447   2.3800   2.5726   2.7480   2.9338   2.9593
     3.0515   3.3097   3.3354   3.7067   3.7542   3.9041   4.0896   4.5584
     4.6356   4.9892   5.4285   5.8138   6.0991   6.3160   6.3511   6.4307
     6.7684   6.8595   7.2504   7.2977   7.7156   7.7829

     occupation numbers 
     1.0000   1.0000   1.0000   1.0000   1.0000   1.0000   1.0000   1.0000
     1.0000   1.0000   1.0000   1.0000   1.0000   1.0000   1.0000   1.0000
     1.0000   1.0000   1.0000   1.0000   1.0000   1.0000   1.0000   1.0000
     1.0000   1.0000   1.0000   1.0000   1.0000   1.0000   1.0000   1.0000
     1.0000   1.0000   1.0000   1.0000   1.0000   1.0000   1.0000   1.0000
     1.0000   1.0000   1.0000   1.0000   1.0000   1.0000   1.0000   1.0000
     1.0000   1.0000   1.0000   1.0000   1.0000   1.0000

          k = 0.1667-0.0962 0.0351 (  5756 PWs)   bands (ev):

   -12.7426 -11.2117 -10.5060  -9.9401  -9.4615  -9.1771  -0.7130  -0.3950
    -0.3122   0.5157   0.6519   0.8466   0.9158   1.1840   1.2447   1.5361
     1.6127   1.6774   1.7460   1.8382   2.0132   2.0695   2.0893   2.1081
     2.1456   2.2578   2.3031   2.4355   2.5658   2.7818   2.8861   2.9389
     2.9987   3.3227   3.3563   3.7137   3.7471   3.9345   4.1403   4.5411
     4.5970   5.3770   5.6138   5.7867   5.9841   6.0647   6.3357   6.5150
     6.7843   6.9165   7.2059   7.2625   7.6681   7.7769

     occupation numbers 
     1.0000   1.0000   1.0000   1.0000   1.0000   1.0000   1.0000   1.0000
     1.0000   1.0000   1.0000   1.0000   1.0000   1.0000   1.0000   1.0000
     1.0000   1.0000   1.0000   1.0000   1.0000   1.0000   1.0000   1.0000
     1.0000   1.0000   1.0000   1.0000   1.0000   1.0000   1.0000   1.0000
     1.0000   1.0000   1.0000   1.0000   1.0000   1.0000   1.0000   1.0000
     1.0000   1.0000   1.0000   1.0000   1.0000   1.0000   1.0000   1.0000
     1.0000   1.0000   1.0000   1.0000   1.0000   1.0000

          k = 0.0000-0.1925 0.0702 (  5755 PWs)   bands (ev):

   -12.7406 -11.1715 -10.5070  -9.9393  -9.4612  -9.1800  -0.6227  -0.5098
    -0.2661   0.2944   0.7130   0.8332   0.9922   1.2044   1.3271   1.5097
     1.5774   1.6927   1.7550   1.8465   1.9337   2.0392   2.0731   2.1105
     2.1765   2.2492   2.3686   2.4513   2.6216   2.6660   2.9124   2.9711
     3.0794   3.3302   3.3559   3.7062   3.7505   3.8421   4.1149   4.6008
     4.7264   4.9412   5.4256   5.8668   5.9855   6.2418   6.4089   6.5036
     6.8253   6.9520   7.1687   7.2173   7.6704   7.7862

     occupation numbers 
     1.0000   1.0000   1.0000   1.0000   1.0000   1.0000   1.0000   1.0000
     1.0000   1.0000   1.0000   1.0000   1.0000   1.0000   1.0000   1.0000
     1.0000   1.0000   1.0000   1.0000   1.0000   1.0000   1.0000   1.0000
     1.0000   1.0000   1.0000   1.0000   1.0000   1.0000   1.0000   1.0000
     1.0000   1.0000   1.0000   1.0000   1.0000   1.0000   1.0000   1.0000
     1.0000   1.0000   1.0000   1.0000   1.0000   1.0000   1.0000   1.0000
     1.0000   1.0000   1.0000   1.0000   1.0000   1.0000

          k =-0.1667 0.0962 0.0702 (  5755 PWs)   bands (ev):

   -12.7426 -11.2117 -10.5060  -9.9402  -9.4615  -9.1771  -0.7131  -0.3950
    -0.3122   0.5157   0.6517   0.8466   0.9158   1.1875   1.2410   1.5353
     1.6235   1.6832   1.7463   1.8330   1.9766   2.0718   2.0910   2.1113
     2.1428   2.2583   2.3358   2.4113   2.5596   2.7823   2.8977   2.9337
     3.0536   3.3235   3.3454   3.7166   3.7628   3.8322   4.1047   4.5887
     4.7307   5.1812   5.7694   5.7990   5.9097   6.0647   6.3522   6.5050
     6.7953   6.9023   7.2072   7.2642   7.6695   7.7747

     occupation numbers 
     1.0000   1.0000   1.0000   1.0000   1.0000   1.0000   1.0000   1.0000
     1.0000   1.0000   1.0000   1.0000   1.0000   1.0000   1.0000   1.0000
     1.0000   1.0000   1.0000   1.0000   1.0000   1.0000   1.0000   1.0000
     1.0000   1.0000   1.0000   1.0000   1.0000   1.0000   1.0000   1.0000
     1.0000   1.0000   1.0000   1.0000   1.0000   1.0000   1.0000   1.0000
     1.0000   1.0000   1.0000   1.0000   1.0000   1.0000   1.0000   1.0000
     1.0000   1.0000   1.0000   1.0000   1.0000   1.0000

          k = 0.1667 0.0962 0.0702 (  5755 PWs)   bands (ev):

   -12.7401 -11.1711 -10.5045  -9.9481  -9.4616  -9.1793  -0.6126  -0.5252
    -0.2598   0.3009   0.6939   0.8451   0.9936   1.2402   1.3488   1.5515
     1.5905   1.6990   1.7862   1.7995   1.9485   2.0422   2.0771   2.0896
     2.1833   2.2473   2.2835   2.4577   2.5715   2.7482   2.9144   2.9554
     3.0772   3.3283   3.3437   3.7379   3.7622   3.8027   4.0646   4.6110
     4.6839   4.9494   5.3974   5.8474   6.1620   6.2165   6.3624   6.4534
     6.7563   6.8383   7.2718   7.3013   7.7279   7.7833

     occupation numbers 
     1.0000   1.0000   1.0000   1.0000   1.0000   1.0000   1.0000   1.0000
     1.0000   1.0000   1.0000   1.0000   1.0000   1.0000   1.0000   1.0000
     1.0000   1.0000   1.0000   1.0000   1.0000   1.0000   1.0000   1.0000
     1.0000   1.0000   1.0000   1.0000   1.0000   1.0000   1.0000   1.0000
     1.0000   1.0000   1.0000   1.0000   1.0000   1.0000   1.0000   1.0000
     1.0000   1.0000   1.0000   1.0000   1.0000   1.0000   1.0000   1.0000
     1.0000   1.0000   1.0000   1.0000   1.0000   1.0000

          k =-0.1667-0.0962 0.0702 (  5755 PWs)   bands (ev):

   -12.7401 -11.1711 -10.5045  -9.9481  -9.4616  -9.1793  -0.6125  -0.5252
    -0.2598   0.3009   0.6938   0.8451   0.9942   1.2415   1.3465   1.5537
     1.5878   1.6922   1.7939   1.8031   1.9396   2.0416   2.0697   2.0957
     2.1939   2.2550   2.3196   2.3877   2.5786   2.7479   2.9214   2.9566
     3.1159   3.3178   3.3400   3.6846   3.7530   3.8284   4.0819   4.6089
     4.6901   4.9660   5.3688   5.8742   6.0824   6.2972   6.3618   6.4372
     6.7558   6.8437   7.2748   7.2992   7.7138   7.7819

     occupation numbers 
     1.0000   1.0000   1.0000   1.0000   1.0000   1.0000   1.0000   1.0000
     1.0000   1.0000   1.0000   1.0000   1.0000   1.0000   1.0000   1.0000
     1.0000   1.0000   1.0000   1.0000   1.0000   1.0000   1.0000   1.0000
     1.0000   1.0000   1.0000   1.0000   1.0000   1.0000   1.0000   1.0000
     1.0000   1.0000   1.0000   1.0000   1.0000   1.0000   1.0000   1.0000
     1.0000   1.0000   1.0000   1.0000   1.0000   1.0000   1.0000   1.0000
     1.0000   1.0000   1.0000   1.0000   1.0000   1.0000

          k = 0.1667-0.0962 0.0702 (  5755 PWs)   bands (ev):

   -12.7426 -11.2117 -10.5060  -9.9402  -9.4615  -9.1771  -0.7130  -0.3950
    -0.3122   0.5157   0.6517   0.8466   0.9158   1.1824   1.2462   1.5487
     1.6090   1.6793   1.7461   1.8270   2.0214   2.0475   2.0870   2.1097
     2.1445   2.2583   2.3227   2.4100   2.5642   2.7821   2.9076   2.9402
     3.0383   3.3245   3.3562   3.7092   3.7412   3.8430   4.1332   4.5901
     4.6718   5.2598   5.6854   5.7870   5.9684   6.0846   6.3216   6.5180
     6.7639   6.9141   7.2143   7.2851   7.6561   7.7760

     occupation numbers 
     1.0000   1.0000   1.0000   1.0000   1.0000   1.0000   1.0000   1.0000
     1.0000   1.0000   1.0000   1.0000   1.0000   1.0000   1.0000   1.0000
     1.0000   1.0000   1.0000   1.0000   1.0000   1.0000   1.0000   1.0000
     1.0000   1.0000   1.0000   1.0000   1.0000   1.0000   1.0000   1.0000
     1.0000   1.0000   1.0000   1.0000   1.0000   1.0000   1.0000   1.0000
     1.0000   1.0000   1.0000   1.0000   1.0000   1.0000   1.0000   1.0000
     1.0000   1.0000   1.0000   1.0000   1.0000   1.0000

          k =-0.1667 0.0962-0.1053 (  5758 PWs)   bands (ev):

   -12.7426 -11.2118 -10.5060  -9.9402  -9.4614  -9.1771  -0.7130  -0.3950
    -0.3122   0.5157   0.6516   0.8466   0.9158   1.1840   1.2445   1.5473
     1.6157   1.6825   1.7463   1.8230   1.9954   2.0585   2.0872   2.1110
     2.1433   2.2584   2.3437   2.3930   2.5616   2.7823   2.9103   2.9367
     3.0721   3.3258   3.3491   3.7109   3.7461   3.7955   4.1197   4.5905
     4.7684   5.1590   5.7523   5.7902   5.9368   6.0805   6.3307   6.5132
     6.7682   6.9085   7.2147   7.2859   7.6568   7.7750

     occupation numbers 
     1.0000   1.0000   1.0000   1.0000   1.0000   1.0000   1.0000   1.0000
     1.0000   1.0000   1.0000   1.0000   1.0000   1.0000   1.0000   1.0000
     1.0000   1.0000   1.0000   1.0000   1.0000   1.0000   1.0000   1.0000
     1.0000   1.0000   1.0000   1.0000   1.0000   1.0000   1.0000   1.0000
     1.0000   1.0000   1.0000   1.0000   1.0000   1.0000   1.0000   1.0000
     1.0000   1.0000   1.0000   1.0000   1.0000   1.0000   1.0000   1.0000
     1.0000   1.0000   1.0000   1.0000   1.0000   1.0000

          k = 0.1667 0.0962-0.1053 (  5758 PWs)   bands (ev):

   -12.7401 -11.1711 -10.5045  -9.9481  -9.4616  -9.1793  -0.6126  -0.5252
    -0.2598   0.3009   0.6937   0.8450   0.9935   1.2419   1.3474   1.5706
     1.5788   1.6863   1.7911   1.8002   1.9430   2.0424   2.0746   2.0902
     2.1919   2.2523   2.2880   2.4253   2.5788   2.7480   2.9141   2.9557
     3.1239   3.3270   3.3508   3.6938   3.7523   3.7851   4.0730   4.6149
     4.7410   4.9347   5.3556   5.8890   6.1049   6.2581   6.3643   6.4502
     6.7481   6.8352   7.2827   7.3028   7.7201   7.7820

     occupation numbers 
     1.0000   1.0000   1.0000   1.0000   1.0000   1.0000   1.0000   1.0000
     1.0000   1.0000   1.0000   1.0000   1.0000   1.0000   1.0000   1.0000
     1.0000   1.0000   1.0000   1.0000   1.0000   1.0000   1.0000   1.0000
     1.0000   1.0000   1.0000   1.0000   1.0000   1.0000   1.0000   1.0000
     1.0000   1.0000   1.0000   1.0000   1.0000   1.0000   1.0000   1.0000
     1.0000   1.0000   1.0000   1.0000   1.0000   1.0000   1.0000   1.0000
     1.0000   1.0000   1.0000   1.0000   1.0000   1.0000

          k =-0.3333 0.1925 0.0000 (  5798 PWs)   bands (ev):

   -12.5360 -11.0156 -10.2257  -9.7534  -9.2761  -8.9972  -0.8354  -0.2270
    -0.0696   0.6074   0.6831   0.7795   0.9704   1.2022   1.2743   1.4886
     1.6147   1.7020   1.7683   1.8458   1.9255   2.1133   2.1619   2.1973
     2.2722   2.3128   2.4712   2.6175   2.6983   2.9144   3.0163   3.0746
     3.1004   3.2002   3.3493   3.4511   3.7068   3.7536   4.0129   4.0887
     4.2699   4.5791   4.7648   4.9888   5.1972   5.3578   5.5068   6.0312
     6.2562   6.4276   6.7637   6.9096   7.2166   7.3744

     occupation numbers 
     1.0000   1.0000   1.0000   1.0000   1.0000   1.0000   1.0000   1.0000
     1.0000   1.0000   1.0000   1.0000   1.0000   1.0000   1.0000   1.0000
     1.0000   1.0000   1.0000   1.0000   1.0000   1.0000   1.0000   1.0000
     1.0000   1.0000   1.0000   1.0000   1.0000   1.0000   1.0000   1.0000
     1.0000   1.0000   1.0000   1.0000   1.0000   1.0000   1.0000   1.0000
     1.0000   1.0000   1.0000   1.0000   1.0000   1.0000   1.0000   1.0000
     1.0000   1.0000   1.0000   1.0000   1.0000   1.0000

          k = 0.3333 0.1925 0.0000 (  5798 PWs)   bands (ev):

   -12.5281 -10.8834 -10.2152  -9.7870  -9.2769  -9.0027  -0.7098  -0.3032
    -0.0687   0.1962   0.6831   0.8721   1.0039   1.2503   1.4390   1.6094
     1.6773   1.7318   1.7972   1.8421   1.9244   1.9829   2.1182   2.2129
     2.2627   2.3980   2.4807   2.6146   2.6818   2.9535   2.9746   2.9974
     3.1072   3.1679   3.3606   3.4133   3.5010   3.7137   3.7771   4.0603
     4.1925   4.5273   4.8133   5.0144   5.2401   5.5797   5.6144   5.7236
     6.0579   6.4497   6.7551   6.9068   7.3072   7.4765

     occupation numbers 
     1.0000   1.0000   1.0000   1.0000   1.0000   1.0000   1.0000   1.0000
     1.0000   1.0000   1.0000   1.0000   1.0000   1.0000   1.0000   1.0000
     1.0000   1.0000   1.0000   1.0000   1.0000   1.0000   1.0000   1.0000
     1.0000   1.0000   1.0000   1.0000   1.0000   1.0000   1.0000   1.0000
     1.0000   1.0000   1.0000   1.0000   1.0000   1.0000   1.0000   1.0000
     1.0000   1.0000   1.0000   1.0000   1.0000   1.0000   1.0000   1.0000
     1.0000   1.0000   1.0000   1.0000   1.0000   1.0000

          k = 0.0000-0.3849 0.0351 (  5797 PWs)   bands (ev):

   -12.5297 -10.8848 -10.2317  -9.7473  -9.2754  -9.0078  -0.7263  -0.2662
    -0.0990   0.1894   0.7154   0.8559   0.9773   1.1334   1.3923   1.5420
     1.6243   1.7206   1.7825   1.8765   1.9125   1.9602   2.1565   2.2040
     2.2505   2.4423   2.5965   2.6488   2.7227   2.8831   2.9048   3.0218
     3.0736   3.2481   3.3656   3.3986   3.5491   3.7568   3.7759   4.0603
     4.2730   4.4735   4.8912   5.0204   5.2123   5.5579   5.6507   5.9614
     6.1478   6.3917   6.7236   6.8139   7.3048   7.3655

     occupation numbers 
     1.0000   1.0000   1.0000   1.0000   1.0000   1.0000   1.0000   1.0000
     1.0000   1.0000   1.0000   1.0000   1.0000   1.0000   1.0000   1.0000
     1.0000   1.0000   1.0000   1.0000   1.0000   1.0000   1.0000   1.0000
     1.0000   1.0000   1.0000   1.0000   1.0000   1.0000   1.0000   1.0000
     1.0000   1.0000   1.0000   1.0000   1.0000   1.0000   1.0000   1.0000
     1.0000   1.0000   1.0000   1.0000   1.0000   1.0000   1.0000   1.0000
     1.0000   1.0000   1.0000   1.0000   1.0000   1.0000

          k =-0.3333 0.1925 0.0351 (  5797 PWs)   bands (ev):

   -12.5360 -11.0156 -10.2257  -9.7534  -9.2761  -8.9972  -0.8354  -0.2271
    -0.0697   0.6073   0.6831   0.7795   0.9704   1.2012   1.2761   1.4861
     1.6232   1.7014   1.7667   1.8441   1.9230   2.1136   2.1628   2.1980
     2.2730   2.3079   2.4634   2.6129   2.7113   2.9059   3.0245   3.0727
     3.0939   3.2187   3.3607   3.4331   3.7280   3.7558   3.9652   4.0884
     4.3203   4.5371   4.7881   4.9635   5.1883   5.3563   5.5438   6.0269
     6.2576   6.4228   6.7648   6.9037   7.2176   7.3749

     occupation numbers 
     1.0000   1.0000   1.0000   1.0000   1.0000   1.0000   1.0000   1.0000
     1.0000   1.0000   1.0000   1.0000   1.0000   1.0000   1.0000   1.0000
     1.0000   1.0000   1.0000   1.0000   1.0000   1.0000   1.0000   1.0000
     1.0000   1.0000   1.0000   1.0000   1.0000   1.0000   1.0000   1.0000
     1.0000   1.0000   1.0000   1.0000   1.0000   1.0000   1.0000   1.0000
     1.0000   1.0000   1.0000   1.0000   1.0000   1.0000   1.0000   1.0000
     1.0000   1.0000   1.0000   1.0000   1.0000   1.0000

          k = 0.3333 0.1925 0.0351 (  5797 PWs)   bands (ev):

   -12.5281 -10.8834 -10.2152  -9.7870  -9.2769  -9.0027  -0.7098  -0.3032
    -0.0688   0.1962   0.6830   0.8720   1.0031   1.2499   1.4468   1.6009
     1.6906   1.7266   1.7950   1.8395   1.9234   1.9846   2.1176   2.2125
     2.2631   2.3863   2.4784   2.6118   2.6949   2.9436   2.9844   3.0027
     3.1053   3.1758   3.3582   3.4301   3.4636   3.7297   3.7757   4.0618
     4.2313   4.4838   4.7980   4.9971   5.2731   5.5541   5.6464   5.7337
     6.0453   6.4496   6.7557   6.9084   7.3052   7.4739

     occupation numbers 
     1.0000   1.0000   1.0000   1.0000   1.0000   1.0000   1.0000   1.0000
     1.0000   1.0000   1.0000   1.0000   1.0000   1.0000   1.0000   1.0000
     1.0000   1.0000   1.0000   1.0000   1.0000   1.0000   1.0000   1.0000
     1.0000   1.0000   1.0000   1.0000   1.0000   1.0000   1.0000   1.0000
     1.0000   1.0000   1.0000   1.0000   1.0000   1.0000   1.0000   1.0000
     1.0000   1.0000   1.0000   1.0000   1.0000   1.0000   1.0000   1.0000
     1.0000   1.0000   1.0000   1.0000   1.0000   1.0000

          k =-0.3333-0.1925 0.0351 (  5797 PWs)   bands (ev):

   -12.5281 -10.8834 -10.2152  -9.7870  -9.2769  -9.0027  -0.7099  -0.3033
    -0.0688   0.1962   0.6827   0.8722   1.0034   1.2594   1.4284   1.6175
     1.6655   1.7329   1.8006   1.8442   1.9231   1.9805   2.1213   2.2125
     2.2633   2.4079   2.4875   2.5881   2.6878   2.9464   2.9732   2.9955
     3.1010   3.1759   3.3578   3.3976   3.5760   3.6899   3.7766   4.0593
     4.1582   4.5692   4.7645   5.0323   5.2300   5.5715   5.6286   5.7284
     6.0738   6.4470   6.7544   6.8949   7.3075   7.4788

     occupation numbers 
     1.0000   1.0000   1.0000   1.0000   1.0000   1.0000   1.0000   1.0000
     1.0000   1.0000   1.0000   1.0000   1.0000   1.0000   1.0000   1.0000
     1.0000   1.0000   1.0000   1.0000   1.0000   1.0000   1.0000   1.0000
     1.0000   1.0000   1.0000   1.0000   1.0000   1.0000   1.0000   1.0000
     1.0000   1.0000   1.0000   1.0000   1.0000   1.0000   1.0000   1.0000
     1.0000   1.0000   1.0000   1.0000   1.0000   1.0000   1.0000   1.0000
     1.0000   1.0000   1.0000   1.0000   1.0000   1.0000

          k = 0.3333-0.1925 0.0351 (  5797 PWs)   bands (ev):

   -12.5360 -11.0156 -10.2257  -9.7534  -9.2761  -8.9972  -0.8355  -0.2271
    -0.0696   0.6074   0.6831   0.7796   0.9704   1.2005   1.2759   1.4959
     1.6059   1.7025   1.7708   1.8451   1.9248   2.1149   2.1596   2.1966
     2.2720   2.3164   2.4825   2.5996   2.6928   2.9093   3.0051   3.0784
     3.1012   3.2314   3.3439   3.4609   3.6971   3.7525   4.0441   4.0898
     4.2317   4.5978   4.7272   4.9649   5.2418   5.3608   5.5148   6.0308
     6.2477   6.4273   6.7636   6.9073   7.2160   7.3765

     occupation numbers 
     1.0000   1.0000   1.0000   1.0000   1.0000   1.0000   1.0000   1.0000
     1.0000   1.0000   1.0000   1.0000   1.0000   1.0000   1.0000   1.0000
     1.0000   1.0000   1.0000   1.0000   1.0000   1.0000   1.0000   1.0000
     1.0000   1.0000   1.0000   1.0000   1.0000   1.0000   1.0000   1.0000
     1.0000   1.0000   1.0000   1.0000   1.0000   1.0000   1.0000   1.0000
     1.0000   1.0000   1.0000   1.0000   1.0000   1.0000   1.0000   1.0000
     1.0000   1.0000   1.0000   1.0000   1.0000   1.0000

          k = 0.0000-0.3849 0.0702 (  5801 PWs)   bands (ev):

   -12.5297 -10.8848 -10.2317  -9.7473  -9.2754  -9.0078  -0.7264  -0.2662
    -0.0990   0.1894   0.7150   0.8559   0.9769   1.1334   1.4031   1.5326
     1.6282   1.7185   1.7798   1.8771   1.9081   1.9629   2.1532   2.2045
     2.2508   2.4469   2.6073   2.6315   2.7244   2.8814   2.8979   3.0180
     3.0812   3.2368   3.3630   3.4137   3.5796   3.7607   3.7817   4.0604
     4.2207   4.5061   4.8363   5.0210   5.2377   5.5592   5.6800   5.9556
     6.1504   6.3904   6.7140   6.8130   7.3050   7.3647

     occupation numbers 
     1.0000   1.0000   1.0000   1.0000   1.0000   1.0000   1.0000   1.0000
     1.0000   1.0000   1.0000   1.0000   1.0000   1.0000   1.0000   1.0000
     1.0000   1.0000   1.0000   1.0000   1.0000   1.0000   1.0000   1.0000
     1.0000   1.0000   1.0000   1.0000   1.0000   1.0000   1.0000   1.0000
     1.0000   1.0000   1.0000   1.0000   1.0000   1.0000   1.0000   1.0000
     1.0000   1.0000   1.0000   1.0000   1.0000   1.0000   1.0000   1.0000
     1.0000   1.0000   1.0000   1.0000   1.0000   1.0000

          k =-0.3333 0.1925 0.0702 (  5801 PWs)   bands (ev):

   -12.5360 -11.0156 -10.2257  -9.7534  -9.2761  -8.9972  -0.8354  -0.2271
    -0.0697   0.6071   0.6830   0.7796   0.9704   1.1987   1.2791   1.4900
     1.6234   1.7013   1.7679   1.8417   1.9195   2.1156   2.1613   2.1980
     2.2735   2.3068   2.4642   2.5970   2.7152   2.8945   3.0176   3.0788
     3.0903   3.2611   3.3799   3.4137   3.7424   3.7594   3.9375   4.0886
     4.3454   4.5030   4.7725   4.9300   5.2155   5.3563   5.5917   6.0206
     6.2500   6.4177   6.7659   6.8959   7.2180   7.3773

     occupation numbers 
     1.0000   1.0000   1.0000   1.0000   1.0000   1.0000   1.0000   1.0000
     1.0000   1.0000   1.0000   1.0000   1.0000   1.0000   1.0000   1.0000
     1.0000   1.0000   1.0000   1.0000   1.0000   1.0000   1.0000   1.0000
     1.0000   1.0000   1.0000   1.0000   1.0000   1.0000   1.0000   1.0000
     1.0000   1.0000   1.0000   1.0000   1.0000   1.0000   1.0000   1.0000
     1.0000   1.0000   1.0000   1.0000   1.0000   1.0000   1.0000   1.0000
     1.0000   1.0000   1.0000   1.0000   1.0000   1.0000

          k = 0.3333 0.1925 0.0702 (  5801 PWs)   bands (ev):

   -12.5281 -10.8834 -10.2152  -9.7870  -9.2769  -9.0027  -0.7099  -0.3033
    -0.0688   0.1963   0.6824   0.8719   1.0016   1.2582   1.4443   1.5992
     1.6923   1.7231   1.7969   1.8387   1.9212   1.9839   2.1202   2.2117
     2.2642   2.3836   2.4800   2.5925   2.7079   2.9328   2.9869   3.0042
     3.1006   3.1879   3.3534   3.4083   3.5121   3.7361   3.7727   4.0628
     4.2328   4.4780   4.7424   5.0030   5.2887   5.5385   5.6681   5.7571
     6.0470   6.4469   6.7555   6.8979   7.3034   7.4736

     occupation numbers 
     1.0000   1.0000   1.0000   1.0000   1.0000   1.0000   1.0000   1.0000
     1.0000   1.0000   1.0000   1.0000   1.0000   1.0000   1.0000   1.0000
     1.0000   1.0000   1.0000   1.0000   1.0000   1.0000   1.0000   1.0000
     1.0000   1.0000   1.0000   1.0000   1.0000   1.0000   1.0000   1.0000
     1.0000   1.0000   1.0000   1.0000   1.0000   1.0000   1.0000   1.0000
     1.0000   1.0000   1.0000   1.0000   1.0000   1.0000   1.0000   1.0000
     1.0000   1.0000   1.0000   1.0000   1.0000   1.0000

          k =-0.3333-0.1925 0.0702 (  5801 PWs)   bands (ev):

   -12.5281 -10.8834 -10.2152  -9.7870  -9.2769  -9.0027  -0.7099  -0.3033
    -0.0688   0.1963   0.6821   0.8721   1.0019   1.2686   1.4247   1.6156
     1.6661   1.7316   1.8017   1.8437   1.9207   1.9801   2.1238   2.2117
     2.2644   2.4059   2.4916   2.5655   2.7009   2.9328   2.9807   2.9961
     3.0976   3.1859   3.3535   3.3934   3.6217   3.6819   3.7744   4.0605
     4.1513   4.5919   4.6894   5.0289   5.2527   5.5498   5.6584   5.7468
     6.0784   6.4439   6.7540   6.8843   7.3057   7.4784

     occupation numbers 
     1.0000   1.0000   1.0000   1.0000   1.0000   1.0000   1.0000   1.0000
     1.0000   1.0000   1.0000   1.0000   1.0000   1.0000   1.0000   1.0000
     1.0000   1.0000   1.0000   1.0000   1.0000   1.0000   1.0000   1.0000
     1.0000   1.0000   1.0000   1.0000   1.0000   1.0000   1.0000   1.0000
     1.0000   1.0000   1.0000   1.0000   1.0000   1.0000   1.0000   1.0000
     1.0000   1.0000   1.0000   1.0000   1.0000   1.0000   1.0000   1.0000
     1.0000   1.0000   1.0000   1.0000   1.0000   1.0000

          k = 0.3333-0.1925 0.0702 (  5801 PWs)   bands (ev):

   -12.5360 -11.0156 -10.2257  -9.7534  -9.2761  -8.9972  -0.8355  -0.2271
    -0.0697   0.6072   0.6830   0.7796   0.9704   1.1981   1.2789   1.5006
     1.6050   1.7025   1.7722   1.8427   1.9213   2.1171   2.1580   2.1966
     2.2725   2.3157   2.4860   2.5783   2.6992   2.8979   3.0041   3.0805
     3.0971   3.2752   3.3475   3.4547   3.7084   3.7519   4.0197   4.0893
     4.2494   4.5753   4.7100   4.9422   5.2538   5.3603   5.5692   6.0246
     6.2398   6.4222   6.7647   6.8995   7.2165   7.3790

     occupation numbers 
     1.0000   1.0000   1.0000   1.0000   1.0000   1.0000   1.0000   1.0000
     1.0000   1.0000   1.0000   1.0000   1.0000   1.0000   1.0000   1.0000
     1.0000   1.0000   1.0000   1.0000   1.0000   1.0000   1.0000   1.0000
     1.0000   1.0000   1.0000   1.0000   1.0000   1.0000   1.0000   1.0000
     1.0000   1.0000   1.0000   1.0000   1.0000   1.0000   1.0000   1.0000
     1.0000   1.0000   1.0000   1.0000   1.0000   1.0000   1.0000   1.0000
     1.0000   1.0000   1.0000   1.0000   1.0000   1.0000

          k =-0.3333 0.1925-0.1053 (  5798 PWs)   bands (ev):

   -12.5360 -11.0156 -10.2257  -9.7534  -9.2761  -8.9972  -0.8354  -0.2271
    -0.0697   0.6071   0.6830   0.7797   0.9704   1.1972   1.2805   1.4972
     1.6143   1.7019   1.7709   1.8410   1.9187   2.1174   2.1588   2.1973
     2.2732   2.3110   2.4747   2.5807   2.7089   2.8914   3.0093   3.0816
     3.0922   3.2856   3.3703   3.4292   3.7351   3.7527   3.9632   4.0888
     4.3073   4.5258   4.7322   4.9302   5.2401   5.3577   5.6078   6.0184
     6.2407   6.4174   6.7659   6.8939   7.2174   7.3793

     occupation numbers 
     1.0000   1.0000   1.0000   1.0000   1.0000   1.0000   1.0000   1.0000
     1.0000   1.0000   1.0000   1.0000   1.0000   1.0000   1.0000   1.0000
     1.0000   1.0000   1.0000   1.0000   1.0000   1.0000   1.0000   1.0000
     1.0000   1.0000   1.0000   1.0000   1.0000   1.0000   1.0000   1.0000
     1.0000   1.0000   1.0000   1.0000   1.0000   1.0000   1.0000   1.0000
     1.0000   1.0000   1.0000   1.0000   1.0000   1.0000   1.0000   1.0000
     1.0000   1.0000   1.0000   1.0000   1.0000   1.0000

          k = 0.3333 0.1925-0.1053 (  5798 PWs)   bands (ev):

   -12.5281 -10.8834 -10.2152  -9.7870  -9.2769  -9.0027  -0.7099  -0.3033
    -0.0688   0.1963   0.6820   0.8720   1.0011   1.2676   1.4329   1.6060
     1.6787   1.7278   1.8001   1.8409   1.9197   1.9817   2.1233   2.2113
     2.2649   2.3932   2.4856   2.5722   2.7096   2.9280   2.9857   2.9997
     3.0983   3.1907   3.3516   3.3966   3.5762   3.7216   3.7718   4.0625
     4.1853   4.5379   4.6907   5.0169   5.2783   5.5375   5.6710   5.7650
     6.0643   6.4440   6.7546   6.8858   7.3037   7.4759

     occupation numbers 
     1.0000   1.0000   1.0000   1.0000   1.0000   1.0000   1.0000   1.0000
     1.0000   1.0000   1.0000   1.0000   1.0000   1.0000   1.0000   1.0000
     1.0000   1.0000   1.0000   1.0000   1.0000   1.0000   1.0000   1.0000
     1.0000   1.0000   1.0000   1.0000   1.0000   1.0000   1.0000   1.0000
     1.0000   1.0000   1.0000   1.0000   1.0000   1.0000   1.0000   1.0000
     1.0000   1.0000   1.0000   1.0000   1.0000   1.0000   1.0000   1.0000
     1.0000   1.0000   1.0000   1.0000   1.0000   1.0000

          k = 0.5000-0.2887 0.0000 (  5778 PWs)   bands (ev):

   -12.4291 -10.9148 -10.0726  -9.6637  -9.1792  -8.9043  -0.8838  -0.1459
     0.1455   0.6247   0.7206   0.8011   1.0189   1.2043   1.2746   1.4096
     1.4990   1.7340   1.7634   1.8841   1.8950   2.1877   2.2379   2.2718
     2.2996   2.3920   2.4126   2.6983   2.8349   2.9460   3.0195   3.0520
     3.2334   3.3102   3.3851   3.4602   3.6640   3.7475   3.8125   3.8227
     3.8816   4.2145   4.2673   4.4683   4.9743   5.1365   5.4353   5.7161
     6.0463   6.2823   6.5732   6.7476   6.8905   7.1777

     occupation numbers 
     1.0000   1.0000   1.0000   1.0000   1.0000   1.0000   1.0000   1.0000
     1.0000   1.0000   1.0000   1.0000   1.0000   1.0000   1.0000   1.0000
     1.0000   1.0000   1.0000   1.0000   1.0000   1.0000   1.0000   1.0000
     1.0000   1.0000   1.0000   1.0000   1.0000   1.0000   1.0000   1.0000
     1.0000   1.0000   1.0000   1.0000   1.0000   1.0000   1.0000   1.0000
     1.0000   1.0000   1.0000   1.0000   1.0000   1.0000   1.0000   1.0000
     1.0000   1.0000   1.0000   1.0000   1.0000   1.0000

          k =-0.5000-0.2887 0.0000 (  5778 PWs)   bands (ev):

   -12.4184 -10.7310 -10.0493  -9.7207  -9.1804  -8.9109  -0.7339  -0.1334
     0.0274   0.2146   0.6975   0.9193   1.0059   1.2737   1.3617   1.4188
     1.7179   1.7391   1.7697   1.8844   1.9355   2.0106   2.1444   2.2685
     2.3255   2.3563   2.5615   2.6086   2.7383   2.9219   3.0099   3.0932
     3.0993   3.1738   3.3761   3.4097   3.5211   3.7528   3.8007   3.8758
     3.9569   4.1179   4.4462   4.5293   4.8419   5.2847   5.3045   5.6195
     5.8190   6.2234   6.4875   6.7367   7.0581   7.2855

     occupation numbers 
     1.0000   1.0000   1.0000   1.0000   1.0000   1.0000   1.0000   1.0000
     1.0000   1.0000   1.0000   1.0000   1.0000   1.0000   1.0000   1.0000
     1.0000   1.0000   1.0000   1.0000   1.0000   1.0000   1.0000   1.0000
     1.0000   1.0000   1.0000   1.0000   1.0000   1.0000   1.0000   1.0000
     1.0000   1.0000   1.0000   1.0000   1.0000   1.0000   1.0000   1.0000
     1.0000   1.0000   1.0000   1.0000   1.0000   1.0000   1.0000   1.0000
     1.0000   1.0000   1.0000   1.0000   1.0000   1.0000

          k = 0.5000-0.2887 0.0351 (  5790 PWs)   bands (ev):

   -12.4291 -10.9148 -10.0726  -9.6637  -9.1792  -8.9043  -0.8838  -0.1459
     0.1454   0.6246   0.7205   0.8011   1.0188   1.2043   1.2747   1.4104
     1.4988   1.7341   1.7662   1.8788   1.8957   2.1870   2.2393   2.2738
     2.2987   2.3922   2.4111   2.6972   2.8354   2.9454   3.0182   3.0518
     3.2335   3.3121   3.3849   3.4601   3.6647   3.7473   3.8114   3.8247
     3.8806   4.2260   4.2670   4.4691   4.9465   5.1337   5.4522   5.7169
     6.0478   6.2915   6.5742   6.7429   6.8847   7.1773

     occupation numbers 
     1.0000   1.0000   1.0000   1.0000   1.0000   1.0000   1.0000   1.0000
     1.0000   1.0000   1.0000   1.0000   1.0000   1.0000   1.0000   1.0000
     1.0000   1.0000   1.0000   1.0000   1.0000   1.0000   1.0000   1.0000
     1.0000   1.0000   1.0000   1.0000   1.0000   1.0000   1.0000   1.0000
     1.0000   1.0000   1.0000   1.0000   1.0000   1.0000   1.0000   1.0000
     1.0000   1.0000   1.0000   1.0000   1.0000   1.0000   1.0000   1.0000
     1.0000   1.0000   1.0000   1.0000   1.0000   1.0000

          k =-0.5000-0.2887 0.0351 (  5790 PWs)   bands (ev):

   -12.4184 -10.7310 -10.0493  -9.7207  -9.1804  -8.9109  -0.7340  -0.1335
     0.0273   0.2146   0.6971   0.9192   1.0058   1.2762   1.3621   1.4171
     1.7197   1.7396   1.7681   1.8847   1.9359   2.0112   2.1362   2.2677
     2.3261   2.3608   2.5616   2.6087   2.7388   2.9207   3.0089   3.0923
     3.0998   3.1770   3.3731   3.4099   3.5229   3.7525   3.8015   3.8774
     3.9548   4.1137   4.4592   4.5304   4.8378   5.2734   5.3057   5.5961
     5.8499   6.2240   6.4873   6.7348   7.0571   7.2842

     occupation numbers 
     1.0000   1.0000   1.0000   1.0000   1.0000   1.0000   1.0000   1.0000
     1.0000   1.0000   1.0000   1.0000   1.0000   1.0000   1.0000   1.0000
     1.0000   1.0000   1.0000   1.0000   1.0000   1.0000   1.0000   1.0000
     1.0000   1.0000   1.0000   1.0000   1.0000   1.0000   1.0000   1.0000
     1.0000   1.0000   1.0000   1.0000   1.0000   1.0000   1.0000   1.0000
     1.0000   1.0000   1.0000   1.0000   1.0000   1.0000   1.0000   1.0000
     1.0000   1.0000   1.0000   1.0000   1.0000   1.0000

          k = 0.5000-0.2887 0.0702 (  5796 PWs)   bands (ev):

   -12.4291 -10.9148 -10.0726  -9.6637  -9.1792  -8.9043  -0.8838  -0.1460
     0.1453   0.6246   0.7205   0.8010   1.0188   1.2043   1.2749   1.4122
     1.4982   1.7346   1.7724   1.8690   1.8955   2.1860   2.2418   2.2786
     2.2961   2.3929   2.4080   2.6949   2.8363   2.9441   3.0157   3.0516
     3.2338   3.3156   3.3848   3.4600   3.6657   3.7473   3.8091   3.8288
     3.8785   4.2478   4.2693   4.4711   4.8915   5.1298   5.4817   5.7185
     6.0497   6.3121   6.5759   6.7322   6.8732   7.1764

     occupation numbers 
     1.0000   1.0000   1.0000   1.0000   1.0000   1.0000   1.0000   1.0000
     1.0000   1.0000   1.0000   1.0000   1.0000   1.0000   1.0000   1.0000
     1.0000   1.0000   1.0000   1.0000   1.0000   1.0000   1.0000   1.0000
     1.0000   1.0000   1.0000   1.0000   1.0000   1.0000   1.0000   1.0000
     1.0000   1.0000   1.0000   1.0000   1.0000   1.0000   1.0000   1.0000
     1.0000   1.0000   1.0000   1.0000   1.0000   1.0000   1.0000   1.0000
     1.0000   1.0000   1.0000   1.0000   1.0000   1.0000

          k =-0.5000-0.2887 0.0702 (  5796 PWs)   bands (ev):

   -12.4184 -10.7310 -10.0493  -9.7207  -9.1804  -8.9109  -0.7340  -0.1336
     0.0273   0.2147   0.6964   0.9191   1.0056   1.2811   1.3634   1.4134
     1.7247   1.7388   1.7660   1.8853   1.9366   2.0125   2.1204   2.2664
     2.3270   2.3692   2.5619   2.6089   2.7400   2.9184   3.0069   3.0910
     3.1005   3.1834   3.3671   3.4101   3.5263   3.7518   3.8032   3.8811
     3.9503   4.1062   4.4835   4.5359   4.8280   5.2522   5.3044   5.5662
     5.8966   6.2257   6.4867   6.7311   7.0549   7.2815

     occupation numbers 
     1.0000   1.0000   1.0000   1.0000   1.0000   1.0000   1.0000   1.0000
     1.0000   1.0000   1.0000   1.0000   1.0000   1.0000   1.0000   1.0000
     1.0000   1.0000   1.0000   1.0000   1.0000   1.0000   1.0000   1.0000
     1.0000   1.0000   1.0000   1.0000   1.0000   1.0000   1.0000   1.0000
     1.0000   1.0000   1.0000   1.0000   1.0000   1.0000   1.0000   1.0000
     1.0000   1.0000   1.0000   1.0000   1.0000   1.0000   1.0000   1.0000
     1.0000   1.0000   1.0000   1.0000   1.0000   1.0000

          k = 0.5000-0.2887-0.1053 (  5804 PWs)   bands (ev):

   -12.4291 -10.9148 -10.0726  -9.6637  -9.1792  -8.9043  -0.8838  -0.1460
     0.1453   0.6245   0.7205   0.8009   1.0187   1.2042   1.2750   1.4130
     1.4979   1.7349   1.7760   1.8639   1.8951   2.1856   2.2429   2.2817
     2.2941   2.3935   2.4062   2.6938   2.8367   2.9434   3.0145   3.0514
     3.2339   3.3173   3.3848   3.4599   3.6660   3.7474   3.8079   3.8308
     3.8774   4.2545   4.2758   4.4724   4.8639   5.1283   5.4948   5.7192
     6.0502   6.3236   6.5767   6.7260   6.8676   7.1759

     occupation numbers 
     1.0000   1.0000   1.0000   1.0000   1.0000   1.0000   1.0000   1.0000
     1.0000   1.0000   1.0000   1.0000   1.0000   1.0000   1.0000   1.0000
     1.0000   1.0000   1.0000   1.0000   1.0000   1.0000   1.0000   1.0000
     1.0000   1.0000   1.0000   1.0000   1.0000   1.0000   1.0000   1.0000
     1.0000   1.0000   1.0000   1.0000   1.0000   1.0000   1.0000   1.0000
     1.0000   1.0000   1.0000   1.0000   1.0000   1.0000   1.0000   1.0000
     1.0000   1.0000   1.0000   1.0000   1.0000   1.0000

          k =-0.5000-0.2887-0.1053 (  5804 PWs)   bands (ev):

   -12.4185 -10.7310 -10.0493  -9.7207  -9.1804  -8.9109  -0.7340  -0.1336
     0.0273   0.2147   0.6960   0.9190   1.0055   1.2836   1.3642   1.4112
     1.7291   1.7358   1.7655   1.8856   1.9369   2.0132   2.1127   2.2658
     2.3273   2.3732   2.5620   2.6090   2.7406   2.9172   3.0059   3.0904
     3.1007   3.1866   3.3641   3.4102   3.5279   3.7514   3.8041   3.8830
     3.9478   4.1028   4.4935   4.5417   4.8219   5.2412   5.3031   5.5562
     5.9158   6.2267   6.4864   6.7293   7.0537   7.2802

     occupation numbers 
     1.0000   1.0000   1.0000   1.0000   1.0000   1.0000   1.0000   1.0000
     1.0000   1.0000   1.0000   1.0000   1.0000   1.0000   1.0000   1.0000
     1.0000   1.0000   1.0000   1.0000   1.0000   1.0000   1.0000   1.0000
     1.0000   1.0000   1.0000   1.0000   1.0000   1.0000   1.0000   1.0000
     1.0000   1.0000   1.0000   1.0000   1.0000   1.0000   1.0000   1.0000
     1.0000   1.0000   1.0000   1.0000   1.0000   1.0000   1.0000   1.0000
     1.0000   1.0000   1.0000   1.0000   1.0000   1.0000

          k =-0.1667 0.2887 0.0000 (  5793 PWs)   bands (ev):

   -12.5871 -11.0235 -10.3034  -9.7921  -9.3233  -9.0472  -0.6223  -0.4964
    -0.1005   0.3435   0.6962   0.8386   1.0610   1.2604   1.3731   1.4529
     1.6142   1.7044   1.7463   1.8278   1.9231   2.0046   2.0813   2.1548
     2.2211   2.3100   2.5817   2.6289   2.7352   2.8404   2.8830   3.0792
     3.1026   3.3370   3.3755   3.4315   3.7356   3.7802   3.9469   4.2227
     4.5336   4.5965   5.0067   5.2734   5.3412   5.4909   5.7253   6.0379
     6.3332   6.3844   6.6199   6.9178   7.2895   7.4884

     occupation numbers 
     1.0000   1.0000   1.0000   1.0000   1.0000   1.0000   1.0000   1.0000
     1.0000   1.0000   1.0000   1.0000   1.0000   1.0000   1.0000   1.0000
     1.0000   1.0000   1.0000   1.0000   1.0000   1.0000   1.0000   1.0000
     1.0000   1.0000   1.0000   1.0000   1.0000   1.0000   1.0000   1.0000
     1.0000   1.0000   1.0000   1.0000   1.0000   1.0000   1.0000   1.0000
     1.0000   1.0000   1.0000   1.0000   1.0000   1.0000   1.0000   1.0000
     1.0000   1.0000   1.0000   1.0000   1.0000   1.0000

          k = 0.3333-0.0000 0.0000 (  5793 PWs)   bands (ev):

   -12.5861 -11.0226 -10.2943  -9.8159  -9.3242  -9.0443  -0.6473  -0.4654
    -0.0957   0.3671   0.6596   0.8532   1.0591   1.2570   1.4073   1.5683
     1.6273   1.7010   1.8006   1.8671   1.9287   2.0535   2.1056   2.1591
     2.2365   2.2482   2.3607   2.6250   2.6745   2.8901   2.9505   3.0360
     3.1552   3.2805   3.3890   3.4114   3.7232   3.7770   3.9390   4.1811
     4.4831   4.5950   4.9660   5.1634   5.3531   5.6056   5.7071   5.9468
     6.1863   6.4789   6.7667   7.0391   7.2426   7.4868

     occupation numbers 
     1.0000   1.0000   1.0000   1.0000   1.0000   1.0000   1.0000   1.0000
     1.0000   1.0000   1.0000   1.0000   1.0000   1.0000   1.0000   1.0000
     1.0000   1.0000   1.0000   1.0000   1.0000   1.0000   1.0000   1.0000
     1.0000   1.0000   1.0000   1.0000   1.0000   1.0000   1.0000   1.0000
     1.0000   1.0000   1.0000   1.0000   1.0000   1.0000   1.0000   1.0000
     1.0000   1.0000   1.0000   1.0000   1.0000   1.0000   1.0000   1.0000
     1.0000   1.0000   1.0000   1.0000   1.0000   1.0000

          k =-0.1667-0.2887 0.0351 (  5792 PWs)   bands (ev):

   -12.5820 -10.9368 -10.2976  -9.8126  -9.3237  -9.0511  -0.6261  -0.3892
    -0.1377   0.1767   0.6999   0.8622   0.9978   1.2313   1.4602   1.5470
     1.6710   1.7117   1.7897   1.8360   1.9191   2.0518   2.1438   2.1826
     2.2495   2.3329   2.4716   2.5548   2.6488   2.8684   2.9231   3.0156
     3.1474   3.2446   3.3305   3.4215   3.6148   3.7659   3.8297   4.0368
     4.2693   4.7241   5.0459   5.2644   5.4136   5.6701   5.7996   5.9798
     6.3006   6.3706   6.6816   6.9351   7.2585   7.5145

     occupation numbers 
     1.0000   1.0000   1.0000   1.0000   1.0000   1.0000   1.0000   1.0000
     1.0000   1.0000   1.0000   1.0000   1.0000   1.0000   1.0000   1.0000
     1.0000   1.0000   1.0000   1.0000   1.0000   1.0000   1.0000   1.0000
     1.0000   1.0000   1.0000   1.0000   1.0000   1.0000   1.0000   1.0000
     1.0000   1.0000   1.0000   1.0000   1.0000   1.0000   1.0000   1.0000
     1.0000   1.0000   1.0000   1.0000   1.0000   1.0000   1.0000   1.0000
     1.0000   1.0000   1.0000   1.0000   1.0000   1.0000

          k =-0.1667 0.2887-0.0351 (  5792 PWs)   bands (ev):

   -12.5871 -11.0235 -10.3034  -9.7921  -9.3233  -9.0472  -0.6223  -0.4965
    -0.1005   0.3435   0.6961   0.8386   1.0604   1.2610   1.3708   1.4598
     1.6137   1.7050   1.7480   1.8186   1.9308   2.0025   2.0750   2.1567
     2.2210   2.3117   2.5781   2.6226   2.7273   2.8454   2.8833   3.0676
     3.1336   3.3338   3.3897   3.4277   3.7354   3.7817   3.9493   4.1955
     4.5203   4.6130   5.0068   5.2550   5.3586   5.4898   5.7482   6.0335
     6.3336   6.3734   6.6225   6.9133   7.2896   7.4916

     occupation numbers 
     1.0000   1.0000   1.0000   1.0000   1.0000   1.0000   1.0000   1.0000
     1.0000   1.0000   1.0000   1.0000   1.0000   1.0000   1.0000   1.0000
     1.0000   1.0000   1.0000   1.0000   1.0000   1.0000   1.0000   1.0000
     1.0000   1.0000   1.0000   1.0000   1.0000   1.0000   1.0000   1.0000
     1.0000   1.0000   1.0000   1.0000   1.0000   1.0000   1.0000   1.0000
     1.0000   1.0000   1.0000   1.0000   1.0000   1.0000   1.0000   1.0000
     1.0000   1.0000   1.0000   1.0000   1.0000   1.0000

          k = 0.1667-0.2887-0.0351 (  5792 PWs)   bands (ev):

   -12.5871 -11.0235 -10.3034  -9.7921  -9.3233  -9.0472  -0.6222  -0.4965
    -0.1005   0.3435   0.6961   0.8386   1.0608   1.2608   1.3745   1.4522
     1.6178   1.7052   1.7473   1.8203   1.9224   1.9959   2.0961   2.1492
     2.2216   2.3099   2.5759   2.6329   2.7338   2.8390   2.8848   3.0578
     3.1428   3.3343   3.3643   3.4310   3.7349   3.7905   3.9466   4.2108
     4.4906   4.6463   4.9927   5.2797   5.3612   5.4691   5.7320   6.0409
     6.3294   6.3819   6.6214   6.9177   7.2892   7.4888

     occupation numbers 
     1.0000   1.0000   1.0000   1.0000   1.0000   1.0000   1.0000   1.0000
     1.0000   1.0000   1.0000   1.0000   1.0000   1.0000   1.0000   1.0000
     1.0000   1.0000   1.0000   1.0000   1.0000   1.0000   1.0000   1.0000
     1.0000   1.0000   1.0000   1.0000   1.0000   1.0000   1.0000   1.0000
     1.0000   1.0000   1.0000   1.0000   1.0000   1.0000   1.0000   1.0000
     1.0000   1.0000   1.0000   1.0000   1.0000   1.0000   1.0000   1.0000
     1.0000   1.0000   1.0000   1.0000   1.0000   1.0000

          k = 0.3333-0.0000 0.0351 (  5792 PWs)   bands (ev):

   -12.5861 -11.0226 -10.2943  -9.8159  -9.3242  -9.0443  -0.6474  -0.4654
    -0.0957   0.3671   0.6595   0.8531   1.0585   1.2567   1.4091   1.5707
     1.6324   1.7016   1.8028   1.8469   1.9347   2.0563   2.1108   2.1543
     2.2384   2.2479   2.3538   2.6125   2.6894   2.8884   2.9483   3.0345
     3.1638   3.2796   3.4009   3.4086   3.7271   3.7775   3.9408   4.1636
     4.4811   4.5986   4.9592   5.1540   5.3491   5.6313   5.7242   5.9391
     6.1760   6.4722   6.7686   7.0428   7.2419   7.4856

     occupation numbers 
     1.0000   1.0000   1.0000   1.0000   1.0000   1.0000   1.0000   1.0000
     1.0000   1.0000   1.0000   1.0000   1.0000   1.0000   1.0000   1.0000
     1.0000   1.0000   1.0000   1.0000   1.0000   1.0000   1.0000   1.0000
     1.0000   1.0000   1.0000   1.0000   1.0000   1.0000   1.0000   1.0000
     1.0000   1.0000   1.0000   1.0000   1.0000   1.0000   1.0000   1.0000
     1.0000   1.0000   1.0000   1.0000   1.0000   1.0000   1.0000   1.0000
     1.0000   1.0000   1.0000   1.0000   1.0000   1.0000

          k =-0.3333 0.0000 0.0351 (  5792 PWs)   bands (ev):

   -12.5861 -11.0226 -10.2943  -9.8159  -9.3242  -9.0443  -0.6473  -0.4654
    -0.0957   0.3671   0.6594   0.8532   1.0585   1.2607   1.4066   1.5664
     1.6274   1.7001   1.7989   1.8727   1.9284   2.0502   2.0977   2.1620
     2.2374   2.2489   2.3702   2.6260   2.6536   2.8843   2.9552   3.0296
     3.1894   3.2944   3.3719   3.4130   3.7226   3.7817   3.9401   4.1505
     4.4667   4.6367   4.9336   5.2033   5.3257   5.5949   5.7284   5.9476
     6.1959   6.4687   6.7687   7.0317   7.2428   7.4903

     occupation numbers 
     1.0000   1.0000   1.0000   1.0000   1.0000   1.0000   1.0000   1.0000
     1.0000   1.0000   1.0000   1.0000   1.0000   1.0000   1.0000   1.0000
     1.0000   1.0000   1.0000   1.0000   1.0000   1.0000   1.0000   1.0000
     1.0000   1.0000   1.0000   1.0000   1.0000   1.0000   1.0000   1.0000
     1.0000   1.0000   1.0000   1.0000   1.0000   1.0000   1.0000   1.0000
     1.0000   1.0000   1.0000   1.0000   1.0000   1.0000   1.0000   1.0000
     1.0000   1.0000   1.0000   1.0000   1.0000   1.0000

          k =-0.1667-0.2887 0.0702 (  5797 PWs)   bands (ev):

   -12.5820 -10.9368 -10.2976  -9.8126  -9.3237  -9.0512  -0.6261  -0.3893
    -0.1377   0.1767   0.6994   0.8622   0.9968   1.2345   1.4702   1.5376
     1.6700   1.7139   1.7876   1.8349   1.9190   2.0533   2.1345   2.1848
     2.2496   2.3420   2.4653   2.5457   2.6503   2.8667   2.9207   3.0073
     3.1703   3.2408   3.3298   3.4187   3.6705   3.7593   3.8287   4.0394
     4.1931   4.7811   4.9765   5.2862   5.4256   5.7076   5.7860   5.9822
     6.2997   6.3549   6.6837   6.9332   7.2569   7.5165

     occupation numbers 
     1.0000   1.0000   1.0000   1.0000   1.0000   1.0000   1.0000   1.0000
     1.0000   1.0000   1.0000   1.0000   1.0000   1.0000   1.0000   1.0000
     1.0000   1.0000   1.0000   1.0000   1.0000   1.0000   1.0000   1.0000
     1.0000   1.0000   1.0000   1.0000   1.0000   1.0000   1.0000   1.0000
     1.0000   1.0000   1.0000   1.0000   1.0000   1.0000   1.0000   1.0000
     1.0000   1.0000   1.0000   1.0000   1.0000   1.0000   1.0000   1.0000
     1.0000   1.0000   1.0000   1.0000   1.0000   1.0000

          k =-0.1667 0.2887-0.0702 (  5797 PWs)   bands (ev):

   -12.5871 -11.0235 -10.3034  -9.7921  -9.3233  -9.0472  -0.6223  -0.4965
    -0.1005   0.3435   0.6958   0.8385   1.0596   1.2620   1.3699   1.4659
     1.6171   1.7066   1.7528   1.8000   1.9381   1.9895   2.0836   2.1540
     2.2214   2.3134   2.5671   2.6219   2.7207   2.8476   2.8850   3.0547
     3.1844   3.3270   3.3949   3.4212   3.7345   3.7955   3.9527   4.1516
     4.4841   4.6604   4.9925   5.2514   5.3847   5.4722   5.7751   6.0339
     6.3321   6.3558   6.6271   6.9088   7.2894   7.4952

     occupation numbers 
     1.0000   1.0000   1.0000   1.0000   1.0000   1.0000   1.0000   1.0000
     1.0000   1.0000   1.0000   1.0000   1.0000   1.0000   1.0000   1.0000
     1.0000   1.0000   1.0000   1.0000   1.0000   1.0000   1.0000   1.0000
     1.0000   1.0000   1.0000   1.0000   1.0000   1.0000   1.0000   1.0000
     1.0000   1.0000   1.0000   1.0000   1.0000   1.0000   1.0000   1.0000
     1.0000   1.0000   1.0000   1.0000   1.0000   1.0000   1.0000   1.0000
     1.0000   1.0000   1.0000   1.0000   1.0000   1.0000

          k = 0.1667-0.2887-0.0702 (  5797 PWs)   bands (ev):

   -12.5871 -11.0235 -10.3034  -9.7921  -9.3233  -9.0472  -0.6223  -0.4965
    -0.1005   0.3435   0.6959   0.8385   1.0601   1.2618   1.3733   1.4585
     1.6214   1.7069   1.7517   1.8012   1.9292   1.9864   2.1035   2.1453
     2.2219   2.3116   2.5666   2.6305   2.7252   2.8425   2.8866   3.0486
     3.1951   3.3223   3.3662   3.4280   3.7343   3.8044   3.9489   4.1675
     4.4662   4.6832   4.9787   5.2696   5.4066   5.4388   5.7565   6.0429
     6.3253   6.3670   6.6259   6.9131   7.2891   7.4924

     occupation numbers 
     1.0000   1.0000   1.0000   1.0000   1.0000   1.0000   1.0000   1.0000
     1.0000   1.0000   1.0000   1.0000   1.0000   1.0000   1.0000   1.0000
     1.0000   1.0000   1.0000   1.0000   1.0000   1.0000   1.0000   1.0000
     1.0000   1.0000   1.0000   1.0000   1.0000   1.0000   1.0000   1.0000
     1.0000   1.0000   1.0000   1.0000   1.0000   1.0000   1.0000   1.0000
     1.0000   1.0000   1.0000   1.0000   1.0000   1.0000   1.0000   1.0000
     1.0000   1.0000   1.0000   1.0000   1.0000   1.0000

          k = 0.3333-0.0000 0.0702 (  5797 PWs)   bands (ev):

   -12.5861 -11.0226 -10.2943  -9.8159  -9.3242  -9.0443  -0.6474  -0.4654
    -0.0957   0.3671   0.6591   0.8531   1.0572   1.2601   1.4103   1.5712
     1.6387   1.7008   1.8031   1.8329   1.9390   2.0567   2.1060   2.1539
     2.2412   2.2481   2.3559   2.5996   2.6855   2.8813   2.9514   3.0283
     3.2019   3.2893   3.3981   3.4107   3.7303   3.7847   3.9450   4.1117
     4.4644   4.6426   4.9199   5.1781   5.3278   5.6382   5.7648   5.9362
     6.1722   6.4553   6.7722   7.0393   7.2414   7.4880

     occupation numbers 
     1.0000   1.0000   1.0000   1.0000   1.0000   1.0000   1.0000   1.0000
     1.0000   1.0000   1.0000   1.0000   1.0000   1.0000   1.0000   1.0000
     1.0000   1.0000   1.0000   1.0000   1.0000   1.0000   1.0000   1.0000
     1.0000   1.0000   1.0000   1.0000   1.0000   1.0000   1.0000   1.0000
     1.0000   1.0000   1.0000   1.0000   1.0000   1.0000   1.0000   1.0000
     1.0000   1.0000   1.0000   1.0000   1.0000   1.0000   1.0000   1.0000
     1.0000   1.0000   1.0000   1.0000   1.0000   1.0000

          k =-0.3333 0.0000 0.0702 (  5797 PWs)   bands (ev):

   -12.5861 -11.0226 -10.2943  -9.8159  -9.3242  -9.0443  -0.6473  -0.4655
    -0.0957   0.3671   0.6591   0.8531   1.0573   1.2641   1.4079   1.5671
     1.6326   1.6994   1.7980   1.8584   1.9350   2.0505   2.0936   2.1611
     2.2398   2.2492   2.3730   2.6032   2.6597   2.8790   2.9567   3.0251
     3.2202   3.3272   3.3521   3.4140   3.7255   3.7895   3.9443   4.0989
     4.4563   4.6775   4.8947   5.2346   5.2915   5.6092   5.7603   5.9460
     6.1944   6.4507   6.7723   7.0283   7.2423   7.4926

     occupation numbers 
     1.0000   1.0000   1.0000   1.0000   1.0000   1.0000   1.0000   1.0000
     1.0000   1.0000   1.0000   1.0000   1.0000   1.0000   1.0000   1.0000
     1.0000   1.0000   1.0000   1.0000   1.0000   1.0000   1.0000   1.0000
     1.0000   1.0000   1.0000   1.0000   1.0000   1.0000   1.0000   1.0000
     1.0000   1.0000   1.0000   1.0000   1.0000   1.0000   1.0000   1.0000
     1.0000   1.0000   1.0000   1.0000   1.0000   1.0000   1.0000   1.0000
     1.0000   1.0000   1.0000   1.0000   1.0000   1.0000

          k =-0.1667 0.2887 0.1053 (  5806 PWs)   bands (ev):

   -12.5871 -11.0235 -10.3034  -9.7921  -9.3233  -9.0472  -0.6223  -0.4965
    -0.1005   0.3435   0.6957   0.8385   1.0595   1.2624   1.3710   1.4652
     1.6212   1.7077   1.7571   1.7884   1.9374   1.9822   2.0967   2.1486
     2.2218   2.3133   2.5618   2.6256   2.7199   2.8461   2.8866   3.0486
     3.2153   3.3182   3.3804   3.4234   3.7340   3.8083   3.9530   4.1351
     4.4654   4.6879   4.9784   5.2587   5.4103   5.4459   5.7769   6.0408
     6.3269   6.3523   6.6291   6.9087   7.2892   7.4956

     occupation numbers 
     1.0000   1.0000   1.0000   1.0000   1.0000   1.0000   1.0000   1.0000
     1.0000   1.0000   1.0000   1.0000   1.0000   1.0000   1.0000   1.0000
     1.0000   1.0000   1.0000   1.0000   1.0000   1.0000   1.0000   1.0000
     1.0000   1.0000   1.0000   1.0000   1.0000   1.0000   1.0000   1.0000
     1.0000   1.0000   1.0000   1.0000   1.0000   1.0000   1.0000   1.0000
     1.0000   1.0000   1.0000   1.0000   1.0000   1.0000   1.0000   1.0000
     1.0000   1.0000   1.0000   1.0000   1.0000   1.0000

          k = 0.3333-0.0000-0.1053 (  5806 PWs)   bands (ev):

   -12.5861 -11.0226 -10.2943  -9.8160  -9.3242  -9.0443  -0.6474  -0.4655
    -0.0957   0.3671   0.6589   0.8530   1.0566   1.2637   1.4097   1.5695
     1.6388   1.6994   1.7994   1.8398   1.9394   2.0542   2.0968   2.1577
     2.2417   2.2488   2.3656   2.5933   2.6727   2.8777   2.9550   3.0248
     3.2247   3.3139   3.3764   3.4137   3.7293   3.7926   3.9481   4.0763
     4.4555   4.6809   4.8872   5.2136   5.3025   5.6288   5.7773   5.9438
     6.1806   6.4441   6.7740   7.0322   7.2416   7.4914

     occupation numbers 
     1.0000   1.0000   1.0000   1.0000   1.0000   1.0000   1.0000   1.0000
     1.0000   1.0000   1.0000   1.0000   1.0000   1.0000   1.0000   1.0000
     1.0000   1.0000   1.0000   1.0000   1.0000   1.0000   1.0000   1.0000
     1.0000   1.0000   1.0000   1.0000   1.0000   1.0000   1.0000   1.0000
     1.0000   1.0000   1.0000   1.0000   1.0000   1.0000   1.0000   1.0000
     1.0000   1.0000   1.0000   1.0000   1.0000   1.0000   1.0000   1.0000
     1.0000   1.0000   1.0000   1.0000   1.0000   1.0000

          k =-0.1667 0.4811 0.0000 (  5814 PWs)   bands (ev):

   -12.4246 -10.7813 -10.0847  -9.6553  -9.1799  -8.9171  -0.5758  -0.2460
    -0.0341   0.2810   0.7122   0.8942   1.0803   1.2664   1.3635   1.5213
     1.6129   1.6968   1.8157   1.8401   1.9191   2.0257   2.1592   2.1987
     2.3275   2.4988   2.6365   2.7771   2.8492   2.8808   2.9711   3.0254
     3.1925   3.2415   3.3638   3.4203   3.4550   3.5516   3.6610   3.8500
     4.0667   4.4185   4.5463   4.6301   4.9070   5.0592   5.2609   5.5509
     5.6519   6.0531   6.1921   6.5698   6.8163   7.1231

     occupation numbers 
     1.0000   1.0000   1.0000   1.0000   1.0000   1.0000   1.0000   1.0000
     1.0000   1.0000   1.0000   1.0000   1.0000   1.0000   1.0000   1.0000
     1.0000   1.0000   1.0000   1.0000   1.0000   1.0000   1.0000   1.0000
     1.0000   1.0000   1.0000   1.0000   1.0000   1.0000   1.0000   1.0000
     1.0000   1.0000   1.0000   1.0000   1.0000   1.0000   1.0000   1.0000
     1.0000   1.0000   1.0000   1.0000   1.0000   1.0000   1.0000   1.0000
     1.0000   1.0000   1.0000   1.0000   1.0000   1.0000

          k =-0.3333 0.3849 0.0000 (  5814 PWs)   bands (ev):

   -12.4289 -10.8722 -10.0791  -9.6612  -9.1803  -8.9092  -0.6766  -0.2321
     0.0216   0.4540   0.7144   0.9055   1.0687   1.3273   1.4007   1.5452
     1.5974   1.7109   1.7605   1.8364   1.8722   2.0728   2.1639   2.2070
     2.2852   2.3986   2.6076   2.7618   2.8736   2.8989   2.9955   3.1278
     3.1928   3.2879   3.3910   3.4437   3.5681   3.6392   3.7269   3.8742
     4.0799   4.3436   4.3953   4.5418   4.7607   4.9823   5.2853   5.5795
     5.6459   6.0760   6.2809   6.5643   6.9392   7.0544

     occupation numbers 
     1.0000   1.0000   1.0000   1.0000   1.0000   1.0000   1.0000   1.0000
     1.0000   1.0000   1.0000   1.0000   1.0000   1.0000   1.0000   1.0000
     1.0000   1.0000   1.0000   1.0000   1.0000   1.0000   1.0000   1.0000
     1.0000   1.0000   1.0000   1.0000   1.0000   1.0000   1.0000   1.0000
     1.0000   1.0000   1.0000   1.0000   1.0000   1.0000   1.0000   1.0000
     1.0000   1.0000   1.0000   1.0000   1.0000   1.0000   1.0000   1.0000
     1.0000   1.0000   1.0000   1.0000   1.0000   1.0000

          k = 0.5000 0.0962 0.0000 (  5814 PWs)   bands (ev):

   -12.4230 -10.7799 -10.0594  -9.7065  -9.1813  -8.9102  -0.5647  -0.2662
     0.0020   0.2879   0.6886   0.8986   1.1019   1.3372   1.4159   1.5110
     1.6912   1.7241   1.8241   1.8991   1.9381   2.0764   2.1822   2.2367
     2.3363   2.4319   2.5153   2.6662   2.7637   2.9280   2.9729   3.0610
     3.1295   3.2716   3.3338   3.4084   3.4815   3.5914   3.7164   3.8742
     4.0864   4.2493   4.4384   4.6130   4.7658   4.9474   5.2404   5.6163
     5.7120   5.9881   6.1623   6.7357   6.8491   7.1430

     occupation numbers 
     1.0000   1.0000   1.0000   1.0000   1.0000   1.0000   1.0000   1.0000
     1.0000   1.0000   1.0000   1.0000   1.0000   1.0000   1.0000   1.0000
     1.0000   1.0000   1.0000   1.0000   1.0000   1.0000   1.0000   1.0000
     1.0000   1.0000   1.0000   1.0000   1.0000   1.0000   1.0000   1.0000
     1.0000   1.0000   1.0000   1.0000   1.0000   1.0000   1.0000   1.0000
     1.0000   1.0000   1.0000   1.0000   1.0000   1.0000   1.0000   1.0000
     1.0000   1.0000   1.0000   1.0000   1.0000   1.0000

          k =-0.3333-0.3849 0.0000 (  5814 PWs)   bands (ev):

   -12.4209 -10.7339 -10.0623  -9.7032  -9.1811  -8.9143  -0.5746  -0.2080
     0.0059   0.2650   0.7047   0.9190   1.0178   1.3202   1.3814   1.5014
     1.6476   1.7109   1.7805   1.9146   2.0468   2.1243   2.1836   2.2257
     2.2461   2.4326   2.5703   2.6095   2.7253   2.9352   2.9677   3.0754
     3.0936   3.1506   3.3351   3.4122   3.4528   3.5302   3.7136   3.8925
     4.0751   4.3575   4.4455   4.6717   4.8388   4.9330   5.3281   5.6473
     5.7189   5.9940   6.1326   6.6217   6.8464   7.1680

     occupation numbers 
     1.0000   1.0000   1.0000   1.0000   1.0000   1.0000   1.0000   1.0000
     1.0000   1.0000   1.0000   1.0000   1.0000   1.0000   1.0000   1.0000
     1.0000   1.0000   1.0000   1.0000   1.0000   1.0000   1.0000   1.0000
     1.0000   1.0000   1.0000   1.0000   1.0000   1.0000   1.0000   1.0000
     1.0000   1.0000   1.0000   1.0000   1.0000   1.0000   1.0000   1.0000
     1.0000   1.0000   1.0000   1.0000   1.0000   1.0000   1.0000   1.0000
     1.0000   1.0000   1.0000   1.0000   1.0000   1.0000

          k = 0.5000-0.0962 0.0000 (  5814 PWs)   bands (ev):

   -12.4283 -10.8717 -10.0708  -9.6783  -9.1807  -8.9069  -0.6830  -0.2287
     0.0434   0.4692   0.6927   0.9085   1.0640   1.3031   1.3964   1.5708
     1.6047   1.6960   1.7960   1.8540   1.9874   2.1213   2.1739   2.2070
     2.2858   2.4098   2.5192   2.6473   2.8299   2.9366   3.0181   3.1105
     3.1832   3.3010   3.3763   3.4174   3.5735   3.7105   3.7424   3.8557
     4.0992   4.3176   4.3320   4.4789   4.7090   5.0224   5.1475   5.6124
     5.7581   6.1356   6.2188   6.6573   6.9181   7.0363

     occupation numbers 
     1.0000   1.0000   1.0000   1.0000   1.0000   1.0000   1.0000   1.0000
     1.0000   1.0000   1.0000   1.0000   1.0000   1.0000   1.0000   1.0000
     1.0000   1.0000   1.0000   1.0000   1.0000   1.0000   1.0000   1.0000
     1.0000   1.0000   1.0000   1.0000   1.0000   1.0000   1.0000   1.0000
     1.0000   1.0000   1.0000   1.0000   1.0000   1.0000   1.0000   1.0000
     1.0000   1.0000   1.0000   1.0000   1.0000   1.0000   1.0000   1.0000
     1.0000   1.0000   1.0000   1.0000   1.0000   1.0000

          k =-0.1667-0.4811 0.0351 (  5807 PWs)   bands (ev):

   -12.4220 -10.7348 -10.0793  -9.6691  -9.1801  -8.9188  -0.5925  -0.1859
    -0.0044   0.2659   0.7174   0.9062   0.9890   1.2507   1.3567   1.4786
     1.6049   1.6663   1.8175   1.9441   2.0136   2.0598   2.1963   2.2245
     2.2486   2.5349   2.5894   2.6759   2.7655   2.8994   2.9702   3.0034
     3.1061   3.2027   3.2798   3.4062   3.4598   3.5156   3.7286   3.8708
     4.0607   4.3973   4.5420   4.7332   4.8397   5.0359   5.3468   5.5938
     5.6817   6.0778   6.2443   6.5210   6.7897   7.1095

     occupation numbers 
     1.0000   1.0000   1.0000   1.0000   1.0000   1.0000   1.0000   1.0000
     1.0000   1.0000   1.0000   1.0000   1.0000   1.0000   1.0000   1.0000
     1.0000   1.0000   1.0000   1.0000   1.0000   1.0000   1.0000   1.0000
     1.0000   1.0000   1.0000   1.0000   1.0000   1.0000   1.0000   1.0000
     1.0000   1.0000   1.0000   1.0000   1.0000   1.0000   1.0000   1.0000
     1.0000   1.0000   1.0000   1.0000   1.0000   1.0000   1.0000   1.0000
     1.0000   1.0000   1.0000   1.0000   1.0000   1.0000

          k =-0.1667 0.4811-0.0351 (  5807 PWs)   bands (ev):

   -12.4246 -10.7813 -10.0847  -9.6553  -9.1799  -8.9171  -0.5757  -0.2461
    -0.0341   0.2810   0.7119   0.8942   1.0797   1.2681   1.3628   1.5264
     1.6084   1.7013   1.8130   1.8384   1.9195   2.0243   2.1514   2.2049
     2.3289   2.4975   2.6418   2.7706   2.8387   2.8958   2.9674   3.0251
     3.1951   3.2443   3.3529   3.4273   3.4418   3.5748   3.6554   3.8483
     4.0658   4.4261   4.5320   4.6522   4.9028   5.0634   5.2302   5.5551
     5.6427   6.0555   6.2262   6.5617   6.8121   7.1184

     occupation numbers 
     1.0000   1.0000   1.0000   1.0000   1.0000   1.0000   1.0000   1.0000
     1.0000   1.0000   1.0000   1.0000   1.0000   1.0000   1.0000   1.0000
     1.0000   1.0000   1.0000   1.0000   1.0000   1.0000   1.0000   1.0000
     1.0000   1.0000   1.0000   1.0000   1.0000   1.0000   1.0000   1.0000
     1.0000   1.0000   1.0000   1.0000   1.0000   1.0000   1.0000   1.0000
     1.0000   1.0000   1.0000   1.0000   1.0000   1.0000   1.0000   1.0000
     1.0000   1.0000   1.0000   1.0000   1.0000   1.0000

          k = 0.1667-0.4811-0.0351 (  5807 PWs)   bands (ev):

   -12.4246 -10.7813 -10.0847  -9.6553  -9.1799  -8.9171  -0.5757  -0.2461
    -0.0342   0.2811   0.7120   0.8943   1.0806   1.2648   1.3682   1.5225
     1.6096   1.6928   1.8188   1.8371   1.9190   2.0280   2.1694   2.1898
     2.3268   2.5005   2.6346   2.7825   2.8536   2.8692   2.9751   3.0184
     3.1946   3.2470   3.3646   3.4002   3.4601   3.5679   3.6636   3.8466
     4.0646   4.4091   4.5441   4.6452   4.9000   5.0642   5.2581   5.5442
     5.6583   6.0680   6.1741   6.5723   6.8169   7.1233

     occupation numbers 
     1.0000   1.0000   1.0000   1.0000   1.0000   1.0000   1.0000   1.0000
     1.0000   1.0000   1.0000   1.0000   1.0000   1.0000   1.0000   1.0000
     1.0000   1.0000   1.0000   1.0000   1.0000   1.0000   1.0000   1.0000
     1.0000   1.0000   1.0000   1.0000   1.0000   1.0000   1.0000   1.0000
     1.0000   1.0000   1.0000   1.0000   1.0000   1.0000   1.0000   1.0000
     1.0000   1.0000   1.0000   1.0000   1.0000   1.0000   1.0000   1.0000
     1.0000   1.0000   1.0000   1.0000   1.0000   1.0000

          k =-0.3333 0.3849 0.0351 (  5807 PWs)   bands (ev):

   -12.4288 -10.8722 -10.0791  -9.6612  -9.1803  -8.9092  -0.6766  -0.2321
     0.0216   0.4541   0.7143   0.9055   1.0684   1.3292   1.4000   1.5435
     1.6007   1.7134   1.7595   1.8383   1.8647   2.0721   2.1666   2.2063
     2.2848   2.3977   2.6086   2.7586   2.8726   2.9014   3.0044   3.1232
     3.1875   3.2981   3.3807   3.4548   3.5631   3.6361   3.7210   3.8775
     4.0818   4.3566   4.3828   4.5610   4.7298   5.0164   5.2486   5.5846
     5.6553   6.0766   6.2861   6.5593   6.9420   7.0516

     occupation numbers 
     1.0000   1.0000   1.0000   1.0000   1.0000   1.0000   1.0000   1.0000
     1.0000   1.0000   1.0000   1.0000   1.0000   1.0000   1.0000   1.0000
     1.0000   1.0000   1.0000   1.0000   1.0000   1.0000   1.0000   1.0000
     1.0000   1.0000   1.0000   1.0000   1.0000   1.0000   1.0000   1.0000
     1.0000   1.0000   1.0000   1.0000   1.0000   1.0000   1.0000   1.0000
     1.0000   1.0000   1.0000   1.0000   1.0000   1.0000   1.0000   1.0000
     1.0000   1.0000   1.0000   1.0000   1.0000   1.0000

          k = 0.5000 0.0962 0.0351 (  5807 PWs)   bands (ev):

   -12.4230 -10.7799 -10.0594  -9.7065  -9.1813  -8.9102  -0.5647  -0.2662
     0.0021   0.2879   0.6884   0.8985   1.1015   1.3366   1.4155   1.5144
     1.6949   1.7265   1.8230   1.8891   1.9407   2.0799   2.1839   2.2292
     2.3347   2.4323   2.5216   2.6566   2.7672   2.9314   2.9712   3.0662
     3.1288   3.2547   3.3554   3.4141   3.4657   3.5937   3.7175   3.8726
     4.0907   4.2488   4.4430   4.6238   4.7594   4.9323   5.2434   5.6065
     5.7070   6.0056   6.1660   6.7345   6.8458   7.1425

     occupation numbers 
     1.0000   1.0000   1.0000   1.0000   1.0000   1.0000   1.0000   1.0000
     1.0000   1.0000   1.0000   1.0000   1.0000   1.0000   1.0000   1.0000
     1.0000   1.0000   1.0000   1.0000   1.0000   1.0000   1.0000   1.0000
     1.0000   1.0000   1.0000   1.0000   1.0000   1.0000   1.0000   1.0000
     1.0000   1.0000   1.0000   1.0000   1.0000   1.0000   1.0000   1.0000
     1.0000   1.0000   1.0000   1.0000   1.0000   1.0000   1.0000   1.0000
     1.0000   1.0000   1.0000   1.0000   1.0000   1.0000

          k =-0.5000-0.0962 0.0351 (  5807 PWs)   bands (ev):

   -12.4230 -10.7799 -10.0594  -9.7065  -9.1813  -8.9102  -0.5647  -0.2662
     0.0020   0.2879   0.6882   0.8986   1.1017   1.3480   1.4069   1.5096
     1.6905   1.7248   1.8229   1.8969   1.9449   2.0713   2.1809   2.2383
     2.3371   2.4327   2.5164   2.6706   2.7613   2.9208   2.9738   3.0611
     3.1333   3.2668   3.3346   3.3993   3.4966   3.5894   3.7177   3.8721
     4.0884   4.2537   4.4320   4.6207   4.7694   4.9418   5.2398   5.5784
     5.7326   6.0034   6.1636   6.7359   6.8488   7.1397

     occupation numbers 
     1.0000   1.0000   1.0000   1.0000   1.0000   1.0000   1.0000   1.0000
     1.0000   1.0000   1.0000   1.0000   1.0000   1.0000   1.0000   1.0000
     1.0000   1.0000   1.0000   1.0000   1.0000   1.0000   1.0000   1.0000
     1.0000   1.0000   1.0000   1.0000   1.0000   1.0000   1.0000   1.0000
     1.0000   1.0000   1.0000   1.0000   1.0000   1.0000   1.0000   1.0000
     1.0000   1.0000   1.0000   1.0000   1.0000   1.0000   1.0000   1.0000
     1.0000   1.0000   1.0000   1.0000   1.0000   1.0000

          k = 0.3333-0.3849 0.0351 (  5807 PWs)   bands (ev):

   -12.4288 -10.8722 -10.0791  -9.6612  -9.1803  -8.9092  -0.6766  -0.2321
     0.0216   0.4541   0.7142   0.9055   1.0688   1.3247   1.4038   1.5525
     1.5927   1.7055   1.7683   1.8217   1.8818   2.0721   2.1684   2.2036
     2.2850   2.3999   2.6085   2.7602   2.8730   2.8946   2.9891   3.1325
     3.1971   3.2807   3.3951   3.4421   3.5591   3.6499   3.7429   3.8729
     4.0737   4.3355   4.4080   4.5451   4.7637   4.9549   5.2973   5.5747
     5.6332   6.0900   6.2984   6.5621   6.9287   7.0532

     occupation numbers 
     1.0000   1.0000   1.0000   1.0000   1.0000   1.0000   1.0000   1.0000
     1.0000   1.0000   1.0000   1.0000   1.0000   1.0000   1.0000   1.0000
     1.0000   1.0000   1.0000   1.0000   1.0000   1.0000   1.0000   1.0000
     1.0000   1.0000   1.0000   1.0000   1.0000   1.0000   1.0000   1.0000
     1.0000   1.0000   1.0000   1.0000   1.0000   1.0000   1.0000   1.0000
     1.0000   1.0000   1.0000   1.0000   1.0000   1.0000   1.0000   1.0000
     1.0000   1.0000   1.0000   1.0000   1.0000   1.0000

          k =-0.3333-0.3849-0.0351 (  5807 PWs)   bands (ev):

   -12.4209 -10.7339 -10.0623  -9.7032  -9.1811  -8.9143  -0.5746  -0.2080
     0.0059   0.2650   0.7044   0.9191   1.0175   1.3280   1.3732   1.5015
     1.6504   1.7145   1.7802   1.9113   2.0443   2.1232   2.1827   2.2215
     2.2502   2.4353   2.5688   2.6141   2.7207   2.9232   2.9682   3.0759
     3.1128   3.1556   3.3402   3.3832   3.4518   3.5441   3.7150   3.8875
     4.0847   4.3578   4.4302   4.7015   4.8207   4.9266   5.3418   5.6303
     5.7164   6.0049   6.1320   6.6191   6.8483   7.1682

     occupation numbers 
     1.0000   1.0000   1.0000   1.0000   1.0000   1.0000   1.0000   1.0000
     1.0000   1.0000   1.0000   1.0000   1.0000   1.0000   1.0000   1.0000
     1.0000   1.0000   1.0000   1.0000   1.0000   1.0000   1.0000   1.0000
     1.0000   1.0000   1.0000   1.0000   1.0000   1.0000   1.0000   1.0000
     1.0000   1.0000   1.0000   1.0000   1.0000   1.0000   1.0000   1.0000
     1.0000   1.0000   1.0000   1.0000   1.0000   1.0000   1.0000   1.0000
     1.0000   1.0000   1.0000   1.0000   1.0000   1.0000

          k = 0.5000-0.0962-0.0351 (  5807 PWs)   bands (ev):

   -12.4283 -10.8717 -10.0707  -9.6783  -9.1807  -8.9069  -0.6830  -0.2287
     0.0434   0.4692   0.6925   0.9085   1.0638   1.3056   1.3949   1.5714
     1.6061   1.6932   1.7932   1.8639   1.9792   2.1179   2.1803   2.2048
     2.2871   2.4100   2.5203   2.6426   2.8304   2.9470   3.0116   3.0994
     3.1820   3.3121   3.3692   3.4297   3.5671   3.7118   3.7420   3.8554
     4.0932   4.3108   4.3569   4.5166   4.6705   4.9495   5.2147   5.6034
     5.7545   6.1393   6.2290   6.6602   6.9100   7.0352

     occupation numbers 
     1.0000   1.0000   1.0000   1.0000   1.0000   1.0000   1.0000   1.0000
     1.0000   1.0000   1.0000   1.0000   1.0000   1.0000   1.0000   1.0000
     1.0000   1.0000   1.0000   1.0000   1.0000   1.0000   1.0000   1.0000
     1.0000   1.0000   1.0000   1.0000   1.0000   1.0000   1.0000   1.0000
     1.0000   1.0000   1.0000   1.0000   1.0000   1.0000   1.0000   1.0000
     1.0000   1.0000   1.0000   1.0000   1.0000   1.0000   1.0000   1.0000
     1.0000   1.0000   1.0000   1.0000   1.0000   1.0000

          k =-0.5000 0.0962-0.0351 (  5807 PWs)   bands (ev):

   -12.4283 -10.8717 -10.0707  -9.6783  -9.1807  -8.9069  -0.6830  -0.2287
     0.0434   0.4692   0.6926   0.9085   1.0643   1.3004   1.3999   1.5736
     1.6016   1.7009   1.8004   1.8388   1.9941   2.1221   2.1678   2.2108
     2.2864   2.4111   2.5177   2.6470   2.8310   2.9309   3.0202   3.1178
     3.1831   3.2860   3.3755   3.4224   3.5742   3.7161   3.7513   3.8496
     4.1043   4.2986   4.3486   4.4684   4.7305   5.0009   5.1505   5.6000
     5.7642   6.1390   6.2310   6.6551   6.9148   7.0346

     occupation numbers 
     1.0000   1.0000   1.0000   1.0000   1.0000   1.0000   1.0000   1.0000
     1.0000   1.0000   1.0000   1.0000   1.0000   1.0000   1.0000   1.0000
     1.0000   1.0000   1.0000   1.0000   1.0000   1.0000   1.0000   1.0000
     1.0000   1.0000   1.0000   1.0000   1.0000   1.0000   1.0000   1.0000
     1.0000   1.0000   1.0000   1.0000   1.0000   1.0000   1.0000   1.0000
     1.0000   1.0000   1.0000   1.0000   1.0000   1.0000   1.0000   1.0000
     1.0000   1.0000   1.0000   1.0000   1.0000   1.0000

          k = 0.3333 0.3849-0.0351 (  5807 PWs)   bands (ev):

   -12.4209 -10.7339 -10.0623  -9.7032  -9.1811  -8.9143  -0.5746  -0.2080
     0.0059   0.2650   0.7044   0.9191   1.0174   1.3206   1.3868   1.4972
     1.6492   1.7098   1.7767   1.9172   2.0496   2.1215   2.1837   2.2276
     2.2440   2.4314   2.5708   2.6064   2.7359   2.9345   2.9696   3.0605
     3.0789   3.1594   3.3350   3.4153   3.4634   3.5352   3.7161   3.8883
     4.0689   4.3603   4.4564   4.6636   4.8392   4.9381   5.3196   5.6194
     5.7177   6.0241   6.1388   6.6218   6.8434   7.1635

     occupation numbers 
     1.0000   1.0000   1.0000   1.0000   1.0000   1.0000   1.0000   1.0000
     1.0000   1.0000   1.0000   1.0000   1.0000   1.0000   1.0000   1.0000
     1.0000   1.0000   1.0000   1.0000   1.0000   1.0000   1.0000   1.0000
     1.0000   1.0000   1.0000   1.0000   1.0000   1.0000   1.0000   1.0000
     1.0000   1.0000   1.0000   1.0000   1.0000   1.0000   1.0000   1.0000
     1.0000   1.0000   1.0000   1.0000   1.0000   1.0000   1.0000   1.0000
     1.0000   1.0000   1.0000   1.0000   1.0000   1.0000

          k =-0.1667-0.4811 0.0702 (  5810 PWs)   bands (ev):

   -12.4220 -10.7348 -10.0793  -9.6691  -9.1801  -8.9188  -0.5925  -0.1860
    -0.0044   0.2659   0.7168   0.9063   0.9888   1.2518   1.3589   1.4843
     1.5969   1.6678   1.8140   1.9424   2.0164   2.0625   2.1910   2.2228
     2.2531   2.5371   2.5859   2.6786   2.7674   2.8893   2.9795   2.9984
     3.1114   3.1855   3.2757   3.4158   3.4472   3.5564   3.7179   3.8635
     4.0567   4.4079   4.5618   4.7377   4.8050   5.0223   5.3786   5.5815
     5.6608   6.0807   6.2727   6.5171   6.7843   7.1050

     occupation numbers 
     1.0000   1.0000   1.0000   1.0000   1.0000   1.0000   1.0000   1.0000
     1.0000   1.0000   1.0000   1.0000   1.0000   1.0000   1.0000   1.0000
     1.0000   1.0000   1.0000   1.0000   1.0000   1.0000   1.0000   1.0000
     1.0000   1.0000   1.0000   1.0000   1.0000   1.0000   1.0000   1.0000
     1.0000   1.0000   1.0000   1.0000   1.0000   1.0000   1.0000   1.0000
     1.0000   1.0000   1.0000   1.0000   1.0000   1.0000   1.0000   1.0000
     1.0000   1.0000   1.0000   1.0000   1.0000   1.0000

          k =-0.1667 0.4811-0.0702 (  5810 PWs)   bands (ev):

   -12.4246 -10.7813 -10.0847  -9.6553  -9.1799  -8.9171  -0.5758  -0.2461
    -0.0341   0.2810   0.7115   0.8943   1.0794   1.2679   1.3668   1.5341
     1.5992   1.7014   1.8127   1.8348   1.9197   2.0253   2.1504   2.2057
     2.3296   2.4978   2.6453   2.7687   2.8314   2.9006   2.9674   3.0186
     3.1989   3.2551   3.3376   3.4105   3.4473   3.6137   3.6463   3.8429
     4.0626   4.4235   4.5220   4.6884   4.8860   5.0811   5.1892   5.5541
     5.6401   6.0673   6.2471   6.5555   6.8084   7.1138

     occupation numbers 
     1.0000   1.0000   1.0000   1.0000   1.0000   1.0000   1.0000   1.0000
     1.0000   1.0000   1.0000   1.0000   1.0000   1.0000   1.0000   1.0000
     1.0000   1.0000   1.0000   1.0000   1.0000   1.0000   1.0000   1.0000
     1.0000   1.0000   1.0000   1.0000   1.0000   1.0000   1.0000   1.0000
     1.0000   1.0000   1.0000   1.0000   1.0000   1.0000   1.0000   1.0000
     1.0000   1.0000   1.0000   1.0000   1.0000   1.0000   1.0000   1.0000
     1.0000   1.0000   1.0000   1.0000   1.0000   1.0000

          k = 0.1667-0.4811-0.0702 (  5810 PWs)   bands (ev):

   -12.4246 -10.7813 -10.0847  -9.6553  -9.1799  -8.9171  -0.5758  -0.2461
    -0.0342   0.2811   0.7115   0.8944   1.0803   1.2648   1.3721   1.5299
     1.6002   1.6930   1.8200   1.8323   1.9192   2.0288   2.1668   2.1921
     2.3276   2.5008   2.6378   2.7819   2.8387   2.8803   2.9766   3.0111
     3.1982   3.2580   3.3467   3.3930   3.4574   3.6018   3.6609   3.8408
     4.0613   4.4073   4.5312   4.6817   4.8881   5.0686   5.2296   5.5340
     5.6622   6.0789   6.1945   6.5675   6.8134   7.1186

     occupation numbers 
     1.0000   1.0000   1.0000   1.0000   1.0000   1.0000   1.0000   1.0000
     1.0000   1.0000   1.0000   1.0000   1.0000   1.0000   1.0000   1.0000
     1.0000   1.0000   1.0000   1.0000   1.0000   1.0000   1.0000   1.0000
     1.0000   1.0000   1.0000   1.0000   1.0000   1.0000   1.0000   1.0000
     1.0000   1.0000   1.0000   1.0000   1.0000   1.0000   1.0000   1.0000
     1.0000   1.0000   1.0000   1.0000   1.0000   1.0000   1.0000   1.0000
     1.0000   1.0000   1.0000   1.0000   1.0000   1.0000

          k =-0.3333 0.3849 0.0702 (  5810 PWs)   bands (ev):

   -12.4289 -10.8722 -10.0791  -9.6612  -9.1803  -8.9092  -0.6767  -0.2321
     0.0215   0.4541   0.7140   0.9055   1.0682   1.3284   1.4025   1.5480
     1.6006   1.7100   1.7674   1.8204   1.8712   2.0708   2.1743   2.2012
     2.2840   2.3981   2.6106   2.7539   2.8710   2.9001   3.0051   3.1254
     3.1853   3.3005   3.3765   3.4629   3.5493   3.6448   3.7283   3.8802
     4.0779   4.3525   4.3917   4.6000   4.6836   5.0244   5.2257   5.5793
     5.6569   6.0903   6.3099   6.5513   6.9342   7.0477

     occupation numbers 
     1.0000   1.0000   1.0000   1.0000   1.0000   1.0000   1.0000   1.0000
     1.0000   1.0000   1.0000   1.0000   1.0000   1.0000   1.0000   1.0000
     1.0000   1.0000   1.0000   1.0000   1.0000   1.0000   1.0000   1.0000
     1.0000   1.0000   1.0000   1.0000   1.0000   1.0000   1.0000   1.0000
     1.0000   1.0000   1.0000   1.0000   1.0000   1.0000   1.0000   1.0000
     1.0000   1.0000   1.0000   1.0000   1.0000   1.0000   1.0000   1.0000
     1.0000   1.0000   1.0000   1.0000   1.0000   1.0000

          k = 0.5000 0.0962 0.0702 (  5810 PWs)   bands (ev):

   -12.4230 -10.7799 -10.0594  -9.7065  -9.1813  -8.9102  -0.5647  -0.2663
     0.0020   0.2879   0.6879   0.8985   1.1009   1.3461   1.4069   1.5163
     1.6984   1.7292   1.8206   1.8795   1.9471   2.0785   2.1841   2.2236
     2.3339   2.4335   2.5292   2.6505   2.7685   2.9269   2.9716   3.0703
     3.1330   3.2379   3.3726   3.4066   3.4678   3.5942   3.7198   3.8690
     4.0963   4.2529   4.4408   4.6474   4.7552   4.9080   5.2452   5.5656
     5.7191   6.0363   6.1707   6.7334   6.8423   7.1385

     occupation numbers 
     1.0000   1.0000   1.0000   1.0000   1.0000   1.0000   1.0000   1.0000
     1.0000   1.0000   1.0000   1.0000   1.0000   1.0000   1.0000   1.0000
     1.0000   1.0000   1.0000   1.0000   1.0000   1.0000   1.0000   1.0000
     1.0000   1.0000   1.0000   1.0000   1.0000   1.0000   1.0000   1.0000
     1.0000   1.0000   1.0000   1.0000   1.0000   1.0000   1.0000   1.0000
     1.0000   1.0000   1.0000   1.0000   1.0000   1.0000   1.0000   1.0000
     1.0000   1.0000   1.0000   1.0000   1.0000   1.0000

          k =-0.5000-0.0962 0.0702 (  5810 PWs)   bands (ev):

   -12.4230 -10.7799 -10.0594  -9.7065  -9.1813  -8.9102  -0.5647  -0.2663
     0.0020   0.2880   0.6877   0.8986   1.1010   1.3627   1.3930   1.5114
     1.6939   1.7270   1.8205   1.8881   1.9510   2.0699   2.1806   2.2333
     2.3360   2.4339   2.5237   2.6645   2.7630   2.9172   2.9734   3.0651
     3.1374   3.2461   3.3567   3.3919   3.4977   3.5899   3.7201   3.8684
     4.0941   4.2575   4.4308   4.6421   4.7635   4.9214   5.2410   5.5431
     5.7393   6.0326   6.1693   6.7350   6.8452   7.1357

     occupation numbers 
     1.0000   1.0000   1.0000   1.0000   1.0000   1.0000   1.0000   1.0000
     1.0000   1.0000   1.0000   1.0000   1.0000   1.0000   1.0000   1.0000
     1.0000   1.0000   1.0000   1.0000   1.0000   1.0000   1.0000   1.0000
     1.0000   1.0000   1.0000   1.0000   1.0000   1.0000   1.0000   1.0000
     1.0000   1.0000   1.0000   1.0000   1.0000   1.0000   1.0000   1.0000
     1.0000   1.0000   1.0000   1.0000   1.0000   1.0000   1.0000   1.0000
     1.0000   1.0000   1.0000   1.0000   1.0000   1.0000

          k = 0.3333-0.3849 0.0702 (  5810 PWs)   bands (ev):

   -12.4289 -10.8722 -10.0791  -9.6612  -9.1803  -8.9092  -0.6767  -0.2321
     0.0215   0.4541   0.7139   0.9055   1.0687   1.3241   1.4060   1.5588
     1.5908   1.7024   1.7798   1.8043   1.8837   2.0708   2.1776   2.1971
     2.2843   2.4003   2.6106   2.7550   2.8712   2.8936   2.9907   3.1335
     3.1950   3.2834   3.3889   3.4519   3.5484   3.6547   3.7515   3.8762
     4.0691   4.3366   4.4112   4.5729   4.7284   4.9584   5.2800   5.5665
     5.6387   6.1017   6.3243   6.5535   6.9202   7.0494

     occupation numbers 
     1.0000   1.0000   1.0000   1.0000   1.0000   1.0000   1.0000   1.0000
     1.0000   1.0000   1.0000   1.0000   1.0000   1.0000   1.0000   1.0000
     1.0000   1.0000   1.0000   1.0000   1.0000   1.0000   1.0000   1.0000
     1.0000   1.0000   1.0000   1.0000   1.0000   1.0000   1.0000   1.0000
     1.0000   1.0000   1.0000   1.0000   1.0000   1.0000   1.0000   1.0000
     1.0000   1.0000   1.0000   1.0000   1.0000   1.0000   1.0000   1.0000
     1.0000   1.0000   1.0000   1.0000   1.0000   1.0000

          k =-0.3333-0.3849-0.0702 (  5810 PWs)   bands (ev):

   -12.4209 -10.7339 -10.0623  -9.7032  -9.1811  -8.9143  -0.5746  -0.2081
     0.0059   0.2651   0.7037   0.9191   1.0169   1.3382   1.3682   1.4976
     1.6545   1.7175   1.7754   1.9108   2.0442   2.1193   2.1820   2.2196
     2.2518   2.4367   2.5678   2.6149   2.7272   2.9110   2.9693   3.0725
     3.1013   3.1740   3.3513   3.3590   3.4563   3.5603   3.7192   3.8783
     4.0876   4.3615   4.4250   4.7364   4.7892   4.9264   5.3467   5.5905
     5.7116   6.0429   6.1367   6.6165   6.8474   7.1638

     occupation numbers 
     1.0000   1.0000   1.0000   1.0000   1.0000   1.0000   1.0000   1.0000
     1.0000   1.0000   1.0000   1.0000   1.0000   1.0000   1.0000   1.0000
     1.0000   1.0000   1.0000   1.0000   1.0000   1.0000   1.0000   1.0000
     1.0000   1.0000   1.0000   1.0000   1.0000   1.0000   1.0000   1.0000
     1.0000   1.0000   1.0000   1.0000   1.0000   1.0000   1.0000   1.0000
     1.0000   1.0000   1.0000   1.0000   1.0000   1.0000   1.0000   1.0000
     1.0000   1.0000   1.0000   1.0000   1.0000   1.0000

          k = 0.5000-0.0962-0.0702 (  5810 PWs)   bands (ev):

   -12.4283 -10.8717 -10.0708  -9.6783  -9.1807  -8.9069  -0.6830  -0.2287
     0.0433   0.4692   0.6922   0.9085   1.0639   1.3051   1.3971   1.5747
     1.6042   1.6952   1.7927   1.8601   1.9781   2.1155   2.1794   2.2073
     2.2891   2.4114   2.5199   2.6376   2.8318   2.9515   3.0070   3.0957
     3.1802   3.3068   3.3663   3.4437   3.5620   3.7160   3.7517   3.8499
     4.0915   4.2977   4.3869   4.5703   4.6261   4.8846   5.2571   5.5805
     5.7575   6.1457   6.2517   6.6614   6.8979   7.0323

     occupation numbers 
     1.0000   1.0000   1.0000   1.0000   1.0000   1.0000   1.0000   1.0000
     1.0000   1.0000   1.0000   1.0000   1.0000   1.0000   1.0000   1.0000
     1.0000   1.0000   1.0000   1.0000   1.0000   1.0000   1.0000   1.0000
     1.0000   1.0000   1.0000   1.0000   1.0000   1.0000   1.0000   1.0000
     1.0000   1.0000   1.0000   1.0000   1.0000   1.0000   1.0000   1.0000
     1.0000   1.0000   1.0000   1.0000   1.0000   1.0000   1.0000   1.0000
     1.0000   1.0000   1.0000   1.0000   1.0000   1.0000

          k =-0.5000 0.0962-0.0702 (  5810 PWs)   bands (ev):

   -12.4283 -10.8717 -10.0707  -9.6783  -9.1807  -8.9069  -0.6830  -0.2287
     0.0433   0.4692   0.6923   0.9085   1.0643   1.3001   1.4019   1.5775
     1.5991   1.7032   1.8001   1.8347   1.9927   2.1193   2.1683   2.2124
     2.2884   2.4125   2.5172   2.6421   2.8325   2.9337   3.0183   3.1117
     3.1823   3.2823   3.3718   3.4363   3.5690   3.7183   3.7648   3.8424
     4.1018   4.2903   4.3784   4.4821   4.7309   4.9061   5.2131   5.5792
     5.7667   6.1445   6.2542   6.6560   6.9029   7.0318

     occupation numbers 
     1.0000   1.0000   1.0000   1.0000   1.0000   1.0000   1.0000   1.0000
     1.0000   1.0000   1.0000   1.0000   1.0000   1.0000   1.0000   1.0000
     1.0000   1.0000   1.0000   1.0000   1.0000   1.0000   1.0000   1.0000
     1.0000   1.0000   1.0000   1.0000   1.0000   1.0000   1.0000   1.0000
     1.0000   1.0000   1.0000   1.0000   1.0000   1.0000   1.0000   1.0000
     1.0000   1.0000   1.0000   1.0000   1.0000   1.0000   1.0000   1.0000
     1.0000   1.0000   1.0000   1.0000   1.0000   1.0000

          k = 0.3333 0.3849-0.0702 (  5810 PWs)   bands (ev):

   -12.4209 -10.7339 -10.0623  -9.7032  -9.1811  -8.9143  -0.5747  -0.2081
     0.0059   0.2651   0.7038   0.9191   1.0169   1.3276   1.3854   1.4928
     1.6534   1.7124   1.7721   1.9168   2.0496   2.1176   2.1830   2.2239
     2.2472   2.4329   2.5697   2.6076   2.7428   2.9195   2.9696   3.0598
     3.0754   3.1698   3.3368   3.4015   3.4624   3.5566   3.7208   3.8783
     4.0721   4.3641   4.4496   4.6868   4.8221   4.9366   5.3233   5.5844
     5.7125   6.0572   6.1455   6.6192   6.8424   7.1590

     occupation numbers 
     1.0000   1.0000   1.0000   1.0000   1.0000   1.0000   1.0000   1.0000
     1.0000   1.0000   1.0000   1.0000   1.0000   1.0000   1.0000   1.0000
     1.0000   1.0000   1.0000   1.0000   1.0000   1.0000   1.0000   1.0000
     1.0000   1.0000   1.0000   1.0000   1.0000   1.0000   1.0000   1.0000
     1.0000   1.0000   1.0000   1.0000   1.0000   1.0000   1.0000   1.0000
     1.0000   1.0000   1.0000   1.0000   1.0000   1.0000   1.0000   1.0000
     1.0000   1.0000   1.0000   1.0000   1.0000   1.0000

          k =-0.1667 0.4811 0.1053 (  5812 PWs)   bands (ev):

   -12.4246 -10.7813 -10.0847  -9.6553  -9.1799  -8.9171  -0.5758  -0.2461
    -0.0342   0.2811   0.7113   0.8943   1.0796   1.2663   1.3714   1.5369
     1.5940   1.6972   1.8162   1.8319   1.9195   2.0275   2.1564   2.2008
     2.3290   2.4994   2.6432   2.7745   2.8304   2.8934   2.9725   3.0117
     3.2000   3.2641   3.3311   3.3984   3.4532   3.6284   3.6468   3.8387
     4.0603   4.4141   4.5223   4.7045   4.8775   5.0799   5.1925   5.5395
     5.6537   6.0764   6.2327   6.5590   6.8091   7.1138

     occupation numbers 
     1.0000   1.0000   1.0000   1.0000   1.0000   1.0000   1.0000   1.0000
     1.0000   1.0000   1.0000   1.0000   1.0000   1.0000   1.0000   1.0000
     1.0000   1.0000   1.0000   1.0000   1.0000   1.0000   1.0000   1.0000
     1.0000   1.0000   1.0000   1.0000   1.0000   1.0000   1.0000   1.0000
     1.0000   1.0000   1.0000   1.0000   1.0000   1.0000   1.0000   1.0000
     1.0000   1.0000   1.0000   1.0000   1.0000   1.0000   1.0000   1.0000
     1.0000   1.0000   1.0000   1.0000   1.0000   1.0000

          k =-0.3333 0.3849-0.1053 (  5812 PWs)   bands (ev):

   -12.4289 -10.8722 -10.0791  -9.6612  -9.1803  -8.9092  -0.6767  -0.2321
     0.0215   0.4541   0.7138   0.9055   1.0683   1.3258   1.4055   1.5555
     1.5958   1.7044   1.7810   1.8015   1.8792   2.0702   2.1823   2.1941
     2.2838   2.3995   2.6117   2.7519   2.8703   2.8965   2.9980   3.1309
     3.1885   3.2930   3.3809   3.4613   3.5436   3.6527   3.7430   3.8803
     4.0715   4.3430   4.4051   4.6158   4.6723   4.9920   5.2464   5.5677
     5.6516   6.1015   6.3307   6.5475   6.9230   7.0467

     occupation numbers 
     1.0000   1.0000   1.0000   1.0000   1.0000   1.0000   1.0000   1.0000
     1.0000   1.0000   1.0000   1.0000   1.0000   1.0000   1.0000   1.0000
     1.0000   1.0000   1.0000   1.0000   1.0000   1.0000   1.0000   1.0000
     1.0000   1.0000   1.0000   1.0000   1.0000   1.0000   1.0000   1.0000
     1.0000   1.0000   1.0000   1.0000   1.0000   1.0000   1.0000   1.0000
     1.0000   1.0000   1.0000   1.0000   1.0000   1.0000   1.0000   1.0000
     1.0000   1.0000   1.0000   1.0000   1.0000   1.0000

          k = 0.5000 0.0962-0.1053 (  5812 PWs)   bands (ev):

   -12.4230 -10.7799 -10.0594  -9.7065  -9.1813  -8.9102  -0.5647  -0.2663
     0.0020   0.2880   0.6875   0.8986   1.1006   1.3608   1.3940   1.5147
     1.6982   1.7289   1.8194   1.8801   1.9513   2.0735   2.1820   2.2262
     2.3344   2.4342   2.5302   2.6542   2.7666   2.9200   2.9727   3.0692
     3.1381   3.2334   3.3760   3.3915   3.4844   3.5925   3.7212   3.8670
     4.0979   4.2574   4.4349   4.6592   4.7546   4.9025   5.2436   5.5386
     5.7321   6.0482   6.1727   6.7338   6.8420   7.1351

     occupation numbers 
     1.0000   1.0000   1.0000   1.0000   1.0000   1.0000   1.0000   1.0000
     1.0000   1.0000   1.0000   1.0000   1.0000   1.0000   1.0000   1.0000
     1.0000   1.0000   1.0000   1.0000   1.0000   1.0000   1.0000   1.0000
     1.0000   1.0000   1.0000   1.0000   1.0000   1.0000   1.0000   1.0000
     1.0000   1.0000   1.0000   1.0000   1.0000   1.0000   1.0000   1.0000
     1.0000   1.0000   1.0000   1.0000   1.0000   1.0000   1.0000   1.0000
     1.0000   1.0000   1.0000   1.0000   1.0000   1.0000

          k =-0.3333-0.3849 0.1053 (  5812 PWs)   bands (ev):

   -12.4209 -10.7339 -10.0623  -9.7032  -9.1811  -8.9143  -0.5747  -0.2081
     0.0059   0.2651   0.7035   0.9191   1.0166   1.3364   1.3758   1.4932
     1.6560   1.7166   1.7711   1.9136   2.0468   2.1166   2.1823   2.2204
     2.2505   2.4355   2.5683   2.6116   2.7388   2.9081   2.9694   3.0692
     3.0820   3.1775   3.3414   3.3786   3.4595   3.5670   3.7226   3.8732
     4.0812   4.3651   4.4337   4.7277   4.7922   4.9312   5.3364   5.5716
     5.7093   6.0659   6.1440   6.6165   6.8445   7.1591

     occupation numbers 
     1.0000   1.0000   1.0000   1.0000   1.0000   1.0000   1.0000   1.0000
     1.0000   1.0000   1.0000   1.0000   1.0000   1.0000   1.0000   1.0000
     1.0000   1.0000   1.0000   1.0000   1.0000   1.0000   1.0000   1.0000
     1.0000   1.0000   1.0000   1.0000   1.0000   1.0000   1.0000   1.0000
     1.0000   1.0000   1.0000   1.0000   1.0000   1.0000   1.0000   1.0000
     1.0000   1.0000   1.0000   1.0000   1.0000   1.0000   1.0000   1.0000
     1.0000   1.0000   1.0000   1.0000   1.0000   1.0000

          k = 0.5000-0.0962 0.1053 (  5812 PWs)   bands (ev):

   -12.4283 -10.8717 -10.0708  -9.6783  -9.1807  -8.9069  -0.6830  -0.2287
     0.0433   0.4692   0.6921   0.9084   1.0640   1.3023   1.4006   1.5781
     1.6004   1.7002   1.7949   1.8465   1.9849   2.1163   2.1737   2.2109
     2.2897   2.4127   2.5183   2.6374   2.8328   2.9434   3.0123   3.1008
     3.1804   3.2923   3.3688   3.4461   3.5632   3.7174   3.7651   3.8430
     4.0951   4.2903   4.3974   4.5282   4.6833   4.8594   5.2560   5.5685
     5.7636   6.1477   6.2646   6.6595   6.8941   7.0306

     occupation numbers 
     1.0000   1.0000   1.0000   1.0000   1.0000   1.0000   1.0000   1.0000
     1.0000   1.0000   1.0000   1.0000   1.0000   1.0000   1.0000   1.0000
     1.0000   1.0000   1.0000   1.0000   1.0000   1.0000   1.0000   1.0000
     1.0000   1.0000   1.0000   1.0000   1.0000   1.0000   1.0000   1.0000
     1.0000   1.0000   1.0000   1.0000   1.0000   1.0000   1.0000   1.0000
     1.0000   1.0000   1.0000   1.0000   1.0000   1.0000   1.0000   1.0000
     1.0000   1.0000   1.0000   1.0000   1.0000   1.0000

          k =-0.3333-0.5774 0.0351 (  5793 PWs)   bands (ev):

   -12.3718 -10.7300  -9.9952  -9.6398  -9.1326  -8.8678  -0.3576  -0.2360
     0.0761   0.3868   0.7285   0.8042   0.9831   1.3619   1.4763   1.5841
     1.6838   1.7387   1.8035   1.9055   2.0560   2.1372   2.1488   2.2338
     2.4644   2.5668   2.6110   2.6980   2.7783   2.8641   2.9232   3.0330
     3.0662   3.1951   3.3936   3.4786   3.5343   3.5927   3.6874   3.7436
     3.9602   4.0529   4.1455   4.3150   4.5617   4.8196   4.9715   5.2832
     5.5456   5.8189   5.9983   6.3512   6.6445   6.9061

     occupation numbers 
     1.0000   1.0000   1.0000   1.0000   1.0000   1.0000   1.0000   1.0000
     1.0000   1.0000   1.0000   1.0000   1.0000   1.0000   1.0000   1.0000
     1.0000   1.0000   1.0000   1.0000   1.0000   1.0000   1.0000   1.0000
     1.0000   1.0000   1.0000   1.0000   1.0000   1.0000   1.0000   1.0000
     1.0000   1.0000   1.0000   1.0000   1.0000   1.0000   1.0000   1.0000
     1.0000   1.0000   1.0000   1.0000   1.0000   1.0000   1.0000   1.0000
     1.0000   1.0000   1.0000   1.0000   1.0000   1.0000

          k =-0.3333-0.5774 0.0702 (  5790 PWs)   bands (ev):

   -12.3718 -10.7300  -9.9952  -9.6398  -9.1326  -8.8678  -0.3575  -0.2361
     0.0761   0.3868   0.7281   0.8042   0.9832   1.3623   1.4789   1.5848
     1.6824   1.7455   1.7990   1.8969   2.0616   2.1327   2.1490   2.2386
     2.4684   2.5642   2.5967   2.7030   2.7808   2.8685   2.9262   3.0290
     3.0714   3.1925   3.3856   3.4732   3.5399   3.6010   3.6810   3.7384
     3.9643   4.0665   4.1425   4.3075   4.5605   4.8192   4.9783   5.2944
     5.5564   5.7889   5.9954   6.3446   6.6497   6.9158

     occupation numbers 
     1.0000   1.0000   1.0000   1.0000   1.0000   1.0000   1.0000   1.0000
     1.0000   1.0000   1.0000   1.0000   1.0000   1.0000   1.0000   1.0000
     1.0000   1.0000   1.0000   1.0000   1.0000   1.0000   1.0000   1.0000
     1.0000   1.0000   1.0000   1.0000   1.0000   1.0000   1.0000   1.0000
     1.0000   1.0000   1.0000   1.0000   1.0000   1.0000   1.0000   1.0000
     1.0000   1.0000   1.0000   1.0000   1.0000   1.0000   1.0000   1.0000
     1.0000   1.0000   1.0000   1.0000   1.0000   1.0000

     highest occupied level (ev):     7.9929

!    total energy              =   -1084.71035983 Ry
     estimated scf accuracy    <          4.4E-09 Ry

     The total energy is the sum of the following terms:
     one-electron contribution =    -474.59979539 Ry
     hartree contribution      =     360.91498365 Ry
     xc contribution           =    -328.80473715 Ry
     ewald contribution        =    -642.22081094 Ry

     convergence has been achieved in  53 iterations

     Forces acting on atoms (cartesian axes, Ry/au):

     atom    1 type  1   force =    -0.08225984   -0.04246825    0.04801941
     atom    2 type  1   force =    -0.01253941   -0.05458795   -0.05210692
     atom    3 type  2   force =    -0.01738547   -0.00774497    0.05083366
     atom    4 type  2   force =     0.07996999    0.03638441    0.07406053
     atom    5 type  1   force =    -0.01282770   -0.00272952    0.05260488
     atom    6 type  1   force =     0.02318985   -0.00222138   -0.24362573
     atom    7 type  2   force =    -0.07689405    0.02091306   -0.10394713
     atom    8 type  2   force =     0.00490626    0.00088106    0.16047097
     atom    9 type  1   force =     0.01792474   -0.01859734   -0.04914346
     atom   10 type  1   force =     0.08116888   -0.01101006    0.08974454
     atom   11 type  2   force =     0.01762518    0.06068443    0.01866845
     atom   12 type  2   force =    -0.02287844    0.02049650   -0.04557922
     The non-local contrib.  to forces
     atom    1 type  1   force =    -0.29494318   -0.20937938    0.05312802
     atom    2 type  1   force =    -0.05121912   -0.12408529   -0.16903840
     atom    3 type  2   force =     0.02659424   -0.00086582    0.28101464
     atom    4 type  2   force =    -0.13005836    0.02389652    0.00611239
     atom    5 type  1   force =    -0.08114661    0.05395241    0.10901010
     atom    6 type  1   force =     0.14951362    0.00172931    0.03680179
     atom    7 type  2   force =     0.28188549   -0.07351202   -0.27004035
     atom    8 type  2   force =     0.03527714   -0.03613840   -0.12464128
     atom    9 type  1   force =     0.06772911   -0.09535440   -0.13820417
     atom   10 type  1   force =     0.23897740   -0.08808909   -0.10532403
     atom   11 type  2   force =    -0.13788104   -0.25782556   -0.10887470
     atom   12 type  2   force =     0.00569192   -0.07245424    0.08090188
     The ionic contribution  to forces
     atom    1 type  1   force =    -2.19284643   -1.29398046   12.91589352
     atom    2 type  1   force =    -0.37709970   -0.93364065    0.24533563
     atom    3 type  2   force =    -0.61497242   -0.13044550   -0.97104268
     atom    4 type  2   force =     1.64663655    0.09451699    6.99001090
     atom    5 type  1   force =    -0.64785053    0.29448812    5.11587326
     atom    6 type  1   force =     1.25796797   -0.05743829   -7.87820752
     atom    7 type  2   force =    -2.22396017    0.52577126   -2.93708794
     atom    8 type  2   force =    -0.19175360    0.22838804    3.94612949
     atom    9 type  1   force =     0.43470909   -0.60095256   -9.31311900
     atom   10 type  1   force =     2.14426202   -0.69180145   -3.54527218
     atom   11 type  2   force =     0.94991779    1.97417637    0.74674169
     atom   12 type  2   force =    -0.18501058    0.59091813   -5.31525517
     The local contribution  to forces
     atom    1 type  1   force =     2.38069734    1.44443440  -12.91286053
     atom    2 type  1   force =     0.41036921    0.98937614   -0.14556044
     atom    3 type  2   force =     0.57105608    0.12350600    0.74349753
     atom    4 type  2   force =    -1.43728522   -0.08163228   -6.92140914
     atom    5 type  1   force =     0.70994081   -0.34800485   -5.15676736
     atom    6 type  1   force =    -1.37188056    0.05312001    7.56917262
     atom    7 type  2   force =     1.86729752   -0.43189456    3.10010824
     atom    8 type  2   force =     0.16172794   -0.19169603   -3.66113689
     atom    9 type  1   force =    -0.47832631    0.66979759    9.38723192
     atom   10 type  1   force =    -2.27632239    0.76036261    3.74538351
     atom   11 type  2   force =    -0.79553722   -1.65765838   -0.62000520
     atom   12 type  2   force =     0.15637930   -0.49850147    5.18924118
     The core correction contribution to forces
     atom    1 type  1   force =     0.02483436    0.01645906   -0.00819274
     atom    2 type  1   force =     0.00540998    0.01376349    0.01710596
     atom    3 type  2   force =    -0.00006306    0.00006021   -0.00272831
     atom    4 type  2   force =     0.00067682   -0.00039724   -0.00068598
     atom    5 type  1   force =     0.00622512   -0.00316339   -0.01544372
     atom    6 type  1   force =    -0.01241386    0.00036608    0.02840281
     atom    7 type  2   force =    -0.00211587    0.00054846    0.00315868
     atom    8 type  2   force =    -0.00034455    0.00032796    0.00012130
     atom    9 type  1   force =    -0.00618347    0.00791394    0.01500069
     atom   10 type  1   force =    -0.02575017    0.00851878   -0.00487301
     atom   11 type  2   force =     0.00112676    0.00199157    0.00078407
     atom   12 type  2   force =     0.00006211    0.00053401   -0.00041940
     The Hubbard contrib.    to forces
     atom    1 type  1   force =     0.00000000    0.00000000    0.00000000
     atom    2 type  1   force =     0.00000000    0.00000000    0.00000000
     atom    3 type  2   force =     0.00000000    0.00000000    0.00000000
     atom    4 type  2   force =     0.00000000    0.00000000    0.00000000
     atom    5 type  1   force =     0.00000000    0.00000000    0.00000000
     atom    6 type  1   force =     0.00000000    0.00000000    0.00000000
     atom    7 type  2   force =     0.00000000    0.00000000    0.00000000
     atom    8 type  2   force =     0.00000000    0.00000000    0.00000000
     atom    9 type  1   force =     0.00000000    0.00000000    0.00000000
     atom   10 type  1   force =     0.00000000    0.00000000    0.00000000
     atom   11 type  2   force =     0.00000000    0.00000000    0.00000000
     atom   12 type  2   force =     0.00000000    0.00000000    0.00000000
     The SCF correction term to forces
     atom    1 type  1   force =    -0.00000122   -0.00000198    0.00005077
     atom    2 type  1   force =     0.00000093   -0.00000176    0.00004997
     atom    3 type  2   force =     0.00000040    0.00000003    0.00009212
     atom    4 type  2   force =     0.00000090    0.00000031    0.00003200
     atom    5 type  1   force =     0.00000421   -0.00000193   -0.00006777
     atom    6 type  1   force =     0.00000339    0.00000139    0.00020421
     atom    7 type  2   force =    -0.00000032   -0.00000021   -0.00008611
     atom    8 type  2   force =     0.00000003   -0.00000062   -0.00000200
     atom    9 type  1   force =    -0.00000298   -0.00000203   -0.00005326
     atom   10 type  1   force =     0.00000271   -0.00000104   -0.00017010
     atom   11 type  2   force =    -0.00000040    0.00000030    0.00002223
     atom   12 type  2   force =    -0.00000048   -0.00000004   -0.00004807

     Total force =     0.404788     Total SCF correction =     0.000321

     init_run     :     10.65s CPU      6.44s WALL (       1 calls)
     electrons    :   1215.58s CPU    640.02s WALL (       1 calls)
     forces       :      3.48s CPU      1.86s WALL (       1 calls)

     Called by init_run:
     wfcinit      :      7.76s CPU      4.10s WALL (       1 calls)
     wfcinit:atom :      0.09s CPU      0.05s WALL (      14 calls)
     wfcinit:wfcr :      7.15s CPU      3.65s WALL (      14 calls)
     potinit      :      0.78s CPU      0.51s WALL (       1 calls)
     hinit0       :      1.88s CPU      1.66s WALL (       1 calls)

     Called by electrons:
     c_bands      :   1038.88s CPU    552.11s WALL (      53 calls)
     sum_band     :    155.60s CPU     75.20s WALL (      53 calls)
     v_of_rho     :     11.96s CPU      7.33s WALL (      54 calls)
     v_h          :      0.68s CPU      0.50s WALL (      54 calls)
     v_xc         :     11.48s CPU      6.96s WALL (      55 calls)
     newd         :      5.92s CPU      3.12s WALL (      54 calls)
     mix_rho      :      2.12s CPU      1.48s WALL (      53 calls)

     Called by c_bands:
     init_us_2    :      9.44s CPU      4.77s WALL (    1512 calls)
     init_us_2:cp :      9.42s CPU      4.76s WALL (    1512 calls)
     cegterg      :    935.25s CPU    471.77s WALL (     742 calls)

     Called by sum_band:
     sum_band:wei :      0.03s CPU      0.03s WALL (      53 calls)
     sum_band:loo :    144.48s CPU     68.78s WALL (      53 calls)
     sum_band:buf :      1.53s CPU      0.81s WALL (     742 calls)
     sum_band:ini :      4.03s CPU      1.93s WALL (     742 calls)
     sum_band:cal :     19.73s CPU     10.21s WALL (     742 calls)
     sum_band:bec :      0.29s CPU      0.20s WALL (     742 calls)
     addusdens    :      7.62s CPU      3.67s WALL (      53 calls)
     addusd:skk   :      0.06s CPU      0.03s WALL (     106 calls)
     addusd:dgemm :      1.60s CPU      0.75s WALL (     106 calls)
     addusd:qvan2 :      5.04s CPU      2.32s WALL (     106 calls)

     Called by *egterg:
     cdiaghg      :     54.99s CPU     42.96s WALL (    5157 calls)
     cegterg:over :     65.18s CPU     34.30s WALL (    4415 calls)
     cegterg:upda :     33.60s CPU     15.28s WALL (    4415 calls)
     cegterg:last :     46.67s CPU     23.03s WALL (    1624 calls)
     h_psi        :    657.46s CPU    318.42s WALL (    5171 calls)
     s_psi        :     54.68s CPU     25.09s WALL (    5171 calls)
     g_psi        :      2.46s CPU      1.38s WALL (    4415 calls)

     Called by h_psi:
     h_psi:calbec :     68.79s CPU     33.51s WALL (    5171 calls)
     vloc_psi     :    535.45s CPU    257.36s WALL (    5171 calls)
     add_vuspsi   :     50.92s CPU     26.43s WALL (    5171 calls)

     General routines
     calbec       :     89.87s CPU     44.42s WALL (    5969 calls)
     fft          :      7.44s CPU      5.33s WALL (     711 calls)
     ffts         :      0.49s CPU      0.30s WALL (     107 calls)
     fftw         :    582.42s CPU    278.50s WALL (  252448 calls)
     interpolate  :      0.77s CPU      0.54s WALL (      54 calls)

     Parallel routines

     PWSCF        :  20m30.33s CPU  10m48.95s WALL


   This run was terminated on:   4:25:57  25Sep2025            

=------------------------------------------------------------------------------=
   JOB DONE.
=------------------------------------------------------------------------------=
