
     Program PWSCF v.7.2 starts on 24Sep2025 at 18:14:27 

     This program is part of the open-source Quantum ESPRESSO suite
     for quantum simulation of materials; please cite
         "P. Giannozzi et al., J. Phys.:Condens. Matter 21 395502 (2009);
         "P. Giannozzi et al., J. Phys.:Condens. Matter 29 465901 (2017);
         "P. Giannozzi et al., J. Chem. Phys. 152 154105 (2020);
          URL http://www.quantum-espresso.org", 
     in publications or presentations arising from this work. More details at
     http://www.quantum-espresso.org/quote

     Parallel version (MPI), running on    16 processors

     MPI processes distributed on     1 nodes
     110208 MiB available memory on the printing compute node when the environment starts

     Reading input from /home/jvc/QEspresso7.2/ZnO_database/scripts/random_1x2x1.in/ZnO-3.40-1.71-121-0.04-1.in
Warning: card &CELL ignored
Warning: card / ignored
Warning: card &FCP ignored
Warning: card / ignored
Warning: card &RISM ignored
Warning: card / ignored

     Current dimensions of program PWSCF are:
     Max number of different atomic species (ntypx) = 10
     Max number of k-points (npk) =  40000
     Max angular momentum in pseudopotentials (lmaxx) =  4
     file Zn.upf: wavefunction(s)  3D renormalized

     K-points division:     npool     =       4
     R & G space division:  proc/nbgrp/npool/nimage =       4
     Subspace diagonalization in iterative solution of the eigenvalue problem:
     a serial algorithm will be used


     Parallelization info
     --------------------
     sticks:   dense  smooth     PW     G-vecs:    dense   smooth      PW
     Min         569     283     86                26561     9389    1606
     Max         570     284     87                26564     9392    1609
     Sum        2279    1135    347               106249    37563    6433

     Using Slab Decomposition



     bravais-lattice index     =            0
     lattice parameter (alat)  =       6.4260  a.u.
     unit-cell volume          =     786.4847 (a.u.)^3
     number of atoms/cell      =            8
     number of atomic types    =            2
     number of electrons       =        72.00
     number of Kohn-Sham states=           36
     kinetic-energy cutoff     =      50.0000  Ry
     charge density cutoff     =     400.0000  Ry
     scf convergence threshold =      1.0E-08
     mixing beta               =       0.3000
     number of iterations used =            8  plain     mixing
     Exchange-correlation= PBE
                           (   1   4   3   4   0   0   0)

     celldm(1)=   6.426008  celldm(2)=   0.000000  celldm(3)=   0.000000
     celldm(4)=   0.000000  celldm(5)=   0.000000  celldm(6)=   0.000000

     crystal axes: (cart. coord. in units of alat)
               a(1) = (   1.000000   0.000000   0.000000 )  
               a(2) = (  -1.000000   1.732051   0.000000 )  
               a(3) = (   0.000000   0.000000   1.711220 )  

     reciprocal axes: (cart. coord. in units 2 pi/alat)
               b(1) = (  1.000000  0.577350 -0.000000 )  
               b(2) = (  0.000000  0.577350  0.000000 )  
               b(3) = (  0.000000 -0.000000  0.584378 )  


     PseudoPot. # 1 for Zn read from file:
     /home/jvc/QEspresso7.2/ZnO_database/pseudos/Zn.upf
     MD5 check sum: 7f56cabf9682ed8c977c2f7d0c5985c5
     Pseudo is Ultrasoft + core correction, Zval = 12.0
     Generated using &quot;atomic&quot; code by A. Dal Corso  v.6.2.2
     Using radial grid of 1201 points,  6 beta functions with: 
                l(1) =   0
                l(2) =   0
                l(3) =   1
                l(4) =   1
                l(5) =   2
                l(6) =   2
     Q(r) pseudized with 0 coefficients 


     PseudoPot. # 2 for O  read from file:
     /home/jvc/QEspresso7.2/ZnO_database/pseudos/O.upf
     MD5 check sum: 91400c9766925bcf19f520983a725ff0
     Pseudo is Ultrasoft + core correction, Zval =  6.0
     Generated using &quot;atomic&quot; code by A. Dal Corso  v.6.3MaX
     Using radial grid of 1095 points,  4 beta functions with: 
                l(1) =   0
                l(2) =   0
                l(3) =   1
                l(4) =   1
     Q(r) pseudized with 0 coefficients 


     atomic species   valence    mass     pseudopotential
        Zn            12.00    65.38000     Zn( 1.00)
        O              6.00    15.99900     O ( 1.00)

     No symmetry found


                                    s                        frac. trans.

      isym =  1     identity                                     

 cryst.   s( 1) = (     1          0          0      )
                  (     0          1          0      )
                  (     0          0          1      )

 cart.    s( 1) = (  1.0000000  0.0000000  0.0000000 )
                  (  0.0000000  1.0000000  0.0000000 )
                  (  0.0000000  0.0000000  1.0000000 )


   Cartesian axes

     site n.     atom                  positions (alat units)
         1           Zn  tau(   1) = (   0.5024421   0.2833801   0.8599704  )
         2           Zn  tau(   2) = (   0.0017870   0.5817514   0.0119248  )
         3           O   tau(   3) = (   0.4944943   0.2944342   1.4965660  )
         4           O   tau(   4) = (   0.0106663   0.5647583   0.6561829  )
         5           Zn  tau(   5) = (  -0.0138186   1.1374096   0.8674960  )
         6           Zn  tau(   6) = (  -0.5229059   1.4577008   0.0019512  )
         7           O   tau(   7) = (  -0.0008786   1.1568906   1.5280057  )
         8           O   tau(   8) = (  -0.5064924   1.4370952   0.6601683  )

   Crystallographic axes

     site n.     atom                  positions (cryst. coord.)
         1           Zn  tau(   1) = (  0.6660516  0.1636096  0.5025482  )
         2           Zn  tau(   2) = (  0.3376613  0.3358743  0.0069686  )
         3           O   tau(   3) = (  0.6644859  0.1699917  0.8745609  )
         4           O   tau(   4) = (  0.3367296  0.3260633  0.3834592  )
         5           Zn  tau(   5) = (  0.6428651  0.6566837  0.5069459  )
         6           Zn  tau(   6) = (  0.3186980  0.8416040  0.0011402  )
         7           O   tau(   7) = (  0.6670525  0.6679311  0.8929336  )
         8           O   tau(   8) = (  0.3232149  0.8297073  0.3857881  )

     number of k points=   112
                       cart. coord. in units 2pi/alat
        k(    1) = (   0.0000000   0.0000000   0.0000000), wk =   0.0092593
        k(    2) = (   0.0000000   0.0000000   0.0973964), wk =   0.0185185
        k(    3) = (   0.0000000   0.0000000   0.1947928), wk =   0.0185185
        k(    4) = (   0.0000000   0.0000000  -0.2921892), wk =   0.0092593
        k(    5) = (   0.0000000   0.0962250   0.0000000), wk =   0.0185185
        k(    6) = (   0.0000000   0.0962250   0.0973964), wk =   0.0185185
        k(    7) = (   0.0000000   0.0962250   0.1947928), wk =   0.0185185
        k(    8) = (   0.0000000   0.0962250  -0.2921892), wk =   0.0185185
        k(    9) = (   0.0000000   0.1924501   0.0000000), wk =   0.0185185
        k(   10) = (   0.0000000   0.1924501   0.0973964), wk =   0.0185185
        k(   11) = (   0.0000000   0.1924501   0.1947928), wk =   0.0185185
        k(   12) = (   0.0000000   0.1924501  -0.2921892), wk =   0.0185185
        k(   13) = (   0.0000000  -0.2886751   0.0000000), wk =   0.0092593
        k(   14) = (   0.0000000  -0.2886751   0.0973964), wk =   0.0185185
        k(   15) = (   0.0000000  -0.2886751   0.1947928), wk =   0.0185185
        k(   16) = (   0.0000000  -0.2886751  -0.2921892), wk =   0.0092593
        k(   17) = (   0.1666667   0.0962250   0.0000000), wk =   0.0185185
        k(   18) = (   0.1666667   0.0962250   0.0973964), wk =   0.0185185
        k(   19) = (   0.1666667   0.0962250   0.1947928), wk =   0.0185185
        k(   20) = (   0.1666667   0.0962250  -0.2921892), wk =   0.0185185
        k(   21) = (   0.1666667   0.1924501   0.0000000), wk =   0.0185185
        k(   22) = (   0.1666667   0.1924501   0.0973964), wk =   0.0185185
        k(   23) = (   0.1666667   0.1924501   0.1947928), wk =   0.0185185
        k(   24) = (   0.1666667   0.1924501  -0.2921892), wk =   0.0185185
        k(   25) = (   0.1666667   0.2886751   0.0000000), wk =   0.0185185
        k(   26) = (   0.1666667   0.2886751   0.0973964), wk =   0.0185185
        k(   27) = (   0.1666667   0.2886751   0.1947928), wk =   0.0185185
        k(   28) = (   0.1666667   0.2886751  -0.2921892), wk =   0.0185185
        k(   29) = (   0.1666667   0.0000000   0.0000000), wk =   0.0185185
        k(   30) = (   0.1666667   0.0000000   0.0973964), wk =   0.0185185
        k(   31) = (   0.1666667   0.0000000   0.1947928), wk =   0.0185185
        k(   32) = (   0.1666667   0.0000000  -0.2921892), wk =   0.0185185
        k(   33) = (   0.3333333   0.1924501   0.0000000), wk =   0.0185185
        k(   34) = (   0.3333333   0.1924501   0.0973964), wk =   0.0185185
        k(   35) = (   0.3333333   0.1924501   0.1947928), wk =   0.0185185
        k(   36) = (   0.3333333   0.1924501  -0.2921892), wk =   0.0185185
        k(   37) = (   0.3333333   0.2886751   0.0000000), wk =   0.0185185
        k(   38) = (   0.3333333   0.2886751   0.0973964), wk =   0.0185185
        k(   39) = (   0.3333333   0.2886751   0.1947928), wk =   0.0185185
        k(   40) = (   0.3333333   0.2886751  -0.2921892), wk =   0.0185185
        k(   41) = (   0.3333333  -0.0962250   0.0000000), wk =   0.0185185
        k(   42) = (   0.3333333  -0.0962250   0.0973964), wk =   0.0185185
        k(   43) = (   0.3333333  -0.0962250   0.1947928), wk =   0.0185185
        k(   44) = (   0.3333333  -0.0962250  -0.2921892), wk =   0.0185185
        k(   45) = (   0.3333333  -0.0000000   0.0000000), wk =   0.0185185
        k(   46) = (   0.3333333  -0.0000000   0.0973964), wk =   0.0185185
        k(   47) = (   0.3333333  -0.0000000   0.1947928), wk =   0.0185185
        k(   48) = (   0.3333333  -0.0000000  -0.2921892), wk =   0.0185185
        k(   49) = (  -0.5000000  -0.2886751   0.0000000), wk =   0.0092593
        k(   50) = (  -0.5000000  -0.2886751   0.0973964), wk =   0.0185185
        k(   51) = (  -0.5000000  -0.2886751   0.1947928), wk =   0.0185185
        k(   52) = (  -0.5000000  -0.2886751  -0.2921892), wk =   0.0092593
        k(   53) = (  -0.5000000  -0.1924501   0.0000000), wk =   0.0185185
        k(   54) = (  -0.5000000  -0.1924501   0.0973964), wk =   0.0185185
        k(   55) = (  -0.5000000  -0.1924501   0.1947928), wk =   0.0185185
        k(   56) = (  -0.5000000  -0.1924501  -0.2921892), wk =   0.0185185
        k(   57) = (  -0.5000000  -0.0962250   0.0000000), wk =   0.0185185
        k(   58) = (  -0.5000000  -0.0962250   0.0973964), wk =   0.0185185
        k(   59) = (  -0.5000000  -0.0962250   0.1947928), wk =   0.0185185
        k(   60) = (  -0.5000000  -0.0962250  -0.2921892), wk =   0.0185185
        k(   61) = (  -0.5000000  -0.5773503   0.0000000), wk =   0.0092593
        k(   62) = (  -0.5000000  -0.5773503   0.0973964), wk =   0.0185185
        k(   63) = (  -0.5000000  -0.5773503   0.1947928), wk =   0.0185185
        k(   64) = (  -0.5000000  -0.5773503  -0.2921892), wk =   0.0092593
        k(   65) = (   0.0000000  -0.0962250   0.0973964), wk =   0.0185185
        k(   66) = (   0.0000000  -0.0962250   0.1947928), wk =   0.0185185
        k(   67) = (   0.0000000  -0.1924501   0.0973964), wk =   0.0185185
        k(   68) = (   0.0000000  -0.1924501   0.1947928), wk =   0.0185185
        k(   69) = (  -0.1666667   0.0962250   0.0000000), wk =   0.0185185
        k(   70) = (  -0.1666667  -0.0962250   0.0973964), wk =   0.0185185
        k(   71) = (  -0.1666667   0.0962250  -0.0973964), wk =   0.0185185
        k(   72) = (   0.1666667  -0.0962250  -0.0973964), wk =   0.0185185
        k(   73) = (  -0.1666667  -0.0962250   0.1947928), wk =   0.0185185
        k(   74) = (  -0.1666667   0.0962250  -0.1947928), wk =   0.0185185
        k(   75) = (   0.1666667  -0.0962250  -0.1947928), wk =   0.0185185
        k(   76) = (  -0.1666667   0.0962250   0.2921892), wk =   0.0185185
        k(   77) = (  -0.1666667   0.1924501   0.0000000), wk =   0.0185185
        k(   78) = (  -0.1666667  -0.1924501   0.0973964), wk =   0.0185185
        k(   79) = (  -0.1666667   0.1924501  -0.0973964), wk =   0.0185185
        k(   80) = (   0.1666667  -0.1924501  -0.0973964), wk =   0.0185185
        k(   81) = (  -0.1666667  -0.1924501   0.1947928), wk =   0.0185185
        k(   82) = (  -0.1666667   0.1924501  -0.1947928), wk =   0.0185185
        k(   83) = (   0.1666667  -0.1924501  -0.1947928), wk =   0.0185185
        k(   84) = (  -0.1666667   0.1924501   0.2921892), wk =   0.0185185
        k(   85) = (  -0.1666667  -0.2886751   0.0973964), wk =   0.0185185
        k(   86) = (  -0.1666667  -0.2886751   0.1947928), wk =   0.0185185
        k(   87) = (  -0.1666667  -0.0000000   0.0973964), wk =   0.0185185
        k(   88) = (  -0.1666667  -0.0000000   0.1947928), wk =   0.0185185
        k(   89) = (  -0.3333333   0.1924501   0.0000000), wk =   0.0185185
        k(   90) = (  -0.3333333  -0.1924501   0.0973964), wk =   0.0185185
        k(   91) = (  -0.3333333   0.1924501  -0.0973964), wk =   0.0185185
        k(   92) = (   0.3333333  -0.1924501  -0.0973964), wk =   0.0185185
        k(   93) = (  -0.3333333  -0.1924501   0.1947928), wk =   0.0185185
        k(   94) = (  -0.3333333   0.1924501  -0.1947928), wk =   0.0185185
        k(   95) = (   0.3333333  -0.1924501  -0.1947928), wk =   0.0185185
        k(   96) = (  -0.3333333   0.1924501   0.2921892), wk =   0.0185185
        k(   97) = (  -0.3333333  -0.2886751   0.0973964), wk =   0.0185185
        k(   98) = (  -0.3333333  -0.2886751   0.1947928), wk =   0.0185185
        k(   99) = (  -0.3333333  -0.0962250   0.0000000), wk =   0.0185185
        k(  100) = (  -0.3333333   0.0962250   0.0973964), wk =   0.0185185
        k(  101) = (  -0.3333333  -0.0962250  -0.0973964), wk =   0.0185185
        k(  102) = (   0.3333333   0.0962250  -0.0973964), wk =   0.0185185
        k(  103) = (  -0.3333333   0.0962250   0.1947928), wk =   0.0185185
        k(  104) = (  -0.3333333  -0.0962250  -0.1947928), wk =   0.0185185
        k(  105) = (   0.3333333   0.0962250  -0.1947928), wk =   0.0185185
        k(  106) = (  -0.3333333  -0.0962250   0.2921892), wk =   0.0185185
        k(  107) = (  -0.3333333   0.0000000   0.0973964), wk =   0.0185185
        k(  108) = (  -0.3333333   0.0000000   0.1947928), wk =   0.0185185
        k(  109) = (   0.5000000   0.1924501   0.0973964), wk =   0.0185185
        k(  110) = (   0.5000000   0.1924501   0.1947928), wk =   0.0185185
        k(  111) = (   0.5000000   0.0962250   0.0973964), wk =   0.0185185
        k(  112) = (   0.5000000   0.0962250   0.1947928), wk =   0.0185185

                       cryst. coord.
        k(    1) = (   0.0000000   0.0000000   0.0000000), wk =   0.0092593
        k(    2) = (   0.0000000   0.0000000   0.1666667), wk =   0.0185185
        k(    3) = (   0.0000000   0.0000000   0.3333333), wk =   0.0185185
        k(    4) = (   0.0000000   0.0000000  -0.5000000), wk =   0.0092593
        k(    5) = (   0.0000000   0.1666667   0.0000000), wk =   0.0185185
        k(    6) = (   0.0000000   0.1666667   0.1666667), wk =   0.0185185
        k(    7) = (   0.0000000   0.1666667   0.3333333), wk =   0.0185185
        k(    8) = (   0.0000000   0.1666667  -0.5000000), wk =   0.0185185
        k(    9) = (   0.0000000   0.3333333   0.0000000), wk =   0.0185185
        k(   10) = (   0.0000000   0.3333333   0.1666667), wk =   0.0185185
        k(   11) = (   0.0000000   0.3333333   0.3333333), wk =   0.0185185
        k(   12) = (   0.0000000   0.3333333  -0.5000000), wk =   0.0185185
        k(   13) = (   0.0000000  -0.5000000   0.0000000), wk =   0.0092593
        k(   14) = (   0.0000000  -0.5000000   0.1666667), wk =   0.0185185
        k(   15) = (   0.0000000  -0.5000000   0.3333333), wk =   0.0185185
        k(   16) = (   0.0000000  -0.5000000  -0.5000000), wk =   0.0092593
        k(   17) = (   0.1666667   0.0000000   0.0000000), wk =   0.0185185
        k(   18) = (   0.1666667   0.0000000   0.1666667), wk =   0.0185185
        k(   19) = (   0.1666667   0.0000000   0.3333333), wk =   0.0185185
        k(   20) = (   0.1666667   0.0000000  -0.5000000), wk =   0.0185185
        k(   21) = (   0.1666667   0.1666667   0.0000000), wk =   0.0185185
        k(   22) = (   0.1666667   0.1666667   0.1666667), wk =   0.0185185
        k(   23) = (   0.1666667   0.1666667   0.3333333), wk =   0.0185185
        k(   24) = (   0.1666667   0.1666667  -0.5000000), wk =   0.0185185
        k(   25) = (   0.1666667   0.3333333   0.0000000), wk =   0.0185185
        k(   26) = (   0.1666667   0.3333333   0.1666667), wk =   0.0185185
        k(   27) = (   0.1666667   0.3333333   0.3333333), wk =   0.0185185
        k(   28) = (   0.1666667   0.3333333  -0.5000000), wk =   0.0185185
        k(   29) = (   0.1666667  -0.1666667   0.0000000), wk =   0.0185185
        k(   30) = (   0.1666667  -0.1666667   0.1666667), wk =   0.0185185
        k(   31) = (   0.1666667  -0.1666667   0.3333333), wk =   0.0185185
        k(   32) = (   0.1666667  -0.1666667  -0.5000000), wk =   0.0185185
        k(   33) = (   0.3333333   0.0000000   0.0000000), wk =   0.0185185
        k(   34) = (   0.3333333   0.0000000   0.1666667), wk =   0.0185185
        k(   35) = (   0.3333333   0.0000000   0.3333333), wk =   0.0185185
        k(   36) = (   0.3333333   0.0000000  -0.5000000), wk =   0.0185185
        k(   37) = (   0.3333333   0.1666667   0.0000000), wk =   0.0185185
        k(   38) = (   0.3333333   0.1666667   0.1666667), wk =   0.0185185
        k(   39) = (   0.3333333   0.1666667   0.3333333), wk =   0.0185185
        k(   40) = (   0.3333333   0.1666667  -0.5000000), wk =   0.0185185
        k(   41) = (   0.3333333  -0.5000000   0.0000000), wk =   0.0185185
        k(   42) = (   0.3333333  -0.5000000   0.1666667), wk =   0.0185185
        k(   43) = (   0.3333333  -0.5000000   0.3333333), wk =   0.0185185
        k(   44) = (   0.3333333  -0.5000000  -0.5000000), wk =   0.0185185
        k(   45) = (   0.3333333  -0.3333333   0.0000000), wk =   0.0185185
        k(   46) = (   0.3333333  -0.3333333   0.1666667), wk =   0.0185185
        k(   47) = (   0.3333333  -0.3333333   0.3333333), wk =   0.0185185
        k(   48) = (   0.3333333  -0.3333333  -0.5000000), wk =   0.0185185
        k(   49) = (  -0.5000000   0.0000000   0.0000000), wk =   0.0092593
        k(   50) = (  -0.5000000   0.0000000   0.1666667), wk =   0.0185185
        k(   51) = (  -0.5000000   0.0000000   0.3333333), wk =   0.0185185
        k(   52) = (  -0.5000000   0.0000000  -0.5000000), wk =   0.0092593
        k(   53) = (  -0.5000000   0.1666667   0.0000000), wk =   0.0185185
        k(   54) = (  -0.5000000   0.1666667   0.1666667), wk =   0.0185185
        k(   55) = (  -0.5000000   0.1666667   0.3333333), wk =   0.0185185
        k(   56) = (  -0.5000000   0.1666667  -0.5000000), wk =   0.0185185
        k(   57) = (  -0.5000000   0.3333333   0.0000000), wk =   0.0185185
        k(   58) = (  -0.5000000   0.3333333   0.1666667), wk =   0.0185185
        k(   59) = (  -0.5000000   0.3333333   0.3333333), wk =   0.0185185
        k(   60) = (  -0.5000000   0.3333333  -0.5000000), wk =   0.0185185
        k(   61) = (  -0.5000000  -0.5000000   0.0000000), wk =   0.0092593
        k(   62) = (  -0.5000000  -0.5000000   0.1666667), wk =   0.0185185
        k(   63) = (  -0.5000000  -0.5000000   0.3333333), wk =   0.0185185
        k(   64) = (  -0.5000000  -0.5000000  -0.5000000), wk =   0.0092593
        k(   65) = (   0.0000000  -0.1666667   0.1666667), wk =   0.0185185
        k(   66) = (   0.0000000  -0.1666667   0.3333333), wk =   0.0185185
        k(   67) = (   0.0000000  -0.3333333   0.1666667), wk =   0.0185185
        k(   68) = (   0.0000000  -0.3333333   0.3333333), wk =   0.0185185
        k(   69) = (  -0.1666667   0.3333333   0.0000000), wk =   0.0185185
        k(   70) = (  -0.1666667   0.0000000   0.1666667), wk =   0.0185185
        k(   71) = (  -0.1666667   0.3333333  -0.1666667), wk =   0.0185185
        k(   72) = (   0.1666667  -0.3333333  -0.1666667), wk =   0.0185185
        k(   73) = (  -0.1666667   0.0000000   0.3333333), wk =   0.0185185
        k(   74) = (  -0.1666667   0.3333333  -0.3333333), wk =   0.0185185
        k(   75) = (   0.1666667  -0.3333333  -0.3333333), wk =   0.0185185
        k(   76) = (  -0.1666667   0.3333333   0.5000000), wk =   0.0185185
        k(   77) = (  -0.1666667   0.5000000   0.0000000), wk =   0.0185185
        k(   78) = (  -0.1666667  -0.1666667   0.1666667), wk =   0.0185185
        k(   79) = (  -0.1666667   0.5000000  -0.1666667), wk =   0.0185185
        k(   80) = (   0.1666667  -0.5000000  -0.1666667), wk =   0.0185185
        k(   81) = (  -0.1666667  -0.1666667   0.3333333), wk =   0.0185185
        k(   82) = (  -0.1666667   0.5000000  -0.3333333), wk =   0.0185185
        k(   83) = (   0.1666667  -0.5000000  -0.3333333), wk =   0.0185185
        k(   84) = (  -0.1666667   0.5000000   0.5000000), wk =   0.0185185
        k(   85) = (  -0.1666667  -0.3333333   0.1666667), wk =   0.0185185
        k(   86) = (  -0.1666667  -0.3333333   0.3333333), wk =   0.0185185
        k(   87) = (  -0.1666667   0.1666667   0.1666667), wk =   0.0185185
        k(   88) = (  -0.1666667   0.1666667   0.3333333), wk =   0.0185185
        k(   89) = (  -0.3333333   0.6666667   0.0000000), wk =   0.0185185
        k(   90) = (  -0.3333333   0.0000000   0.1666667), wk =   0.0185185
        k(   91) = (  -0.3333333   0.6666667  -0.1666667), wk =   0.0185185
        k(   92) = (   0.3333333  -0.6666667  -0.1666667), wk =   0.0185185
        k(   93) = (  -0.3333333   0.0000000   0.3333333), wk =   0.0185185
        k(   94) = (  -0.3333333   0.6666667  -0.3333333), wk =   0.0185185
        k(   95) = (   0.3333333  -0.6666667  -0.3333333), wk =   0.0185185
        k(   96) = (  -0.3333333   0.6666667   0.5000000), wk =   0.0185185
        k(   97) = (  -0.3333333  -0.1666667   0.1666667), wk =   0.0185185
        k(   98) = (  -0.3333333  -0.1666667   0.3333333), wk =   0.0185185
        k(   99) = (  -0.3333333   0.1666667   0.0000000), wk =   0.0185185
        k(  100) = (  -0.3333333   0.5000000   0.1666667), wk =   0.0185185
        k(  101) = (  -0.3333333   0.1666667  -0.1666667), wk =   0.0185185
        k(  102) = (   0.3333333  -0.1666667  -0.1666667), wk =   0.0185185
        k(  103) = (  -0.3333333   0.5000000   0.3333333), wk =   0.0185185
        k(  104) = (  -0.3333333   0.1666667  -0.3333333), wk =   0.0185185
        k(  105) = (   0.3333333  -0.1666667  -0.3333333), wk =   0.0185185
        k(  106) = (  -0.3333333   0.1666667   0.5000000), wk =   0.0185185
        k(  107) = (  -0.3333333   0.3333333   0.1666667), wk =   0.0185185
        k(  108) = (  -0.3333333   0.3333333   0.3333333), wk =   0.0185185
        k(  109) = (   0.5000000  -0.1666667   0.1666667), wk =   0.0185185
        k(  110) = (   0.5000000  -0.1666667   0.3333333), wk =   0.0185185
        k(  111) = (   0.5000000  -0.3333333   0.1666667), wk =   0.0185185
        k(  112) = (   0.5000000  -0.3333333   0.3333333), wk =   0.0185185

     Dense  grid:   106249 G-vectors     FFT dimensions: (  45,  81,  72)

     Smooth grid:    37563 G-vectors     FFT dimensions: (  30,  60,  50)

     Dynamical RAM for                 wfc:       0.64 MB

     Dynamical RAM for     wfc (w. buffer):      18.70 MB

     Dynamical RAM for           str. fact:       0.81 MB

     Dynamical RAM for           local pot:       0.00 MB

     Dynamical RAM for          nlocal pot:       1.86 MB

     Dynamical RAM for                qrad:       3.21 MB

     Dynamical RAM for          rho,v,vnew:       2.72 MB

     Dynamical RAM for               rhoin:       0.91 MB

     Dynamical RAM for            rho*nmix:       6.48 MB

     Dynamical RAM for           G-vectors:       1.59 MB

     Dynamical RAM for          h,s,v(r/c):       0.24 MB

     Dynamical RAM for          <psi|beta>:       0.06 MB

     Dynamical RAM for                 psi:       1.29 MB

     Dynamical RAM for                hpsi:       1.29 MB

     Dynamical RAM for                spsi:       1.29 MB

     Dynamical RAM for      wfcinit/wfcrot:       1.93 MB

     Dynamical RAM for           addusdens:      19.55 MB

     Dynamical RAM for          addusforce:      20.08 MB

     Estimated static dynamical RAM per process >      33.52 MB

     Estimated max dynamical RAM per process >      60.08 MB

     Estimated total dynamical RAM >     883.49 MB

     Check: negative core charge=   -0.000002

     Initial potential from superposition of free atoms

     starting charge      71.9851, renormalised to      72.0000
     Starting wfcs are   52 randomized atomic wfcs

     total cpu time spent up to now is        5.4 secs

     Self-consistent Calculation

     iteration #  1     ecut=    50.00 Ry     beta= 0.30
     Davidson diagonalization with overlap

---- Real-time Memory Report at c_bands before calling an iterative solver
            69 MiB given to the printing process from OS
             0 MiB allocation reported by mallinfo(arena+hblkhd)
        109448 MiB available memory on the node where the printing process lives
------------------
     ethr =  1.00E-02,  avg # of iterations =  1.4

     total cpu time spent up to now is       11.1 secs

     total energy              =    -722.82246545 Ry
     estimated scf accuracy    <       1.56064740 Ry

     iteration #  2     ecut=    50.00 Ry     beta= 0.30
     Davidson diagonalization with overlap

---- Real-time Memory Report at c_bands before calling an iterative solver
            88 MiB given to the printing process from OS
             0 MiB allocation reported by mallinfo(arena+hblkhd)
        109175 MiB available memory on the node where the printing process lives
------------------
     ethr =  2.17E-03,  avg # of iterations =  2.0

     total cpu time spent up to now is       18.1 secs

     total energy              =    -723.06030666 Ry
     estimated scf accuracy    <       0.17814543 Ry

     iteration #  3     ecut=    50.00 Ry     beta= 0.30
     Davidson diagonalization with overlap

---- Real-time Memory Report at c_bands before calling an iterative solver
            89 MiB given to the printing process from OS
             0 MiB allocation reported by mallinfo(arena+hblkhd)
        109180 MiB available memory on the node where the printing process lives
------------------
     ethr =  2.47E-04,  avg # of iterations =  6.7

     total cpu time spent up to now is       30.0 secs

     total energy              =    -723.08409688 Ry
     estimated scf accuracy    <       0.21646151 Ry

     iteration #  4     ecut=    50.00 Ry     beta= 0.30
     Davidson diagonalization with overlap

---- Real-time Memory Report at c_bands before calling an iterative solver
            90 MiB given to the printing process from OS
             0 MiB allocation reported by mallinfo(arena+hblkhd)
        109194 MiB available memory on the node where the printing process lives
------------------
     ethr =  2.47E-04,  avg # of iterations =  9.5

     total cpu time spent up to now is       46.5 secs

     total energy              =    -723.25141264 Ry
     estimated scf accuracy    <       0.72570756 Ry

     iteration #  5     ecut=    50.00 Ry     beta= 0.30
     Davidson diagonalization with overlap

---- Real-time Memory Report at c_bands before calling an iterative solver
            90 MiB given to the printing process from OS
             0 MiB allocation reported by mallinfo(arena+hblkhd)
        109487 MiB available memory on the node where the printing process lives
------------------
     ethr =  2.47E-04,  avg # of iterations =  1.1

     total cpu time spent up to now is       52.0 secs

     total energy              =    -722.95432805 Ry
     estimated scf accuracy    <       0.46745956 Ry

     iteration #  6     ecut=    50.00 Ry     beta= 0.30
     Davidson diagonalization with overlap

---- Real-time Memory Report at c_bands before calling an iterative solver
            90 MiB given to the printing process from OS
             0 MiB allocation reported by mallinfo(arena+hblkhd)
        109459 MiB available memory on the node where the printing process lives
------------------
     ethr =  2.47E-04,  avg # of iterations =  7.9

     total cpu time spent up to now is       64.6 secs

     total energy              =    -723.19282099 Ry
     estimated scf accuracy    <       0.42757632 Ry

     iteration #  7     ecut=    50.00 Ry     beta= 0.30
     Davidson diagonalization with overlap

---- Real-time Memory Report at c_bands before calling an iterative solver
            90 MiB given to the printing process from OS
             0 MiB allocation reported by mallinfo(arena+hblkhd)
        109140 MiB available memory on the node where the printing process lives
------------------
     ethr =  2.47E-04,  avg # of iterations =  2.0

     total cpu time spent up to now is       71.0 secs

     total energy              =    -723.20634610 Ry
     estimated scf accuracy    <       0.20745828 Ry

     iteration #  8     ecut=    50.00 Ry     beta= 0.30
     Davidson diagonalization with overlap

---- Real-time Memory Report at c_bands before calling an iterative solver
            91 MiB given to the printing process from OS
             0 MiB allocation reported by mallinfo(arena+hblkhd)
        109185 MiB available memory on the node where the printing process lives
------------------
     ethr =  2.47E-04,  avg # of iterations =  1.3

     total cpu time spent up to now is       76.8 secs

     total energy              =    -723.21233798 Ry
     estimated scf accuracy    <       0.18130436 Ry

     iteration #  9     ecut=    50.00 Ry     beta= 0.30
     Davidson diagonalization with overlap

---- Real-time Memory Report at c_bands before calling an iterative solver
            91 MiB given to the printing process from OS
             0 MiB allocation reported by mallinfo(arena+hblkhd)
        109205 MiB available memory on the node where the printing process lives
------------------
     ethr =  2.47E-04,  avg # of iterations =  1.0

     total cpu time spent up to now is       82.3 secs

     total energy              =    -723.18962898 Ry
     estimated scf accuracy    <       0.15406685 Ry

     iteration # 10     ecut=    50.00 Ry     beta= 0.30
     Davidson diagonalization with overlap

---- Real-time Memory Report at c_bands before calling an iterative solver
            91 MiB given to the printing process from OS
             0 MiB allocation reported by mallinfo(arena+hblkhd)
        109212 MiB available memory on the node where the printing process lives
------------------
     ethr =  2.14E-04,  avg # of iterations =  1.8

     total cpu time spent up to now is       88.3 secs

     total energy              =    -723.17164527 Ry
     estimated scf accuracy    <       0.08274275 Ry

     iteration # 11     ecut=    50.00 Ry     beta= 0.30
     Davidson diagonalization with overlap

---- Real-time Memory Report at c_bands before calling an iterative solver
            91 MiB given to the printing process from OS
             0 MiB allocation reported by mallinfo(arena+hblkhd)
        109211 MiB available memory on the node where the printing process lives
------------------
     ethr =  1.15E-04,  avg # of iterations =  4.3

     total cpu time spent up to now is       96.2 secs

     total energy              =    -723.19026443 Ry
     estimated scf accuracy    <       0.00733546 Ry

     iteration # 12     ecut=    50.00 Ry     beta= 0.30
     Davidson diagonalization with overlap

---- Real-time Memory Report at c_bands before calling an iterative solver
            91 MiB given to the printing process from OS
             0 MiB allocation reported by mallinfo(arena+hblkhd)
        109219 MiB available memory on the node where the printing process lives
------------------
     ethr =  1.02E-05,  avg # of iterations =  5.8

     total cpu time spent up to now is      106.5 secs

     total energy              =    -723.19373395 Ry
     estimated scf accuracy    <       0.00231740 Ry

     iteration # 13     ecut=    50.00 Ry     beta= 0.30
     Davidson diagonalization with overlap

---- Real-time Memory Report at c_bands before calling an iterative solver
            91 MiB given to the printing process from OS
             0 MiB allocation reported by mallinfo(arena+hblkhd)
        109216 MiB available memory on the node where the printing process lives
------------------
     ethr =  3.22E-06,  avg # of iterations =  4.9

     total cpu time spent up to now is      115.2 secs

     total energy              =    -723.19458286 Ry
     estimated scf accuracy    <       0.00006987 Ry

     iteration # 14     ecut=    50.00 Ry     beta= 0.30
     Davidson diagonalization with overlap

---- Real-time Memory Report at c_bands before calling an iterative solver
            91 MiB given to the printing process from OS
             0 MiB allocation reported by mallinfo(arena+hblkhd)
        109219 MiB available memory on the node where the printing process lives
------------------
     ethr =  9.70E-08,  avg # of iterations = 10.5

     total cpu time spent up to now is      133.4 secs

     total energy              =    -723.19530323 Ry
     estimated scf accuracy    <       0.00168788 Ry

     iteration # 15     ecut=    50.00 Ry     beta= 0.30
     Davidson diagonalization with overlap

---- Real-time Memory Report at c_bands before calling an iterative solver
            91 MiB given to the printing process from OS
             0 MiB allocation reported by mallinfo(arena+hblkhd)
        109084 MiB available memory on the node where the printing process lives
------------------
     ethr =  9.70E-08,  avg # of iterations =  7.2

     total cpu time spent up to now is      146.2 secs

     total energy              =    -723.19658980 Ry
     estimated scf accuracy    <       0.00407908 Ry

     iteration # 16     ecut=    50.00 Ry     beta= 0.30
     Davidson diagonalization with overlap

---- Real-time Memory Report at c_bands before calling an iterative solver
            91 MiB given to the printing process from OS
             0 MiB allocation reported by mallinfo(arena+hblkhd)
        109219 MiB available memory on the node where the printing process lives
------------------
     ethr =  9.70E-08,  avg # of iterations = 11.2

     total cpu time spent up to now is      163.7 secs

     total energy              =    -723.19433541 Ry
     estimated scf accuracy    <       0.01040366 Ry

     iteration # 17     ecut=    50.00 Ry     beta= 0.30
     Davidson diagonalization with overlap

---- Real-time Memory Report at c_bands before calling an iterative solver
            91 MiB given to the printing process from OS
             0 MiB allocation reported by mallinfo(arena+hblkhd)
        109225 MiB available memory on the node where the printing process lives
------------------
     c_bands:  1 eigenvalues not converged
     ethr =  9.70E-08,  avg # of iterations = 13.1

     total cpu time spent up to now is      184.3 secs

     total energy              =    -723.19434056 Ry
     estimated scf accuracy    <       0.00205514 Ry

     iteration # 18     ecut=    50.00 Ry     beta= 0.30
     Davidson diagonalization with overlap

---- Real-time Memory Report at c_bands before calling an iterative solver
            91 MiB given to the printing process from OS
             0 MiB allocation reported by mallinfo(arena+hblkhd)
        109229 MiB available memory on the node where the printing process lives
------------------
     ethr =  9.70E-08,  avg # of iterations =  9.1

     total cpu time spent up to now is      199.6 secs

     total energy              =    -723.19454198 Ry
     estimated scf accuracy    <       0.00029945 Ry

     iteration # 19     ecut=    50.00 Ry     beta= 0.30
     Davidson diagonalization with overlap

---- Real-time Memory Report at c_bands before calling an iterative solver
            91 MiB given to the printing process from OS
             0 MiB allocation reported by mallinfo(arena+hblkhd)
        109222 MiB available memory on the node where the printing process lives
------------------
     ethr =  9.70E-08,  avg # of iterations =  2.0

     total cpu time spent up to now is      205.6 secs

     total energy              =    -723.19447635 Ry
     estimated scf accuracy    <       0.00040431 Ry

     iteration # 20     ecut=    50.00 Ry     beta= 0.30
     Davidson diagonalization with overlap

---- Real-time Memory Report at c_bands before calling an iterative solver
            91 MiB given to the printing process from OS
             0 MiB allocation reported by mallinfo(arena+hblkhd)
        109217 MiB available memory on the node where the printing process lives
------------------
     ethr =  9.70E-08,  avg # of iterations =  1.8

     total cpu time spent up to now is      211.6 secs

     total energy              =    -723.19437772 Ry
     estimated scf accuracy    <       0.00028719 Ry

     iteration # 21     ecut=    50.00 Ry     beta= 0.30
     Davidson diagonalization with overlap

---- Real-time Memory Report at c_bands before calling an iterative solver
            91 MiB given to the printing process from OS
             0 MiB allocation reported by mallinfo(arena+hblkhd)
        109219 MiB available memory on the node where the printing process lives
------------------
     ethr =  9.70E-08,  avg # of iterations =  5.5

     total cpu time spent up to now is      221.7 secs

     total energy              =    -723.19443049 Ry
     estimated scf accuracy    <       0.00000305 Ry

     iteration # 22     ecut=    50.00 Ry     beta= 0.30
     Davidson diagonalization with overlap

---- Real-time Memory Report at c_bands before calling an iterative solver
            91 MiB given to the printing process from OS
             0 MiB allocation reported by mallinfo(arena+hblkhd)
        109228 MiB available memory on the node where the printing process lives
------------------
     ethr =  4.24E-09,  avg # of iterations =  5.0

     total cpu time spent up to now is      230.9 secs

     total energy              =    -723.19443387 Ry
     estimated scf accuracy    <       0.00001222 Ry

     iteration # 23     ecut=    50.00 Ry     beta= 0.30
     Davidson diagonalization with overlap

---- Real-time Memory Report at c_bands before calling an iterative solver
            91 MiB given to the printing process from OS
             0 MiB allocation reported by mallinfo(arena+hblkhd)
        109238 MiB available memory on the node where the printing process lives
------------------
     ethr =  4.24E-09,  avg # of iterations =  3.8

     total cpu time spent up to now is      237.8 secs

     total energy              =    -723.19443310 Ry
     estimated scf accuracy    <       0.00001865 Ry

     iteration # 24     ecut=    50.00 Ry     beta= 0.30
     Davidson diagonalization with overlap

---- Real-time Memory Report at c_bands before calling an iterative solver
            91 MiB given to the printing process from OS
             0 MiB allocation reported by mallinfo(arena+hblkhd)
        109235 MiB available memory on the node where the printing process lives
------------------
     ethr =  4.24E-09,  avg # of iterations =  5.6

     total cpu time spent up to now is      246.8 secs

     total energy              =    -723.19442609 Ry
     estimated scf accuracy    <       0.00002491 Ry

     iteration # 25     ecut=    50.00 Ry     beta= 0.30
     Davidson diagonalization with overlap

---- Real-time Memory Report at c_bands before calling an iterative solver
            91 MiB given to the printing process from OS
             0 MiB allocation reported by mallinfo(arena+hblkhd)
        109232 MiB available memory on the node where the printing process lives
------------------
     ethr =  4.24E-09,  avg # of iterations =  5.6

     total cpu time spent up to now is      257.1 secs

     total energy              =    -723.19442759 Ry
     estimated scf accuracy    <       0.00000159 Ry

     iteration # 26     ecut=    50.00 Ry     beta= 0.30
     Davidson diagonalization with overlap

---- Real-time Memory Report at c_bands before calling an iterative solver
            91 MiB given to the printing process from OS
             0 MiB allocation reported by mallinfo(arena+hblkhd)
        109237 MiB available memory on the node where the printing process lives
------------------
     ethr =  2.21E-09,  avg # of iterations =  7.1

     total cpu time spent up to now is      269.5 secs

     total energy              =    -723.19442858 Ry
     estimated scf accuracy    <       0.00000285 Ry

     iteration # 27     ecut=    50.00 Ry     beta= 0.30
     Davidson diagonalization with overlap

---- Real-time Memory Report at c_bands before calling an iterative solver
            91 MiB given to the printing process from OS
             0 MiB allocation reported by mallinfo(arena+hblkhd)
        109226 MiB available memory on the node where the printing process lives
------------------
     ethr =  2.21E-09,  avg # of iterations =  1.9

     total cpu time spent up to now is      275.3 secs

     total energy              =    -723.19442801 Ry
     estimated scf accuracy    <       0.00000152 Ry

     iteration # 28     ecut=    50.00 Ry     beta= 0.30
     Davidson diagonalization with overlap

---- Real-time Memory Report at c_bands before calling an iterative solver
            91 MiB given to the printing process from OS
             0 MiB allocation reported by mallinfo(arena+hblkhd)
        109226 MiB available memory on the node where the printing process lives
------------------
     ethr =  2.11E-09,  avg # of iterations =  4.3

     total cpu time spent up to now is      284.0 secs

     total energy              =    -723.19442857 Ry
     estimated scf accuracy    <       0.00000006 Ry

     iteration # 29     ecut=    50.00 Ry     beta= 0.30
     Davidson diagonalization with overlap

---- Real-time Memory Report at c_bands before calling an iterative solver
            91 MiB given to the printing process from OS
             0 MiB allocation reported by mallinfo(arena+hblkhd)
        109234 MiB available memory on the node where the printing process lives
------------------
     ethr =  8.96E-11,  avg # of iterations =  7.5

     total cpu time spent up to now is      296.3 secs

     total energy              =    -723.19442858 Ry
     estimated scf accuracy    <       0.00000040 Ry

     iteration # 30     ecut=    50.00 Ry     beta= 0.30
     Davidson diagonalization with overlap

---- Real-time Memory Report at c_bands before calling an iterative solver
            91 MiB given to the printing process from OS
             0 MiB allocation reported by mallinfo(arena+hblkhd)
        109239 MiB available memory on the node where the printing process lives
------------------
     ethr =  8.96E-11,  avg # of iterations =  2.0

     total cpu time spent up to now is      302.3 secs

     total energy              =    -723.19442848 Ry
     estimated scf accuracy    <       0.00000029 Ry

     iteration # 31     ecut=    50.00 Ry     beta= 0.30
     Davidson diagonalization with overlap

---- Real-time Memory Report at c_bands before calling an iterative solver
            91 MiB given to the printing process from OS
             0 MiB allocation reported by mallinfo(arena+hblkhd)
        109220 MiB available memory on the node where the printing process lives
------------------
     ethr =  8.96E-11,  avg # of iterations =  6.0

     total cpu time spent up to now is      313.4 secs

     End of self-consistent calculation

          k = 0.0000 0.0000 0.0000 (  4679 PWs)   bands (ev):

   -12.1684 -11.8024 -11.6720 -11.5280  -0.5079  -0.4587  -0.4512  -0.4053
    -0.3570  -0.3475  -0.2829  -0.2362  -0.0127   0.0454   0.0530   0.1996
     0.2483   0.2549   0.3265   0.3388   0.3742   0.3851   0.4150   0.4538
     0.8237   1.0202   1.5592   2.4099   3.0799   3.5806   3.9274   4.1240
     4.1678   4.4422   4.6129   4.6173

     occupation numbers 
     1.0000   1.0000   1.0000   1.0000   1.0000   1.0000   1.0000   1.0000
     1.0000   1.0000   1.0000   1.0000   1.0000   1.0000   1.0000   1.0000
     1.0000   1.0000   1.0000   1.0000   1.0000   1.0000   1.0000   1.0000
     1.0000   1.0000   1.0000   1.0000   1.0000   1.0000   1.0000   1.0000
     1.0000   1.0000   1.0000   1.0000

          k = 0.0000 0.0000 0.0974 (  4713 PWs)   bands (ev):

   -12.1437 -11.8241 -11.6676 -11.5364  -0.5137  -0.4601  -0.4535  -0.4130
    -0.3717  -0.3589  -0.3268  -0.2204  -0.1378   0.0246   0.0406   0.1799
     0.2559   0.2633   0.3314   0.3393   0.3728   0.3814   0.4115   0.4530
     1.0134   1.1176   1.4843   2.5885   3.1401   3.6191   3.8491   3.8907
     4.1583   4.1969   4.5811   4.5881

     occupation numbers 
     1.0000   1.0000   1.0000   1.0000   1.0000   1.0000   1.0000   1.0000
     1.0000   1.0000   1.0000   1.0000   1.0000   1.0000   1.0000   1.0000
     1.0000   1.0000   1.0000   1.0000   1.0000   1.0000   1.0000   1.0000
     1.0000   1.0000   1.0000   1.0000   1.0000   1.0000   1.0000   1.0000
     1.0000   1.0000   1.0000   1.0000

          k = 0.0000 0.0000 0.1948 (  4697 PWs)   bands (ev):

   -12.0760 -11.8884 -11.6530 -11.5562  -0.5296  -0.4677  -0.4507  -0.4381
    -0.4165  -0.3838  -0.3716  -0.3144  -0.1745  -0.0319   0.0507   0.1325
     0.2782   0.2830   0.3243   0.3387   0.3722   0.3952   0.4056   0.4469
     1.0612   1.3206   1.6928   2.9909   3.1072   3.3018   3.6236   3.7311
     4.2455   4.2771   4.4949   4.5069

     occupation numbers 
     1.0000   1.0000   1.0000   1.0000   1.0000   1.0000   1.0000   1.0000
     1.0000   1.0000   1.0000   1.0000   1.0000   1.0000   1.0000   1.0000
     1.0000   1.0000   1.0000   1.0000   1.0000   1.0000   1.0000   1.0000
     1.0000   1.0000   1.0000   1.0000   1.0000   1.0000   1.0000   1.0000
     1.0000   1.0000   1.0000   1.0000

          k = 0.0000 0.0000-0.2922 (  4720 PWs)   bands (ev):

   -11.9933 -11.9703 -11.6415 -11.5694  -0.5267  -0.5139  -0.4446  -0.4290
    -0.4279  -0.4058  -0.3918  -0.3764  -0.1103  -0.1021   0.0764   0.0886
     0.2984   0.3023   0.3106   0.3216   0.3711   0.4027   0.4214   0.4338
     1.1598   1.1732   2.3599   2.3863   3.3904   3.4140   3.5104   3.5317
     4.3429   4.3645   4.4026   4.4152

     occupation numbers 
     1.0000   1.0000   1.0000   1.0000   1.0000   1.0000   1.0000   1.0000
     1.0000   1.0000   1.0000   1.0000   1.0000   1.0000   1.0000   1.0000
     1.0000   1.0000   1.0000   1.0000   1.0000   1.0000   1.0000   1.0000
     1.0000   1.0000   1.0000   1.0000   1.0000   1.0000   1.0000   1.0000
     1.0000   1.0000   1.0000   1.0000

          k = 0.0000 0.0962 0.0000 (  4699 PWs)   bands (ev):

   -12.1439 -11.8006 -11.6968 -11.5327  -0.5261  -0.4693  -0.4389  -0.3986
    -0.3473  -0.3317  -0.3014  -0.2410  -0.0142   0.0275   0.0556   0.1190
     0.2370   0.2514   0.2689   0.3285   0.3680   0.4003   0.4097   0.5314
     0.8483   1.1655   1.6518   2.3647   3.1542   3.7057   3.8621   3.9709
     4.0788   4.1106   4.4452   4.5762

     occupation numbers 
     1.0000   1.0000   1.0000   1.0000   1.0000   1.0000   1.0000   1.0000
     1.0000   1.0000   1.0000   1.0000   1.0000   1.0000   1.0000   1.0000
     1.0000   1.0000   1.0000   1.0000   1.0000   1.0000   1.0000   1.0000
     1.0000   1.0000   1.0000   1.0000   1.0000   1.0000   1.0000   1.0000
     1.0000   1.0000   1.0000   1.0000

          k = 0.0000 0.0962 0.0974 (  4711 PWs)   bands (ev):

   -12.1202 -11.8151 -11.6972 -11.5423  -0.5298  -0.4800  -0.4364  -0.4021
    -0.3686  -0.3471  -0.3275  -0.2275  -0.1253   0.0010   0.0385   0.0923
     0.2443   0.2602   0.2883   0.3266   0.3673   0.3774   0.4029   0.5035
     1.1261   1.1819   1.6361   2.5241   3.2107   3.6511   3.7530   3.9102
     3.9671   4.1305   4.4247   4.5438

     occupation numbers 
     1.0000   1.0000   1.0000   1.0000   1.0000   1.0000   1.0000   1.0000
     1.0000   1.0000   1.0000   1.0000   1.0000   1.0000   1.0000   1.0000
     1.0000   1.0000   1.0000   1.0000   1.0000   1.0000   1.0000   1.0000
     1.0000   1.0000   1.0000   1.0000   1.0000   1.0000   1.0000   1.0000
     1.0000   1.0000   1.0000   1.0000

          k = 0.0000 0.0962 0.1948 (  4703 PWs)   bands (ev):

   -12.0552 -11.8725 -11.6815 -11.5675  -0.5400  -0.4915  -0.4685  -0.4179
    -0.3935  -0.3863  -0.3525  -0.2876  -0.1854  -0.0533   0.0181   0.0576
     0.2707   0.2801   0.3166   0.3283   0.3537   0.3657   0.3950   0.4471
     1.2329   1.5113   1.7245   2.9345   3.0598   3.3680   3.6625   3.7835
     4.0428   4.2125   4.3293   4.4566

     occupation numbers 
     1.0000   1.0000   1.0000   1.0000   1.0000   1.0000   1.0000   1.0000
     1.0000   1.0000   1.0000   1.0000   1.0000   1.0000   1.0000   1.0000
     1.0000   1.0000   1.0000   1.0000   1.0000   1.0000   1.0000   1.0000
     1.0000   1.0000   1.0000   1.0000   1.0000   1.0000   1.0000   1.0000
     1.0000   1.0000   1.0000   1.0000

          k = 0.0000 0.0962-0.2922 (  4688 PWs)   bands (ev):

   -11.9776 -11.9493 -11.6640 -11.5867  -0.5334  -0.5239  -0.4777  -0.4567
    -0.3905  -0.3839  -0.3574  -0.3527  -0.1266  -0.1176   0.0163   0.0361
     0.2955   0.3008   0.3076   0.3167   0.3609   0.3859   0.3922   0.3963
     1.3561   1.3686   2.3642   2.3912   3.3752   3.4004   3.5664   3.5888
     4.1651   4.1931   4.3298   4.3495

     occupation numbers 
     1.0000   1.0000   1.0000   1.0000   1.0000   1.0000   1.0000   1.0000
     1.0000   1.0000   1.0000   1.0000   1.0000   1.0000   1.0000   1.0000
     1.0000   1.0000   1.0000   1.0000   1.0000   1.0000   1.0000   1.0000
     1.0000   1.0000   1.0000   1.0000   1.0000   1.0000   1.0000   1.0000
     1.0000   1.0000   1.0000   1.0000

          k = 0.0000 0.1925 0.0000 (  4699 PWs)   bands (ev):

   -12.0793 -11.8336 -11.7186 -11.5487  -0.5644  -0.5016  -0.4064  -0.3829
    -0.3402  -0.3000  -0.2775  -0.2419  -0.0828  -0.0521   0.0528   0.0942
     0.1954   0.2262   0.2502   0.2959   0.3632   0.3959   0.4664   0.5326
     0.9322   1.3804   1.8726   2.5338   3.2003   3.3509   3.5401   3.8946
     3.9637   4.1181   4.3523   4.4598

     occupation numbers 
     1.0000   1.0000   1.0000   1.0000   1.0000   1.0000   1.0000   1.0000
     1.0000   1.0000   1.0000   1.0000   1.0000   1.0000   1.0000   1.0000
     1.0000   1.0000   1.0000   1.0000   1.0000   1.0000   1.0000   1.0000
     1.0000   1.0000   1.0000   1.0000   1.0000   1.0000   1.0000   1.0000
     1.0000   1.0000   1.0000   1.0000

          k = 0.0000 0.1925 0.0974 (  4706 PWs)   bands (ev):

   -12.0583 -11.8238 -11.7365 -11.5625  -0.5671  -0.5120  -0.4162  -0.3895
    -0.3555  -0.3111  -0.2821  -0.2405  -0.1236  -0.0680  -0.0249   0.0379
     0.2083   0.2430   0.2585   0.2978   0.3603   0.3892   0.4112   0.4868
     1.2173   1.4689   1.9466   2.5778   3.1545   3.3942   3.4905   3.9100
     3.9569   4.0712   4.2611   4.4221

     occupation numbers 
     1.0000   1.0000   1.0000   1.0000   1.0000   1.0000   1.0000   1.0000
     1.0000   1.0000   1.0000   1.0000   1.0000   1.0000   1.0000   1.0000
     1.0000   1.0000   1.0000   1.0000   1.0000   1.0000   1.0000   1.0000
     1.0000   1.0000   1.0000   1.0000   1.0000   1.0000   1.0000   1.0000
     1.0000   1.0000   1.0000   1.0000

          k = 0.0000 0.1925 0.1948 (  4689 PWs)   bands (ev):

   -12.0012 -11.8373 -11.7459 -11.5984  -0.5686  -0.5263  -0.4785  -0.4281
    -0.3550  -0.3259  -0.2990  -0.2383  -0.2151  -0.1129  -0.0783  -0.0482
     0.2506   0.2750   0.2914   0.3015   0.3499   0.3566   0.3798   0.4210
     1.5928   1.7746   1.9441   2.8257   2.9131   3.5196   3.5621   3.7731
     3.9267   4.0241   4.0685   4.3216

     occupation numbers 
     1.0000   1.0000   1.0000   1.0000   1.0000   1.0000   1.0000   1.0000
     1.0000   1.0000   1.0000   1.0000   1.0000   1.0000   1.0000   1.0000
     1.0000   1.0000   1.0000   1.0000   1.0000   1.0000   1.0000   1.0000
     1.0000   1.0000   1.0000   1.0000   1.0000   1.0000   1.0000   1.0000
     1.0000   1.0000   1.0000   1.0000

          k = 0.0000 0.1925-0.2922 (  4690 PWs)   bands (ev):

   -11.9411 -11.8919 -11.7245 -11.6262  -0.5493  -0.5424  -0.5139  -0.4827
    -0.3335  -0.3298  -0.3054  -0.2900  -0.1747  -0.1627  -0.1013  -0.0714
     0.2883   0.2973   0.3014   0.3064   0.3416   0.3449   0.3686   0.3751
     1.7675   1.7759   2.3385   2.3655   3.3487   3.3797   3.7139   3.7409
     3.7876   3.8064   4.1739   4.1983

     occupation numbers 
     1.0000   1.0000   1.0000   1.0000   1.0000   1.0000   1.0000   1.0000
     1.0000   1.0000   1.0000   1.0000   1.0000   1.0000   1.0000   1.0000
     1.0000   1.0000   1.0000   1.0000   1.0000   1.0000   1.0000   1.0000
     1.0000   1.0000   1.0000   1.0000   1.0000   1.0000   1.0000   1.0000
     1.0000   1.0000   1.0000   1.0000

          k = 0.0000-0.2887 0.0000 (  4694 PWs)   bands (ev):

   -12.0257 -11.8849 -11.7121 -11.5605  -0.5824  -0.5197  -0.3975  -0.3598
    -0.3435  -0.2940  -0.2338  -0.1778  -0.1577  -0.1503   0.0813   0.0882
     0.1671   0.2062   0.2575   0.2697   0.3624   0.3912   0.5056   0.5209
     1.0372   1.2859   2.4418   2.5193   2.9540   3.0290   3.5563   3.7048
     4.1510   4.2107   4.2694   4.3246

     occupation numbers 
     1.0000   1.0000   1.0000   1.0000   1.0000   1.0000   1.0000   1.0000
     1.0000   1.0000   1.0000   1.0000   1.0000   1.0000   1.0000   1.0000
     1.0000   1.0000   1.0000   1.0000   1.0000   1.0000   1.0000   1.0000
     1.0000   1.0000   1.0000   1.0000   1.0000   1.0000   1.0000   1.0000
     1.0000   1.0000   1.0000   1.0000

          k = 0.0000-0.2887 0.0974 (  4692 PWs)   bands (ev):

   -12.0072 -11.8684 -11.7309 -11.5777  -0.5850  -0.5290  -0.4181  -0.3773
    -0.3364  -0.2903  -0.2421  -0.1910  -0.1691  -0.1629  -0.0245   0.0137
     0.1919   0.2248   0.2634   0.2752   0.3578   0.3855   0.4404   0.4675
     1.2978   1.4926   2.4644   2.5429   2.9258   3.0055   3.6037   3.7448
     4.0802   4.1397   4.2201   4.2817

     occupation numbers 
     1.0000   1.0000   1.0000   1.0000   1.0000   1.0000   1.0000   1.0000
     1.0000   1.0000   1.0000   1.0000   1.0000   1.0000   1.0000   1.0000
     1.0000   1.0000   1.0000   1.0000   1.0000   1.0000   1.0000   1.0000
     1.0000   1.0000   1.0000   1.0000   1.0000   1.0000   1.0000   1.0000
     1.0000   1.0000   1.0000   1.0000

          k = 0.0000-0.2887 0.1948 (  4678 PWs)   bands (ev):

   -11.9589 -11.8289 -11.7780 -11.6201  -0.5839  -0.5411  -0.4813  -0.4391
    -0.3121  -0.2776  -0.2545  -0.2225  -0.1966  -0.1897  -0.1553  -0.0966
     0.2404   0.2728   0.2788   0.2903   0.3456   0.3615   0.3759   0.4097
     1.7375   1.8681   2.4020   2.4441   3.0725   3.1080   3.7304   3.8194
     3.8697   3.8966   4.0916   4.1703

     occupation numbers 
     1.0000   1.0000   1.0000   1.0000   1.0000   1.0000   1.0000   1.0000
     1.0000   1.0000   1.0000   1.0000   1.0000   1.0000   1.0000   1.0000
     1.0000   1.0000   1.0000   1.0000   1.0000   1.0000   1.0000   1.0000
     1.0000   1.0000   1.0000   1.0000   1.0000   1.0000   1.0000   1.0000
     1.0000   1.0000   1.0000   1.0000

          k = 0.0000-0.2887-0.2922 (  4680 PWs)   bands (ev):

   -11.9189 -11.8272 -11.7908 -11.6499  -0.5583  -0.5517  -0.5268  -0.4944
    -0.2906  -0.2656  -0.2532  -0.2493  -0.2147  -0.2027  -0.1969  -0.1356
     0.2840   0.2944   0.2972   0.3046   0.3283   0.3361   0.3622   0.3673
     2.0965   2.1426   2.1750   2.2402   3.3604   3.4259   3.5099   3.5583
     3.8797   3.9420   3.9836   4.0507

     occupation numbers 
     1.0000   1.0000   1.0000   1.0000   1.0000   1.0000   1.0000   1.0000
     1.0000   1.0000   1.0000   1.0000   1.0000   1.0000   1.0000   1.0000
     1.0000   1.0000   1.0000   1.0000   1.0000   1.0000   1.0000   1.0000
     1.0000   1.0000   1.0000   1.0000   1.0000   1.0000   1.0000   1.0000
     1.0000   1.0000   1.0000   1.0000

          k = 0.1667 0.0962 0.0000 (  4700 PWs)   bands (ev):

   -12.0714 -11.7633 -11.6658 -11.5185  -0.5181  -0.4463  -0.3957  -0.3755
    -0.3136  -0.2674  -0.2243  -0.1754  -0.0293   0.0593   0.0831   0.1134
     0.2174   0.2224   0.2654   0.3065   0.3694   0.4223   0.4625   0.5640
     0.9422   1.2250   1.7066   2.3846   2.7091   3.2424   3.5269   3.5644
     3.6902   3.8808   4.3505   4.4555

     occupation numbers 
     1.0000   1.0000   1.0000   1.0000   1.0000   1.0000   1.0000   1.0000
     1.0000   1.0000   1.0000   1.0000   1.0000   1.0000   1.0000   1.0000
     1.0000   1.0000   1.0000   1.0000   1.0000   1.0000   1.0000   1.0000
     1.0000   1.0000   1.0000   1.0000   1.0000   1.0000   1.0000   1.0000
     1.0000   1.0000   1.0000   1.0000

          k = 0.1667 0.0962 0.0974 (  4707 PWs)   bands (ev):

   -12.0499 -11.7761 -11.6666 -11.5266  -0.5274  -0.4476  -0.3981  -0.3811
    -0.3131  -0.2780  -0.2545  -0.1898  -0.0871  -0.0007   0.0383   0.0907
     0.2276   0.2387   0.2760   0.3218   0.3625   0.4029   0.4274   0.5471
     1.2013   1.2677   1.6657   2.5198   2.8129   3.1765   3.4791   3.5161
     3.7143   3.9172   4.2591   4.4200

     occupation numbers 
     1.0000   1.0000   1.0000   1.0000   1.0000   1.0000   1.0000   1.0000
     1.0000   1.0000   1.0000   1.0000   1.0000   1.0000   1.0000   1.0000
     1.0000   1.0000   1.0000   1.0000   1.0000   1.0000   1.0000   1.0000
     1.0000   1.0000   1.0000   1.0000   1.0000   1.0000   1.0000   1.0000
     1.0000   1.0000   1.0000   1.0000

          k = 0.1667 0.0962 0.1948 (  4689 PWs)   bands (ev):

   -11.9912 -11.8264 -11.6554 -11.5465  -0.5374  -0.4545  -0.4299  -0.3784
    -0.3386  -0.3093  -0.2991  -0.2376  -0.1760  -0.0498  -0.0153   0.0466
     0.2640   0.2747   0.3071   0.3275   0.3500   0.3666   0.4299   0.5065
     1.2868   1.5286   1.7948   2.7692   2.8389   3.1155   3.3418   3.5764
     3.7226   4.0181   4.0583   4.3177

     occupation numbers 
     1.0000   1.0000   1.0000   1.0000   1.0000   1.0000   1.0000   1.0000
     1.0000   1.0000   1.0000   1.0000   1.0000   1.0000   1.0000   1.0000
     1.0000   1.0000   1.0000   1.0000   1.0000   1.0000   1.0000   1.0000
     1.0000   1.0000   1.0000   1.0000   1.0000   1.0000   1.0000   1.0000
     1.0000   1.0000   1.0000   1.0000

          k = 0.1667 0.0962-0.2922 (  4692 PWs)   bands (ev):

   -11.9247 -11.8916 -11.6434 -11.5599  -0.5267  -0.4944  -0.4245  -0.4035
    -0.3471  -0.3353  -0.3101  -0.2762  -0.1360  -0.1180  -0.0185   0.0254
     0.2966   0.2986   0.3081   0.3136   0.3465   0.3595   0.4549   0.4629
     1.3888   1.4063   2.3321   2.3594   3.0000   3.0462   3.5048   3.5483
     3.7935   3.8362   4.1574   4.1829

     occupation numbers 
     1.0000   1.0000   1.0000   1.0000   1.0000   1.0000   1.0000   1.0000
     1.0000   1.0000   1.0000   1.0000   1.0000   1.0000   1.0000   1.0000
     1.0000   1.0000   1.0000   1.0000   1.0000   1.0000   1.0000   1.0000
     1.0000   1.0000   1.0000   1.0000   1.0000   1.0000   1.0000   1.0000
     1.0000   1.0000   1.0000   1.0000

          k = 0.1667 0.1925 0.0000 (  4709 PWs)   bands (ev):

   -12.0151 -11.7907 -11.6892 -11.5280  -0.5295  -0.4408  -0.3887  -0.3550
    -0.3214  -0.2871  -0.2298  -0.1855  -0.1204   0.0016   0.0831   0.1131
     0.1756   0.2027   0.2618   0.2964   0.3672   0.4003   0.4991   0.5548
     1.0434   1.4153   1.9956   2.3970   2.8604   2.9257   3.0932   3.7086
     3.8015   3.9031   4.2652   4.3101

     occupation numbers 
     1.0000   1.0000   1.0000   1.0000   1.0000   1.0000   1.0000   1.0000
     1.0000   1.0000   1.0000   1.0000   1.0000   1.0000   1.0000   1.0000
     1.0000   1.0000   1.0000   1.0000   1.0000   1.0000   1.0000   1.0000
     1.0000   1.0000   1.0000   1.0000   1.0000   1.0000   1.0000   1.0000
     1.0000   1.0000   1.0000   1.0000

          k = 0.1667 0.1925 0.0974 (  4694 PWs)   bands (ev):

   -11.9963 -11.7826 -11.7042 -11.5400  -0.5375  -0.4452  -0.3927  -0.3768
    -0.3277  -0.2937  -0.2296  -0.1912  -0.1335  -0.0288  -0.0051   0.0359
     0.1957   0.2227   0.2723   0.3129   0.3610   0.3948   0.4397   0.5160
     1.2963   1.5016   1.9878   2.5342   2.8272   2.9631   3.1238   3.7145
     3.7433   3.9008   4.1869   4.2662

     occupation numbers 
     1.0000   1.0000   1.0000   1.0000   1.0000   1.0000   1.0000   1.0000
     1.0000   1.0000   1.0000   1.0000   1.0000   1.0000   1.0000   1.0000
     1.0000   1.0000   1.0000   1.0000   1.0000   1.0000   1.0000   1.0000
     1.0000   1.0000   1.0000   1.0000   1.0000   1.0000   1.0000   1.0000
     1.0000   1.0000   1.0000   1.0000

          k = 0.1667 0.1925 0.1948 (  4683 PWs)   bands (ev):

   -11.9456 -11.7961 -11.7117 -11.5700  -0.5461  -0.4567  -0.4468  -0.3999
    -0.3358  -0.3003  -0.2427  -0.2136  -0.1734  -0.1176  -0.0827  -0.0502
     0.2507   0.2702   0.2971   0.3228   0.3484   0.3735   0.3927   0.4531
     1.5762   1.8039   1.9090   2.6075   2.9360   3.1216   3.2875   3.5620
     3.7665   3.8366   3.9701   4.1515

     occupation numbers 
     1.0000   1.0000   1.0000   1.0000   1.0000   1.0000   1.0000   1.0000
     1.0000   1.0000   1.0000   1.0000   1.0000   1.0000   1.0000   1.0000
     1.0000   1.0000   1.0000   1.0000   1.0000   1.0000   1.0000   1.0000
     1.0000   1.0000   1.0000   1.0000   1.0000   1.0000   1.0000   1.0000
     1.0000   1.0000   1.0000   1.0000

          k = 0.1667 0.1925-0.2922 (  4684 PWs)   bands (ev):

   -11.8953 -11.8412 -11.6958 -11.5912  -0.5350  -0.5001  -0.4523  -0.4328
    -0.3281  -0.3055  -0.2569  -0.2284  -0.1826  -0.1452  -0.1146  -0.0728
     0.2945   0.3017   0.3099   0.3134   0.3451   0.3567   0.3924   0.3996
     1.7132   1.7481   2.2505   2.2813   3.2208   3.2519   3.4790   3.5418
     3.6060   3.6457   3.9817   4.0102

     occupation numbers 
     1.0000   1.0000   1.0000   1.0000   1.0000   1.0000   1.0000   1.0000
     1.0000   1.0000   1.0000   1.0000   1.0000   1.0000   1.0000   1.0000
     1.0000   1.0000   1.0000   1.0000   1.0000   1.0000   1.0000   1.0000
     1.0000   1.0000   1.0000   1.0000   1.0000   1.0000   1.0000   1.0000
     1.0000   1.0000   1.0000   1.0000

          k = 0.1667 0.2887 0.0000 (  4678 PWs)   bands (ev):

   -11.9699 -11.8329 -11.6869 -11.5352  -0.5160  -0.4559  -0.4021  -0.3663
    -0.3155  -0.2741  -0.2338  -0.2016  -0.1010  -0.0702   0.0967   0.1073
     0.1675   0.1963   0.2711   0.2730   0.3689   0.3882   0.5180   0.5397
     1.1478   1.3936   2.4438   2.4964   2.5786   2.6009   3.3202   3.4038
     4.0333   4.0591   4.0875   4.1677

     occupation numbers 
     1.0000   1.0000   1.0000   1.0000   1.0000   1.0000   1.0000   1.0000
     1.0000   1.0000   1.0000   1.0000   1.0000   1.0000   1.0000   1.0000
     1.0000   1.0000   1.0000   1.0000   1.0000   1.0000   1.0000   1.0000
     1.0000   1.0000   1.0000   1.0000   1.0000   1.0000   1.0000   1.0000
     1.0000   1.0000   1.0000   1.0000

          k = 0.1667 0.2887 0.0974 (  4676 PWs)   bands (ev):

   -11.9535 -11.8184 -11.7029 -11.5503  -0.5206  -0.4738  -0.4047  -0.3874
    -0.3122  -0.2664  -0.2426  -0.2117  -0.1158  -0.0802  -0.0003   0.0164
     0.1896   0.2168   0.2818   0.2877   0.3630   0.3825   0.4674   0.4852
     1.3577   1.5752   2.4049   2.4367   2.6791   2.7088   3.3372   3.4360
     3.9781   4.0099   4.0360   4.1189

     occupation numbers 
     1.0000   1.0000   1.0000   1.0000   1.0000   1.0000   1.0000   1.0000
     1.0000   1.0000   1.0000   1.0000   1.0000   1.0000   1.0000   1.0000
     1.0000   1.0000   1.0000   1.0000   1.0000   1.0000   1.0000   1.0000
     1.0000   1.0000   1.0000   1.0000   1.0000   1.0000   1.0000   1.0000
     1.0000   1.0000   1.0000   1.0000

          k = 0.1667 0.2887 0.1948 (  4692 PWs)   bands (ev):

   -11.9113 -11.7860 -11.7418 -11.5862  -0.5251  -0.4987  -0.4425  -0.4185
    -0.3092  -0.2711  -0.2612  -0.2347  -0.1494  -0.1235  -0.1195  -0.0863
     0.2445   0.2697   0.2985   0.3056   0.3490   0.3679   0.3912   0.4265
     1.7099   1.8633   2.2557   2.2888   2.9877   3.0414   3.4297   3.5236
     3.8273   3.8455   3.8678   3.9450

     occupation numbers 
     1.0000   1.0000   1.0000   1.0000   1.0000   1.0000   1.0000   1.0000
     1.0000   1.0000   1.0000   1.0000   1.0000   1.0000   1.0000   1.0000
     1.0000   1.0000   1.0000   1.0000   1.0000   1.0000   1.0000   1.0000
     1.0000   1.0000   1.0000   1.0000   1.0000   1.0000   1.0000   1.0000
     1.0000   1.0000   1.0000   1.0000

          k = 0.1667 0.2887-0.2922 (  4684 PWs)   bands (ev):

   -11.8777 -11.7876 -11.7502 -11.6098  -0.5164  -0.5002  -0.4760  -0.4575
    -0.3093  -0.2772  -0.2638  -0.2557  -0.1634  -0.1568  -0.1442  -0.1072
     0.2934   0.3035   0.3124   0.3172   0.3346   0.3474   0.3658   0.3794
     1.9844   2.0396   2.0669   2.1308   3.3357   3.3917   3.4806   3.5423
     3.6351   3.6858   3.7229   3.7762

     occupation numbers 
     1.0000   1.0000   1.0000   1.0000   1.0000   1.0000   1.0000   1.0000
     1.0000   1.0000   1.0000   1.0000   1.0000   1.0000   1.0000   1.0000
     1.0000   1.0000   1.0000   1.0000   1.0000   1.0000   1.0000   1.0000
     1.0000   1.0000   1.0000   1.0000   1.0000   1.0000   1.0000   1.0000
     1.0000   1.0000   1.0000   1.0000

          k = 0.1667 0.0000 0.0000 (  4717 PWs)   bands (ev):

   -12.0930 -11.7643 -11.6433 -11.5165  -0.4902  -0.4628  -0.4114  -0.3671
    -0.3442  -0.2822  -0.2128  -0.1362   0.0272   0.0728   0.1095   0.1292
     0.2286   0.2470   0.2764   0.3143   0.3692   0.4372   0.4597   0.4941
     0.9110   1.1141   1.5958   2.2999   2.8171   3.3910   3.5141   3.5723
     3.6417   3.9508   4.3799   4.4750

     occupation numbers 
     1.0000   1.0000   1.0000   1.0000   1.0000   1.0000   1.0000   1.0000
     1.0000   1.0000   1.0000   1.0000   1.0000   1.0000   1.0000   1.0000
     1.0000   1.0000   1.0000   1.0000   1.0000   1.0000   1.0000   1.0000
     1.0000   1.0000   1.0000   1.0000   1.0000   1.0000   1.0000   1.0000
     1.0000   1.0000   1.0000   1.0000

          k = 0.1667 0.0000 0.0974 (  4703 PWs)   bands (ev):

   -12.0704 -11.7835 -11.6400 -11.5234  -0.5021  -0.4642  -0.4132  -0.3614
    -0.3497  -0.2922  -0.2078  -0.2018  -0.0863   0.0414   0.0989   0.1063
     0.2428   0.2551   0.2967   0.3202   0.3607   0.3931   0.4638   0.5000
     1.1004   1.2199   1.5231   2.4287   2.9327   3.3431   3.3900   3.5852
     3.6540   3.9693   4.3069   4.4393

     occupation numbers 
     1.0000   1.0000   1.0000   1.0000   1.0000   1.0000   1.0000   1.0000
     1.0000   1.0000   1.0000   1.0000   1.0000   1.0000   1.0000   1.0000
     1.0000   1.0000   1.0000   1.0000   1.0000   1.0000   1.0000   1.0000
     1.0000   1.0000   1.0000   1.0000   1.0000   1.0000   1.0000   1.0000
     1.0000   1.0000   1.0000   1.0000

          k = 0.1667 0.0000 0.1948 (  4698 PWs)   bands (ev):

   -12.0090 -11.8403 -11.6302 -11.5381  -0.5159  -0.4646  -0.4226  -0.3747
    -0.3537  -0.3186  -0.3068  -0.2507  -0.1812  -0.0396   0.0792   0.0936
     0.2708   0.2765   0.3162   0.3288   0.3424   0.3624   0.4824   0.5087
     1.1391   1.3708   1.7718   2.6726   2.9212   3.1951   3.2446   3.6436
     3.7567   4.0429   4.1580   4.3388

     occupation numbers 
     1.0000   1.0000   1.0000   1.0000   1.0000   1.0000   1.0000   1.0000
     1.0000   1.0000   1.0000   1.0000   1.0000   1.0000   1.0000   1.0000
     1.0000   1.0000   1.0000   1.0000   1.0000   1.0000   1.0000   1.0000
     1.0000   1.0000   1.0000   1.0000   1.0000   1.0000   1.0000   1.0000
     1.0000   1.0000   1.0000   1.0000

          k = 0.1667 0.0000-0.2922 (  4694 PWs)   bands (ev):

   -11.9373 -11.9104 -11.6236 -11.5464  -0.5002  -0.4924  -0.4138  -0.3962
    -0.3774  -0.3538  -0.3252  -0.2888  -0.1352  -0.1140   0.0715   0.0889
     0.2942   0.2991   0.3097   0.3151   0.3363   0.3545   0.4977   0.5095
     1.2278   1.2384   2.3497   2.3749   2.9133   2.9655   3.5252   3.5524
     3.9302   3.9467   4.1840   4.2155

     occupation numbers 
     1.0000   1.0000   1.0000   1.0000   1.0000   1.0000   1.0000   1.0000
     1.0000   1.0000   1.0000   1.0000   1.0000   1.0000   1.0000   1.0000
     1.0000   1.0000   1.0000   1.0000   1.0000   1.0000   1.0000   1.0000
     1.0000   1.0000   1.0000   1.0000   1.0000   1.0000   1.0000   1.0000
     1.0000   1.0000   1.0000   1.0000

          k = 0.3333 0.1925 0.0000 (  4693 PWs)   bands (ev):

   -11.8702 -11.7090 -11.6337 -11.4889  -0.5350  -0.4458  -0.3559  -0.3000
    -0.2607  -0.1623  -0.0971  -0.0674   0.0057   0.0661   0.1022   0.1180
     0.2049   0.2363   0.2954   0.3167   0.3825   0.4238   0.5236   0.5685
     1.2327   1.3987   1.6594   1.8955   2.4016   2.5657   2.6819   3.3562
     3.5555   3.6905   3.9780   4.1237

     occupation numbers 
     1.0000   1.0000   1.0000   1.0000   1.0000   1.0000   1.0000   1.0000
     1.0000   1.0000   1.0000   1.0000   1.0000   1.0000   1.0000   1.0000
     1.0000   1.0000   1.0000   1.0000   1.0000   1.0000   1.0000   1.0000
     1.0000   1.0000   1.0000   1.0000   1.0000   1.0000   1.0000   1.0000
     1.0000   1.0000   1.0000   1.0000

          k = 0.3333 0.1925 0.0974 (  4693 PWs)   bands (ev):

   -11.8577 -11.7051 -11.6415 -11.4961  -0.5453  -0.4466  -0.3756  -0.3050
    -0.2647  -0.1858  -0.1092  -0.0723  -0.0010   0.0274   0.0536   0.0713
     0.2233   0.2447   0.3059   0.3346   0.3758   0.4225   0.4799   0.5458
     1.2445   1.4908   1.6233   1.9476   2.5077   2.6330   2.8111   3.4059
     3.5200   3.6950   3.9437   4.0781

     occupation numbers 
     1.0000   1.0000   1.0000   1.0000   1.0000   1.0000   1.0000   1.0000
     1.0000   1.0000   1.0000   1.0000   1.0000   1.0000   1.0000   1.0000
     1.0000   1.0000   1.0000   1.0000   1.0000   1.0000   1.0000   1.0000
     1.0000   1.0000   1.0000   1.0000   1.0000   1.0000   1.0000   1.0000
     1.0000   1.0000   1.0000   1.0000

          k = 0.3333 0.1925 0.1948 (  4696 PWs)   bands (ev):

   -11.8256 -11.7125 -11.6473 -11.5121  -0.5558  -0.4677  -0.4192  -0.3361
    -0.2557  -0.2107  -0.1438  -0.0991  -0.0596  -0.0364   0.0023   0.0249
     0.2712   0.2871   0.3219   0.3452   0.3647   0.4060   0.4327   0.5051
     1.2930   1.5185   1.6329   1.9239   2.7627   2.9262   3.1431   3.3713
     3.5421   3.6888   3.7946   3.9451

     occupation numbers 
     1.0000   1.0000   1.0000   1.0000   1.0000   1.0000   1.0000   1.0000
     1.0000   1.0000   1.0000   1.0000   1.0000   1.0000   1.0000   1.0000
     1.0000   1.0000   1.0000   1.0000   1.0000   1.0000   1.0000   1.0000
     1.0000   1.0000   1.0000   1.0000   1.0000   1.0000   1.0000   1.0000
     1.0000   1.0000   1.0000   1.0000

          k = 0.3333 0.1925-0.2922 (  4690 PWs)   bands (ev):

   -11.8002 -11.7319 -11.6426 -11.5214  -0.5391  -0.5171  -0.4132  -0.3923
    -0.2150  -0.2025  -0.1709  -0.1336  -0.1032  -0.0644  -0.0029   0.0159
     0.3064   0.3142   0.3311   0.3400   0.3594   0.3707   0.4550   0.4633
     1.3526   1.4328   1.7562   1.8077   3.0242   3.0465   3.3663   3.4073
     3.5429   3.5933   3.7393   3.7675

     occupation numbers 
     1.0000   1.0000   1.0000   1.0000   1.0000   1.0000   1.0000   1.0000
     1.0000   1.0000   1.0000   1.0000   1.0000   1.0000   1.0000   1.0000
     1.0000   1.0000   1.0000   1.0000   1.0000   1.0000   1.0000   1.0000
     1.0000   1.0000   1.0000   1.0000   1.0000   1.0000   1.0000   1.0000
     1.0000   1.0000   1.0000   1.0000

          k = 0.3333 0.2887 0.0000 (  4688 PWs)   bands (ev):

   -11.8476 -11.7279 -11.6369 -11.4892  -0.5060  -0.4806  -0.3475  -0.3132
    -0.2729  -0.2524  -0.0715  -0.0268  -0.0028   0.0324   0.0895   0.1155
     0.2184   0.2440   0.3060   0.3274   0.3882   0.4012   0.5270   0.5603
     1.2597   1.4429   1.7108   1.7548   2.3623   2.4685   3.0736   3.1047
     3.7825   3.8461   3.9256   3.9890

     occupation numbers 
     1.0000   1.0000   1.0000   1.0000   1.0000   1.0000   1.0000   1.0000
     1.0000   1.0000   1.0000   1.0000   1.0000   1.0000   1.0000   1.0000
     1.0000   1.0000   1.0000   1.0000   1.0000   1.0000   1.0000   1.0000
     1.0000   1.0000   1.0000   1.0000   1.0000   1.0000   1.0000   1.0000
     1.0000   1.0000   1.0000   1.0000

          k = 0.3333 0.2887 0.0974 (  4692 PWs)   bands (ev):

   -11.8370 -11.7196 -11.6455 -11.4980  -0.5147  -0.4968  -0.3631  -0.3325
    -0.2680  -0.2511  -0.0825  -0.0355  -0.0222   0.0186   0.0456   0.0685
     0.2309   0.2468   0.3237   0.3332   0.3845   0.3950   0.4927   0.5215
     1.2788   1.4596   1.7519   1.7725   2.4893   2.6180   3.1243   3.1603
     3.7878   3.8347   3.8740   3.9384

     occupation numbers 
     1.0000   1.0000   1.0000   1.0000   1.0000   1.0000   1.0000   1.0000
     1.0000   1.0000   1.0000   1.0000   1.0000   1.0000   1.0000   1.0000
     1.0000   1.0000   1.0000   1.0000   1.0000   1.0000   1.0000   1.0000
     1.0000   1.0000   1.0000   1.0000   1.0000   1.0000   1.0000   1.0000
     1.0000   1.0000   1.0000   1.0000

          k = 0.3333 0.2887 0.1948 (  4698 PWs)   bands (ev):

   -11.8110 -11.7058 -11.6631 -11.5173  -0.5294  -0.5121  -0.4230  -0.3971
    -0.2569  -0.2132  -0.1211  -0.0836  -0.0465  -0.0274  -0.0061   0.0052
     0.2739   0.2908   0.3383   0.3445   0.3747   0.3843   0.4309   0.4555
     1.3682   1.5042   1.6867   1.7192   2.8826   3.0252   3.2777   3.3180
     3.6699   3.7293   3.7627   3.8091

     occupation numbers 
     1.0000   1.0000   1.0000   1.0000   1.0000   1.0000   1.0000   1.0000
     1.0000   1.0000   1.0000   1.0000   1.0000   1.0000   1.0000   1.0000
     1.0000   1.0000   1.0000   1.0000   1.0000   1.0000   1.0000   1.0000
     1.0000   1.0000   1.0000   1.0000   1.0000   1.0000   1.0000   1.0000
     1.0000   1.0000   1.0000   1.0000

          k = 0.3333 0.2887-0.2922 (  4704 PWs)   bands (ev):

   -11.7933 -11.7069 -11.6674 -11.5281  -0.5252  -0.4976  -0.4690  -0.4638
    -0.2192  -0.1822  -0.1567  -0.1298  -0.0631  -0.0471  -0.0349   0.0031
     0.3095   0.3184   0.3447   0.3591   0.3723   0.3790   0.3953   0.4071
     1.4815   1.5397   1.5793   1.6486   3.2869   3.3167   3.4120   3.4480
     3.5337   3.5649   3.6156   3.6298

     occupation numbers 
     1.0000   1.0000   1.0000   1.0000   1.0000   1.0000   1.0000   1.0000
     1.0000   1.0000   1.0000   1.0000   1.0000   1.0000   1.0000   1.0000
     1.0000   1.0000   1.0000   1.0000   1.0000   1.0000   1.0000   1.0000
     1.0000   1.0000   1.0000   1.0000   1.0000   1.0000   1.0000   1.0000
     1.0000   1.0000   1.0000   1.0000

          k = 0.3333-0.0962 0.0000 (  4693 PWs)   bands (ev):

   -11.9016 -11.6956 -11.6160 -11.4893  -0.5208  -0.4259  -0.3586  -0.3201
    -0.2097  -0.1508  -0.0998  -0.0377   0.0380   0.1104   0.1286   0.1659
     0.1884   0.2330   0.2614   0.2992   0.3802   0.4506   0.5195   0.5538
     1.2371   1.3417   1.5528   2.0190   2.2404   2.6809   2.8304   3.2469
     3.3653   3.4490   4.0670   4.1156

     occupation numbers 
     1.0000   1.0000   1.0000   1.0000   1.0000   1.0000   1.0000   1.0000
     1.0000   1.0000   1.0000   1.0000   1.0000   1.0000   1.0000   1.0000
     1.0000   1.0000   1.0000   1.0000   1.0000   1.0000   1.0000   1.0000
     1.0000   1.0000   1.0000   1.0000   1.0000   1.0000   1.0000   1.0000
     1.0000   1.0000   1.0000   1.0000

          k = 0.3333-0.0962 0.0974 (  4694 PWs)   bands (ev):

   -11.8861 -11.7054 -11.6142 -11.4954  -0.5331  -0.4110  -0.3757  -0.3076
    -0.2239  -0.1637  -0.1147  -0.0878  -0.0082   0.0416   0.0951   0.1425
     0.2088   0.2466   0.2805   0.3127   0.3719   0.4606   0.4710   0.5602
     1.2641   1.4656   1.5312   2.0827   2.2574   2.7251   2.9729   3.1892
     3.4085   3.5108   4.0160   4.0715

     occupation numbers 
     1.0000   1.0000   1.0000   1.0000   1.0000   1.0000   1.0000   1.0000
     1.0000   1.0000   1.0000   1.0000   1.0000   1.0000   1.0000   1.0000
     1.0000   1.0000   1.0000   1.0000   1.0000   1.0000   1.0000   1.0000
     1.0000   1.0000   1.0000   1.0000   1.0000   1.0000   1.0000   1.0000
     1.0000   1.0000   1.0000   1.0000

          k = 0.3333-0.0962 0.1948 (  4694 PWs)   bands (ev):

   -11.8463 -11.7337 -11.6122 -11.5061  -0.5429  -0.4291  -0.3694  -0.2945
    -0.2637  -0.1928  -0.1719  -0.1397  -0.1181  -0.0593   0.0751   0.1093
     0.2582   0.2809   0.2937   0.3233   0.3568   0.4033   0.4991   0.5640
     1.2664   1.4107   1.7569   2.1451   2.3306   2.9398   3.0009   3.3178
     3.5341   3.6180   3.8379   3.9410

     occupation numbers 
     1.0000   1.0000   1.0000   1.0000   1.0000   1.0000   1.0000   1.0000
     1.0000   1.0000   1.0000   1.0000   1.0000   1.0000   1.0000   1.0000
     1.0000   1.0000   1.0000   1.0000   1.0000   1.0000   1.0000   1.0000
     1.0000   1.0000   1.0000   1.0000   1.0000   1.0000   1.0000   1.0000
     1.0000   1.0000   1.0000   1.0000

          k = 0.3333-0.0962-0.2922 (  4692 PWs)   bands (ev):

   -11.8115 -11.7628 -11.6120 -11.5106  -0.5191  -0.4929  -0.3306  -0.3169
    -0.2716  -0.2187  -0.1848  -0.1608  -0.1505  -0.1164   0.0727   0.0967
     0.2855   0.2954   0.3174   0.3268   0.3397   0.3618   0.5343   0.5475
     1.2985   1.3362   1.9504   1.9936   2.6184   2.6497   3.3898   3.4338
     3.5653   3.6197   3.7432   3.7793

     occupation numbers 
     1.0000   1.0000   1.0000   1.0000   1.0000   1.0000   1.0000   1.0000
     1.0000   1.0000   1.0000   1.0000   1.0000   1.0000   1.0000   1.0000
     1.0000   1.0000   1.0000   1.0000   1.0000   1.0000   1.0000   1.0000
     1.0000   1.0000   1.0000   1.0000   1.0000   1.0000   1.0000   1.0000
     1.0000   1.0000   1.0000   1.0000

          k = 0.3333-0.0000 0.0000 (  4700 PWs)   bands (ev):

   -11.9149 -11.6921 -11.6055 -11.4904  -0.4763  -0.4392  -0.3928  -0.2785
    -0.2585  -0.1218  -0.0889  -0.0707   0.0502   0.1181   0.1828   0.2106
     0.2200   0.2336   0.2590   0.2914   0.3778   0.4693   0.4856   0.5360
     1.2524   1.4154   1.4752   1.7471   2.5067   2.6228   3.1064   3.1342
     3.1675   3.3348   4.0598   4.1141

     occupation numbers 
     1.0000   1.0000   1.0000   1.0000   1.0000   1.0000   1.0000   1.0000
     1.0000   1.0000   1.0000   1.0000   1.0000   1.0000   1.0000   1.0000
     1.0000   1.0000   1.0000   1.0000   1.0000   1.0000   1.0000   1.0000
     1.0000   1.0000   1.0000   1.0000   1.0000   1.0000   1.0000   1.0000
     1.0000   1.0000   1.0000   1.0000

          k = 0.3333-0.0000 0.0974 (  4699 PWs)   bands (ev):

   -11.8989 -11.7035 -11.6045 -11.4946  -0.4864  -0.4336  -0.3910  -0.2762
    -0.2564  -0.1440  -0.1242  -0.0948  -0.0082   0.0246   0.1826   0.1944
     0.2117   0.2406   0.2653   0.3030   0.3680   0.4626   0.5035   0.5270
     1.3553   1.4178   1.4916   1.8515   2.4453   2.7280   3.0429   3.2387
     3.2592   3.3755   4.0075   4.0654

     occupation numbers 
     1.0000   1.0000   1.0000   1.0000   1.0000   1.0000   1.0000   1.0000
     1.0000   1.0000   1.0000   1.0000   1.0000   1.0000   1.0000   1.0000
     1.0000   1.0000   1.0000   1.0000   1.0000   1.0000   1.0000   1.0000
     1.0000   1.0000   1.0000   1.0000   1.0000   1.0000   1.0000   1.0000
     1.0000   1.0000   1.0000   1.0000

          k = 0.3333-0.0000 0.1948 (  4701 PWs)   bands (ev):

   -11.8569 -11.7372 -11.6028 -11.5018  -0.5012  -0.4468  -0.3478  -0.2802
    -0.2622  -0.2055  -0.1846  -0.1505  -0.1233  -0.0955   0.1575   0.1756
     0.2358   0.2572   0.2778   0.3147   0.3524   0.4017   0.5505   0.5682
     1.3155   1.3383   1.7988   2.1098   2.2868   2.7857   3.0545   3.4266
     3.4804   3.5109   3.8611   3.8962

     occupation numbers 
     1.0000   1.0000   1.0000   1.0000   1.0000   1.0000   1.0000   1.0000
     1.0000   1.0000   1.0000   1.0000   1.0000   1.0000   1.0000   1.0000
     1.0000   1.0000   1.0000   1.0000   1.0000   1.0000   1.0000   1.0000
     1.0000   1.0000   1.0000   1.0000   1.0000   1.0000   1.0000   1.0000
     1.0000   1.0000   1.0000   1.0000

          k = 0.3333-0.0000-0.2922 (  4688 PWs)   bands (ev):

   -11.8176 -11.7729 -11.6022 -11.5047  -0.4891  -0.4809  -0.3007  -0.2795
    -0.2640  -0.2386  -0.2221  -0.1998  -0.1719  -0.1336   0.1482   0.1679
     0.2440   0.2589   0.3160   0.3257   0.3404   0.3550   0.5715   0.5873
     1.2805   1.3167   2.0436   2.0740   2.4444   2.4682   3.4193   3.4608
     3.5799   3.6035   3.6967   3.7462

     occupation numbers 
     1.0000   1.0000   1.0000   1.0000   1.0000   1.0000   1.0000   1.0000
     1.0000   1.0000   1.0000   1.0000   1.0000   1.0000   1.0000   1.0000
     1.0000   1.0000   1.0000   1.0000   1.0000   1.0000   1.0000   1.0000
     1.0000   1.0000   1.0000   1.0000   1.0000   1.0000   1.0000   1.0000
     1.0000   1.0000   1.0000   1.0000

          k =-0.5000-0.2887 0.0000 (  4712 PWs)   bands (ev):

   -11.7748 -11.6853 -11.6051 -11.4713  -0.5060  -0.4806  -0.3080  -0.2928
    -0.2466  -0.2314  -0.0142   0.0090   0.0226   0.0749   0.1849   0.1989
     0.3361   0.3472   0.3571   0.3725   0.3851   0.4155   0.4484   0.4762
     1.0754   1.1224   1.4898   1.5502   2.3890   2.4102   3.0675   3.0976
     3.5837   3.6146   3.9186   3.9724

     occupation numbers 
     1.0000   1.0000   1.0000   1.0000   1.0000   1.0000   1.0000   1.0000
     1.0000   1.0000   1.0000   1.0000   1.0000   1.0000   1.0000   1.0000
     1.0000   1.0000   1.0000   1.0000   1.0000   1.0000   1.0000   1.0000
     1.0000   1.0000   1.0000   1.0000   1.0000   1.0000   1.0000   1.0000
     1.0000   1.0000   1.0000   1.0000

          k =-0.5000-0.2887 0.0974 (  4696 PWs)   bands (ev):

   -11.7692 -11.6806 -11.6095 -11.4747  -0.5175  -0.4938  -0.3433  -0.3136
    -0.2569  -0.2316  -0.0244  -0.0072   0.0267   0.0619   0.1703   0.1849
     0.3417   0.3466   0.3664   0.3768   0.3835   0.4105   0.4491   0.4754
     1.0459   1.1052   1.4220   1.4892   2.5814   2.6146   3.1263   3.1589
     3.6281   3.6640   3.8642   3.9182

     occupation numbers 
     1.0000   1.0000   1.0000   1.0000   1.0000   1.0000   1.0000   1.0000
     1.0000   1.0000   1.0000   1.0000   1.0000   1.0000   1.0000   1.0000
     1.0000   1.0000   1.0000   1.0000   1.0000   1.0000   1.0000   1.0000
     1.0000   1.0000   1.0000   1.0000   1.0000   1.0000   1.0000   1.0000
     1.0000   1.0000   1.0000   1.0000

          k =-0.5000-0.2887 0.1948 (  4700 PWs)   bands (ev):

   -11.7571 -11.6709 -11.6194 -11.4823  -0.5372  -0.5143  -0.4294  -0.4097
    -0.2240  -0.1874  -0.0727  -0.0402   0.0322   0.0548   0.1197   0.1402
     0.3464   0.3620   0.3692   0.3875   0.4031   0.4086   0.4456   0.4711
     1.0357   1.1142   1.2794   1.3599   3.0038   3.0514   3.2839   3.3220
     3.6359   3.6785   3.7205   3.7754

     occupation numbers 
     1.0000   1.0000   1.0000   1.0000   1.0000   1.0000   1.0000   1.0000
     1.0000   1.0000   1.0000   1.0000   1.0000   1.0000   1.0000   1.0000
     1.0000   1.0000   1.0000   1.0000   1.0000   1.0000   1.0000   1.0000
     1.0000   1.0000   1.0000   1.0000   1.0000   1.0000   1.0000   1.0000
     1.0000   1.0000   1.0000   1.0000

          k =-0.5000-0.2887-0.2922 (  4712 PWs)   bands (ev):

   -11.7502 -11.6657 -11.6250 -11.4864  -0.5418  -0.5124  -0.4754  -0.4726
    -0.1789  -0.1458  -0.1186  -0.0850   0.0498   0.0684   0.0768   0.1072
     0.3486   0.3640   0.3689   0.3885   0.4209   0.4259   0.4353   0.4661
     1.0689   1.1493   1.1877   1.2727   3.3522   3.3816   3.4339   3.4908
     3.5181   3.5440   3.5739   3.6016

     occupation numbers 
     1.0000   1.0000   1.0000   1.0000   1.0000   1.0000   1.0000   1.0000
     1.0000   1.0000   1.0000   1.0000   1.0000   1.0000   1.0000   1.0000
     1.0000   1.0000   1.0000   1.0000   1.0000   1.0000   1.0000   1.0000
     1.0000   1.0000   1.0000   1.0000   1.0000   1.0000   1.0000   1.0000
     1.0000   1.0000   1.0000   1.0000

          k =-0.5000-0.1925 0.0000 (  4704 PWs)   bands (ev):

   -11.7762 -11.6859 -11.6048 -11.4710  -0.4898  -0.4673  -0.2975  -0.2732
    -0.2425  -0.2038  -0.0059   0.0124   0.0401   0.0709   0.1476   0.1590
     0.2914   0.2995   0.3321   0.3531   0.3969   0.4303   0.4910   0.5169
     1.1339   1.1899   1.5309   1.6004   2.3799   2.4044   2.9509   2.9979
     3.5632   3.6127   3.8233   3.8894

     occupation numbers 
     1.0000   1.0000   1.0000   1.0000   1.0000   1.0000   1.0000   1.0000
     1.0000   1.0000   1.0000   1.0000   1.0000   1.0000   1.0000   1.0000
     1.0000   1.0000   1.0000   1.0000   1.0000   1.0000   1.0000   1.0000
     1.0000   1.0000   1.0000   1.0000   1.0000   1.0000   1.0000   1.0000
     1.0000   1.0000   1.0000   1.0000

          k =-0.5000-0.1925 0.0974 (  4696 PWs)   bands (ev):

   -11.7704 -11.6813 -11.6093 -11.4747  -0.4978  -0.4781  -0.3192  -0.2912
    -0.2432  -0.2319  -0.0246  -0.0077   0.0368   0.0641   0.1275   0.1402
     0.3008   0.3090   0.3369   0.3634   0.3964   0.4309   0.4807   0.5114
     1.1038   1.1740   1.4793   1.5518   2.5424   2.5959   3.0250   3.0735
     3.5901   3.6587   3.7831   3.8307

     occupation numbers 
     1.0000   1.0000   1.0000   1.0000   1.0000   1.0000   1.0000   1.0000
     1.0000   1.0000   1.0000   1.0000   1.0000   1.0000   1.0000   1.0000
     1.0000   1.0000   1.0000   1.0000   1.0000   1.0000   1.0000   1.0000
     1.0000   1.0000   1.0000   1.0000   1.0000   1.0000   1.0000   1.0000
     1.0000   1.0000   1.0000   1.0000

          k =-0.5000-0.1925 0.1948 (  4700 PWs)   bands (ev):

   -11.7578 -11.6715 -11.6193 -11.4825  -0.5135  -0.4925  -0.4015  -0.3747
    -0.2266  -0.1999  -0.0797  -0.0453   0.0307   0.0498   0.0745   0.1075
     0.3272   0.3294   0.3473   0.3732   0.4066   0.4341   0.4607   0.4925
     1.1044   1.1858   1.3489   1.4332   2.9135   2.9842   3.2280   3.2834
     3.5144   3.6175   3.6977   3.7506

     occupation numbers 
     1.0000   1.0000   1.0000   1.0000   1.0000   1.0000   1.0000   1.0000
     1.0000   1.0000   1.0000   1.0000   1.0000   1.0000   1.0000   1.0000
     1.0000   1.0000   1.0000   1.0000   1.0000   1.0000   1.0000   1.0000
     1.0000   1.0000   1.0000   1.0000   1.0000   1.0000   1.0000   1.0000
     1.0000   1.0000   1.0000   1.0000

          k =-0.5000-0.1925-0.2922 (  4716 PWs)   bands (ev):

   -11.7507 -11.6663 -11.6252 -11.4867  -0.5145  -0.4871  -0.4508  -0.4391
    -0.1873  -0.1534  -0.1259  -0.0971   0.0264   0.0435   0.0568   0.0890
     0.3343   0.3513   0.3539   0.3610   0.4254   0.4443   0.4514   0.4698
     1.1458   1.2258   1.2580   1.3450   3.2364   3.2724   3.3067   3.3758
     3.4722   3.5052   3.5809   3.6569

     occupation numbers 
     1.0000   1.0000   1.0000   1.0000   1.0000   1.0000   1.0000   1.0000
     1.0000   1.0000   1.0000   1.0000   1.0000   1.0000   1.0000   1.0000
     1.0000   1.0000   1.0000   1.0000   1.0000   1.0000   1.0000   1.0000
     1.0000   1.0000   1.0000   1.0000   1.0000   1.0000   1.0000   1.0000
     1.0000   1.0000   1.0000   1.0000

          k =-0.5000-0.0962 0.0000 (  4694 PWs)   bands (ev):

   -11.7789 -11.6872 -11.6042 -11.4706  -0.4590  -0.4312  -0.2731  -0.2555
    -0.1866  -0.1388  -0.0311  -0.0055   0.0247   0.0574   0.1116   0.1378
     0.2337   0.2442   0.2977   0.3157   0.4031   0.4344   0.5486   0.5657
     1.2568   1.3431   1.6461   1.7320   2.3440   2.4016   2.6886   2.7322
     3.5035   3.5808   3.6827   3.7463

     occupation numbers 
     1.0000   1.0000   1.0000   1.0000   1.0000   1.0000   1.0000   1.0000
     1.0000   1.0000   1.0000   1.0000   1.0000   1.0000   1.0000   1.0000
     1.0000   1.0000   1.0000   1.0000   1.0000   1.0000   1.0000   1.0000
     1.0000   1.0000   1.0000   1.0000   1.0000   1.0000   1.0000   1.0000
     1.0000   1.0000   1.0000   1.0000

          k =-0.5000-0.0962 0.0974 (  4694 PWs)   bands (ev):

   -11.7728 -11.6825 -11.6089 -11.4745  -0.4550  -0.4315  -0.2945  -0.2727
    -0.2018  -0.1652  -0.0470  -0.0153   0.0125   0.0192   0.0800   0.1035
     0.2367   0.2537   0.3182   0.3428   0.4054   0.4359   0.5339   0.5523
     1.2378   1.3324   1.6141   1.7004   2.4429   2.5378   2.8119   2.8569
     3.4640   3.5567   3.6860   3.7587

     occupation numbers 
     1.0000   1.0000   1.0000   1.0000   1.0000   1.0000   1.0000   1.0000
     1.0000   1.0000   1.0000   1.0000   1.0000   1.0000   1.0000   1.0000
     1.0000   1.0000   1.0000   1.0000   1.0000   1.0000   1.0000   1.0000
     1.0000   1.0000   1.0000   1.0000   1.0000   1.0000   1.0000   1.0000
     1.0000   1.0000   1.0000   1.0000

          k =-0.5000-0.0962 0.1948 (  4696 PWs)   bands (ev):

   -11.7592 -11.6727 -11.6195 -11.4829  -0.4528  -0.4329  -0.3452  -0.3187
    -0.2114  -0.2048  -0.0912  -0.0564  -0.0392   0.0017   0.0146   0.0465
     0.2854   0.2987   0.3349   0.3583   0.4187   0.4432   0.4960   0.5173
     1.2608   1.3520   1.5064   1.5983   2.6889   2.8018   3.1177   3.1542
     3.3151   3.4127   3.6992   3.7631

     occupation numbers 
     1.0000   1.0000   1.0000   1.0000   1.0000   1.0000   1.0000   1.0000
     1.0000   1.0000   1.0000   1.0000   1.0000   1.0000   1.0000   1.0000
     1.0000   1.0000   1.0000   1.0000   1.0000   1.0000   1.0000   1.0000
     1.0000   1.0000   1.0000   1.0000   1.0000   1.0000   1.0000   1.0000
     1.0000   1.0000   1.0000   1.0000

          k =-0.5000-0.0962-0.2922 (  4692 PWs)   bands (ev):

   -11.7515 -11.6676 -11.6254 -11.4875  -0.4511  -0.4267  -0.3839  -0.3640
    -0.1988  -0.1688  -0.1414  -0.1178  -0.0424  -0.0213  -0.0024   0.0341
     0.3210   0.3336   0.3378   0.3408   0.4386   0.4625   0.4681   0.4799
     1.3147   1.3900   1.4292   1.5114   2.9591   3.0041   3.0559   3.1102
     3.4516   3.4940   3.5987   3.6792

     occupation numbers 
     1.0000   1.0000   1.0000   1.0000   1.0000   1.0000   1.0000   1.0000
     1.0000   1.0000   1.0000   1.0000   1.0000   1.0000   1.0000   1.0000
     1.0000   1.0000   1.0000   1.0000   1.0000   1.0000   1.0000   1.0000
     1.0000   1.0000   1.0000   1.0000   1.0000   1.0000   1.0000   1.0000
     1.0000   1.0000   1.0000   1.0000

          k =-0.5000-0.5774 0.0000 (  4702 PWs)   bands (ev):

   -11.7802 -11.6878 -11.6039 -11.4704  -0.4469  -0.4087  -0.2483  -0.2260
    -0.1482  -0.1114  -0.0775  -0.0569   0.0049   0.0530   0.1422   0.1750
     0.1792   0.2016   0.2828   0.3015   0.4051   0.4356   0.5704   0.5845
     1.3225   1.4392   1.7349   1.8253   2.3021   2.4475   2.4983   2.5540
     3.4373   3.5258   3.6474   3.7192

     occupation numbers 
     1.0000   1.0000   1.0000   1.0000   1.0000   1.0000   1.0000   1.0000
     1.0000   1.0000   1.0000   1.0000   1.0000   1.0000   1.0000   1.0000
     1.0000   1.0000   1.0000   1.0000   1.0000   1.0000   1.0000   1.0000
     1.0000   1.0000   1.0000   1.0000   1.0000   1.0000   1.0000   1.0000
     1.0000   1.0000   1.0000   1.0000

          k =-0.5000-0.5774 0.0974 (  4710 PWs)   bands (ev):

   -11.7740 -11.6831 -11.6088 -11.4744  -0.4345  -0.3982  -0.2840  -0.2550
    -0.1533  -0.1243  -0.0871  -0.0754  -0.0203   0.0282   0.0672   0.1056
     0.2050   0.2300   0.3109   0.3350   0.4089   0.4373   0.5525   0.5678
     1.3189   1.4353   1.6953   1.7914   2.3668   2.5057   2.6794   2.7350
     3.3693   3.4656   3.6813   3.7572

     occupation numbers 
     1.0000   1.0000   1.0000   1.0000   1.0000   1.0000   1.0000   1.0000
     1.0000   1.0000   1.0000   1.0000   1.0000   1.0000   1.0000   1.0000
     1.0000   1.0000   1.0000   1.0000   1.0000   1.0000   1.0000   1.0000
     1.0000   1.0000   1.0000   1.0000   1.0000   1.0000   1.0000   1.0000
     1.0000   1.0000   1.0000   1.0000

          k =-0.5000-0.5774 0.1948 (  4698 PWs)   bands (ev):

   -11.7600 -11.6732 -11.6196 -11.4831  -0.4125  -0.3822  -0.3358  -0.3025
    -0.1675  -0.1555  -0.1284  -0.1132  -0.0750  -0.0372  -0.0149   0.0203
     0.2729   0.2903   0.3316   0.3530   0.4244   0.4457   0.5098   0.5265
     1.3535   1.4644   1.5946   1.6954   2.5587   2.6806   3.0104   3.0518
     3.2606   3.3310   3.7039   3.7741

     occupation numbers 
     1.0000   1.0000   1.0000   1.0000   1.0000   1.0000   1.0000   1.0000
     1.0000   1.0000   1.0000   1.0000   1.0000   1.0000   1.0000   1.0000
     1.0000   1.0000   1.0000   1.0000   1.0000   1.0000   1.0000   1.0000
     1.0000   1.0000   1.0000   1.0000   1.0000   1.0000   1.0000   1.0000
     1.0000   1.0000   1.0000   1.0000

          k =-0.5000-0.5774-0.2922 (  4664 PWs)   bands (ev):

   -11.7519 -11.6683 -11.6256 -11.4878  -0.4130  -0.3852  -0.3419  -0.3107
    -0.1953  -0.1790  -0.1486  -0.1321  -0.0969  -0.0629  -0.0460  -0.0025
     0.3173   0.3294   0.3331   0.3378   0.4451   0.4697   0.4746   0.4856
     1.4136   1.4814   1.5433   1.6135   2.7991   2.8506   2.9164   2.9642
     3.4473   3.4928   3.6037   3.6842

     occupation numbers 
     1.0000   1.0000   1.0000   1.0000   1.0000   1.0000   1.0000   1.0000
     1.0000   1.0000   1.0000   1.0000   1.0000   1.0000   1.0000   1.0000
     1.0000   1.0000   1.0000   1.0000   1.0000   1.0000   1.0000   1.0000
     1.0000   1.0000   1.0000   1.0000   1.0000   1.0000   1.0000   1.0000
     1.0000   1.0000   1.0000   1.0000

          k = 0.0000-0.0962 0.0974 (  4711 PWs)   bands (ev):

   -12.1197 -11.8192 -11.6920 -11.5440  -0.5334  -0.4769  -0.4390  -0.4053
    -0.3598  -0.3479  -0.3265  -0.2268  -0.1247  -0.0002   0.0381   0.0891
     0.2497   0.2585   0.2822   0.3275   0.3640   0.3764   0.4052   0.5071
     1.1191   1.1925   1.6347   2.5180   3.2126   3.6690   3.7393   3.9073
     3.9647   4.1310   4.4278   4.5448

     occupation numbers 
     1.0000   1.0000   1.0000   1.0000   1.0000   1.0000   1.0000   1.0000
     1.0000   1.0000   1.0000   1.0000   1.0000   1.0000   1.0000   1.0000
     1.0000   1.0000   1.0000   1.0000   1.0000   1.0000   1.0000   1.0000
     1.0000   1.0000   1.0000   1.0000   1.0000   1.0000   1.0000   1.0000
     1.0000   1.0000   1.0000   1.0000

          k = 0.0000-0.0962 0.1948 (  4703 PWs)   bands (ev):

   -12.0539 -11.8763 -11.6764 -11.5700  -0.5455  -0.4906  -0.4589  -0.4283
    -0.3939  -0.3767  -0.3549  -0.2874  -0.1845  -0.0542   0.0272   0.0473
     0.2733   0.2787   0.3208   0.3279   0.3439   0.3609   0.3977   0.4528
     1.2337   1.5127   1.7252   2.9286   3.0557   3.3689   3.6747   3.7804
     4.0383   4.2128   4.3311   4.4582

     occupation numbers 
     1.0000   1.0000   1.0000   1.0000   1.0000   1.0000   1.0000   1.0000
     1.0000   1.0000   1.0000   1.0000   1.0000   1.0000   1.0000   1.0000
     1.0000   1.0000   1.0000   1.0000   1.0000   1.0000   1.0000   1.0000
     1.0000   1.0000   1.0000   1.0000   1.0000   1.0000   1.0000   1.0000
     1.0000   1.0000   1.0000   1.0000

          k = 0.0000-0.1925 0.0974 (  4706 PWs)   bands (ev):

   -12.0572 -11.8309 -11.7286 -11.5644  -0.5690  -0.5110  -0.4210  -0.3863
    -0.3540  -0.3096  -0.2795  -0.2398  -0.1059  -0.0673  -0.0577   0.0479
     0.2136   0.2354   0.2569   0.2985   0.3581   0.3913   0.4101   0.4924
     1.2182   1.4674   1.9490   2.5713   3.1524   3.4046   3.4873   3.9144
     3.9481   4.0729   4.2622   4.4235

     occupation numbers 
     1.0000   1.0000   1.0000   1.0000   1.0000   1.0000   1.0000   1.0000
     1.0000   1.0000   1.0000   1.0000   1.0000   1.0000   1.0000   1.0000
     1.0000   1.0000   1.0000   1.0000   1.0000   1.0000   1.0000   1.0000
     1.0000   1.0000   1.0000   1.0000   1.0000   1.0000   1.0000   1.0000
     1.0000   1.0000   1.0000   1.0000

          k = 0.0000-0.1925 0.1948 (  4689 PWs)   bands (ev):

   -11.9987 -11.8477 -11.7349 -11.6014  -0.5724  -0.5246  -0.4722  -0.4368
    -0.3543  -0.3208  -0.2970  -0.2317  -0.2145  -0.1182  -0.0967  -0.0343
     0.2539   0.2741   0.2818   0.3047   0.3476   0.3536   0.3825   0.4270
     1.5845   1.7903   1.9397   2.8434   2.8799   3.5391   3.5630   3.7695
     3.9116   4.0364   4.0658   4.3236

     occupation numbers 
     1.0000   1.0000   1.0000   1.0000   1.0000   1.0000   1.0000   1.0000
     1.0000   1.0000   1.0000   1.0000   1.0000   1.0000   1.0000   1.0000
     1.0000   1.0000   1.0000   1.0000   1.0000   1.0000   1.0000   1.0000
     1.0000   1.0000   1.0000   1.0000   1.0000   1.0000   1.0000   1.0000
     1.0000   1.0000   1.0000   1.0000

          k =-0.1667 0.0962 0.0000 (  4700 PWs)   bands (ev):

   -12.0712 -11.7640 -11.6654 -11.5184  -0.5164  -0.4457  -0.3972  -0.3701
    -0.3245  -0.2637  -0.2265  -0.1753  -0.0155   0.0493   0.0836   0.1143
     0.2199   0.2336   0.2570   0.3000   0.3723   0.4212   0.4603   0.5652
     0.9392   1.2234   1.7020   2.3909   2.7105   3.2659   3.5038   3.5597
     3.6958   3.8807   4.3477   4.4550

     occupation numbers 
     1.0000   1.0000   1.0000   1.0000   1.0000   1.0000   1.0000   1.0000
     1.0000   1.0000   1.0000   1.0000   1.0000   1.0000   1.0000   1.0000
     1.0000   1.0000   1.0000   1.0000   1.0000   1.0000   1.0000   1.0000
     1.0000   1.0000   1.0000   1.0000   1.0000   1.0000   1.0000   1.0000
     1.0000   1.0000   1.0000   1.0000

          k =-0.1667-0.0962 0.0974 (  4707 PWs)   bands (ev):

   -12.0495 -11.7800 -11.6619 -11.5277  -0.5205  -0.4398  -0.3954  -0.3870
    -0.3322  -0.2789  -0.2496  -0.1995  -0.0721   0.0009   0.0513   0.0815
     0.2256   0.2394   0.2677   0.3279   0.3662   0.4025   0.4294   0.5492
     1.1948   1.2620   1.6664   2.4759   2.8338   3.1825   3.4728   3.5433
     3.7035   3.9212   4.2746   4.4146

     occupation numbers 
     1.0000   1.0000   1.0000   1.0000   1.0000   1.0000   1.0000   1.0000
     1.0000   1.0000   1.0000   1.0000   1.0000   1.0000   1.0000   1.0000
     1.0000   1.0000   1.0000   1.0000   1.0000   1.0000   1.0000   1.0000
     1.0000   1.0000   1.0000   1.0000   1.0000   1.0000   1.0000   1.0000
     1.0000   1.0000   1.0000   1.0000

          k =-0.1667 0.0962-0.0974 (  4707 PWs)   bands (ev):

   -12.0491 -11.7807 -11.6611 -11.5283  -0.5282  -0.4495  -0.3960  -0.3741
    -0.3274  -0.2769  -0.2420  -0.1920  -0.0820  -0.0016   0.0359   0.0872
     0.2322   0.2447   0.2617   0.3213   0.3665   0.3977   0.4279   0.5507
     1.1879   1.2800   1.6630   2.5219   2.8132   3.1860   3.4766   3.5092
     3.7120   3.9182   4.2622   4.4192

     occupation numbers 
     1.0000   1.0000   1.0000   1.0000   1.0000   1.0000   1.0000   1.0000
     1.0000   1.0000   1.0000   1.0000   1.0000   1.0000   1.0000   1.0000
     1.0000   1.0000   1.0000   1.0000   1.0000   1.0000   1.0000   1.0000
     1.0000   1.0000   1.0000   1.0000   1.0000   1.0000   1.0000   1.0000
     1.0000   1.0000   1.0000   1.0000

          k = 0.1667-0.0962-0.0974 (  4707 PWs)   bands (ev):

   -12.0499 -11.7767 -11.6666 -11.5259  -0.5128  -0.4440  -0.3954  -0.3884
    -0.3339  -0.2793  -0.2559  -0.1996  -0.0635   0.0012   0.0553   0.0758
     0.2316   0.2471   0.2640   0.3198   0.3661   0.4043   0.4254   0.5487
     1.1988   1.2548   1.6643   2.4823   2.8352   3.2014   3.4572   3.5283
     3.7157   3.9172   4.2738   4.4152

     occupation numbers 
     1.0000   1.0000   1.0000   1.0000   1.0000   1.0000   1.0000   1.0000
     1.0000   1.0000   1.0000   1.0000   1.0000   1.0000   1.0000   1.0000
     1.0000   1.0000   1.0000   1.0000   1.0000   1.0000   1.0000   1.0000
     1.0000   1.0000   1.0000   1.0000   1.0000   1.0000   1.0000   1.0000
     1.0000   1.0000   1.0000   1.0000

          k =-0.1667-0.0962 0.1948 (  4689 PWs)   bands (ev):

   -11.9903 -11.8300 -11.6511 -11.5480  -0.5285  -0.4524  -0.4186  -0.3929
    -0.3478  -0.3223  -0.3043  -0.2131  -0.1846  -0.0389  -0.0079   0.0380
     0.2590   0.2747   0.3002   0.3339   0.3512   0.3695   0.4340   0.5055
     1.2789   1.5444   1.7737   2.7142   2.8536   3.1305   3.3614   3.5888
     3.7151   4.0231   4.0746   4.3088

     occupation numbers 
     1.0000   1.0000   1.0000   1.0000   1.0000   1.0000   1.0000   1.0000
     1.0000   1.0000   1.0000   1.0000   1.0000   1.0000   1.0000   1.0000
     1.0000   1.0000   1.0000   1.0000   1.0000   1.0000   1.0000   1.0000
     1.0000   1.0000   1.0000   1.0000   1.0000   1.0000   1.0000   1.0000
     1.0000   1.0000   1.0000   1.0000

          k =-0.1667 0.0962-0.1948 (  4689 PWs)   bands (ev):

   -11.9898 -11.8307 -11.6498 -11.5491  -0.5382  -0.4527  -0.4237  -0.3834
    -0.3498  -0.3064  -0.2908  -0.2353  -0.1755  -0.0518  -0.0136   0.0446
     0.2638   0.2789   0.2959   0.3304   0.3522   0.3612   0.4307   0.5096
     1.2821   1.5363   1.7935   2.7669   2.8468   3.1054   3.3315   3.5975
     3.7081   4.0189   4.0663   4.3174

     occupation numbers 
     1.0000   1.0000   1.0000   1.0000   1.0000   1.0000   1.0000   1.0000
     1.0000   1.0000   1.0000   1.0000   1.0000   1.0000   1.0000   1.0000
     1.0000   1.0000   1.0000   1.0000   1.0000   1.0000   1.0000   1.0000
     1.0000   1.0000   1.0000   1.0000   1.0000   1.0000   1.0000   1.0000
     1.0000   1.0000   1.0000   1.0000

          k = 0.1667-0.0962-0.1948 (  4689 PWs)   bands (ev):

   -11.9914 -11.8267 -11.6554 -11.5460  -0.5143  -0.4586  -0.4309  -0.3800
    -0.3647  -0.3289  -0.2903  -0.2119  -0.1882  -0.0306  -0.0025   0.0281
     0.2653   0.2776   0.2989   0.3279   0.3491   0.3674   0.4339   0.5061
     1.2825   1.5426   1.7709   2.7178   2.8521   3.1433   3.3552   3.5707
     3.7270   4.0230   4.0725   4.3106

     occupation numbers 
     1.0000   1.0000   1.0000   1.0000   1.0000   1.0000   1.0000   1.0000
     1.0000   1.0000   1.0000   1.0000   1.0000   1.0000   1.0000   1.0000
     1.0000   1.0000   1.0000   1.0000   1.0000   1.0000   1.0000   1.0000
     1.0000   1.0000   1.0000   1.0000   1.0000   1.0000   1.0000   1.0000
     1.0000   1.0000   1.0000   1.0000

          k =-0.1667 0.0962 0.2922 (  4692 PWs)   bands (ev):

   -11.9241 -11.8925 -11.6424 -11.5606  -0.5198  -0.4894  -0.4301  -0.4116
    -0.3684  -0.3120  -0.3073  -0.2783  -0.1392  -0.1146  -0.0080   0.0157
     0.2962   0.2990   0.3094   0.3163   0.3416   0.3538   0.4533   0.4677
     1.3827   1.4159   2.3320   2.3563   2.9962   3.0524   3.5086   3.5324
     3.7988   3.8455   4.1430   4.1942

     occupation numbers 
     1.0000   1.0000   1.0000   1.0000   1.0000   1.0000   1.0000   1.0000
     1.0000   1.0000   1.0000   1.0000   1.0000   1.0000   1.0000   1.0000
     1.0000   1.0000   1.0000   1.0000   1.0000   1.0000   1.0000   1.0000
     1.0000   1.0000   1.0000   1.0000   1.0000   1.0000   1.0000   1.0000
     1.0000   1.0000   1.0000   1.0000

          k =-0.1667 0.1925 0.0000 (  4709 PWs)   bands (ev):

   -12.0148 -11.7918 -11.6886 -11.5278  -0.5296  -0.4385  -0.3815  -0.3580
    -0.3169  -0.3023  -0.2314  -0.1860  -0.1114   0.0037   0.0819   0.1116
     0.1808   0.2055   0.2570   0.2917   0.3712   0.3974   0.4989   0.5552
     1.0384   1.4162   1.9896   2.4009   2.8457   2.9678   3.0802   3.6958
     3.8000   3.9091   4.2622   4.3100

     occupation numbers 
     1.0000   1.0000   1.0000   1.0000   1.0000   1.0000   1.0000   1.0000
     1.0000   1.0000   1.0000   1.0000   1.0000   1.0000   1.0000   1.0000
     1.0000   1.0000   1.0000   1.0000   1.0000   1.0000   1.0000   1.0000
     1.0000   1.0000   1.0000   1.0000   1.0000   1.0000   1.0000   1.0000
     1.0000   1.0000   1.0000   1.0000

          k =-0.1667-0.1925 0.0974 (  4694 PWs)   bands (ev):

   -11.9954 -11.7898 -11.6969 -11.5410  -0.5337  -0.4452  -0.3943  -0.3719
    -0.3168  -0.3025  -0.2428  -0.1946  -0.1304  -0.0222  -0.0127   0.0515
     0.1957   0.2205   0.2681   0.3150   0.3632   0.3958   0.4404   0.5179
     1.2967   1.4737   1.9879   2.5417   2.8322   2.9637   3.1035   3.7109
     3.7658   3.9047   4.1958   4.2645

     occupation numbers 
     1.0000   1.0000   1.0000   1.0000   1.0000   1.0000   1.0000   1.0000
     1.0000   1.0000   1.0000   1.0000   1.0000   1.0000   1.0000   1.0000
     1.0000   1.0000   1.0000   1.0000   1.0000   1.0000   1.0000   1.0000
     1.0000   1.0000   1.0000   1.0000   1.0000   1.0000   1.0000   1.0000
     1.0000   1.0000   1.0000   1.0000

          k =-0.1667 0.1925-0.0974 (  4694 PWs)   bands (ev):

   -11.9949 -11.7907 -11.6958 -11.5417  -0.5393  -0.4479  -0.3901  -0.3612
    -0.3384  -0.2961  -0.2259  -0.1951  -0.1237  -0.0318  -0.0133   0.0397
     0.1984   0.2222   0.2659   0.3104   0.3653   0.3931   0.4367   0.5208
     1.2936   1.5023   1.9854   2.5363   2.8258   2.9730   3.1220   3.6864
     3.7641   3.9030   4.1862   4.2674

     occupation numbers 
     1.0000   1.0000   1.0000   1.0000   1.0000   1.0000   1.0000   1.0000
     1.0000   1.0000   1.0000   1.0000   1.0000   1.0000   1.0000   1.0000
     1.0000   1.0000   1.0000   1.0000   1.0000   1.0000   1.0000   1.0000
     1.0000   1.0000   1.0000   1.0000   1.0000   1.0000   1.0000   1.0000
     1.0000   1.0000   1.0000   1.0000

          k = 0.1667-0.1925-0.0974 (  4694 PWs)   bands (ev):

   -11.9961 -11.7841 -11.7036 -11.5392  -0.5287  -0.4462  -0.3872  -0.3656
    -0.3411  -0.3054  -0.2410  -0.1974  -0.1172  -0.0373   0.0104   0.0421
     0.1993   0.2266   0.2639   0.3118   0.3656   0.3934   0.4363   0.5178
     1.2925   1.4777   1.9815   2.5465   2.8417   2.9633   3.1059   3.7076
     3.7563   3.9045   4.1972   4.2656

     occupation numbers 
     1.0000   1.0000   1.0000   1.0000   1.0000   1.0000   1.0000   1.0000
     1.0000   1.0000   1.0000   1.0000   1.0000   1.0000   1.0000   1.0000
     1.0000   1.0000   1.0000   1.0000   1.0000   1.0000   1.0000   1.0000
     1.0000   1.0000   1.0000   1.0000   1.0000   1.0000   1.0000   1.0000
     1.0000   1.0000   1.0000   1.0000

          k =-0.1667-0.1925 0.1948 (  4683 PWs)   bands (ev):

   -11.9434 -11.8059 -11.7024 -11.5716  -0.5415  -0.4639  -0.4345  -0.4044
    -0.3235  -0.3164  -0.2492  -0.2056  -0.1679  -0.1414  -0.0695  -0.0403
     0.2456   0.2709   0.2945   0.3256   0.3529   0.3716   0.3950   0.4524
     1.5622   1.8038   1.9005   2.6223   2.9148   3.1148   3.2813   3.5715
     3.7846   3.8481   3.9788   4.1445

     occupation numbers 
     1.0000   1.0000   1.0000   1.0000   1.0000   1.0000   1.0000   1.0000
     1.0000   1.0000   1.0000   1.0000   1.0000   1.0000   1.0000   1.0000
     1.0000   1.0000   1.0000   1.0000   1.0000   1.0000   1.0000   1.0000
     1.0000   1.0000   1.0000   1.0000   1.0000   1.0000   1.0000   1.0000
     1.0000   1.0000   1.0000   1.0000

          k =-0.1667 0.1925-0.1948 (  4683 PWs)   bands (ev):

   -11.9429 -11.8071 -11.7004 -11.5730  -0.5469  -0.4646  -0.4339  -0.3981
    -0.3479  -0.2940  -0.2223  -0.2184  -0.1732  -0.1396  -0.0830  -0.0417
     0.2516   0.2713   0.2879   0.3233   0.3524   0.3700   0.3919   0.4575
     1.5693   1.8226   1.9002   2.6077   2.9312   3.1129   3.3014   3.5465
     3.7830   3.8266   3.9761   4.1528

     occupation numbers 
     1.0000   1.0000   1.0000   1.0000   1.0000   1.0000   1.0000   1.0000
     1.0000   1.0000   1.0000   1.0000   1.0000   1.0000   1.0000   1.0000
     1.0000   1.0000   1.0000   1.0000   1.0000   1.0000   1.0000   1.0000
     1.0000   1.0000   1.0000   1.0000   1.0000   1.0000   1.0000   1.0000
     1.0000   1.0000   1.0000   1.0000

          k = 0.1667-0.1925-0.1948 (  4683 PWs)   bands (ev):

   -11.9455 -11.7974 -11.7111 -11.5693  -0.5305  -0.4695  -0.4348  -0.4031
    -0.3468  -0.3100  -0.2412  -0.2129  -0.1657  -0.1245  -0.0708  -0.0478
     0.2506   0.2767   0.2857   0.3264   0.3520   0.3703   0.3914   0.4539
     1.5731   1.7885   1.9027   2.6232   2.9258   3.1077   3.2852   3.5731
     3.7738   3.8448   3.9823   4.1479

     occupation numbers 
     1.0000   1.0000   1.0000   1.0000   1.0000   1.0000   1.0000   1.0000
     1.0000   1.0000   1.0000   1.0000   1.0000   1.0000   1.0000   1.0000
     1.0000   1.0000   1.0000   1.0000   1.0000   1.0000   1.0000   1.0000
     1.0000   1.0000   1.0000   1.0000   1.0000   1.0000   1.0000   1.0000
     1.0000   1.0000   1.0000   1.0000

          k =-0.1667 0.1925 0.2922 (  4684 PWs)   bands (ev):

   -11.8946 -11.8427 -11.6941 -11.5920  -0.5264  -0.4978  -0.4601  -0.4355
    -0.3419  -0.2975  -0.2465  -0.2235  -0.1862  -0.1588  -0.0969  -0.0823
     0.2941   0.3016   0.3105   0.3151   0.3401   0.3527   0.3925   0.4045
     1.7142   1.7531   2.2484   2.2766   3.2138   3.2653   3.4819   3.5177
     3.6008   3.6699   3.9696   4.0206

     occupation numbers 
     1.0000   1.0000   1.0000   1.0000   1.0000   1.0000   1.0000   1.0000
     1.0000   1.0000   1.0000   1.0000   1.0000   1.0000   1.0000   1.0000
     1.0000   1.0000   1.0000   1.0000   1.0000   1.0000   1.0000   1.0000
     1.0000   1.0000   1.0000   1.0000   1.0000   1.0000   1.0000   1.0000
     1.0000   1.0000   1.0000   1.0000

          k =-0.1667-0.2887 0.0974 (  4676 PWs)   bands (ev):

   -11.9535 -11.8189 -11.7032 -11.5495  -0.5222  -0.4668  -0.4039  -0.3643
    -0.3171  -0.2983  -0.2456  -0.2111  -0.1090  -0.0921   0.0025   0.0399
     0.1881   0.2180   0.2811   0.2869   0.3644   0.3817   0.4692   0.4842
     1.3638   1.5342   2.4072   2.4517   2.6801   2.7088   3.3450   3.4152
     3.9806   4.0171   4.0468   4.1230

     occupation numbers 
     1.0000   1.0000   1.0000   1.0000   1.0000   1.0000   1.0000   1.0000
     1.0000   1.0000   1.0000   1.0000   1.0000   1.0000   1.0000   1.0000
     1.0000   1.0000   1.0000   1.0000   1.0000   1.0000   1.0000   1.0000
     1.0000   1.0000   1.0000   1.0000   1.0000   1.0000   1.0000   1.0000
     1.0000   1.0000   1.0000   1.0000

          k =-0.1667-0.2887 0.1948 (  4692 PWs)   bands (ev):

   -11.9113 -11.7862 -11.7426 -11.5851  -0.5317  -0.4852  -0.4309  -0.4165
    -0.3149  -0.2968  -0.2637  -0.2343  -0.1450  -0.1312  -0.1172  -0.0643
     0.2415   0.2717   0.2988   0.3056   0.3528   0.3636   0.3931   0.4252
     1.7179   1.8149   2.2619   2.3065   2.9886   3.0363   3.4408   3.4943
     3.8348   3.8664   3.8901   3.9319

     occupation numbers 
     1.0000   1.0000   1.0000   1.0000   1.0000   1.0000   1.0000   1.0000
     1.0000   1.0000   1.0000   1.0000   1.0000   1.0000   1.0000   1.0000
     1.0000   1.0000   1.0000   1.0000   1.0000   1.0000   1.0000   1.0000
     1.0000   1.0000   1.0000   1.0000   1.0000   1.0000   1.0000   1.0000
     1.0000   1.0000   1.0000   1.0000

          k =-0.1667-0.0000 0.0974 (  4703 PWs)   bands (ev):

   -12.0706 -11.7834 -11.6405 -11.5227  -0.4916  -0.4516  -0.4090  -0.3765
    -0.3646  -0.2930  -0.2181  -0.2066  -0.0687   0.0484   0.0923   0.1138
     0.2418   0.2535   0.2932   0.3179   0.3636   0.3941   0.4704   0.5015
     1.1094   1.2014   1.5274   2.3782   2.9556   3.3411   3.4225   3.5822
     3.6522   3.9618   4.3203   4.4364

     occupation numbers 
     1.0000   1.0000   1.0000   1.0000   1.0000   1.0000   1.0000   1.0000
     1.0000   1.0000   1.0000   1.0000   1.0000   1.0000   1.0000   1.0000
     1.0000   1.0000   1.0000   1.0000   1.0000   1.0000   1.0000   1.0000
     1.0000   1.0000   1.0000   1.0000   1.0000   1.0000   1.0000   1.0000
     1.0000   1.0000   1.0000   1.0000

          k =-0.1667-0.0000 0.1948 (  4698 PWs)   bands (ev):

   -12.0094 -11.8400 -11.6308 -11.5373  -0.5033  -0.4423  -0.4251  -0.3941
    -0.3729  -0.3338  -0.3089  -0.2178  -0.1992  -0.0239   0.0756   0.0948
     0.2720   0.2747   0.3100   0.3251   0.3464   0.3649   0.4889   0.5090
     1.1402   1.3778   1.7531   2.6163   2.9263   3.2358   3.2609   3.6419
     3.7601   4.0434   4.1622   4.3347

     occupation numbers 
     1.0000   1.0000   1.0000   1.0000   1.0000   1.0000   1.0000   1.0000
     1.0000   1.0000   1.0000   1.0000   1.0000   1.0000   1.0000   1.0000
     1.0000   1.0000   1.0000   1.0000   1.0000   1.0000   1.0000   1.0000
     1.0000   1.0000   1.0000   1.0000   1.0000   1.0000   1.0000   1.0000
     1.0000   1.0000   1.0000   1.0000

          k =-0.3333 0.1925 0.0000 (  4693 PWs)   bands (ev):

   -11.8694 -11.7117 -11.6320 -11.4888  -0.5401  -0.4341  -0.3486  -0.3170
    -0.2530  -0.1755  -0.0874  -0.0654   0.0055   0.0659   0.0888   0.1318
     0.2064   0.2379   0.2886   0.3179   0.3844   0.4226   0.5250   0.5688
     1.2255   1.3872   1.6683   1.9034   2.3968   2.5593   2.6965   3.3496
     3.5597   3.6964   3.9706   4.1217

     occupation numbers 
     1.0000   1.0000   1.0000   1.0000   1.0000   1.0000   1.0000   1.0000
     1.0000   1.0000   1.0000   1.0000   1.0000   1.0000   1.0000   1.0000
     1.0000   1.0000   1.0000   1.0000   1.0000   1.0000   1.0000   1.0000
     1.0000   1.0000   1.0000   1.0000   1.0000   1.0000   1.0000   1.0000
     1.0000   1.0000   1.0000   1.0000

          k =-0.3333-0.1925 0.0974 (  4693 PWs)   bands (ev):

   -11.8570 -11.7101 -11.6372 -11.4961  -0.5408  -0.4431  -0.3861  -0.2881
    -0.2593  -0.2062  -0.1157  -0.0849  -0.0038   0.0333   0.0678   0.0913
     0.2149   0.2479   0.3052   0.3272   0.3790   0.4234   0.4823   0.5488
     1.2457   1.4315   1.6443   1.9721   2.5101   2.6185   2.7959   3.4054
     3.5164   3.7146   3.9684   4.0712

     occupation numbers 
     1.0000   1.0000   1.0000   1.0000   1.0000   1.0000   1.0000   1.0000
     1.0000   1.0000   1.0000   1.0000   1.0000   1.0000   1.0000   1.0000
     1.0000   1.0000   1.0000   1.0000   1.0000   1.0000   1.0000   1.0000
     1.0000   1.0000   1.0000   1.0000   1.0000   1.0000   1.0000   1.0000
     1.0000   1.0000   1.0000   1.0000

          k =-0.3333 0.1925-0.0974 (  4693 PWs)   bands (ev):

   -11.8561 -11.7124 -11.6349 -11.4971  -0.5539  -0.4319  -0.3670  -0.3117
    -0.2692  -0.1943  -0.0990  -0.0767  -0.0023   0.0203   0.0612   0.0783
     0.2170   0.2470   0.3036   0.3303   0.3787   0.4224   0.4771   0.5507
     1.2428   1.4710   1.6449   1.9486   2.4934   2.6382   2.8198   3.3919
     3.5293   3.7054   3.9405   4.0730

     occupation numbers 
     1.0000   1.0000   1.0000   1.0000   1.0000   1.0000   1.0000   1.0000
     1.0000   1.0000   1.0000   1.0000   1.0000   1.0000   1.0000   1.0000
     1.0000   1.0000   1.0000   1.0000   1.0000   1.0000   1.0000   1.0000
     1.0000   1.0000   1.0000   1.0000   1.0000   1.0000   1.0000   1.0000
     1.0000   1.0000   1.0000   1.0000

          k = 0.3333-0.1925-0.0974 (  4693 PWs)   bands (ev):

   -11.8571 -11.7081 -11.6400 -11.4952  -0.5387  -0.4406  -0.3791  -0.3104
    -0.2602  -0.1996  -0.1045  -0.0837  -0.0027   0.0286   0.0459   0.1130
     0.2174   0.2483   0.2998   0.3323   0.3778   0.4237   0.4801   0.5463
     1.2379   1.4320   1.6466   1.9757   2.5053   2.6269   2.7981   3.4065
     3.5063   3.7191   3.9670   4.0713

     occupation numbers 
     1.0000   1.0000   1.0000   1.0000   1.0000   1.0000   1.0000   1.0000
     1.0000   1.0000   1.0000   1.0000   1.0000   1.0000   1.0000   1.0000
     1.0000   1.0000   1.0000   1.0000   1.0000   1.0000   1.0000   1.0000
     1.0000   1.0000   1.0000   1.0000   1.0000   1.0000   1.0000   1.0000
     1.0000   1.0000   1.0000   1.0000

          k =-0.3333-0.1925 0.1948 (  4696 PWs)   bands (ev):

   -11.8241 -11.7190 -11.6422 -11.5122  -0.5492  -0.4655  -0.4277  -0.3312
    -0.2476  -0.2155  -0.1545  -0.1118  -0.0664  -0.0194  -0.0011   0.0447
     0.2624   0.2900   0.3178   0.3412   0.3704   0.4132   0.4327   0.5053
     1.2792   1.5220   1.6061   1.9476   2.7650   2.9177   3.1154   3.3476
     3.5580   3.7108   3.8372   3.9325

     occupation numbers 
     1.0000   1.0000   1.0000   1.0000   1.0000   1.0000   1.0000   1.0000
     1.0000   1.0000   1.0000   1.0000   1.0000   1.0000   1.0000   1.0000
     1.0000   1.0000   1.0000   1.0000   1.0000   1.0000   1.0000   1.0000
     1.0000   1.0000   1.0000   1.0000   1.0000   1.0000   1.0000   1.0000
     1.0000   1.0000   1.0000   1.0000

          k =-0.3333 0.1925-0.1948 (  4696 PWs)   bands (ev):

   -11.8233 -11.7214 -11.6390 -11.5139  -0.5647  -0.4384  -0.4255  -0.3499
    -0.2693  -0.1969  -0.1325  -0.1024  -0.0761  -0.0270   0.0003   0.0298
     0.2643   0.2906   0.3168   0.3428   0.3660   0.4104   0.4304   0.5079
     1.2942   1.5137   1.6448   1.9158   2.7425   2.9496   3.1442   3.3525
     3.5511   3.6996   3.7977   3.9376

     occupation numbers 
     1.0000   1.0000   1.0000   1.0000   1.0000   1.0000   1.0000   1.0000
     1.0000   1.0000   1.0000   1.0000   1.0000   1.0000   1.0000   1.0000
     1.0000   1.0000   1.0000   1.0000   1.0000   1.0000   1.0000   1.0000
     1.0000   1.0000   1.0000   1.0000   1.0000   1.0000   1.0000   1.0000
     1.0000   1.0000   1.0000   1.0000

          k = 0.3333-0.1925-0.1948 (  4696 PWs)   bands (ev):

   -11.8252 -11.7152 -11.6457 -11.5115  -0.5385  -0.4774  -0.4218  -0.3388
    -0.2675  -0.2000  -0.1400  -0.1101  -0.0568  -0.0384  -0.0074   0.0552
     0.2664   0.2894   0.3160   0.3453   0.3650   0.4060   0.4336   0.5060
     1.2871   1.5276   1.5925   1.9462   2.7689   2.9258   3.1111   3.3447
     3.5531   3.7040   3.8445   3.9358

     occupation numbers 
     1.0000   1.0000   1.0000   1.0000   1.0000   1.0000   1.0000   1.0000
     1.0000   1.0000   1.0000   1.0000   1.0000   1.0000   1.0000   1.0000
     1.0000   1.0000   1.0000   1.0000   1.0000   1.0000   1.0000   1.0000
     1.0000   1.0000   1.0000   1.0000   1.0000   1.0000   1.0000   1.0000
     1.0000   1.0000   1.0000   1.0000

          k =-0.3333 0.1925 0.2922 (  4690 PWs)   bands (ev):

   -11.7994 -11.7345 -11.6399 -11.5223  -0.5408  -0.5064  -0.4152  -0.4028
    -0.2413  -0.1777  -0.1526  -0.1360  -0.0961  -0.0813  -0.0051   0.0202
     0.3074   0.3150   0.3310   0.3360   0.3514   0.3730   0.4547   0.4664
     1.3755   1.4192   1.7517   1.8025   3.0116   3.0510   3.3677   3.4203
     3.5342   3.6078   3.7372   3.7604

     occupation numbers 
     1.0000   1.0000   1.0000   1.0000   1.0000   1.0000   1.0000   1.0000
     1.0000   1.0000   1.0000   1.0000   1.0000   1.0000   1.0000   1.0000
     1.0000   1.0000   1.0000   1.0000   1.0000   1.0000   1.0000   1.0000
     1.0000   1.0000   1.0000   1.0000   1.0000   1.0000   1.0000   1.0000
     1.0000   1.0000   1.0000   1.0000

          k =-0.3333-0.2887 0.0974 (  4692 PWs)   bands (ev):

   -11.8370 -11.7200 -11.6461 -11.4970  -0.5136  -0.4854  -0.3694  -0.3316
    -0.2710  -0.2570  -0.0909  -0.0416  -0.0113   0.0071   0.0519   0.0926
     0.2264   0.2506   0.3205   0.3324   0.3844   0.3954   0.5010   0.5161
     1.2864   1.3987   1.7788   1.7913   2.4827   2.5897   3.1367   3.1608
     3.7834   3.8313   3.8814   3.9638

     occupation numbers 
     1.0000   1.0000   1.0000   1.0000   1.0000   1.0000   1.0000   1.0000
     1.0000   1.0000   1.0000   1.0000   1.0000   1.0000   1.0000   1.0000
     1.0000   1.0000   1.0000   1.0000   1.0000   1.0000   1.0000   1.0000
     1.0000   1.0000   1.0000   1.0000   1.0000   1.0000   1.0000   1.0000
     1.0000   1.0000   1.0000   1.0000

          k =-0.3333-0.2887 0.1948 (  4698 PWs)   bands (ev):

   -11.8110 -11.7056 -11.6645 -11.5160  -0.5243  -0.4983  -0.4341  -0.4052
    -0.2500  -0.2172  -0.1330  -0.0785  -0.0469  -0.0319  -0.0175   0.0360
     0.2689   0.2926   0.3371   0.3444   0.3799   0.3826   0.4336   0.4532
     1.3779   1.4479   1.6889   1.7515   2.8809   2.9909   3.2926   3.3143
     3.6564   3.7051   3.7826   3.8628

     occupation numbers 
     1.0000   1.0000   1.0000   1.0000   1.0000   1.0000   1.0000   1.0000
     1.0000   1.0000   1.0000   1.0000   1.0000   1.0000   1.0000   1.0000
     1.0000   1.0000   1.0000   1.0000   1.0000   1.0000   1.0000   1.0000
     1.0000   1.0000   1.0000   1.0000   1.0000   1.0000   1.0000   1.0000
     1.0000   1.0000   1.0000   1.0000

          k =-0.3333-0.0962 0.0000 (  4693 PWs)   bands (ev):

   -11.9021 -11.6936 -11.6174 -11.4895  -0.5147  -0.4430  -0.3500  -0.3198
    -0.1936  -0.1651  -0.1045  -0.0314   0.0354   0.1103   0.1247   0.1626
     0.1890   0.2315   0.2726   0.2968   0.3800   0.4496   0.5159   0.5560
     1.2474   1.3505   1.5438   2.0229   2.2237   2.6838   2.8307   3.2514
     3.3690   3.4399   4.0682   4.1194

     occupation numbers 
     1.0000   1.0000   1.0000   1.0000   1.0000   1.0000   1.0000   1.0000
     1.0000   1.0000   1.0000   1.0000   1.0000   1.0000   1.0000   1.0000
     1.0000   1.0000   1.0000   1.0000   1.0000   1.0000   1.0000   1.0000
     1.0000   1.0000   1.0000   1.0000   1.0000   1.0000   1.0000   1.0000
     1.0000   1.0000   1.0000   1.0000

          k =-0.3333 0.0962 0.0974 (  4694 PWs)   bands (ev):

   -11.8870 -11.7024 -11.6182 -11.4936  -0.5188  -0.4160  -0.3728  -0.3245
    -0.2270  -0.1717  -0.1152  -0.0857   0.0051   0.0459   0.0903   0.1594
     0.2102   0.2466   0.2776   0.3082   0.3754   0.4550   0.4830   0.5546
     1.2579   1.4438   1.5174   2.0998   2.2711   2.7103   2.9687   3.1869
     3.4073   3.5150   4.0294   4.0797

     occupation numbers 
     1.0000   1.0000   1.0000   1.0000   1.0000   1.0000   1.0000   1.0000
     1.0000   1.0000   1.0000   1.0000   1.0000   1.0000   1.0000   1.0000
     1.0000   1.0000   1.0000   1.0000   1.0000   1.0000   1.0000   1.0000
     1.0000   1.0000   1.0000   1.0000   1.0000   1.0000   1.0000   1.0000
     1.0000   1.0000   1.0000   1.0000

          k =-0.3333-0.0962-0.0974 (  4694 PWs)   bands (ev):

   -11.8871 -11.7006 -11.6191 -11.4943  -0.5252  -0.4314  -0.3690  -0.3062
    -0.2093  -0.1794  -0.1256  -0.0728   0.0033   0.0319   0.0876   0.1411
     0.2140   0.2466   0.2827   0.3156   0.3727   0.4508   0.4812   0.5548
     1.2729   1.4795   1.5088   2.1038   2.2382   2.7208   2.9701   3.2036
     3.4139   3.4961   4.0005   4.0891

     occupation numbers 
     1.0000   1.0000   1.0000   1.0000   1.0000   1.0000   1.0000   1.0000
     1.0000   1.0000   1.0000   1.0000   1.0000   1.0000   1.0000   1.0000
     1.0000   1.0000   1.0000   1.0000   1.0000   1.0000   1.0000   1.0000
     1.0000   1.0000   1.0000   1.0000   1.0000   1.0000   1.0000   1.0000
     1.0000   1.0000   1.0000   1.0000

          k = 0.3333 0.0962-0.0974 (  4694 PWs)   bands (ev):

   -11.8869 -11.7038 -11.6158 -11.4946  -0.5197  -0.4260  -0.3750  -0.3085
    -0.2099  -0.1843  -0.1209  -0.0856  -0.0086   0.0570   0.0930   0.1500
     0.2059   0.2488   0.2849   0.3076   0.3766   0.4600   0.4731   0.5605
     1.2703   1.4349   1.5224   2.0942   2.2632   2.7125   2.9685   3.1906
     3.4138   3.5076   4.0455   4.0656

     occupation numbers 
     1.0000   1.0000   1.0000   1.0000   1.0000   1.0000   1.0000   1.0000
     1.0000   1.0000   1.0000   1.0000   1.0000   1.0000   1.0000   1.0000
     1.0000   1.0000   1.0000   1.0000   1.0000   1.0000   1.0000   1.0000
     1.0000   1.0000   1.0000   1.0000   1.0000   1.0000   1.0000   1.0000
     1.0000   1.0000   1.0000   1.0000

          k =-0.3333 0.0962 0.1948 (  4694 PWs)   bands (ev):

   -11.8478 -11.7303 -11.6161 -11.5040  -0.5204  -0.4511  -0.3677  -0.3002
    -0.2657  -0.2079  -0.1708  -0.1466  -0.0815  -0.0646   0.0728   0.1172
     0.2621   0.2750   0.2994   0.3164   0.3610   0.3994   0.5035   0.5612
     1.2585   1.4183   1.7122   2.1760   2.3386   2.9087   3.0076   3.3117
     3.5384   3.6160   3.8572   3.9532

     occupation numbers 
     1.0000   1.0000   1.0000   1.0000   1.0000   1.0000   1.0000   1.0000
     1.0000   1.0000   1.0000   1.0000   1.0000   1.0000   1.0000   1.0000
     1.0000   1.0000   1.0000   1.0000   1.0000   1.0000   1.0000   1.0000
     1.0000   1.0000   1.0000   1.0000   1.0000   1.0000   1.0000   1.0000
     1.0000   1.0000   1.0000   1.0000

          k =-0.3333-0.0962-0.1948 (  4694 PWs)   bands (ev):

   -11.8479 -11.7290 -11.6171 -11.5044  -0.5354  -0.4504  -0.3646  -0.2803
    -0.2535  -0.2140  -0.1733  -0.1443  -0.0942  -0.0730   0.0708   0.1097
     0.2634   0.2759   0.2988   0.3279   0.3589   0.4001   0.4987   0.5611
     1.2700   1.4018   1.7571   2.1546   2.3361   2.9128   3.0128   3.3336
     3.5443   3.6017   3.8122   3.9617

     occupation numbers 
     1.0000   1.0000   1.0000   1.0000   1.0000   1.0000   1.0000   1.0000
     1.0000   1.0000   1.0000   1.0000   1.0000   1.0000   1.0000   1.0000
     1.0000   1.0000   1.0000   1.0000   1.0000   1.0000   1.0000   1.0000
     1.0000   1.0000   1.0000   1.0000   1.0000   1.0000   1.0000   1.0000
     1.0000   1.0000   1.0000   1.0000

          k = 0.3333 0.0962-0.1948 (  4694 PWs)   bands (ev):

   -11.8471 -11.7323 -11.6141 -11.5048  -0.5295  -0.4424  -0.3797  -0.2801
    -0.2454  -0.2138  -0.1825  -0.1555  -0.0978  -0.0534   0.0726   0.1158
     0.2557   0.2801   0.2968   0.3218   0.3653   0.4012   0.5010   0.5634
     1.2511   1.4205   1.7201   2.1744   2.3339   2.9304   2.9840   3.3123
     3.5414   3.6175   3.8694   3.9391

     occupation numbers 
     1.0000   1.0000   1.0000   1.0000   1.0000   1.0000   1.0000   1.0000
     1.0000   1.0000   1.0000   1.0000   1.0000   1.0000   1.0000   1.0000
     1.0000   1.0000   1.0000   1.0000   1.0000   1.0000   1.0000   1.0000
     1.0000   1.0000   1.0000   1.0000   1.0000   1.0000   1.0000   1.0000
     1.0000   1.0000   1.0000   1.0000

          k =-0.3333-0.0962 0.2922 (  4692 PWs)   bands (ev):

   -11.8123 -11.7612 -11.6137 -11.5098  -0.5198  -0.4992  -0.3332  -0.3016
    -0.2421  -0.2314  -0.2056  -0.1679  -0.1526  -0.1119   0.0675   0.1000
     0.2860   0.2933   0.3216   0.3266   0.3499   0.3578   0.5331   0.5471
     1.2778   1.3492   1.9605   1.9917   2.6238   2.6499   3.3807   3.4296
     3.5718   3.6052   3.7518   3.7834

     occupation numbers 
     1.0000   1.0000   1.0000   1.0000   1.0000   1.0000   1.0000   1.0000
     1.0000   1.0000   1.0000   1.0000   1.0000   1.0000   1.0000   1.0000
     1.0000   1.0000   1.0000   1.0000   1.0000   1.0000   1.0000   1.0000
     1.0000   1.0000   1.0000   1.0000   1.0000   1.0000   1.0000   1.0000
     1.0000   1.0000   1.0000   1.0000

          k =-0.3333 0.0000 0.0974 (  4699 PWs)   bands (ev):

   -11.8992 -11.7036 -11.6048 -11.4939  -0.4809  -0.4222  -0.3879  -0.2888
    -0.2780  -0.1448  -0.1159  -0.1058   0.0047   0.0412   0.1839   0.1951
     0.2122   0.2381   0.2657   0.2935   0.3745   0.4590   0.5109   0.5271
     1.3576   1.4201   1.4597   1.8434   2.4558   2.7308   3.0431   3.2479
     3.2602   3.3594   4.0071   4.0867

     occupation numbers 
     1.0000   1.0000   1.0000   1.0000   1.0000   1.0000   1.0000   1.0000
     1.0000   1.0000   1.0000   1.0000   1.0000   1.0000   1.0000   1.0000
     1.0000   1.0000   1.0000   1.0000   1.0000   1.0000   1.0000   1.0000
     1.0000   1.0000   1.0000   1.0000   1.0000   1.0000   1.0000   1.0000
     1.0000   1.0000   1.0000   1.0000

          k =-0.3333 0.0000 0.1948 (  4701 PWs)   bands (ev):

   -11.8574 -11.7371 -11.6032 -11.5011  -0.4977  -0.4225  -0.3631  -0.2927
    -0.2822  -0.2059  -0.1825  -0.1603  -0.1055  -0.0762   0.1562   0.1768
     0.2365   0.2567   0.2789   0.3057   0.3604   0.3981   0.5528   0.5688
     1.3024   1.3555   1.7625   2.1036   2.3024   2.7897   3.0502   3.4446
     3.4695   3.4950   3.8661   3.9207

     occupation numbers 
     1.0000   1.0000   1.0000   1.0000   1.0000   1.0000   1.0000   1.0000
     1.0000   1.0000   1.0000   1.0000   1.0000   1.0000   1.0000   1.0000
     1.0000   1.0000   1.0000   1.0000   1.0000   1.0000   1.0000   1.0000
     1.0000   1.0000   1.0000   1.0000   1.0000   1.0000   1.0000   1.0000
     1.0000   1.0000   1.0000   1.0000

          k = 0.5000 0.1925 0.0974 (  4696 PWs)   bands (ev):

   -11.7704 -11.6812 -11.6094 -11.4746  -0.4981  -0.4747  -0.3123  -0.2942
    -0.2525  -0.2365  -0.0250   0.0015   0.0390   0.0641   0.1242   0.1345
     0.3004   0.3174   0.3398   0.3575   0.4021   0.4292   0.4865   0.5051
     1.1007   1.1676   1.4800   1.5535   2.5660   2.5871   3.0216   3.0652
     3.6000   3.6390   3.7690   3.8551

     occupation numbers 
     1.0000   1.0000   1.0000   1.0000   1.0000   1.0000   1.0000   1.0000
     1.0000   1.0000   1.0000   1.0000   1.0000   1.0000   1.0000   1.0000
     1.0000   1.0000   1.0000   1.0000   1.0000   1.0000   1.0000   1.0000
     1.0000   1.0000   1.0000   1.0000   1.0000   1.0000   1.0000   1.0000
     1.0000   1.0000   1.0000   1.0000

          k = 0.5000 0.1925 0.1948 (  4700 PWs)   bands (ev):

   -11.7578 -11.6714 -11.6195 -11.4825  -0.5117  -0.4896  -0.3983  -0.3830
    -0.2358  -0.1938  -0.0773  -0.0435   0.0254   0.0544   0.0826   0.0962
     0.3291   0.3301   0.3539   0.3622   0.4180   0.4327   0.4701   0.4814
     1.0969   1.1830   1.3516   1.4344   2.9401   2.9862   3.2256   3.2612
     3.5181   3.5807   3.6881   3.7920

     occupation numbers 
     1.0000   1.0000   1.0000   1.0000   1.0000   1.0000   1.0000   1.0000
     1.0000   1.0000   1.0000   1.0000   1.0000   1.0000   1.0000   1.0000
     1.0000   1.0000   1.0000   1.0000   1.0000   1.0000   1.0000   1.0000
     1.0000   1.0000   1.0000   1.0000   1.0000   1.0000   1.0000   1.0000
     1.0000   1.0000   1.0000   1.0000

          k = 0.5000 0.0962 0.0974 (  4694 PWs)   bands (ev):

   -11.7728 -11.6824 -11.6090 -11.4745  -0.4556  -0.4294  -0.2853  -0.2601
    -0.2216  -0.1842  -0.0407  -0.0184   0.0106   0.0437   0.0628   0.1077
     0.2402   0.2611   0.3164   0.3385   0.4076   0.4356   0.5344   0.5503
     1.2334   1.3264   1.6129   1.7036   2.4728   2.5317   2.8095   2.8418
     3.4572   3.5470   3.6935   3.7671

     occupation numbers 
     1.0000   1.0000   1.0000   1.0000   1.0000   1.0000   1.0000   1.0000
     1.0000   1.0000   1.0000   1.0000   1.0000   1.0000   1.0000   1.0000
     1.0000   1.0000   1.0000   1.0000   1.0000   1.0000   1.0000   1.0000
     1.0000   1.0000   1.0000   1.0000   1.0000   1.0000   1.0000   1.0000
     1.0000   1.0000   1.0000   1.0000

          k = 0.5000 0.0962 0.1948 (  4696 PWs)   bands (ev):

   -11.7592 -11.6725 -11.6196 -11.4829  -0.4524  -0.4296  -0.3368  -0.3236
    -0.2322  -0.2007  -0.0904  -0.0496  -0.0279  -0.0170   0.0138   0.0563
     0.2870   0.3029   0.3355   0.3526   0.4232   0.4427   0.4993   0.5121
     1.2507   1.3554   1.5041   1.6002   2.7207   2.7961   3.1086   3.1473
     3.3095   3.3961   3.6986   3.7805

     occupation numbers 
     1.0000   1.0000   1.0000   1.0000   1.0000   1.0000   1.0000   1.0000
     1.0000   1.0000   1.0000   1.0000   1.0000   1.0000   1.0000   1.0000
     1.0000   1.0000   1.0000   1.0000   1.0000   1.0000   1.0000   1.0000
     1.0000   1.0000   1.0000   1.0000   1.0000   1.0000   1.0000   1.0000
     1.0000   1.0000   1.0000   1.0000

     highest occupied level (ev):     4.6173

!    total energy              =    -723.19442854 Ry
     estimated scf accuracy    <          1.2E-09 Ry

     The total energy is the sum of the following terms:
     one-electron contribution =    -349.02588100 Ry
     hartree contribution      =     251.08590866 Ry
     xc contribution           =    -218.44494975 Ry
     ewald contribution        =    -406.80950644 Ry

     convergence has been achieved in  31 iterations

     Forces acting on atoms (cartesian axes, Ry/au):

     atom    1 type  1   force =     0.00221587   -0.00693529    0.00183399
     atom    2 type  1   force =    -0.00195138   -0.00014109   -0.00422239
     atom    3 type  2   force =     0.00372641   -0.00029854    0.01197484
     atom    4 type  2   force =    -0.00899916    0.00640319   -0.00257218
     atom    5 type  1   force =     0.00459886    0.01051710   -0.00488232
     atom    6 type  1   force =     0.01119211   -0.00551584    0.00388439
     atom    7 type  2   force =    -0.01057457   -0.00133387   -0.00889071
     atom    8 type  2   force =    -0.00020813   -0.00269565    0.00287439
     The non-local contrib.  to forces
     atom    1 type  1   force =     0.04802695    0.02049617    0.11184523
     atom    2 type  1   force =    -0.03565646   -0.05157392    0.14574235
     atom    3 type  2   force =    -0.02940053   -0.06030504    0.18835386
     atom    4 type  2   force =    -0.01050166    0.03559941    0.14344146
     atom    5 type  1   force =     0.00834327   -0.02201535    0.17566934
     atom    6 type  1   force =     0.08215809    0.03176675    0.15216122
     atom    7 type  2   force =     0.09047879   -0.01384215    0.13003798
     atom    8 type  2   force =     0.04635042    0.01611848    0.18050687
     The ionic contribution  to forces
     atom    1 type  1   force =     0.38860216   -0.43134118    0.84373211
     atom    2 type  1   force =    -0.37265796   -0.07509025    1.09999080
     atom    3 type  2   force =     0.34490743    0.33646104   -0.99531819
     atom    4 type  2   force =    -0.10425538   -0.01631743   -1.21961749
     atom    5 type  1   force =    -0.00161599    0.44630150    1.21681767
     atom    6 type  1   force =     0.67603725   -0.07247977    1.42350869
     atom    7 type  2   force =    -0.74395210    0.07185641   -1.13711975
     atom    8 type  2   force =    -0.18706541   -0.25939031   -1.23199386
     The local contribution  to forces
     atom    1 type  1   force =    -0.43121275    0.40401307   -0.94658530
     atom    2 type  1   force =     0.40395887    0.12348920   -1.24140929
     atom    3 type  2   force =    -0.31200211   -0.27700245    0.82071712
     atom    4 type  2   force =     0.10559674   -0.01249751    1.07484327
     atom    5 type  1   force =    -0.00125175   -0.41374275   -1.38686073
     atom    6 type  1   force =    -0.74098963    0.03651958   -1.56163188
     atom    7 type  2   force =     0.64364023   -0.05948820    0.99927731
     atom    8 type  2   force =     0.14094161    0.24068274    1.05600077
     The core correction contribution to forces
     atom    1 type  1   force =    -0.00319814   -0.00010867   -0.00714891
     atom    2 type  1   force =     0.00240292    0.00302782   -0.00854748
     atom    3 type  2   force =     0.00022130    0.00055057   -0.00176918
     atom    4 type  2   force =     0.00016009   -0.00037112   -0.00123976
     atom    5 type  1   force =    -0.00087720   -0.00002214   -0.01051927
     atom    6 type  1   force =    -0.00600857   -0.00131694   -0.01014847
     atom    7 type  2   force =    -0.00074387    0.00013904   -0.00108506
     atom    8 type  2   force =    -0.00043484   -0.00012121   -0.00163354
     The Hubbard contrib.    to forces
     atom    1 type  1   force =     0.00000000    0.00000000    0.00000000
     atom    2 type  1   force =     0.00000000    0.00000000    0.00000000
     atom    3 type  2   force =     0.00000000    0.00000000    0.00000000
     atom    4 type  2   force =     0.00000000    0.00000000    0.00000000
     atom    5 type  1   force =     0.00000000    0.00000000    0.00000000
     atom    6 type  1   force =     0.00000000    0.00000000    0.00000000
     atom    7 type  2   force =     0.00000000    0.00000000    0.00000000
     atom    8 type  2   force =     0.00000000    0.00000000    0.00000000
     The SCF correction term to forces
     atom    1 type  1   force =    -0.00000274    0.00000565   -0.00000750
     atom    2 type  1   force =     0.00000087    0.00000639    0.00000287
     atom    3 type  2   force =    -0.00000007   -0.00000233   -0.00000713
     atom    4 type  2   force =     0.00000067   -0.00000982    0.00000198
     atom    5 type  1   force =     0.00000014   -0.00000383    0.00001232
     atom    6 type  1   force =    -0.00000541   -0.00000514   -0.00000354
     atom    7 type  2   force =     0.00000200    0.00000137    0.00000047
     atom    8 type  2   force =    -0.00000029    0.00001497   -0.00000422

     Total force =     0.029977     Total SCF correction =     0.000028

     init_run     :      4.81s CPU      5.03s WALL (       1 calls)
     electrons    :    294.10s CPU    307.98s WALL (       1 calls)
     forces       :      1.54s CPU      1.55s WALL (       1 calls)

     Called by init_run:
     wfcinit      :      2.79s CPU      2.97s WALL (       1 calls)
     wfcinit:atom :      0.04s CPU      0.05s WALL (      28 calls)
     wfcinit:wfcr :      2.52s CPU      2.70s WALL (      28 calls)
     potinit      :      0.81s CPU      0.82s WALL (       1 calls)
     hinit0       :      1.09s CPU      1.10s WALL (       1 calls)

     Called by electrons:
     c_bands      :    260.03s CPU    271.83s WALL (      31 calls)
     sum_band     :     29.38s CPU     31.30s WALL (      31 calls)
     v_of_rho     :      2.23s CPU      2.33s WALL (      32 calls)
     v_h          :      0.12s CPU      0.14s WALL (      32 calls)
     v_xc         :      2.17s CPU      2.26s WALL (      33 calls)
     newd         :      2.01s CPU      2.05s WALL (      32 calls)
     mix_rho      :      0.33s CPU      0.35s WALL (      31 calls)

     Called by c_bands:
     init_us_2    :      2.29s CPU      2.32s WALL (    1792 calls)
     init_us_2:cp :      2.28s CPU      2.31s WALL (    1792 calls)
     cegterg      :    234.95s CPU    246.68s WALL (     868 calls)

     Called by sum_band:
     sum_band:wei :      0.01s CPU      0.01s WALL (      31 calls)
     sum_band:loo :     26.49s CPU     28.30s WALL (      31 calls)
     sum_band:buf :      0.18s CPU      0.19s WALL (     868 calls)
     sum_band:ini :      1.06s CPU      1.08s WALL (     868 calls)
     sum_band:cal :      2.94s CPU      3.04s WALL (     868 calls)
     sum_band:bec :      0.07s CPU      0.07s WALL (     868 calls)
     addusdens    :      2.14s CPU      2.21s WALL (      31 calls)
                                        0.00s GPU  (      31 calls)
     addusd:skk   :      0.01s CPU      0.01s WALL (      62 calls)
                                        0.00s GPU  (      62 calls)

     Called by *egterg:
     cdiaghg      :     21.31s CPU     21.34s WALL (    5706 calls)
     cegterg:over :     11.68s CPU     12.03s WALL (    4838 calls)
     cegterg:upda :      7.34s CPU      7.37s WALL (    4838 calls)
     cegterg:last :     15.25s CPU     15.27s WALL (    2841 calls)
     h_psi        :    164.29s CPU    175.61s WALL (    5734 calls)
     s_psi        :     11.76s CPU     11.80s WALL (    5734 calls)
     g_psi        :      0.99s CPU      1.00s WALL (    4838 calls)

     Called by h_psi:
     h_psi:calbec :     11.40s CPU     11.93s WALL (    5734 calls)
     vloc_psi     :    140.02s CPU    150.73s WALL (    5734 calls)
     add_vuspsi   :     12.25s CPU     12.31s WALL (    5734 calls)

     General routines
     calbec       :     14.66s CPU     15.31s WALL (    6714 calls)
     fft          :      1.49s CPU      1.64s WALL (     425 calls)
     ffts         :      0.22s CPU      0.23s WALL (      63 calls)
     fftw         :    139.11s CPU    149.99s WALL (  251846 calls)
     interpolate  :      0.29s CPU      0.31s WALL (      32 calls)

     Parallel routines

     PWSCF        :   5m 0.83s CPU   5m14.96s WALL


   This run was terminated on:  18:19:41  24Sep2025            

=------------------------------------------------------------------------------=
   JOB DONE.
=------------------------------------------------------------------------------=
Note: The following floating-point exceptions are signalling: IEEE_INVALID_FLAG
Note: The following floating-point exceptions are signalling: IEEE_INVALID_FLAG
Note: The following floating-point exceptions are signalling: IEEE_INVALID_FLAG
Note: The following floating-point exceptions are signalling: IEEE_INVALID_FLAG
