
     Program PWSCF v.7.0 starts on 23Sep2025 at 18: 0:37 

     This program is part of the open-source Quantum ESPRESSO suite
     for quantum simulation of materials; please cite
         "P. Giannozzi et al., J. Phys.:Condens. Matter 21 395502 (2009);
         "P. Giannozzi et al., J. Phys.:Condens. Matter 29 465901 (2017);
         "P. Giannozzi et al., J. Chem. Phys. 152 154105 (2020);
          URL http://www.quantum-espresso.org", 
     in publications or presentations arising from this work. More details at
     http://www.quantum-espresso.org/quote

     Parallel version (MPI & OpenMP), running on      32 processor cores
     Number of MPI processes:                16
     Threads/MPI process:                     2

     MPI processes distributed on     1 nodes
     K-points division:     npool     =       4
     R & G space division:  proc/nbgrp/npool/nimage =       4
     106788 MiB available memory on the printing compute node when the environment starts

     Reading input from /home/jvc/QEspresso7.2/ZnO_database/scripts/random_2x1x1.in/ZnO-3.20-1.71-211-0.06-2.in
Warning: card &CELL ignored
Warning: card / ignored
Warning: card &FCP ignored
Warning: card / ignored
Warning: card &RISM ignored
Warning: card / ignored

     Current dimensions of program PWSCF are:
     Max number of different atomic species (ntypx) = 10
     Max number of k-points (npk) =  40000
     Max angular momentum in pseudopotentials (lmaxx) =  4
     file Zn.upf: wavefunction(s)  3D renormalized

     Subspace diagonalization in iterative solution of the eigenvalue problem:
     one sub-group per band group will be used
     scalapack distributed-memory algorithm (size of sub-group:  2*  2 procs)


     Parallelization info
     --------------------
     sticks:   dense  smooth     PW     G-vecs:    dense   smooth      PW
     Min         505     254     80                22227     7846    1380
     Max         506     255     81                22232     7849    1383
     Sum        2021    1017    321                88913    31387    5527

     Using Slab Decomposition



     bravais-lattice index     =            0
     lattice parameter (alat)  =      12.1106  a.u.
     unit-cell volume          =     658.0645 (a.u.)^3
     number of atoms/cell      =            8
     number of atomic types    =            2
     number of electrons       =        72.00
     number of Kohn-Sham states=           36
     kinetic-energy cutoff     =      50.0000  Ry
     charge density cutoff     =     400.0000  Ry
     scf convergence threshold =      1.0E-08
     mixing beta               =       0.3000
     number of iterations used =            8  plain     mixing
     Exchange-correlation= PBE
                           (   1   4   3   4   0   0   0)

     celldm(1)=  12.110554  celldm(2)=   0.000000  celldm(3)=   0.000000
     celldm(4)=   0.000000  celldm(5)=   0.000000  celldm(6)=   0.000000

     crystal axes: (cart. coord. in units of alat)
               a(1) = (   1.000000   0.000000   0.000000 )  
               a(2) = (  -0.250000   0.433013   0.000000 )  
               a(3) = (   0.000000   0.000000   0.855610 )  

     reciprocal axes: (cart. coord. in units 2 pi/alat)
               b(1) = (  1.000000  0.577350 -0.000000 )  
               b(2) = (  0.000000  2.309401  0.000000 )  
               b(3) = (  0.000000 -0.000000  1.168757 )  


     PseudoPot. # 1 for Zn read from file:
     /home/jvc/QEspresso7.2/ZnO_database/pseudos/Zn.upf
     MD5 check sum: 7f56cabf9682ed8c977c2f7d0c5985c5
     Pseudo is Ultrasoft + core correction, Zval = 12.0
     Generated using &quot;atomic&quot; code by A. Dal Corso  v.6.2.2
     Using radial grid of 1201 points,  6 beta functions with: 
                l(1) =   0
                l(2) =   0
                l(3) =   1
                l(4) =   1
                l(5) =   2
                l(6) =   2
     Q(r) pseudized with 0 coefficients 


     PseudoPot. # 2 for O  read from file:
     /home/jvc/QEspresso7.2/ZnO_database/pseudos/O.upf
     MD5 check sum: 91400c9766925bcf19f520983a725ff0
     Pseudo is Ultrasoft + core correction, Zval =  6.0
     Generated using &quot;atomic&quot; code by A. Dal Corso  v.6.3MaX
     Using radial grid of 1095 points,  4 beta functions with: 
                l(1) =   0
                l(2) =   0
                l(3) =   1
                l(4) =   1
     Q(r) pseudized with 0 coefficients 


     atomic species   valence    mass     pseudopotential
        Zn            12.00    65.38000     Zn( 1.00)
        O              6.00    15.99900     O ( 1.00)

     No symmetry found


                                    s                        frac. trans.

      isym =  1     identity                                     

 cryst.   s( 1) = (     1          0          0      )
                  (     0          1          0      )
                  (     0          0          1      )

 cart.    s( 1) = (  1.0000000  0.0000000  0.0000000 )
                  (  0.0000000  1.0000000  0.0000000 )
                  (  0.0000000  0.0000000  1.0000000 )


   Cartesian axes

     site n.     atom                  positions (alat units)
         1           Zn  tau(   1) = (   0.2638342   0.1398134   0.4118692  )
         2           Zn  tau(   2) = (  -0.0135356   0.2777384   0.0032834  )
         3           O   tau(   3) = (   0.2514306   0.1415112   0.7584654  )
         4           O   tau(   4) = (  -0.0053828   0.2892637   0.3269675  )
         5           Zn  tau(   5) = (   0.7625018   0.1530077   0.4359748  )
         6           Zn  tau(   6) = (   0.4974386   0.2802266  -0.0065554  )
         7           O   tau(   7) = (   0.7572941   0.1383418   0.7375066  )
         8           O   tau(   8) = (   0.5275203   0.2796944   0.3293880  )

   Crystallographic axes

     site n.     atom                  positions (cryst. coord.)
         1           Zn  tau(   1) = (  0.3445556  0.3228853  0.4813750  )
         2           Zn  tau(   2) = (  0.1468168  0.6414093  0.0038375  )
         3           O   tau(   3) = (  0.3331321  0.3268060  0.8864616  )
         4           O   tau(   4) = (  0.1616237  0.6680259  0.3821455  )
         5           Zn  tau(   5) = (  0.8508408  0.3533561  0.5095485  )
         6           Zn  tau(   6) = (  0.6592275  0.6471556 -0.0076617  )
         7           O   tau(   7) = (  0.8371658  0.3194868  0.8619659  )
         8           O   tau(   8) = (  0.6890019  0.6459265  0.3849745  )

     number of k points=   112
                       cart. coord. in units 2pi/alat
        k(    1) = (   0.0000000   0.0000000   0.0000000), wk =   0.0092593
        k(    2) = (   0.0000000   0.0000000   0.1947928), wk =   0.0185185
        k(    3) = (   0.0000000   0.0000000   0.3895856), wk =   0.0185185
        k(    4) = (   0.0000000   0.0000000  -0.5843784), wk =   0.0092593
        k(    5) = (   0.0000000   0.3849002   0.0000000), wk =   0.0185185
        k(    6) = (   0.0000000   0.3849002   0.1947928), wk =   0.0185185
        k(    7) = (   0.0000000   0.3849002   0.3895856), wk =   0.0185185
        k(    8) = (   0.0000000   0.3849002  -0.5843784), wk =   0.0185185
        k(    9) = (   0.0000000   0.7698004   0.0000000), wk =   0.0185185
        k(   10) = (   0.0000000   0.7698004   0.1947928), wk =   0.0185185
        k(   11) = (   0.0000000   0.7698004   0.3895856), wk =   0.0185185
        k(   12) = (   0.0000000   0.7698004  -0.5843784), wk =   0.0185185
        k(   13) = (   0.0000000  -1.1547005   0.0000000), wk =   0.0092593
        k(   14) = (   0.0000000  -1.1547005   0.1947928), wk =   0.0185185
        k(   15) = (   0.0000000  -1.1547005   0.3895856), wk =   0.0185185
        k(   16) = (   0.0000000  -1.1547005  -0.5843784), wk =   0.0092593
        k(   17) = (   0.1666667   0.0962250   0.0000000), wk =   0.0185185
        k(   18) = (   0.1666667   0.0962250   0.1947928), wk =   0.0185185
        k(   19) = (   0.1666667   0.0962250   0.3895856), wk =   0.0185185
        k(   20) = (   0.1666667   0.0962250  -0.5843784), wk =   0.0185185
        k(   21) = (   0.1666667   0.4811252   0.0000000), wk =   0.0185185
        k(   22) = (   0.1666667   0.4811252   0.1947928), wk =   0.0185185
        k(   23) = (   0.1666667   0.4811252   0.3895856), wk =   0.0185185
        k(   24) = (   0.1666667   0.4811252  -0.5843784), wk =   0.0185185
        k(   25) = (   0.1666667   0.8660254   0.0000000), wk =   0.0185185
        k(   26) = (   0.1666667   0.8660254   0.1947928), wk =   0.0185185
        k(   27) = (   0.1666667   0.8660254   0.3895856), wk =   0.0185185
        k(   28) = (   0.1666667   0.8660254  -0.5843784), wk =   0.0185185
        k(   29) = (   0.1666667  -1.0584755   0.0000000), wk =   0.0185185
        k(   30) = (   0.1666667  -1.0584755   0.1947928), wk =   0.0185185
        k(   31) = (   0.1666667  -1.0584755   0.3895856), wk =   0.0185185
        k(   32) = (   0.1666667  -1.0584755  -0.5843784), wk =   0.0185185
        k(   33) = (   0.1666667  -0.6735753   0.0000000), wk =   0.0185185
        k(   34) = (   0.1666667  -0.6735753   0.1947928), wk =   0.0185185
        k(   35) = (   0.1666667  -0.6735753   0.3895856), wk =   0.0185185
        k(   36) = (   0.1666667  -0.6735753  -0.5843784), wk =   0.0185185
        k(   37) = (   0.1666667  -0.2886751   0.0000000), wk =   0.0185185
        k(   38) = (   0.1666667  -0.2886751   0.1947928), wk =   0.0185185
        k(   39) = (   0.1666667  -0.2886751   0.3895856), wk =   0.0185185
        k(   40) = (   0.1666667  -0.2886751  -0.5843784), wk =   0.0185185
        k(   41) = (   0.3333333   0.1924501   0.0000000), wk =   0.0185185
        k(   42) = (   0.3333333   0.1924501   0.1947928), wk =   0.0185185
        k(   43) = (   0.3333333   0.1924501   0.3895856), wk =   0.0185185
        k(   44) = (   0.3333333   0.1924501  -0.5843784), wk =   0.0185185
        k(   45) = (   0.3333333   0.5773503   0.0000000), wk =   0.0185185
        k(   46) = (   0.3333333   0.5773503   0.1947928), wk =   0.0185185
        k(   47) = (   0.3333333   0.5773503   0.3895856), wk =   0.0185185
        k(   48) = (   0.3333333   0.5773503  -0.5843784), wk =   0.0185185
        k(   49) = (   0.3333333  -0.9622504   0.0000000), wk =   0.0185185
        k(   50) = (   0.3333333  -0.9622504   0.1947928), wk =   0.0185185
        k(   51) = (   0.3333333  -0.9622504   0.3895856), wk =   0.0185185
        k(   52) = (   0.3333333  -0.9622504  -0.5843784), wk =   0.0185185
        k(   53) = (   0.3333333  -0.5773503   0.0000000), wk =   0.0185185
        k(   54) = (   0.3333333  -0.5773503   0.1947928), wk =   0.0185185
        k(   55) = (   0.3333333  -0.5773503   0.3895856), wk =   0.0185185
        k(   56) = (   0.3333333  -0.5773503  -0.5843784), wk =   0.0185185
        k(   57) = (  -0.5000000  -0.2886751   0.0000000), wk =   0.0092593
        k(   58) = (  -0.5000000  -0.2886751   0.1947928), wk =   0.0185185
        k(   59) = (  -0.5000000  -0.2886751   0.3895856), wk =   0.0185185
        k(   60) = (  -0.5000000  -0.2886751  -0.5843784), wk =   0.0092593
        k(   61) = (  -0.5000000  -1.4433757   0.0000000), wk =   0.0092593
        k(   62) = (  -0.5000000  -1.4433757   0.1947928), wk =   0.0185185
        k(   63) = (  -0.5000000  -1.4433757   0.3895856), wk =   0.0185185
        k(   64) = (  -0.5000000  -1.4433757  -0.5843784), wk =   0.0092593
        k(   65) = (   0.3333333  -0.1924501   0.0000000), wk =   0.0185185
        k(   66) = (   0.0000000  -0.3849002   0.1947928), wk =   0.0185185
        k(   67) = (   0.3333333  -0.1924501  -0.1947928), wk =   0.0185185
        k(   68) = (  -0.3333333   0.1924501  -0.1947928), wk =   0.0185185
        k(   69) = (   0.0000000  -0.3849002   0.3895856), wk =   0.0185185
        k(   70) = (   0.3333333  -0.1924501  -0.3895856), wk =   0.0185185
        k(   71) = (  -0.3333333   0.1924501  -0.3895856), wk =   0.0185185
        k(   72) = (   0.3333333  -0.1924501   0.5843784), wk =   0.0185185
        k(   73) = (   0.6666667  -0.3849002   0.0000000), wk =   0.0185185
        k(   74) = (   0.0000000  -0.7698004   0.1947928), wk =   0.0185185
        k(   75) = (   0.6666667  -0.3849002  -0.1947928), wk =   0.0185185
        k(   76) = (  -0.6666667   0.3849002  -0.1947928), wk =   0.0185185
        k(   77) = (   0.0000000  -0.7698004   0.3895856), wk =   0.0185185
        k(   78) = (   0.6666667  -0.3849002  -0.3895856), wk =   0.0185185
        k(   79) = (  -0.6666667   0.3849002  -0.3895856), wk =   0.0185185
        k(   80) = (   0.6666667  -0.3849002   0.5843784), wk =   0.0185185
        k(   81) = (  -0.1666667  -0.0962250   0.1947928), wk =   0.0185185
        k(   82) = (  -0.1666667  -0.0962250   0.3895856), wk =   0.0185185
        k(   83) = (   0.5000000  -0.0962250   0.0000000), wk =   0.0185185
        k(   84) = (  -0.1666667  -0.4811252   0.1947928), wk =   0.0185185
        k(   85) = (   0.5000000  -0.0962250  -0.1947928), wk =   0.0185185
        k(   86) = (  -0.5000000   0.0962250  -0.1947928), wk =   0.0185185
        k(   87) = (  -0.1666667  -0.4811252   0.3895856), wk =   0.0185185
        k(   88) = (   0.5000000  -0.0962250  -0.3895856), wk =   0.0185185
        k(   89) = (  -0.5000000   0.0962250  -0.3895856), wk =   0.0185185
        k(   90) = (   0.5000000  -0.0962250   0.5843784), wk =   0.0185185
        k(   91) = (  -0.1666667  -0.8660254   0.1947928), wk =   0.0185185
        k(   92) = (  -0.1666667  -0.8660254   0.3895856), wk =   0.0185185
        k(   93) = (  -0.1666667   1.0584755   0.1947928), wk =   0.0185185
        k(   94) = (  -0.1666667   1.0584755   0.3895856), wk =   0.0185185
        k(   95) = (  -0.5000000   0.4811252   0.0000000), wk =   0.0185185
        k(   96) = (  -0.1666667   0.6735753   0.1947928), wk =   0.0185185
        k(   97) = (  -0.5000000   0.4811252  -0.1947928), wk =   0.0185185
        k(   98) = (   0.5000000  -0.4811252  -0.1947928), wk =   0.0185185
        k(   99) = (  -0.1666667   0.6735753   0.3895856), wk =   0.0185185
        k(  100) = (  -0.5000000   0.4811252  -0.3895856), wk =   0.0185185
        k(  101) = (   0.5000000  -0.4811252  -0.3895856), wk =   0.0185185
        k(  102) = (  -0.5000000   0.4811252   0.5843784), wk =   0.0185185
        k(  103) = (  -0.1666667   0.2886751   0.1947928), wk =   0.0185185
        k(  104) = (  -0.1666667   0.2886751   0.3895856), wk =   0.0185185
        k(  105) = (  -0.3333333  -0.1924501   0.1947928), wk =   0.0185185
        k(  106) = (  -0.3333333  -0.1924501   0.3895856), wk =   0.0185185
        k(  107) = (  -0.3333333  -0.5773503   0.1947928), wk =   0.0185185
        k(  108) = (  -0.3333333  -0.5773503   0.3895856), wk =   0.0185185
        k(  109) = (  -0.3333333   0.9622504   0.1947928), wk =   0.0185185
        k(  110) = (  -0.3333333   0.9622504   0.3895856), wk =   0.0185185
        k(  111) = (  -0.3333333   0.5773503   0.1947928), wk =   0.0185185
        k(  112) = (  -0.3333333   0.5773503   0.3895856), wk =   0.0185185

                       cryst. coord.
        k(    1) = (   0.0000000   0.0000000   0.0000000), wk =   0.0092593
        k(    2) = (   0.0000000   0.0000000   0.1666667), wk =   0.0185185
        k(    3) = (   0.0000000   0.0000000   0.3333333), wk =   0.0185185
        k(    4) = (   0.0000000   0.0000000  -0.5000000), wk =   0.0092593
        k(    5) = (   0.0000000   0.1666667   0.0000000), wk =   0.0185185
        k(    6) = (   0.0000000   0.1666667   0.1666667), wk =   0.0185185
        k(    7) = (   0.0000000   0.1666667   0.3333333), wk =   0.0185185
        k(    8) = (   0.0000000   0.1666667  -0.5000000), wk =   0.0185185
        k(    9) = (   0.0000000   0.3333333   0.0000000), wk =   0.0185185
        k(   10) = (   0.0000000   0.3333333   0.1666667), wk =   0.0185185
        k(   11) = (   0.0000000   0.3333333   0.3333333), wk =   0.0185185
        k(   12) = (   0.0000000   0.3333333  -0.5000000), wk =   0.0185185
        k(   13) = (   0.0000000  -0.5000000   0.0000000), wk =   0.0092593
        k(   14) = (   0.0000000  -0.5000000   0.1666667), wk =   0.0185185
        k(   15) = (   0.0000000  -0.5000000   0.3333333), wk =   0.0185185
        k(   16) = (   0.0000000  -0.5000000  -0.5000000), wk =   0.0092593
        k(   17) = (   0.1666667   0.0000000   0.0000000), wk =   0.0185185
        k(   18) = (   0.1666667   0.0000000   0.1666667), wk =   0.0185185
        k(   19) = (   0.1666667   0.0000000   0.3333333), wk =   0.0185185
        k(   20) = (   0.1666667   0.0000000  -0.5000000), wk =   0.0185185
        k(   21) = (   0.1666667   0.1666667   0.0000000), wk =   0.0185185
        k(   22) = (   0.1666667   0.1666667   0.1666667), wk =   0.0185185
        k(   23) = (   0.1666667   0.1666667   0.3333333), wk =   0.0185185
        k(   24) = (   0.1666667   0.1666667  -0.5000000), wk =   0.0185185
        k(   25) = (   0.1666667   0.3333333   0.0000000), wk =   0.0185185
        k(   26) = (   0.1666667   0.3333333   0.1666667), wk =   0.0185185
        k(   27) = (   0.1666667   0.3333333   0.3333333), wk =   0.0185185
        k(   28) = (   0.1666667   0.3333333  -0.5000000), wk =   0.0185185
        k(   29) = (   0.1666667  -0.5000000   0.0000000), wk =   0.0185185
        k(   30) = (   0.1666667  -0.5000000   0.1666667), wk =   0.0185185
        k(   31) = (   0.1666667  -0.5000000   0.3333333), wk =   0.0185185
        k(   32) = (   0.1666667  -0.5000000  -0.5000000), wk =   0.0185185
        k(   33) = (   0.1666667  -0.3333333   0.0000000), wk =   0.0185185
        k(   34) = (   0.1666667  -0.3333333   0.1666667), wk =   0.0185185
        k(   35) = (   0.1666667  -0.3333333   0.3333333), wk =   0.0185185
        k(   36) = (   0.1666667  -0.3333333  -0.5000000), wk =   0.0185185
        k(   37) = (   0.1666667  -0.1666667   0.0000000), wk =   0.0185185
        k(   38) = (   0.1666667  -0.1666667   0.1666667), wk =   0.0185185
        k(   39) = (   0.1666667  -0.1666667   0.3333333), wk =   0.0185185
        k(   40) = (   0.1666667  -0.1666667  -0.5000000), wk =   0.0185185
        k(   41) = (   0.3333333   0.0000000   0.0000000), wk =   0.0185185
        k(   42) = (   0.3333333   0.0000000   0.1666667), wk =   0.0185185
        k(   43) = (   0.3333333   0.0000000   0.3333333), wk =   0.0185185
        k(   44) = (   0.3333333   0.0000000  -0.5000000), wk =   0.0185185
        k(   45) = (   0.3333333   0.1666667   0.0000000), wk =   0.0185185
        k(   46) = (   0.3333333   0.1666667   0.1666667), wk =   0.0185185
        k(   47) = (   0.3333333   0.1666667   0.3333333), wk =   0.0185185
        k(   48) = (   0.3333333   0.1666667  -0.5000000), wk =   0.0185185
        k(   49) = (   0.3333333  -0.5000000   0.0000000), wk =   0.0185185
        k(   50) = (   0.3333333  -0.5000000   0.1666667), wk =   0.0185185
        k(   51) = (   0.3333333  -0.5000000   0.3333333), wk =   0.0185185
        k(   52) = (   0.3333333  -0.5000000  -0.5000000), wk =   0.0185185
        k(   53) = (   0.3333333  -0.3333333   0.0000000), wk =   0.0185185
        k(   54) = (   0.3333333  -0.3333333   0.1666667), wk =   0.0185185
        k(   55) = (   0.3333333  -0.3333333   0.3333333), wk =   0.0185185
        k(   56) = (   0.3333333  -0.3333333  -0.5000000), wk =   0.0185185
        k(   57) = (  -0.5000000   0.0000000   0.0000000), wk =   0.0092593
        k(   58) = (  -0.5000000   0.0000000   0.1666667), wk =   0.0185185
        k(   59) = (  -0.5000000   0.0000000   0.3333333), wk =   0.0185185
        k(   60) = (  -0.5000000   0.0000000  -0.5000000), wk =   0.0092593
        k(   61) = (  -0.5000000  -0.5000000   0.0000000), wk =   0.0092593
        k(   62) = (  -0.5000000  -0.5000000   0.1666667), wk =   0.0185185
        k(   63) = (  -0.5000000  -0.5000000   0.3333333), wk =   0.0185185
        k(   64) = (  -0.5000000  -0.5000000  -0.5000000), wk =   0.0092593
        k(   65) = (   0.3333333  -0.1666667   0.0000000), wk =   0.0185185
        k(   66) = (   0.0000000  -0.1666667   0.1666667), wk =   0.0185185
        k(   67) = (   0.3333333  -0.1666667  -0.1666667), wk =   0.0185185
        k(   68) = (  -0.3333333   0.1666667  -0.1666667), wk =   0.0185185
        k(   69) = (   0.0000000  -0.1666667   0.3333333), wk =   0.0185185
        k(   70) = (   0.3333333  -0.1666667  -0.3333333), wk =   0.0185185
        k(   71) = (  -0.3333333   0.1666667  -0.3333333), wk =   0.0185185
        k(   72) = (   0.3333333  -0.1666667   0.5000000), wk =   0.0185185
        k(   73) = (   0.6666667  -0.3333333   0.0000000), wk =   0.0185185
        k(   74) = (   0.0000000  -0.3333333   0.1666667), wk =   0.0185185
        k(   75) = (   0.6666667  -0.3333333  -0.1666667), wk =   0.0185185
        k(   76) = (  -0.6666667   0.3333333  -0.1666667), wk =   0.0185185
        k(   77) = (   0.0000000  -0.3333333   0.3333333), wk =   0.0185185
        k(   78) = (   0.6666667  -0.3333333  -0.3333333), wk =   0.0185185
        k(   79) = (  -0.6666667   0.3333333  -0.3333333), wk =   0.0185185
        k(   80) = (   0.6666667  -0.3333333   0.5000000), wk =   0.0185185
        k(   81) = (  -0.1666667   0.0000000   0.1666667), wk =   0.0185185
        k(   82) = (  -0.1666667   0.0000000   0.3333333), wk =   0.0185185
        k(   83) = (   0.5000000  -0.1666667   0.0000000), wk =   0.0185185
        k(   84) = (  -0.1666667  -0.1666667   0.1666667), wk =   0.0185185
        k(   85) = (   0.5000000  -0.1666667  -0.1666667), wk =   0.0185185
        k(   86) = (  -0.5000000   0.1666667  -0.1666667), wk =   0.0185185
        k(   87) = (  -0.1666667  -0.1666667   0.3333333), wk =   0.0185185
        k(   88) = (   0.5000000  -0.1666667  -0.3333333), wk =   0.0185185
        k(   89) = (  -0.5000000   0.1666667  -0.3333333), wk =   0.0185185
        k(   90) = (   0.5000000  -0.1666667   0.5000000), wk =   0.0185185
        k(   91) = (  -0.1666667  -0.3333333   0.1666667), wk =   0.0185185
        k(   92) = (  -0.1666667  -0.3333333   0.3333333), wk =   0.0185185
        k(   93) = (  -0.1666667   0.5000000   0.1666667), wk =   0.0185185
        k(   94) = (  -0.1666667   0.5000000   0.3333333), wk =   0.0185185
        k(   95) = (  -0.5000000   0.3333333   0.0000000), wk =   0.0185185
        k(   96) = (  -0.1666667   0.3333333   0.1666667), wk =   0.0185185
        k(   97) = (  -0.5000000   0.3333333  -0.1666667), wk =   0.0185185
        k(   98) = (   0.5000000  -0.3333333  -0.1666667), wk =   0.0185185
        k(   99) = (  -0.1666667   0.3333333   0.3333333), wk =   0.0185185
        k(  100) = (  -0.5000000   0.3333333  -0.3333333), wk =   0.0185185
        k(  101) = (   0.5000000  -0.3333333  -0.3333333), wk =   0.0185185
        k(  102) = (  -0.5000000   0.3333333   0.5000000), wk =   0.0185185
        k(  103) = (  -0.1666667   0.1666667   0.1666667), wk =   0.0185185
        k(  104) = (  -0.1666667   0.1666667   0.3333333), wk =   0.0185185
        k(  105) = (  -0.3333333   0.0000000   0.1666667), wk =   0.0185185
        k(  106) = (  -0.3333333   0.0000000   0.3333333), wk =   0.0185185
        k(  107) = (  -0.3333333  -0.1666667   0.1666667), wk =   0.0185185
        k(  108) = (  -0.3333333  -0.1666667   0.3333333), wk =   0.0185185
        k(  109) = (  -0.3333333   0.5000000   0.1666667), wk =   0.0185185
        k(  110) = (  -0.3333333   0.5000000   0.3333333), wk =   0.0185185
        k(  111) = (  -0.3333333   0.3333333   0.1666667), wk =   0.0185185
        k(  112) = (  -0.3333333   0.3333333   0.3333333), wk =   0.0185185

     Dense  grid:    88913 G-vectors     FFT dimensions: (  80,  40,  72)

     Smooth grid:    31387 G-vectors     FFT dimensions: (  60,  27,  48)

     Dynamical RAM for                 wfc:       0.54 MB

     Dynamical RAM for     wfc (w. buffer):      15.64 MB

     Dynamical RAM for           str. fact:       0.68 MB

     Dynamical RAM for           local pot:       0.00 MB

     Dynamical RAM for          nlocal pot:       1.56 MB

     Dynamical RAM for                qrad:       3.21 MB

     Dynamical RAM for          rho,v,vnew:       2.34 MB

     Dynamical RAM for               rhoin:       0.78 MB

     Dynamical RAM for            rho*nmix:       5.43 MB

     Dynamical RAM for           G-vectors:       1.33 MB

     Dynamical RAM for          h,s,v(r/c):       0.06 MB

     Dynamical RAM for          <psi|beta>:       0.06 MB

     Dynamical RAM for                 psi:       1.08 MB

     Dynamical RAM for                hpsi:       1.08 MB

     Dynamical RAM for                spsi:       1.08 MB

     Dynamical RAM for      wfcinit/wfcrot:       1.62 MB

     Dynamical RAM for           addusdens:      16.37 MB

     Dynamical RAM for          addusforce:      16.81 MB

     Estimated static dynamical RAM per process >      28.75 MB

     Estimated max dynamical RAM per process >      50.99 MB

     Estimated total dynamical RAM >     750.68 MB

     Check: negative core charge=   -0.000002

     Initial potential from superposition of free atoms

     starting charge      71.9851, renormalised to      72.0000
     Starting wfcs are   52 randomized atomic wfcs

     total cpu time spent up to now is        4.7 secs

     per-process dynamical memory:    42.4 Mb

     Self-consistent Calculation

     iteration #  1     ecut=    50.00 Ry     beta= 0.30
     Davidson diagonalization with overlap

---- Real-time Memory Report at c_bands before calling an iterative solver
            71 MiB given to the printing process from OS
            41 MiB allocation reported by mallinfo(arena+hblkhd)
        106067 MiB available memory on the node where the printing process lives
------------------
     ethr =  1.00E-02,  avg # of iterations =  2.0

     total cpu time spent up to now is        9.8 secs

     total energy              =    -722.90843893 Ry
     estimated scf accuracy    <       1.41997770 Ry

     iteration #  2     ecut=    50.00 Ry     beta= 0.30
     Davidson diagonalization with overlap

---- Real-time Memory Report at c_bands before calling an iterative solver
            87 MiB given to the printing process from OS
            57 MiB allocation reported by mallinfo(arena+hblkhd)
        105870 MiB available memory on the node where the printing process lives
------------------
     ethr =  1.97E-03,  avg # of iterations =  2.0

     total cpu time spent up to now is       15.8 secs

     total energy              =    -723.10177932 Ry
     estimated scf accuracy    <       0.18912446 Ry

     iteration #  3     ecut=    50.00 Ry     beta= 0.30
     Davidson diagonalization with overlap

---- Real-time Memory Report at c_bands before calling an iterative solver
            87 MiB given to the printing process from OS
            57 MiB allocation reported by mallinfo(arena+hblkhd)
        105883 MiB available memory on the node where the printing process lives
------------------
     ethr =  2.63E-04,  avg # of iterations =  6.4

     total cpu time spent up to now is       26.5 secs

     total energy              =    -723.17048949 Ry
     estimated scf accuracy    <       0.13693572 Ry

     iteration #  4     ecut=    50.00 Ry     beta= 0.30
     Davidson diagonalization with overlap

---- Real-time Memory Report at c_bands before calling an iterative solver
            88 MiB given to the printing process from OS
            58 MiB allocation reported by mallinfo(arena+hblkhd)
        105887 MiB available memory on the node where the printing process lives
------------------
     ethr =  1.90E-04,  avg # of iterations =  7.4

     total cpu time spent up to now is       37.9 secs

     total energy              =    -723.24928696 Ry
     estimated scf accuracy    <       0.19983342 Ry

     iteration #  5     ecut=    50.00 Ry     beta= 0.30
     Davidson diagonalization with overlap

---- Real-time Memory Report at c_bands before calling an iterative solver
            88 MiB given to the printing process from OS
            58 MiB allocation reported by mallinfo(arena+hblkhd)
        105884 MiB available memory on the node where the printing process lives
------------------
     ethr =  1.90E-04,  avg # of iterations =  1.0

     total cpu time spent up to now is       42.5 secs

     total energy              =    -723.17213719 Ry
     estimated scf accuracy    <       0.12404678 Ry

     iteration #  6     ecut=    50.00 Ry     beta= 0.30
     Davidson diagonalization with overlap

---- Real-time Memory Report at c_bands before calling an iterative solver
            88 MiB given to the printing process from OS
            58 MiB allocation reported by mallinfo(arena+hblkhd)
        105880 MiB available memory on the node where the printing process lives
------------------
     ethr =  1.72E-04,  avg # of iterations =  5.4

     total cpu time spent up to now is       51.4 secs

     total energy              =    -723.23051315 Ry
     estimated scf accuracy    <       0.06167537 Ry

     iteration #  7     ecut=    50.00 Ry     beta= 0.30
     Davidson diagonalization with overlap

---- Real-time Memory Report at c_bands before calling an iterative solver
            88 MiB given to the printing process from OS
            58 MiB allocation reported by mallinfo(arena+hblkhd)
        105880 MiB available memory on the node where the printing process lives
------------------
     ethr =  8.57E-05,  avg # of iterations =  1.1

     total cpu time spent up to now is       55.5 secs

     total energy              =    -723.22984621 Ry
     estimated scf accuracy    <       0.02899919 Ry

     iteration #  8     ecut=    50.00 Ry     beta= 0.30
     Davidson diagonalization with overlap

---- Real-time Memory Report at c_bands before calling an iterative solver
            88 MiB given to the printing process from OS
            59 MiB allocation reported by mallinfo(arena+hblkhd)
        105879 MiB available memory on the node where the printing process lives
------------------
     ethr =  4.03E-05,  avg # of iterations =  2.0

     total cpu time spent up to now is       60.2 secs

     total energy              =    -723.23119450 Ry
     estimated scf accuracy    <       0.01695131 Ry

     iteration #  9     ecut=    50.00 Ry     beta= 0.30
     Davidson diagonalization with overlap

---- Real-time Memory Report at c_bands before calling an iterative solver
            89 MiB given to the printing process from OS
            59 MiB allocation reported by mallinfo(arena+hblkhd)
        105878 MiB available memory on the node where the printing process lives
------------------
     ethr =  2.35E-05,  avg # of iterations =  1.1

     total cpu time spent up to now is       64.5 secs

     total energy              =    -723.22627327 Ry
     estimated scf accuracy    <       0.01411195 Ry

     iteration # 10     ecut=    50.00 Ry     beta= 0.30
     Davidson diagonalization with overlap

---- Real-time Memory Report at c_bands before calling an iterative solver
            89 MiB given to the printing process from OS
            59 MiB allocation reported by mallinfo(arena+hblkhd)
        105877 MiB available memory on the node where the printing process lives
------------------
     ethr =  1.96E-05,  avg # of iterations =  3.0

     total cpu time spent up to now is       70.6 secs

     total energy              =    -723.22725155 Ry
     estimated scf accuracy    <       0.00203062 Ry

     iteration # 11     ecut=    50.00 Ry     beta= 0.30
     Davidson diagonalization with overlap

---- Real-time Memory Report at c_bands before calling an iterative solver
            89 MiB given to the printing process from OS
            59 MiB allocation reported by mallinfo(arena+hblkhd)
        105881 MiB available memory on the node where the printing process lives
------------------
     ethr =  2.82E-06,  avg # of iterations =  8.3

     total cpu time spent up to now is       83.1 secs

     total energy              =    -723.23177048 Ry
     estimated scf accuracy    <       0.00550664 Ry

     iteration # 12     ecut=    50.00 Ry     beta= 0.30
     Davidson diagonalization with overlap

---- Real-time Memory Report at c_bands before calling an iterative solver
            89 MiB given to the printing process from OS
            59 MiB allocation reported by mallinfo(arena+hblkhd)
        105883 MiB available memory on the node where the printing process lives
------------------
     ethr =  2.82E-06,  avg # of iterations =  1.0

     total cpu time spent up to now is       87.4 secs

     total energy              =    -723.22906756 Ry
     estimated scf accuracy    <       0.00597061 Ry

     iteration # 13     ecut=    50.00 Ry     beta= 0.30
     Davidson diagonalization with overlap

---- Real-time Memory Report at c_bands before calling an iterative solver
            89 MiB given to the printing process from OS
            59 MiB allocation reported by mallinfo(arena+hblkhd)
        105885 MiB available memory on the node where the printing process lives
------------------
     ethr =  2.82E-06,  avg # of iterations =  4.4

     total cpu time spent up to now is       95.0 secs

     total energy              =    -723.23004838 Ry
     estimated scf accuracy    <       0.00007041 Ry

     iteration # 14     ecut=    50.00 Ry     beta= 0.30
     Davidson diagonalization with overlap

---- Real-time Memory Report at c_bands before calling an iterative solver
            89 MiB given to the printing process from OS
            59 MiB allocation reported by mallinfo(arena+hblkhd)
        105885 MiB available memory on the node where the printing process lives
------------------
     ethr =  9.78E-08,  avg # of iterations =  6.3

     total cpu time spent up to now is      105.3 secs

     total energy              =    -723.23008457 Ry
     estimated scf accuracy    <       0.00006930 Ry

     iteration # 15     ecut=    50.00 Ry     beta= 0.30
     Davidson diagonalization with overlap

---- Real-time Memory Report at c_bands before calling an iterative solver
            89 MiB given to the printing process from OS
            59 MiB allocation reported by mallinfo(arena+hblkhd)
        105889 MiB available memory on the node where the printing process lives
------------------
     ethr =  9.63E-08,  avg # of iterations =  1.6

     total cpu time spent up to now is      109.8 secs

     total energy              =    -723.23009734 Ry
     estimated scf accuracy    <       0.00003133 Ry

     iteration # 16     ecut=    50.00 Ry     beta= 0.30
     Davidson diagonalization with overlap

---- Real-time Memory Report at c_bands before calling an iterative solver
            89 MiB given to the printing process from OS
            59 MiB allocation reported by mallinfo(arena+hblkhd)
        105890 MiB available memory on the node where the printing process lives
------------------
     ethr =  4.35E-08,  avg # of iterations =  1.2

     total cpu time spent up to now is      114.0 secs

     total energy              =    -723.23013021 Ry
     estimated scf accuracy    <       0.00004760 Ry

     iteration # 17     ecut=    50.00 Ry     beta= 0.30
     Davidson diagonalization with overlap

---- Real-time Memory Report at c_bands before calling an iterative solver
            89 MiB given to the printing process from OS
            59 MiB allocation reported by mallinfo(arena+hblkhd)
        105890 MiB available memory on the node where the printing process lives
------------------
     ethr =  4.35E-08,  avg # of iterations =  4.9

     total cpu time spent up to now is      120.9 secs

     total energy              =    -723.23011777 Ry
     estimated scf accuracy    <       0.00016774 Ry

     iteration # 18     ecut=    50.00 Ry     beta= 0.30
     Davidson diagonalization with overlap

---- Real-time Memory Report at c_bands before calling an iterative solver
            89 MiB given to the printing process from OS
            59 MiB allocation reported by mallinfo(arena+hblkhd)
        105890 MiB available memory on the node where the printing process lives
------------------
     ethr =  4.35E-08,  avg # of iterations =  1.0

     total cpu time spent up to now is      125.0 secs

     total energy              =    -723.23008652 Ry
     estimated scf accuracy    <       0.00013405 Ry

     iteration # 19     ecut=    50.00 Ry     beta= 0.30
     Davidson diagonalization with overlap

---- Real-time Memory Report at c_bands before calling an iterative solver
            89 MiB given to the printing process from OS
            59 MiB allocation reported by mallinfo(arena+hblkhd)
        105890 MiB available memory on the node where the printing process lives
------------------
     ethr =  4.35E-08,  avg # of iterations =  4.4

     total cpu time spent up to now is      131.7 secs

     total energy              =    -723.23008977 Ry
     estimated scf accuracy    <       0.00004090 Ry

     iteration # 20     ecut=    50.00 Ry     beta= 0.30
     Davidson diagonalization with overlap

---- Real-time Memory Report at c_bands before calling an iterative solver
            89 MiB given to the printing process from OS
            59 MiB allocation reported by mallinfo(arena+hblkhd)
        105890 MiB available memory on the node where the printing process lives
------------------
     ethr =  4.35E-08,  avg # of iterations =  1.7

     total cpu time spent up to now is      136.2 secs

     total energy              =    -723.23008782 Ry
     estimated scf accuracy    <       0.00002711 Ry

     iteration # 21     ecut=    50.00 Ry     beta= 0.30
     Davidson diagonalization with overlap

---- Real-time Memory Report at c_bands before calling an iterative solver
            89 MiB given to the printing process from OS
            59 MiB allocation reported by mallinfo(arena+hblkhd)
        105891 MiB available memory on the node where the printing process lives
------------------
     ethr =  3.77E-08,  avg # of iterations =  1.8

     total cpu time spent up to now is      140.8 secs

     total energy              =    -723.23008873 Ry
     estimated scf accuracy    <       0.00001630 Ry

     iteration # 22     ecut=    50.00 Ry     beta= 0.30
     Davidson diagonalization with overlap

---- Real-time Memory Report at c_bands before calling an iterative solver
            89 MiB given to the printing process from OS
            59 MiB allocation reported by mallinfo(arena+hblkhd)
        105891 MiB available memory on the node where the printing process lives
------------------
     ethr =  2.26E-08,  avg # of iterations =  2.0

     total cpu time spent up to now is      145.5 secs

     total energy              =    -723.23008661 Ry
     estimated scf accuracy    <       0.00001236 Ry

     iteration # 23     ecut=    50.00 Ry     beta= 0.30
     Davidson diagonalization with overlap

---- Real-time Memory Report at c_bands before calling an iterative solver
            89 MiB given to the printing process from OS
            59 MiB allocation reported by mallinfo(arena+hblkhd)
        105891 MiB available memory on the node where the printing process lives
------------------
     ethr =  1.72E-08,  avg # of iterations =  3.8

     total cpu time spent up to now is      151.7 secs

     total energy              =    -723.23008628 Ry
     estimated scf accuracy    <       0.00000355 Ry

     iteration # 24     ecut=    50.00 Ry     beta= 0.30
     Davidson diagonalization with overlap

---- Real-time Memory Report at c_bands before calling an iterative solver
            89 MiB given to the printing process from OS
            59 MiB allocation reported by mallinfo(arena+hblkhd)
        105891 MiB available memory on the node where the printing process lives
------------------
     ethr =  4.93E-09,  avg # of iterations =  8.4

     total cpu time spent up to now is      164.3 secs

     total energy              =    -723.23008796 Ry
     estimated scf accuracy    <       0.00001485 Ry

     iteration # 25     ecut=    50.00 Ry     beta= 0.30
     Davidson diagonalization with overlap

---- Real-time Memory Report at c_bands before calling an iterative solver
            89 MiB given to the printing process from OS
            59 MiB allocation reported by mallinfo(arena+hblkhd)
        105891 MiB available memory on the node where the printing process lives
------------------
     ethr =  4.93E-09,  avg # of iterations =  4.2

     total cpu time spent up to now is      171.4 secs

     total energy              =    -723.23008905 Ry
     estimated scf accuracy    <       0.00000154 Ry

     iteration # 26     ecut=    50.00 Ry     beta= 0.30
     Davidson diagonalization with overlap

---- Real-time Memory Report at c_bands before calling an iterative solver
            89 MiB given to the printing process from OS
            59 MiB allocation reported by mallinfo(arena+hblkhd)
        105891 MiB available memory on the node where the printing process lives
------------------
     ethr =  2.14E-09,  avg # of iterations =  4.6

     total cpu time spent up to now is      178.4 secs

     total energy              =    -723.23008938 Ry
     estimated scf accuracy    <       0.00000027 Ry

     iteration # 27     ecut=    50.00 Ry     beta= 0.30
     Davidson diagonalization with overlap

---- Real-time Memory Report at c_bands before calling an iterative solver
            89 MiB given to the printing process from OS
            59 MiB allocation reported by mallinfo(arena+hblkhd)
        105891 MiB available memory on the node where the printing process lives
------------------
     ethr =  3.82E-10,  avg # of iterations =  4.4

     total cpu time spent up to now is      186.4 secs

     total energy              =    -723.23008945 Ry
     estimated scf accuracy    <       0.00000011 Ry

     iteration # 28     ecut=    50.00 Ry     beta= 0.30
     Davidson diagonalization with overlap

---- Real-time Memory Report at c_bands before calling an iterative solver
            89 MiB given to the printing process from OS
            59 MiB allocation reported by mallinfo(arena+hblkhd)
        105891 MiB available memory on the node where the printing process lives
------------------
     ethr =  1.55E-10,  avg # of iterations =  2.5

     total cpu time spent up to now is      191.6 secs

     total energy              =    -723.23008943 Ry
     estimated scf accuracy    <       0.00000006 Ry

     iteration # 29     ecut=    50.00 Ry     beta= 0.30
     Davidson diagonalization with overlap

---- Real-time Memory Report at c_bands before calling an iterative solver
            89 MiB given to the printing process from OS
            59 MiB allocation reported by mallinfo(arena+hblkhd)
        105891 MiB available memory on the node where the printing process lives
------------------
     ethr =  8.96E-11,  avg # of iterations =  5.7

     total cpu time spent up to now is      200.2 secs

     total energy              =    -723.23008946 Ry
     estimated scf accuracy    <       0.00000001 Ry

     iteration # 30     ecut=    50.00 Ry     beta= 0.30
     Davidson diagonalization with overlap

---- Real-time Memory Report at c_bands before calling an iterative solver
            89 MiB given to the printing process from OS
            59 MiB allocation reported by mallinfo(arena+hblkhd)
        105891 MiB available memory on the node where the printing process lives
------------------
     ethr =  1.74E-11,  avg # of iterations =  2.8

     total cpu time spent up to now is      205.7 secs

     End of self-consistent calculation

          k = 0.0000 0.0000 0.0000 (  3921 PWs)   bands (ev):

   -11.1184 -10.6363 -10.1821 -10.0671   0.9167   1.0713   1.1422   1.2739
     1.2879   1.3606   1.3826   1.4117   1.7173   1.9504   2.0382   2.0974
     2.3416   2.3928   2.4130   2.4982   2.5959   2.6063   2.6964   2.7640
     2.9650   3.0377   3.4890   4.3453   4.8692   5.5341   5.9887   6.2875
     6.4816   6.7746   6.9811   7.0532

     occupation numbers 
     1.0000   1.0000   1.0000   1.0000   1.0000   1.0000   1.0000   1.0000
     1.0000   1.0000   1.0000   1.0000   1.0000   1.0000   1.0000   1.0000
     1.0000   1.0000   1.0000   1.0000   1.0000   1.0000   1.0000   1.0000
     1.0000   1.0000   1.0000   1.0000   1.0000   1.0000   1.0000   1.0000
     1.0000   1.0000   1.0000   1.0000

          k = 0.0000 0.0000 0.1948 (  3949 PWs)   bands (ev):

   -11.0838 -10.6599 -10.1894 -10.0732   0.8966   1.0217   1.1111   1.2506
     1.2811   1.3288   1.3594   1.4019   1.7329   1.9165   2.0080   2.0647
     2.3659   2.4030   2.4573   2.4973   2.5930   2.6024   2.6996   2.7594
     3.0500   3.1778   3.4597   4.5169   4.9523   5.5928   5.9179   6.1992
     6.3568   6.5145   6.9452   7.0113

     occupation numbers 
     1.0000   1.0000   1.0000   1.0000   1.0000   1.0000   1.0000   1.0000
     1.0000   1.0000   1.0000   1.0000   1.0000   1.0000   1.0000   1.0000
     1.0000   1.0000   1.0000   1.0000   1.0000   1.0000   1.0000   1.0000
     1.0000   1.0000   1.0000   1.0000   1.0000   1.0000   1.0000   1.0000
     1.0000   1.0000   1.0000   1.0000

          k = 0.0000 0.0000 0.3896 (  3939 PWs)   bands (ev):

   -10.9906 -10.7342 -10.1996 -10.0863   0.8411   0.9267   1.0736   1.2215
     1.2397   1.2860   1.3201   1.3889   1.7824   1.8708   1.9705   1.9816
     2.4119   2.4271   2.4918   2.5101   2.5882   2.5987   2.6926   2.7520
     3.0923   3.2812   3.8270   4.9111   5.1646   5.3971   5.6481   5.7444
     6.4725   6.5978   6.8438   6.9036

     occupation numbers 
     1.0000   1.0000   1.0000   1.0000   1.0000   1.0000   1.0000   1.0000
     1.0000   1.0000   1.0000   1.0000   1.0000   1.0000   1.0000   1.0000
     1.0000   1.0000   1.0000   1.0000   1.0000   1.0000   1.0000   1.0000
     1.0000   1.0000   1.0000   1.0000   1.0000   1.0000   1.0000   1.0000
     1.0000   1.0000   1.0000   1.0000

          k = 0.0000 0.0000-0.5844 (  3896 PWs)   bands (ev):

   -10.8920 -10.8247 -10.2024 -10.0937   0.8087   0.8816   1.0693   1.1919
     1.2213   1.2810   1.2973   1.3838   1.8323   1.8717   1.8983   1.9571
     2.4323   2.4721   2.4749   2.4904   2.5947   2.6195   2.6794   2.7492
     3.1260   3.2280   4.4612   4.6439   5.3175   5.3793   5.5075   5.5425
     6.5901   6.6755   6.7341   6.8187

     occupation numbers 
     1.0000   1.0000   1.0000   1.0000   1.0000   1.0000   1.0000   1.0000
     1.0000   1.0000   1.0000   1.0000   1.0000   1.0000   1.0000   1.0000
     1.0000   1.0000   1.0000   1.0000   1.0000   1.0000   1.0000   1.0000
     1.0000   1.0000   1.0000   1.0000   1.0000   1.0000   1.0000   1.0000
     1.0000   1.0000   1.0000   1.0000

          k = 0.0000 0.3849 0.0000 (  3923 PWs)   bands (ev):

   -10.9868 -10.5887 -10.1731 -10.0387   0.9535   1.1397   1.2319   1.2788
     1.3381   1.4044   1.4823   1.5022   1.7442   1.8487   2.0471   2.1542
     2.2959   2.3686   2.4112   2.4763   2.5784   2.6414   2.7327   2.8300
     2.9560   3.0765   3.7464   4.2026   4.5130   5.4501   5.5676   5.7308
     5.8873   6.0538   6.6439   6.8519

     occupation numbers 
     1.0000   1.0000   1.0000   1.0000   1.0000   1.0000   1.0000   1.0000
     1.0000   1.0000   1.0000   1.0000   1.0000   1.0000   1.0000   1.0000
     1.0000   1.0000   1.0000   1.0000   1.0000   1.0000   1.0000   1.0000
     1.0000   1.0000   1.0000   1.0000   1.0000   1.0000   1.0000   1.0000
     1.0000   1.0000   1.0000   1.0000

          k = 0.0000 0.3849 0.1948 (  3926 PWs)   bands (ev):

   -10.9575 -10.6039 -10.1817 -10.0450   0.9283   1.1121   1.2286   1.2731
     1.2975   1.3574   1.4469   1.4712   1.7123   1.8247   2.0277   2.1020
     2.3260   2.3842   2.4087   2.5056   2.5469   2.6042   2.7443   2.8907
     3.0348   3.2984   3.7229   4.2747   4.6574   5.4196   5.5380   5.7228
     5.8362   6.1062   6.5529   6.7993

     occupation numbers 
     1.0000   1.0000   1.0000   1.0000   1.0000   1.0000   1.0000   1.0000
     1.0000   1.0000   1.0000   1.0000   1.0000   1.0000   1.0000   1.0000
     1.0000   1.0000   1.0000   1.0000   1.0000   1.0000   1.0000   1.0000
     1.0000   1.0000   1.0000   1.0000   1.0000   1.0000   1.0000   1.0000
     1.0000   1.0000   1.0000   1.0000

          k = 0.0000 0.3849 0.3896 (  3920 PWs)   bands (ev):

   -10.8774 -10.6592 -10.1901 -10.0626   0.8858   1.0442   1.1336   1.1719
     1.2755   1.3542   1.4190   1.4535   1.7163   1.7661   1.9533   2.0044
     2.3952   2.4175   2.4461   2.5007   2.5371   2.6000   2.7388   2.8222
     3.2283   3.5950   3.8938   4.5473   4.9665   5.1494   5.3745   5.7363
     5.8622   6.2349   6.3107   6.6618

     occupation numbers 
     1.0000   1.0000   1.0000   1.0000   1.0000   1.0000   1.0000   1.0000
     1.0000   1.0000   1.0000   1.0000   1.0000   1.0000   1.0000   1.0000
     1.0000   1.0000   1.0000   1.0000   1.0000   1.0000   1.0000   1.0000
     1.0000   1.0000   1.0000   1.0000   1.0000   1.0000   1.0000   1.0000
     1.0000   1.0000   1.0000   1.0000

          k = 0.0000 0.3849-0.5844 (  3916 PWs)   bands (ev):

   -10.7931 -10.7335 -10.1885 -10.0751   0.8717   0.9914   1.0732   1.1323
     1.2774   1.3526   1.4073   1.4609   1.7256   1.7619   1.9150   1.9385
     2.4306   2.4546   2.4685   2.4887   2.5312   2.5941   2.7219   2.7943
     3.3691   3.4698   4.4910   4.6284   4.8496   4.9608   5.5007   5.6096
     5.9851   6.0551   6.3759   6.5308

     occupation numbers 
     1.0000   1.0000   1.0000   1.0000   1.0000   1.0000   1.0000   1.0000
     1.0000   1.0000   1.0000   1.0000   1.0000   1.0000   1.0000   1.0000
     1.0000   1.0000   1.0000   1.0000   1.0000   1.0000   1.0000   1.0000
     1.0000   1.0000   1.0000   1.0000   1.0000   1.0000   1.0000   1.0000
     1.0000   1.0000   1.0000   1.0000

          k = 0.0000 0.7698 0.0000 (  3929 PWs)   bands (ev):

   -10.7308 -10.4891 -10.1450  -9.9627   0.9058   1.0907   1.1892   1.2615
     1.4451   1.5408   1.6460   1.7067   1.8249   1.9843   2.0719   2.1204
     2.2981   2.3735   2.4269   2.5362   2.6171   2.6788   2.8375   2.9313
     2.9679   3.2273   3.6700   3.9021   4.2575   4.4597   4.7516   5.3594
     5.6324   5.8463   6.1963   6.4349

     occupation numbers 
     1.0000   1.0000   1.0000   1.0000   1.0000   1.0000   1.0000   1.0000
     1.0000   1.0000   1.0000   1.0000   1.0000   1.0000   1.0000   1.0000
     1.0000   1.0000   1.0000   1.0000   1.0000   1.0000   1.0000   1.0000
     1.0000   1.0000   1.0000   1.0000   1.0000   1.0000   1.0000   1.0000
     1.0000   1.0000   1.0000   1.0000

          k = 0.0000 0.7698 0.1948 (  3932 PWs)   bands (ev):

   -10.7121 -10.4973 -10.1439  -9.9715   0.8852   1.0765   1.1745   1.2028
     1.4194   1.5057   1.6533   1.6728   1.7977   1.9091   2.0015   2.1164
     2.3444   2.3746   2.4567   2.5347   2.5858   2.6662   2.7765   2.8693
     3.1066   3.4169   3.7006   3.9696   4.3444   4.5930   4.7549   5.4261
     5.6135   5.8567   6.1831   6.3661

     occupation numbers 
     1.0000   1.0000   1.0000   1.0000   1.0000   1.0000   1.0000   1.0000
     1.0000   1.0000   1.0000   1.0000   1.0000   1.0000   1.0000   1.0000
     1.0000   1.0000   1.0000   1.0000   1.0000   1.0000   1.0000   1.0000
     1.0000   1.0000   1.0000   1.0000   1.0000   1.0000   1.0000   1.0000
     1.0000   1.0000   1.0000   1.0000

          k = 0.0000 0.7698 0.3896 (  3937 PWs)   bands (ev):

   -10.6618 -10.5276 -10.1379  -9.9924   0.8546   1.0041   1.0704   1.1265
     1.4049   1.5249   1.6065   1.6284   1.7597   1.7990   1.9402   2.0372
     2.3943   2.4211   2.4858   2.5344   2.5936   2.6445   2.7369   2.8112
     3.2359   3.5922   3.7516   4.0516   4.6100   4.8669   5.0579   5.4090
     5.6430   5.8529   6.0135   6.1912

     occupation numbers 
     1.0000   1.0000   1.0000   1.0000   1.0000   1.0000   1.0000   1.0000
     1.0000   1.0000   1.0000   1.0000   1.0000   1.0000   1.0000   1.0000
     1.0000   1.0000   1.0000   1.0000   1.0000   1.0000   1.0000   1.0000
     1.0000   1.0000   1.0000   1.0000   1.0000   1.0000   1.0000   1.0000
     1.0000   1.0000   1.0000   1.0000

          k = 0.0000 0.7698-0.5844 (  3920 PWs)   bands (ev):

   -10.6124 -10.5675 -10.1318 -10.0054   0.8626   0.9183   1.0247   1.0854
     1.4518   1.5553   1.5606   1.5833   1.7335   1.7766   1.9268   1.9814
     2.4240   2.4723   2.5028   2.5151   2.5784   2.6289   2.7479   2.7685
     3.3597   3.5026   3.9234   3.9435   4.9048   4.9988   5.3159   5.5128
     5.6236   5.7226   5.8667   6.0176

     occupation numbers 
     1.0000   1.0000   1.0000   1.0000   1.0000   1.0000   1.0000   1.0000
     1.0000   1.0000   1.0000   1.0000   1.0000   1.0000   1.0000   1.0000
     1.0000   1.0000   1.0000   1.0000   1.0000   1.0000   1.0000   1.0000
     1.0000   1.0000   1.0000   1.0000   1.0000   1.0000   1.0000   1.0000
     1.0000   1.0000   1.0000   1.0000

          k = 0.0000-1.1547 0.0000 (  3908 PWs)   bands (ev):

   -10.6270 -10.4170 -10.1217  -9.9179   0.9288   1.0684   1.0945   1.1510
     1.4183   1.5415   1.7187   1.8135   1.9552   2.0395   2.1469   2.1767
     2.4394   2.4455   2.5178   2.5702   2.6014   2.7186   2.7231   2.8073
     3.1276   3.2245   3.3422   3.4699   4.0067   4.4604   4.9051   5.0279
     5.7065   5.8302   6.0510   6.2594

     occupation numbers 
     1.0000   1.0000   1.0000   1.0000   1.0000   1.0000   1.0000   1.0000
     1.0000   1.0000   1.0000   1.0000   1.0000   1.0000   1.0000   1.0000
     1.0000   1.0000   1.0000   1.0000   1.0000   1.0000   1.0000   1.0000
     1.0000   1.0000   1.0000   1.0000   1.0000   1.0000   1.0000   1.0000
     1.0000   1.0000   1.0000   1.0000

          k = 0.0000-1.1547 0.1948 (  3952 PWs)   bands (ev):

   -10.6126 -10.4294 -10.1130  -9.9244   0.9085   1.0202   1.0550   1.1018
     1.4243   1.5532   1.7031   1.7892   1.9388   2.0174   2.0766   2.1362
     2.4751   2.4922   2.5357   2.5662   2.6049   2.6991   2.7248   2.8029
     3.0934   3.1924   3.3056   3.4394   4.2780   4.6789   4.9968   5.1028
     5.7516   5.8672   5.9919   6.1829

     occupation numbers 
     1.0000   1.0000   1.0000   1.0000   1.0000   1.0000   1.0000   1.0000
     1.0000   1.0000   1.0000   1.0000   1.0000   1.0000   1.0000   1.0000
     1.0000   1.0000   1.0000   1.0000   1.0000   1.0000   1.0000   1.0000
     1.0000   1.0000   1.0000   1.0000   1.0000   1.0000   1.0000   1.0000
     1.0000   1.0000   1.0000   1.0000

          k = 0.0000-1.1547 0.3896 (  3968 PWs)   bands (ev):

   -10.5744 -10.4634 -10.0931  -9.9397   0.8696   0.9254   0.9683   1.0045
     1.4674   1.5903   1.6553   1.7292   1.8991   1.9421   2.0348   2.0822
     2.5105   2.5465   2.5532   2.5959   2.6170   2.6761   2.7238   2.7797
     3.0408   3.1744   3.2540   3.3738   4.8279   5.1559   5.2221   5.3062
     5.7294   5.8136   5.8960   5.9872

     occupation numbers 
     1.0000   1.0000   1.0000   1.0000   1.0000   1.0000   1.0000   1.0000
     1.0000   1.0000   1.0000   1.0000   1.0000   1.0000   1.0000   1.0000
     1.0000   1.0000   1.0000   1.0000   1.0000   1.0000   1.0000   1.0000
     1.0000   1.0000   1.0000   1.0000   1.0000   1.0000   1.0000   1.0000
     1.0000   1.0000   1.0000   1.0000

          k = 0.0000-1.1547-0.5844 (  3928 PWs)   bands (ev):

   -10.5381 -10.4976 -10.0813  -9.9491   0.8529   0.8794   0.9208   0.9572
     1.5326   1.5764   1.6530   1.6714   1.8700   1.9203   2.0279   2.0570
     2.5201   2.5384   2.5841   2.6215   2.6251   2.6867   2.7181   2.7513
     3.0226   3.1625   3.2525   3.3320   5.2336   5.3579   5.4988   5.5561
     5.5900   5.6505   5.7169   5.8408

     occupation numbers 
     1.0000   1.0000   1.0000   1.0000   1.0000   1.0000   1.0000   1.0000
     1.0000   1.0000   1.0000   1.0000   1.0000   1.0000   1.0000   1.0000
     1.0000   1.0000   1.0000   1.0000   1.0000   1.0000   1.0000   1.0000
     1.0000   1.0000   1.0000   1.0000   1.0000   1.0000   1.0000   1.0000
     1.0000   1.0000   1.0000   1.0000

          k = 0.1667 0.0962 0.0000 (  3931 PWs)   bands (ev):

   -11.0859 -10.6417 -10.2176 -10.0653   0.8726   1.0783   1.1523   1.2808
     1.3048   1.3655   1.4061   1.4276   1.7148   1.8850   2.0297   2.0629
     2.2953   2.3821   2.4213   2.4871   2.5852   2.6426   2.7483   2.8252
     2.8886   3.0851   3.6034   4.3284   4.9854   5.7102   6.0027   6.0445
     6.4010   6.5340   6.7592   6.9494

     occupation numbers 
     1.0000   1.0000   1.0000   1.0000   1.0000   1.0000   1.0000   1.0000
     1.0000   1.0000   1.0000   1.0000   1.0000   1.0000   1.0000   1.0000
     1.0000   1.0000   1.0000   1.0000   1.0000   1.0000   1.0000   1.0000
     1.0000   1.0000   1.0000   1.0000   1.0000   1.0000   1.0000   1.0000
     1.0000   1.0000   1.0000   1.0000

          k = 0.1667 0.0962 0.1948 (  3926 PWs)   bands (ev):

   -11.0530 -10.6584 -10.2279 -10.0733   0.8534   1.0333   1.1329   1.2388
     1.2990   1.3251   1.3762   1.4226   1.7281   1.8463   2.0080   2.0290
     2.3318   2.3918   2.4327   2.4902   2.5704   2.5811   2.7527   2.8211
     3.0510   3.2772   3.6262   4.4238   5.0611   5.7457   5.9696   6.0073
     6.1965   6.4255   6.7684   6.9188

     occupation numbers 
     1.0000   1.0000   1.0000   1.0000   1.0000   1.0000   1.0000   1.0000
     1.0000   1.0000   1.0000   1.0000   1.0000   1.0000   1.0000   1.0000
     1.0000   1.0000   1.0000   1.0000   1.0000   1.0000   1.0000   1.0000
     1.0000   1.0000   1.0000   1.0000   1.0000   1.0000   1.0000   1.0000
     1.0000   1.0000   1.0000   1.0000

          k = 0.1667 0.0962 0.3896 (  3932 PWs)   bands (ev):

   -10.9641 -10.7211 -10.2344 -10.0976   0.8120   0.9396   1.0631   1.1649
     1.2814   1.3013   1.3506   1.4150   1.7672   1.8036   1.9380   1.9437
     2.3966   2.4189   2.4769   2.4935   2.5347   2.5761   2.7382   2.7518
     3.2478   3.5361   3.8603   4.8090   5.2463   5.3754   5.7325   5.8169
     6.2454   6.5066   6.6538   6.8273

     occupation numbers 
     1.0000   1.0000   1.0000   1.0000   1.0000   1.0000   1.0000   1.0000
     1.0000   1.0000   1.0000   1.0000   1.0000   1.0000   1.0000   1.0000
     1.0000   1.0000   1.0000   1.0000   1.0000   1.0000   1.0000   1.0000
     1.0000   1.0000   1.0000   1.0000   1.0000   1.0000   1.0000   1.0000
     1.0000   1.0000   1.0000   1.0000

          k = 0.1667 0.0962-0.5844 (  3924 PWs)   bands (ev):

   -10.8700 -10.8054 -10.2279 -10.1161   0.7937   0.8766   1.0582   1.1216
     1.2559   1.3002   1.3525   1.4111   1.7833   1.8348   1.8726   1.8896
     2.4225   2.4525   2.4766   2.4826   2.5759   2.5843   2.6679   2.7434
     3.3687   3.4394   4.4811   4.6505   5.3032   5.4332   5.5235   5.6100
     6.3744   6.5148   6.6077   6.7341

     occupation numbers 
     1.0000   1.0000   1.0000   1.0000   1.0000   1.0000   1.0000   1.0000
     1.0000   1.0000   1.0000   1.0000   1.0000   1.0000   1.0000   1.0000
     1.0000   1.0000   1.0000   1.0000   1.0000   1.0000   1.0000   1.0000
     1.0000   1.0000   1.0000   1.0000   1.0000   1.0000   1.0000   1.0000
     1.0000   1.0000   1.0000   1.0000

          k = 0.1667 0.4811 0.0000 (  3928 PWs)   bands (ev):

   -10.9175 -10.6154 -10.2226 -10.0404   0.9069   1.0805   1.2071   1.2799
     1.3659   1.4050   1.5199   1.5479   1.7401   1.8049   1.9635   2.0794
     2.2613   2.3316   2.3978   2.4734   2.5661   2.6923   2.7925   2.8663
     2.8860   3.3480   3.9271   4.3545   4.7841   5.0218   5.3053   5.7825
     5.9837   6.0553   6.5431   6.6545

     occupation numbers 
     1.0000   1.0000   1.0000   1.0000   1.0000   1.0000   1.0000   1.0000
     1.0000   1.0000   1.0000   1.0000   1.0000   1.0000   1.0000   1.0000
     1.0000   1.0000   1.0000   1.0000   1.0000   1.0000   1.0000   1.0000
     1.0000   1.0000   1.0000   1.0000   1.0000   1.0000   1.0000   1.0000
     1.0000   1.0000   1.0000   1.0000

          k = 0.1667 0.4811 0.1948 (  3933 PWs)   bands (ev):

   -10.8918 -10.6187 -10.2322 -10.0537   0.8882   1.0435   1.1828   1.2957
     1.3272   1.3610   1.4734   1.5194   1.7148   1.7780   1.9445   2.0025
     2.2949   2.3516   2.4117   2.4803   2.5624   2.6451   2.7262   2.8319
     3.2384   3.4919   4.0310   4.4030   4.8235   5.0680   5.2340   5.7651
     5.9587   6.0759   6.4491   6.5998

     occupation numbers 
     1.0000   1.0000   1.0000   1.0000   1.0000   1.0000   1.0000   1.0000
     1.0000   1.0000   1.0000   1.0000   1.0000   1.0000   1.0000   1.0000
     1.0000   1.0000   1.0000   1.0000   1.0000   1.0000   1.0000   1.0000
     1.0000   1.0000   1.0000   1.0000   1.0000   1.0000   1.0000   1.0000
     1.0000   1.0000   1.0000   1.0000

          k = 0.1667 0.4811 0.3896 (  3916 PWs)   bands (ev):

   -10.8225 -10.6469 -10.2401 -10.0883   0.8514   0.9798   1.0847   1.1621
     1.3066   1.3704   1.4633   1.4948   1.6952   1.7346   1.8536   1.9170
     2.3707   2.3960   2.4524   2.4887   2.5506   2.5887   2.7173   2.7611
     3.6035   3.9159   4.0661   4.7238   4.8850   5.0490   5.3152   5.6457
     5.9186   6.0515   6.1735   6.4539

     occupation numbers 
     1.0000   1.0000   1.0000   1.0000   1.0000   1.0000   1.0000   1.0000
     1.0000   1.0000   1.0000   1.0000   1.0000   1.0000   1.0000   1.0000
     1.0000   1.0000   1.0000   1.0000   1.0000   1.0000   1.0000   1.0000
     1.0000   1.0000   1.0000   1.0000   1.0000   1.0000   1.0000   1.0000
     1.0000   1.0000   1.0000   1.0000

          k = 0.1667 0.4811-0.5844 (  3918 PWs)   bands (ev):

   -10.7526 -10.6992 -10.2340 -10.1128   0.8358   0.9463   1.0334   1.0784
     1.3073   1.4008   1.4410   1.5028   1.6869   1.7294   1.8296   1.8507
     2.4140   2.4408   2.4694   2.4839   2.5343   2.5806   2.6818   2.7369
     3.8033   3.8828   4.4514   4.5486   5.1057   5.1446   5.5158   5.5486
     5.7490   5.8404   6.1661   6.3194

     occupation numbers 
     1.0000   1.0000   1.0000   1.0000   1.0000   1.0000   1.0000   1.0000
     1.0000   1.0000   1.0000   1.0000   1.0000   1.0000   1.0000   1.0000
     1.0000   1.0000   1.0000   1.0000   1.0000   1.0000   1.0000   1.0000
     1.0000   1.0000   1.0000   1.0000   1.0000   1.0000   1.0000   1.0000
     1.0000   1.0000   1.0000   1.0000

          k = 0.1667 0.8660 0.0000 (  3930 PWs)   bands (ev):

   -10.7111 -10.4952 -10.1616  -9.9594   0.9269   1.0234   1.1109   1.2363
     1.4575   1.5175   1.6834   1.7336   1.8530   1.9186   2.0710   2.1231
     2.3008   2.3781   2.4573   2.5522   2.5793   2.6911   2.8327   2.8890
     3.0965   3.3358   3.5846   3.7023   4.4227   4.4535   4.9472   5.0649
     5.9362   6.0295   6.1242   6.2667

     occupation numbers 
     1.0000   1.0000   1.0000   1.0000   1.0000   1.0000   1.0000   1.0000
     1.0000   1.0000   1.0000   1.0000   1.0000   1.0000   1.0000   1.0000
     1.0000   1.0000   1.0000   1.0000   1.0000   1.0000   1.0000   1.0000
     1.0000   1.0000   1.0000   1.0000   1.0000   1.0000   1.0000   1.0000
     1.0000   1.0000   1.0000   1.0000

          k = 0.1667 0.8660 0.1948 (  3926 PWs)   bands (ev):

   -10.6935 -10.5018 -10.1588  -9.9704   0.9138   1.0016   1.0914   1.1670
     1.4343   1.5179   1.6495   1.7056   1.8326   1.8824   2.0311   2.0773
     2.3409   2.3810   2.4672   2.5470   2.5790   2.6833   2.7790   2.8153
     3.2011   3.4380   3.7092   3.8147   4.4534   4.5385   5.0356   5.1359
     5.9360   5.9895   6.1141   6.2062

     occupation numbers 
     1.0000   1.0000   1.0000   1.0000   1.0000   1.0000   1.0000   1.0000
     1.0000   1.0000   1.0000   1.0000   1.0000   1.0000   1.0000   1.0000
     1.0000   1.0000   1.0000   1.0000   1.0000   1.0000   1.0000   1.0000
     1.0000   1.0000   1.0000   1.0000   1.0000   1.0000   1.0000   1.0000
     1.0000   1.0000   1.0000   1.0000

          k = 0.1667 0.8660 0.3896 (  3930 PWs)   bands (ev):

   -10.6468 -10.5267 -10.1496  -9.9961   0.8836   0.9505   1.0017   1.0531
     1.4294   1.5323   1.5985   1.6499   1.7859   1.8367   1.9393   2.0155
     2.4002   2.4175   2.5004   2.5442   2.5798   2.6301   2.7193   2.7688
     3.3748   3.5699   3.7603   3.8563   4.7629   4.9577   5.2528   5.3185
     5.7810   5.8834   5.9694   6.0594

     occupation numbers 
     1.0000   1.0000   1.0000   1.0000   1.0000   1.0000   1.0000   1.0000
     1.0000   1.0000   1.0000   1.0000   1.0000   1.0000   1.0000   1.0000
     1.0000   1.0000   1.0000   1.0000   1.0000   1.0000   1.0000   1.0000
     1.0000   1.0000   1.0000   1.0000   1.0000   1.0000   1.0000   1.0000
     1.0000   1.0000   1.0000   1.0000

          k = 0.1667 0.8660-0.5844 (  3940 PWs)   bands (ev):

   -10.6031 -10.5597 -10.1421 -10.0117   0.8724   0.9137   0.9428   1.0031
     1.4726   1.5283   1.5705   1.6146   1.7703   1.8198   1.9142   1.9658
     2.4254   2.4742   2.5070   2.5257   2.5747   2.6131   2.7115   2.7331
     3.5351   3.6256   3.6965   3.7734   5.2107   5.2641   5.4276   5.5103
     5.5581   5.7294   5.7692   5.8713

     occupation numbers 
     1.0000   1.0000   1.0000   1.0000   1.0000   1.0000   1.0000   1.0000
     1.0000   1.0000   1.0000   1.0000   1.0000   1.0000   1.0000   1.0000
     1.0000   1.0000   1.0000   1.0000   1.0000   1.0000   1.0000   1.0000
     1.0000   1.0000   1.0000   1.0000   1.0000   1.0000   1.0000   1.0000
     1.0000   1.0000   1.0000   1.0000

          k = 0.1667-1.0585 0.0000 (  3932 PWs)   bands (ev):

   -10.6298 -10.4165 -10.1232  -9.9170   0.9602   1.0588   1.1643   1.2220
     1.4256   1.5352   1.7357   1.8066   1.9182   2.0224   2.0934   2.1533
     2.3921   2.4357   2.4824   2.5440   2.5948   2.7367   2.7894   2.8484
     3.1530   3.2662   3.4049   3.5367   4.0193   4.4453   4.8026   4.9235
     5.6420   5.7942   5.9623   6.1725

     occupation numbers 
     1.0000   1.0000   1.0000   1.0000   1.0000   1.0000   1.0000   1.0000
     1.0000   1.0000   1.0000   1.0000   1.0000   1.0000   1.0000   1.0000
     1.0000   1.0000   1.0000   1.0000   1.0000   1.0000   1.0000   1.0000
     1.0000   1.0000   1.0000   1.0000   1.0000   1.0000   1.0000   1.0000
     1.0000   1.0000   1.0000   1.0000

          k = 0.1667-1.0585 0.1948 (  3936 PWs)   bands (ev):

   -10.6152 -10.4290 -10.1142  -9.9237   0.9434   1.0385   1.1107   1.1510
     1.4403   1.5377   1.7247   1.7777   1.9037   1.9727   2.0363   2.1129
     2.4241   2.4615   2.5105   2.5635   2.6142   2.7324   2.7649   2.8491
     3.0969   3.2014   3.4514   3.5157   4.2534   4.6577   4.9051   5.0025
     5.6382   5.8066   5.9356   6.1175

     occupation numbers 
     1.0000   1.0000   1.0000   1.0000   1.0000   1.0000   1.0000   1.0000
     1.0000   1.0000   1.0000   1.0000   1.0000   1.0000   1.0000   1.0000
     1.0000   1.0000   1.0000   1.0000   1.0000   1.0000   1.0000   1.0000
     1.0000   1.0000   1.0000   1.0000   1.0000   1.0000   1.0000   1.0000
     1.0000   1.0000   1.0000   1.0000

          k = 0.1667-1.0585 0.3896 (  3948 PWs)   bands (ev):

   -10.5765 -10.4636 -10.0935  -9.9399   0.9061   0.9701   1.0147   1.0405
     1.4703   1.5640   1.6640   1.7256   1.8481   1.9081   1.9941   2.0546
     2.4625   2.5004   2.5523   2.5676   2.6587   2.7140   2.7398   2.8259
     3.0824   3.2064   3.3832   3.4685   4.7762   5.0250   5.1565   5.2891
     5.5409   5.7291   5.8432   5.9958

     occupation numbers 
     1.0000   1.0000   1.0000   1.0000   1.0000   1.0000   1.0000   1.0000
     1.0000   1.0000   1.0000   1.0000   1.0000   1.0000   1.0000   1.0000
     1.0000   1.0000   1.0000   1.0000   1.0000   1.0000   1.0000   1.0000
     1.0000   1.0000   1.0000   1.0000   1.0000   1.0000   1.0000   1.0000
     1.0000   1.0000   1.0000   1.0000

          k = 0.1667-1.0585-0.5844 (  3952 PWs)   bands (ev):

   -10.5395 -10.4986 -10.0810  -9.9500   0.8802   0.9347   0.9584   1.0040
     1.5141   1.5634   1.6438   1.6695   1.8287   1.8904   1.9807   2.0227
     2.4934   2.5373   2.5466   2.5587   2.6499   2.7173   2.7491   2.7983
     3.1054   3.2594   3.3390   3.4039   5.1352   5.2373   5.3277   5.4033
     5.5706   5.6432   5.7180   5.8082

     occupation numbers 
     1.0000   1.0000   1.0000   1.0000   1.0000   1.0000   1.0000   1.0000
     1.0000   1.0000   1.0000   1.0000   1.0000   1.0000   1.0000   1.0000
     1.0000   1.0000   1.0000   1.0000   1.0000   1.0000   1.0000   1.0000
     1.0000   1.0000   1.0000   1.0000   1.0000   1.0000   1.0000   1.0000
     1.0000   1.0000   1.0000   1.0000

          k = 0.1667-0.6736 0.0000 (  3936 PWs)   bands (ev):

   -10.7651 -10.4774 -10.1207  -9.9651   0.9640   1.1157   1.2406   1.3609
     1.4560   1.5869   1.6397   1.6867   1.8061   2.0095   2.0748   2.1987
     2.3060   2.3549   2.3821   2.5077   2.5888   2.6640   2.7556   2.8921
     3.0256   3.2101   3.5449   3.7467   4.2961   4.7226   4.9124   5.2347
     5.3919   5.5370   6.2930   6.4380

     occupation numbers 
     1.0000   1.0000   1.0000   1.0000   1.0000   1.0000   1.0000   1.0000
     1.0000   1.0000   1.0000   1.0000   1.0000   1.0000   1.0000   1.0000
     1.0000   1.0000   1.0000   1.0000   1.0000   1.0000   1.0000   1.0000
     1.0000   1.0000   1.0000   1.0000   1.0000   1.0000   1.0000   1.0000
     1.0000   1.0000   1.0000   1.0000

          k = 0.1667-0.6736 0.1948 (  3934 PWs)   bands (ev):

   -10.7424 -10.4922 -10.1193  -9.9720   0.9595   1.0887   1.1765   1.3412
     1.4524   1.5524   1.6232   1.6679   1.7639   1.9115   2.0308   2.1111
     2.3182   2.3812   2.4196   2.5267   2.6063   2.6865   2.7311   2.8496
     3.1479   3.4199   3.5360   3.8280   4.3662   4.8111   4.9528   5.1700
     5.4693   5.5741   6.2132   6.3887

     occupation numbers 
     1.0000   1.0000   1.0000   1.0000   1.0000   1.0000   1.0000   1.0000
     1.0000   1.0000   1.0000   1.0000   1.0000   1.0000   1.0000   1.0000
     1.0000   1.0000   1.0000   1.0000   1.0000   1.0000   1.0000   1.0000
     1.0000   1.0000   1.0000   1.0000   1.0000   1.0000   1.0000   1.0000
     1.0000   1.0000   1.0000   1.0000

          k = 0.1667-0.6736 0.3896 (  3928 PWs)   bands (ev):

   -10.6842 -10.5348 -10.1160  -9.9859   0.9344   0.9855   1.1573   1.2822
     1.4096   1.5010   1.5672   1.6217   1.6947   1.7752   1.9969   2.0483
     2.3775   2.4277   2.4607   2.5323   2.5842   2.6278   2.7747   2.9054
     3.1873   3.4269   3.8739   4.0657   4.4262   4.8364   5.0080   5.3530
     5.6233   5.6751   5.9925   6.2165

     occupation numbers 
     1.0000   1.0000   1.0000   1.0000   1.0000   1.0000   1.0000   1.0000
     1.0000   1.0000   1.0000   1.0000   1.0000   1.0000   1.0000   1.0000
     1.0000   1.0000   1.0000   1.0000   1.0000   1.0000   1.0000   1.0000
     1.0000   1.0000   1.0000   1.0000   1.0000   1.0000   1.0000   1.0000
     1.0000   1.0000   1.0000   1.0000

          k = 0.1667-0.6736-0.5844 (  3926 PWs)   bands (ev):

   -10.6297 -10.5818 -10.1140  -9.9928   0.8887   0.9676   1.1659   1.2302
     1.3920   1.4729   1.5540   1.5812   1.6827   1.7149   1.9943   2.0317
     2.4062   2.4463   2.4996   2.5101   2.5687   2.6054   2.8372   2.8803
     3.2194   3.3767   4.1368   4.1674   4.4660   4.5670   5.3482   5.5256
     5.6088   5.7388   5.8882   6.0192

     occupation numbers 
     1.0000   1.0000   1.0000   1.0000   1.0000   1.0000   1.0000   1.0000
     1.0000   1.0000   1.0000   1.0000   1.0000   1.0000   1.0000   1.0000
     1.0000   1.0000   1.0000   1.0000   1.0000   1.0000   1.0000   1.0000
     1.0000   1.0000   1.0000   1.0000   1.0000   1.0000   1.0000   1.0000
     1.0000   1.0000   1.0000   1.0000

          k = 0.1667-0.2887 0.0000 (  3935 PWs)   bands (ev):

   -11.0149 -10.5822 -10.1455 -10.0405   0.9994   1.1497   1.1879   1.2781
     1.3495   1.3992   1.4870   1.5226   1.7482   1.8750   2.0988   2.1606
     2.3331   2.3738   2.3940   2.4915   2.5638   2.6003   2.7009   2.7784
     2.9701   3.0992   3.5734   3.9958   4.7582   5.3091   5.6105   5.8191
     5.9229   6.1372   6.6798   6.8671

     occupation numbers 
     1.0000   1.0000   1.0000   1.0000   1.0000   1.0000   1.0000   1.0000
     1.0000   1.0000   1.0000   1.0000   1.0000   1.0000   1.0000   1.0000
     1.0000   1.0000   1.0000   1.0000   1.0000   1.0000   1.0000   1.0000
     1.0000   1.0000   1.0000   1.0000   1.0000   1.0000   1.0000   1.0000
     1.0000   1.0000   1.0000   1.0000

          k = 0.1667-0.2887 0.1948 (  3934 PWs)   bands (ev):

   -10.9830 -10.6036 -10.1532 -10.0441   0.9927   1.0974   1.1836   1.2109
     1.3298   1.3823   1.4522   1.5032   1.7372   1.8595   2.0622   2.0971
     2.3644   2.3939   2.4301   2.5000   2.5614   2.5854   2.6921   2.7904
     3.1042   3.2390   3.5284   4.1520   4.8733   5.3021   5.6288   5.7577
     5.8742   6.1227   6.5937   6.8189

     occupation numbers 
     1.0000   1.0000   1.0000   1.0000   1.0000   1.0000   1.0000   1.0000
     1.0000   1.0000   1.0000   1.0000   1.0000   1.0000   1.0000   1.0000
     1.0000   1.0000   1.0000   1.0000   1.0000   1.0000   1.0000   1.0000
     1.0000   1.0000   1.0000   1.0000   1.0000   1.0000   1.0000   1.0000
     1.0000   1.0000   1.0000   1.0000

          k = 0.1667-0.2887 0.3896 (  3926 PWs)   bands (ev):

   -10.8982 -10.6699 -10.1647 -10.0526   0.9341   1.0459   1.1171   1.1624
     1.2785   1.3373   1.4097   1.4693   1.7267   1.8257   1.9833   2.0546
     2.4083   2.4297   2.4741   2.5025   2.5304   2.5751   2.7363   2.8231
     3.1324   3.3265   3.9030   4.4648   5.0779   5.1327   5.3876   5.6698
     5.9935   6.2174   6.4415   6.6802

     occupation numbers 
     1.0000   1.0000   1.0000   1.0000   1.0000   1.0000   1.0000   1.0000
     1.0000   1.0000   1.0000   1.0000   1.0000   1.0000   1.0000   1.0000
     1.0000   1.0000   1.0000   1.0000   1.0000   1.0000   1.0000   1.0000
     1.0000   1.0000   1.0000   1.0000   1.0000   1.0000   1.0000   1.0000
     1.0000   1.0000   1.0000   1.0000

          k = 0.1667-0.2887-0.5844 (  3928 PWs)   bands (ev):

   -10.8110 -10.7491 -10.1685 -10.0574   0.8970   1.0073   1.0976   1.1551
     1.2593   1.3135   1.3930   1.4507   1.7334   1.7890   1.9577   2.0465
     2.4382   2.4508   2.4748   2.4887   2.5117   2.5828   2.7745   2.8389
     3.1561   3.2590   4.4893   4.6090   4.7806   4.8873   5.5004   5.6209
     6.1584   6.2108   6.4133   6.5400

     occupation numbers 
     1.0000   1.0000   1.0000   1.0000   1.0000   1.0000   1.0000   1.0000
     1.0000   1.0000   1.0000   1.0000   1.0000   1.0000   1.0000   1.0000
     1.0000   1.0000   1.0000   1.0000   1.0000   1.0000   1.0000   1.0000
     1.0000   1.0000   1.0000   1.0000   1.0000   1.0000   1.0000   1.0000
     1.0000   1.0000   1.0000   1.0000

          k = 0.3333 0.1925 0.0000 (  3934 PWs)   bands (ev):

   -11.0043 -10.6742 -10.2698 -10.0752   0.8210   1.0356   1.1968   1.3139
     1.3345   1.3801   1.4537   1.4841   1.7148   1.7783   1.9223   2.0238
     2.2332   2.3657   2.3972   2.4524   2.5633   2.7299   2.7468   2.8186
     2.8830   3.3146   3.7323   4.6583   5.2424   5.3354   5.8711   6.0122
     6.1075   6.3416   6.6423   6.7990

     occupation numbers 
     1.0000   1.0000   1.0000   1.0000   1.0000   1.0000   1.0000   1.0000
     1.0000   1.0000   1.0000   1.0000   1.0000   1.0000   1.0000   1.0000
     1.0000   1.0000   1.0000   1.0000   1.0000   1.0000   1.0000   1.0000
     1.0000   1.0000   1.0000   1.0000   1.0000   1.0000   1.0000   1.0000
     1.0000   1.0000   1.0000   1.0000

          k = 0.3333 0.1925 0.1948 (  3926 PWs)   bands (ev):

   -10.9754 -10.6757 -10.2837 -10.0909   0.8106   0.9944   1.1732   1.2143
     1.3383   1.3550   1.4356   1.4862   1.7159   1.7473   1.9009   1.9494
     2.2780   2.3754   2.3993   2.4575   2.5586   2.6219   2.7399   2.8077
     3.2320   3.4870   3.8567   4.6140   5.3045   5.3585   5.7298   6.0384
     6.1148   6.3010   6.5141   6.7655

     occupation numbers 
     1.0000   1.0000   1.0000   1.0000   1.0000   1.0000   1.0000   1.0000
     1.0000   1.0000   1.0000   1.0000   1.0000   1.0000   1.0000   1.0000
     1.0000   1.0000   1.0000   1.0000   1.0000   1.0000   1.0000   1.0000
     1.0000   1.0000   1.0000   1.0000   1.0000   1.0000   1.0000   1.0000
     1.0000   1.0000   1.0000   1.0000

          k = 0.3333 0.1925 0.3896 (  3921 PWs)   bands (ev):

   -10.8982 -10.7040 -10.2949 -10.1331   0.7830   0.9205   1.0521   1.1037
     1.3221   1.3526   1.4294   1.4848   1.6889   1.7460   1.8263   1.8494
     2.3646   2.3967   2.4482   2.4661   2.5493   2.5519   2.7270   2.7388
     3.6692   3.8904   4.0618   4.7565   5.1575   5.4922   5.6097   5.9613
     5.9956   6.2472   6.3211   6.6595

     occupation numbers 
     1.0000   1.0000   1.0000   1.0000   1.0000   1.0000   1.0000   1.0000
     1.0000   1.0000   1.0000   1.0000   1.0000   1.0000   1.0000   1.0000
     1.0000   1.0000   1.0000   1.0000   1.0000   1.0000   1.0000   1.0000
     1.0000   1.0000   1.0000   1.0000   1.0000   1.0000   1.0000   1.0000
     1.0000   1.0000   1.0000   1.0000

          k = 0.3333 0.1925-0.5844 (  3904 PWs)   bands (ev):

   -10.8199 -10.7625 -10.2851 -10.1650   0.7675   0.8715   1.0290   1.0404
     1.3078   1.3522   1.4382   1.4835   1.6792   1.7631   1.7776   1.8057
     2.4041   2.4287   2.4629   2.4793   2.5344   2.5490   2.6670   2.7273
     3.8716   3.9187   4.5110   4.6360   5.2645   5.3923   5.6804   5.8134
     5.9152   6.0668   6.4145   6.5430

     occupation numbers 
     1.0000   1.0000   1.0000   1.0000   1.0000   1.0000   1.0000   1.0000
     1.0000   1.0000   1.0000   1.0000   1.0000   1.0000   1.0000   1.0000
     1.0000   1.0000   1.0000   1.0000   1.0000   1.0000   1.0000   1.0000
     1.0000   1.0000   1.0000   1.0000   1.0000   1.0000   1.0000   1.0000
     1.0000   1.0000   1.0000   1.0000

          k = 0.3333 0.5774 0.0000 (  3934 PWs)   bands (ev):

   -10.8696 -10.6428 -10.2448 -10.0429   0.8947   1.0329   1.1826   1.2939
     1.3756   1.4542   1.5176   1.5658   1.7379   1.7900   1.9019   2.0613
     2.2567   2.3069   2.3975   2.4611   2.5595   2.6961   2.8129   2.8646
     2.9514   3.3156   4.2712   4.5639   4.6672   4.8170   5.3664   5.4291
     6.2062   6.2711   6.3580   6.4363

     occupation numbers 
     1.0000   1.0000   1.0000   1.0000   1.0000   1.0000   1.0000   1.0000
     1.0000   1.0000   1.0000   1.0000   1.0000   1.0000   1.0000   1.0000
     1.0000   1.0000   1.0000   1.0000   1.0000   1.0000   1.0000   1.0000
     1.0000   1.0000   1.0000   1.0000   1.0000   1.0000   1.0000   1.0000
     1.0000   1.0000   1.0000   1.0000

          k = 0.3333 0.5774 0.1948 (  3934 PWs)   bands (ev):

   -10.8463 -10.6404 -10.2527 -10.0614   0.8868   0.9930   1.1546   1.2707
     1.3353   1.4115   1.4910   1.5492   1.7226   1.7705   1.8891   1.9579
     2.2882   2.3310   2.4139   2.4684   2.5540   2.6683   2.7356   2.7941
     3.3030   3.5538   4.3878   4.5934   4.7131   4.7689   5.3719   5.4334
     6.1783   6.2154   6.2837   6.3838

     occupation numbers 
     1.0000   1.0000   1.0000   1.0000   1.0000   1.0000   1.0000   1.0000
     1.0000   1.0000   1.0000   1.0000   1.0000   1.0000   1.0000   1.0000
     1.0000   1.0000   1.0000   1.0000   1.0000   1.0000   1.0000   1.0000
     1.0000   1.0000   1.0000   1.0000   1.0000   1.0000   1.0000   1.0000
     1.0000   1.0000   1.0000   1.0000

          k = 0.3333 0.5774 0.3896 (  3904 PWs)   bands (ev):

   -10.7850 -10.6495 -10.2623 -10.1052   0.8544   0.9316   1.0550   1.1474
     1.3093   1.3832   1.4861   1.5412   1.6907   1.7380   1.8139   1.8627
     2.3608   2.3840   2.4509   2.4895   2.5413   2.5805   2.7150   2.7351
     3.8047   3.9583   4.4933   4.5534   4.8042   4.9832   5.4522   5.5274
     6.0001   6.0404   6.0819   6.1824

     occupation numbers 
     1.0000   1.0000   1.0000   1.0000   1.0000   1.0000   1.0000   1.0000
     1.0000   1.0000   1.0000   1.0000   1.0000   1.0000   1.0000   1.0000
     1.0000   1.0000   1.0000   1.0000   1.0000   1.0000   1.0000   1.0000
     1.0000   1.0000   1.0000   1.0000   1.0000   1.0000   1.0000   1.0000
     1.0000   1.0000   1.0000   1.0000

          k = 0.3333 0.5774-0.5844 (  3924 PWs)   bands (ev):

   -10.7292 -10.6799 -10.2605 -10.1332   0.8239   0.9180   1.0184   1.0465
     1.3137   1.4014   1.4685   1.5479   1.6785   1.7247   1.7826   1.8185
     2.4046   2.4302   2.4661   2.4877   2.5318   2.5496   2.6856   2.7138
     4.1315   4.2154   4.3054   4.3949   5.1745   5.3057   5.4913   5.5867
     5.7094   5.8601   5.9503   6.0353

     occupation numbers 
     1.0000   1.0000   1.0000   1.0000   1.0000   1.0000   1.0000   1.0000
     1.0000   1.0000   1.0000   1.0000   1.0000   1.0000   1.0000   1.0000
     1.0000   1.0000   1.0000   1.0000   1.0000   1.0000   1.0000   1.0000
     1.0000   1.0000   1.0000   1.0000   1.0000   1.0000   1.0000   1.0000
     1.0000   1.0000   1.0000   1.0000

          k = 0.3333-0.9623 0.0000 (  3918 PWs)   bands (ev):

   -10.6353 -10.4155 -10.1259  -9.9152   1.0525   1.0913   1.2472   1.3409
     1.4544   1.5668   1.7249   1.7779   1.8500   1.9270   2.0851   2.1419
     2.3032   2.3841   2.4453   2.4572   2.6061   2.7595   2.8828   2.9238
     3.1807   3.3549   3.6015   3.7627   4.0065   4.3523   4.5787   4.6480
     5.5153   5.7087   5.8411   6.0082

     occupation numbers 
     1.0000   1.0000   1.0000   1.0000   1.0000   1.0000   1.0000   1.0000
     1.0000   1.0000   1.0000   1.0000   1.0000   1.0000   1.0000   1.0000
     1.0000   1.0000   1.0000   1.0000   1.0000   1.0000   1.0000   1.0000
     1.0000   1.0000   1.0000   1.0000   1.0000   1.0000   1.0000   1.0000
     1.0000   1.0000   1.0000   1.0000

          k = 0.3333-0.9623 0.1948 (  3932 PWs)   bands (ev):

   -10.6203 -10.4285 -10.1164  -9.9227   1.0407   1.0884   1.1834   1.2743
     1.4647   1.5451   1.7114   1.7444   1.8129   1.9137   1.9925   2.0673
     2.3400   2.4013   2.4841   2.5222   2.6179   2.7593   2.8573   2.9063
     3.1869   3.3040   3.6784   3.7656   4.1607   4.4761   4.6730   4.8120
     5.4640   5.7151   5.7844   6.0220

     occupation numbers 
     1.0000   1.0000   1.0000   1.0000   1.0000   1.0000   1.0000   1.0000
     1.0000   1.0000   1.0000   1.0000   1.0000   1.0000   1.0000   1.0000
     1.0000   1.0000   1.0000   1.0000   1.0000   1.0000   1.0000   1.0000
     1.0000   1.0000   1.0000   1.0000   1.0000   1.0000   1.0000   1.0000
     1.0000   1.0000   1.0000   1.0000

          k = 0.3333-0.9623 0.3896 (  3936 PWs)   bands (ev):

   -10.5805 -10.4644 -10.0941  -9.9405   0.9972   1.0482   1.1022   1.1639
     1.4597   1.5315   1.6517   1.7044   1.7402   1.8714   1.8963   1.9720
     2.4145   2.4644   2.5324   2.5464   2.6542   2.7575   2.7946   2.8726
     3.2519   3.3638   3.6401   3.6619   4.5382   4.7580   4.9624   5.1390
     5.3696   5.5506   5.7634   5.9841

     occupation numbers 
     1.0000   1.0000   1.0000   1.0000   1.0000   1.0000   1.0000   1.0000
     1.0000   1.0000   1.0000   1.0000   1.0000   1.0000   1.0000   1.0000
     1.0000   1.0000   1.0000   1.0000   1.0000   1.0000   1.0000   1.0000
     1.0000   1.0000   1.0000   1.0000   1.0000   1.0000   1.0000   1.0000
     1.0000   1.0000   1.0000   1.0000

          k = 0.3333-0.9623-0.5844 (  3932 PWs)   bands (ev):

   -10.5424 -10.5005 -10.0805  -9.9519   0.9479   1.0425   1.0703   1.1095
     1.4698   1.5354   1.6173   1.6575   1.7343   1.8167   1.8925   1.9339
     2.4774   2.5016   2.5191   2.5441   2.6820   2.7469   2.7600   2.8591
     3.3159   3.4669   3.5464   3.5858   4.7790   4.9589   5.0210   5.1831
     5.4612   5.5680   5.7508   5.8028

     occupation numbers 
     1.0000   1.0000   1.0000   1.0000   1.0000   1.0000   1.0000   1.0000
     1.0000   1.0000   1.0000   1.0000   1.0000   1.0000   1.0000   1.0000
     1.0000   1.0000   1.0000   1.0000   1.0000   1.0000   1.0000   1.0000
     1.0000   1.0000   1.0000   1.0000   1.0000   1.0000   1.0000   1.0000
     1.0000   1.0000   1.0000   1.0000

          k = 0.3333-0.5774 0.0000 (  3938 PWs)   bands (ev):

   -10.7804 -10.4714 -10.1135  -9.9634   1.0623   1.0924   1.2104   1.3673
     1.4347   1.6271   1.6641   1.7453   1.8112   1.9847   2.1978   2.2514
     2.3159   2.3521   2.3727   2.4029   2.5284   2.6322   2.7138   2.8850
     3.0486   3.2822   3.4291   3.5183   4.6642   4.7501   5.0403   5.1179
     5.1909   5.4169   6.3174   6.3788

     occupation numbers 
     1.0000   1.0000   1.0000   1.0000   1.0000   1.0000   1.0000   1.0000
     1.0000   1.0000   1.0000   1.0000   1.0000   1.0000   1.0000   1.0000
     1.0000   1.0000   1.0000   1.0000   1.0000   1.0000   1.0000   1.0000
     1.0000   1.0000   1.0000   1.0000   1.0000   1.0000   1.0000   1.0000
     1.0000   1.0000   1.0000   1.0000

          k = 0.3333-0.5774 0.1948 (  3950 PWs)   bands (ev):

   -10.7569 -10.4880 -10.1129  -9.9686   1.0269   1.1032   1.1767   1.3344
     1.4331   1.5904   1.6231   1.7037   1.7547   1.8800   2.1067   2.1857
     2.3358   2.3627   2.4048   2.5091   2.5436   2.6551   2.7400   2.8053
     3.2683   3.3593   3.4747   3.5918   4.6983   4.7600   4.9930   5.1894
     5.3103   5.4497   6.2413   6.3209

     occupation numbers 
     1.0000   1.0000   1.0000   1.0000   1.0000   1.0000   1.0000   1.0000
     1.0000   1.0000   1.0000   1.0000   1.0000   1.0000   1.0000   1.0000
     1.0000   1.0000   1.0000   1.0000   1.0000   1.0000   1.0000   1.0000
     1.0000   1.0000   1.0000   1.0000   1.0000   1.0000   1.0000   1.0000
     1.0000   1.0000   1.0000   1.0000

          k = 0.3333-0.5774 0.3896 (  3920 PWs)   bands (ev):

   -10.6962 -10.5358 -10.1094  -9.9801   0.9518   1.0508   1.2086   1.2913
     1.3754   1.5220   1.5476   1.6107   1.6802   1.7435   2.0487   2.1279
     2.3650   2.3994   2.4467   2.5241   2.5695   2.6250   2.8159   2.9178
     3.2178   3.3366   3.8066   3.9652   4.5755   4.6878   5.0720   5.4407
     5.4980   5.6047   6.0384   6.1324

     occupation numbers 
     1.0000   1.0000   1.0000   1.0000   1.0000   1.0000   1.0000   1.0000
     1.0000   1.0000   1.0000   1.0000   1.0000   1.0000   1.0000   1.0000
     1.0000   1.0000   1.0000   1.0000   1.0000   1.0000   1.0000   1.0000
     1.0000   1.0000   1.0000   1.0000   1.0000   1.0000   1.0000   1.0000
     1.0000   1.0000   1.0000   1.0000

          k = 0.3333-0.5774-0.5844 (  3912 PWs)   bands (ev):

   -10.6376 -10.5884 -10.1063  -9.9866   0.9121   1.0137   1.2508   1.2842
     1.3482   1.4423   1.5172   1.5748   1.6436   1.7053   2.0379   2.1126
     2.3821   2.4015   2.4982   2.5144   2.5559   2.6015   2.8915   2.9709
     3.1489   3.3206   4.0753   4.2160   4.3999   4.4617   5.3798   5.5255
     5.6124   5.7424   5.8467   5.9471

     occupation numbers 
     1.0000   1.0000   1.0000   1.0000   1.0000   1.0000   1.0000   1.0000
     1.0000   1.0000   1.0000   1.0000   1.0000   1.0000   1.0000   1.0000
     1.0000   1.0000   1.0000   1.0000   1.0000   1.0000   1.0000   1.0000
     1.0000   1.0000   1.0000   1.0000   1.0000   1.0000   1.0000   1.0000
     1.0000   1.0000   1.0000   1.0000

          k =-0.5000-0.2887 0.0000 (  3948 PWs)   bands (ev):

   -10.9449 -10.7132 -10.2871 -10.0847   0.8095   0.9978   1.2274   1.3168
     1.3595   1.3960   1.4922   1.5195   1.7066   1.7714   1.8126   1.9768
     2.2321   2.3589   2.3702   2.4296   2.5576   2.7320   2.7971   2.8520
     2.8770   3.2055   4.2872   4.6226   5.1771   5.3008   5.5742   5.8128
     6.2865   6.4434   6.5409   6.6486

     occupation numbers 
     1.0000   1.0000   1.0000   1.0000   1.0000   1.0000   1.0000   1.0000
     1.0000   1.0000   1.0000   1.0000   1.0000   1.0000   1.0000   1.0000
     1.0000   1.0000   1.0000   1.0000   1.0000   1.0000   1.0000   1.0000
     1.0000   1.0000   1.0000   1.0000   1.0000   1.0000   1.0000   1.0000
     1.0000   1.0000   1.0000   1.0000

          k =-0.5000-0.2887 0.1948 (  3940 PWs)   bands (ev):

   -10.9188 -10.7070 -10.3001 -10.1064   0.8030   0.9599   1.1795   1.2088
     1.3607   1.3870   1.4922   1.5276   1.6880   1.7641   1.7907   1.8656
     2.2733   2.3675   2.3901   2.4342   2.5541   2.6559   2.7356   2.7844
     3.2872   3.4790   4.3718   4.6683   5.1117   5.2041   5.6273   5.8536
     6.2405   6.3558   6.4595   6.6028

     occupation numbers 
     1.0000   1.0000   1.0000   1.0000   1.0000   1.0000   1.0000   1.0000
     1.0000   1.0000   1.0000   1.0000   1.0000   1.0000   1.0000   1.0000
     1.0000   1.0000   1.0000   1.0000   1.0000   1.0000   1.0000   1.0000
     1.0000   1.0000   1.0000   1.0000   1.0000   1.0000   1.0000   1.0000
     1.0000   1.0000   1.0000   1.0000

          k =-0.5000-0.2887 0.3896 (  3912 PWs)   bands (ev):

   -10.8512 -10.7091 -10.3183 -10.1582   0.7782   0.8968   1.0336   1.0977
     1.3437   1.3851   1.4917   1.5346   1.6492   1.7262   1.7492   1.7717
     2.3512   2.3872   2.4429   2.4579   2.5447   2.5574   2.7142   2.7269
     3.8687   3.9716   4.5505   4.6791   5.0737   5.1030   5.7553   5.9412
     5.9892   6.0689   6.3251   6.4794

     occupation numbers 
     1.0000   1.0000   1.0000   1.0000   1.0000   1.0000   1.0000   1.0000
     1.0000   1.0000   1.0000   1.0000   1.0000   1.0000   1.0000   1.0000
     1.0000   1.0000   1.0000   1.0000   1.0000   1.0000   1.0000   1.0000
     1.0000   1.0000   1.0000   1.0000   1.0000   1.0000   1.0000   1.0000
     1.0000   1.0000   1.0000   1.0000

          k =-0.5000-0.2887-0.5844 (  3924 PWs)   bands (ev):

   -10.7904 -10.7382 -10.3182 -10.1923   0.7557   0.8734   0.9954   1.0200
     1.3415   1.3861   1.4882   1.5399   1.6268   1.6938   1.7418   1.7504
     2.3952   2.4185   2.4517   2.4864   2.5108   2.5388   2.6666   2.7192
     4.2388   4.3271   4.4394   4.5405   5.2230   5.3242   5.6252   5.7109
     5.9416   6.0101   6.2474   6.3864

     occupation numbers 
     1.0000   1.0000   1.0000   1.0000   1.0000   1.0000   1.0000   1.0000
     1.0000   1.0000   1.0000   1.0000   1.0000   1.0000   1.0000   1.0000
     1.0000   1.0000   1.0000   1.0000   1.0000   1.0000   1.0000   1.0000
     1.0000   1.0000   1.0000   1.0000   1.0000   1.0000   1.0000   1.0000
     1.0000   1.0000   1.0000   1.0000

          k =-0.5000-1.4434 0.0000 (  3934 PWs)   bands (ev):

   -10.6380 -10.4151 -10.1273  -9.9144   1.1012   1.1764   1.2033   1.4068
     1.4807   1.6053   1.6948   1.7707   1.8170   1.8798   2.1090   2.1206
     2.2703   2.3204   2.4296   2.4401   2.6094   2.7666   2.9179   2.9603
     3.1957   3.4074   3.7358   3.9863   4.0260   4.2166   4.3762   4.4791
     5.4680   5.6675   5.7652   5.9546

     occupation numbers 
     1.0000   1.0000   1.0000   1.0000   1.0000   1.0000   1.0000   1.0000
     1.0000   1.0000   1.0000   1.0000   1.0000   1.0000   1.0000   1.0000
     1.0000   1.0000   1.0000   1.0000   1.0000   1.0000   1.0000   1.0000
     1.0000   1.0000   1.0000   1.0000   1.0000   1.0000   1.0000   1.0000
     1.0000   1.0000   1.0000   1.0000

          k =-0.5000-1.4434 0.1948 (  3920 PWs)   bands (ev):

   -10.6227 -10.4284 -10.1173  -9.9222   1.0997   1.1414   1.2079   1.3015
     1.5237   1.5627   1.6563   1.7345   1.7776   1.8505   1.9945   2.0311
     2.3291   2.3477   2.4801   2.5112   2.6146   2.7678   2.8941   2.9308
     3.2547   3.4330   3.7541   3.9505   4.1171   4.3471   4.4761   4.6804
     5.3931   5.6589   5.7458   5.9738

     occupation numbers 
     1.0000   1.0000   1.0000   1.0000   1.0000   1.0000   1.0000   1.0000
     1.0000   1.0000   1.0000   1.0000   1.0000   1.0000   1.0000   1.0000
     1.0000   1.0000   1.0000   1.0000   1.0000   1.0000   1.0000   1.0000
     1.0000   1.0000   1.0000   1.0000   1.0000   1.0000   1.0000   1.0000
     1.0000   1.0000   1.0000   1.0000

          k =-0.5000-1.4434 0.3896 (  3922 PWs)   bands (ev):

   -10.5824 -10.4648 -10.0943  -9.9409   1.0320   1.1231   1.1798   1.2027
     1.4540   1.5269   1.6188   1.6657   1.7243   1.7981   1.8730   1.9217
     2.4140   2.4452   2.5233   2.5467   2.6445   2.7636   2.8313   2.8894
     3.3748   3.5191   3.7163   3.8277   4.3592   4.5632   4.8489   4.9962
     5.3344   5.4620   5.7776   5.9560

     occupation numbers 
     1.0000   1.0000   1.0000   1.0000   1.0000   1.0000   1.0000   1.0000
     1.0000   1.0000   1.0000   1.0000   1.0000   1.0000   1.0000   1.0000
     1.0000   1.0000   1.0000   1.0000   1.0000   1.0000   1.0000   1.0000
     1.0000   1.0000   1.0000   1.0000   1.0000   1.0000   1.0000   1.0000
     1.0000   1.0000   1.0000   1.0000

          k =-0.5000-1.4434-0.5844 (  3928 PWs)   bands (ev):

   -10.5438 -10.5015 -10.0802  -9.9528   0.9882   1.1008   1.1593   1.1706
     1.4378   1.5130   1.5959   1.6382   1.6802   1.7806   1.8511   1.8782
     2.4764   2.4897   2.5180   2.5381   2.6947   2.7596   2.7703   2.8748
     3.4519   3.6245   3.6383   3.7294   4.5729   4.7579   4.8239   5.0438
     5.4299   5.5491   5.7701   5.7962

     occupation numbers 
     1.0000   1.0000   1.0000   1.0000   1.0000   1.0000   1.0000   1.0000
     1.0000   1.0000   1.0000   1.0000   1.0000   1.0000   1.0000   1.0000
     1.0000   1.0000   1.0000   1.0000   1.0000   1.0000   1.0000   1.0000
     1.0000   1.0000   1.0000   1.0000   1.0000   1.0000   1.0000   1.0000
     1.0000   1.0000   1.0000   1.0000

          k = 0.3333-0.1925 0.0000 (  3923 PWs)   bands (ev):

   -10.9868 -10.5860 -10.1815 -10.0330   0.9814   1.0745   1.1980   1.3219
     1.3580   1.4052   1.5017   1.5396   1.7018   1.8378   2.0744   2.1286
     2.2804   2.3458   2.4238   2.4705   2.5826   2.6541   2.7430   2.8472
     2.9660   3.0721   3.7397   4.1804   4.5312   5.4258   5.5895   5.7487
     5.8924   6.0606   6.6391   6.8009

     occupation numbers 
     1.0000   1.0000   1.0000   1.0000   1.0000   1.0000   1.0000   1.0000
     1.0000   1.0000   1.0000   1.0000   1.0000   1.0000   1.0000   1.0000
     1.0000   1.0000   1.0000   1.0000   1.0000   1.0000   1.0000   1.0000
     1.0000   1.0000   1.0000   1.0000   1.0000   1.0000   1.0000   1.0000
     1.0000   1.0000   1.0000   1.0000

          k = 0.0000-0.3849 0.1948 (  3926 PWs)   bands (ev):

   -10.9558 -10.6071 -10.1759 -10.0493   0.9575   1.0911   1.1484   1.2640
     1.2919   1.4032   1.4735   1.5050   1.7484   1.8240   1.9945   2.0379
     2.3246   2.3854   2.4318   2.5079   2.5711   2.6193   2.7183   2.8825
     3.0237   3.3047   3.7367   4.3215   4.6512   5.4620   5.5062   5.7205
     5.7987   6.0952   6.5340   6.8023

     occupation numbers 
     1.0000   1.0000   1.0000   1.0000   1.0000   1.0000   1.0000   1.0000
     1.0000   1.0000   1.0000   1.0000   1.0000   1.0000   1.0000   1.0000
     1.0000   1.0000   1.0000   1.0000   1.0000   1.0000   1.0000   1.0000
     1.0000   1.0000   1.0000   1.0000   1.0000   1.0000   1.0000   1.0000
     1.0000   1.0000   1.0000   1.0000

          k = 0.3333-0.1925-0.1948 (  3926 PWs)   bands (ev):

   -10.9567 -10.6046 -10.1814 -10.0454   0.9785   1.0592   1.1321   1.2637
     1.3464   1.3710   1.4934   1.5203   1.7185   1.8243   1.9654   2.0769
     2.3200   2.3640   2.4425   2.4936   2.5771   2.6392   2.7292   2.8809
     3.0618   3.2528   3.7370   4.2715   4.6861   5.4145   5.5793   5.6924
     5.8089   6.1092   6.5718   6.7452

     occupation numbers 
     1.0000   1.0000   1.0000   1.0000   1.0000   1.0000   1.0000   1.0000
     1.0000   1.0000   1.0000   1.0000   1.0000   1.0000   1.0000   1.0000
     1.0000   1.0000   1.0000   1.0000   1.0000   1.0000   1.0000   1.0000
     1.0000   1.0000   1.0000   1.0000   1.0000   1.0000   1.0000   1.0000
     1.0000   1.0000   1.0000   1.0000

          k =-0.3333 0.1925-0.1948 (  3926 PWs)   bands (ev):

   -10.9565 -10.6019 -10.1900 -10.0398   0.9637   1.0373   1.1726   1.2887
     1.3462   1.3857   1.4459   1.5077   1.7009   1.8118   2.0186   2.0839
     2.3173   2.3694   2.4168   2.5058   2.5616   2.6092   2.7308   2.8850
     3.0889   3.2991   3.7224   4.2861   4.6472   5.4255   5.5289   5.7563
     5.8261   6.0985   6.5335   6.7567

     occupation numbers 
     1.0000   1.0000   1.0000   1.0000   1.0000   1.0000   1.0000   1.0000
     1.0000   1.0000   1.0000   1.0000   1.0000   1.0000   1.0000   1.0000
     1.0000   1.0000   1.0000   1.0000   1.0000   1.0000   1.0000   1.0000
     1.0000   1.0000   1.0000   1.0000   1.0000   1.0000   1.0000   1.0000
     1.0000   1.0000   1.0000   1.0000

          k = 0.0000-0.3849 0.3896 (  3920 PWs)   bands (ev):

   -10.8742 -10.6642 -10.1834 -10.0677   0.9193   1.0111   1.0727   1.1929
     1.2712   1.3699   1.4328   1.4803   1.7229   1.8081   1.9180   1.9555
     2.3886   2.4246   2.4663   2.5132   2.5470   2.5833   2.7197   2.8304
     3.2210   3.5826   3.9215   4.6009   4.9517   5.1672   5.3975   5.7157
     5.7944   6.2301   6.3037   6.6657

     occupation numbers 
     1.0000   1.0000   1.0000   1.0000   1.0000   1.0000   1.0000   1.0000
     1.0000   1.0000   1.0000   1.0000   1.0000   1.0000   1.0000   1.0000
     1.0000   1.0000   1.0000   1.0000   1.0000   1.0000   1.0000   1.0000
     1.0000   1.0000   1.0000   1.0000   1.0000   1.0000   1.0000   1.0000
     1.0000   1.0000   1.0000   1.0000

          k = 0.3333-0.1925-0.3896 (  3920 PWs)   bands (ev):

   -10.8756 -10.6621 -10.1852 -10.0667   0.9378   0.9831   1.0797   1.1714
     1.2994   1.3666   1.4468   1.4833   1.7120   1.8061   1.8711   1.9981
     2.3874   2.4121   2.4705   2.4985   2.5689   2.6010   2.7386   2.8125
     3.2293   3.5892   3.8840   4.5498   4.9595   5.2473   5.3368   5.6963
     5.8358   6.2480   6.3452   6.6054

     occupation numbers 
     1.0000   1.0000   1.0000   1.0000   1.0000   1.0000   1.0000   1.0000
     1.0000   1.0000   1.0000   1.0000   1.0000   1.0000   1.0000   1.0000
     1.0000   1.0000   1.0000   1.0000   1.0000   1.0000   1.0000   1.0000
     1.0000   1.0000   1.0000   1.0000   1.0000   1.0000   1.0000   1.0000
     1.0000   1.0000   1.0000   1.0000

          k =-0.3333 0.1925-0.3896 (  3920 PWs)   bands (ev):

   -10.8758 -10.6590 -10.1949 -10.0599   0.9066   1.0169   1.0657   1.2021
     1.2827   1.3821   1.4102   1.4907   1.7156   1.7708   1.9150   1.9997
     2.3877   2.4278   2.4449   2.5198   2.5317   2.6025   2.7207   2.8320
     3.2666   3.5558   3.9316   4.5733   4.9183   5.1978   5.3663   5.7163
     5.8524   6.2205   6.3242   6.6261

     occupation numbers 
     1.0000   1.0000   1.0000   1.0000   1.0000   1.0000   1.0000   1.0000
     1.0000   1.0000   1.0000   1.0000   1.0000   1.0000   1.0000   1.0000
     1.0000   1.0000   1.0000   1.0000   1.0000   1.0000   1.0000   1.0000
     1.0000   1.0000   1.0000   1.0000   1.0000   1.0000   1.0000   1.0000
     1.0000   1.0000   1.0000   1.0000

          k = 0.3333-0.1925 0.5844 (  3916 PWs)   bands (ev):

   -10.7925 -10.7333 -10.1897 -10.0748   0.8842   0.9692   1.0645   1.1239
     1.2807   1.3694   1.4119   1.4791   1.7102   1.7851   1.8587   1.9608
     2.4275   2.4491   2.4788   2.4851   2.5384   2.6100   2.7298   2.7828
     3.3994   3.4483   4.4891   4.5858   4.8790   4.9757   5.4969   5.5823
     5.9803   6.1111   6.3912   6.4660

     occupation numbers 
     1.0000   1.0000   1.0000   1.0000   1.0000   1.0000   1.0000   1.0000
     1.0000   1.0000   1.0000   1.0000   1.0000   1.0000   1.0000   1.0000
     1.0000   1.0000   1.0000   1.0000   1.0000   1.0000   1.0000   1.0000
     1.0000   1.0000   1.0000   1.0000   1.0000   1.0000   1.0000   1.0000
     1.0000   1.0000   1.0000   1.0000

          k = 0.6667-0.3849 0.0000 (  3929 PWs)   bands (ev):

   -10.7316 -10.4833 -10.1558  -9.9569   0.9200   1.0813   1.1751   1.2392
     1.4747   1.5365   1.6815   1.7650   1.8088   1.8909   2.0586   2.1434
     2.2788   2.3593   2.4506   2.5198   2.5934   2.7017   2.8281   2.9379
     3.0782   3.2076   3.6636   3.8495   4.2683   4.4575   4.7388   5.3485
     5.6820   5.8913   6.1680   6.3777

     occupation numbers 
     1.0000   1.0000   1.0000   1.0000   1.0000   1.0000   1.0000   1.0000
     1.0000   1.0000   1.0000   1.0000   1.0000   1.0000   1.0000   1.0000
     1.0000   1.0000   1.0000   1.0000   1.0000   1.0000   1.0000   1.0000
     1.0000   1.0000   1.0000   1.0000   1.0000   1.0000   1.0000   1.0000
     1.0000   1.0000   1.0000   1.0000

          k = 0.0000-0.7698 0.1948 (  3932 PWs)   bands (ev):

   -10.7104 -10.4989 -10.1433  -9.9724   0.8983   1.0623   1.1031   1.2467
     1.4573   1.5204   1.6241   1.6883   1.8197   1.9252   1.9903   2.0443
     2.3144   2.3896   2.4563   2.5479   2.6191   2.6976   2.7279   2.8755
     3.1437   3.4233   3.6569   3.9904   4.3352   4.6230   4.7839   5.4039
     5.6067   5.8355   6.1555   6.3724

     occupation numbers 
     1.0000   1.0000   1.0000   1.0000   1.0000   1.0000   1.0000   1.0000
     1.0000   1.0000   1.0000   1.0000   1.0000   1.0000   1.0000   1.0000
     1.0000   1.0000   1.0000   1.0000   1.0000   1.0000   1.0000   1.0000
     1.0000   1.0000   1.0000   1.0000   1.0000   1.0000   1.0000   1.0000
     1.0000   1.0000   1.0000   1.0000

          k = 0.6667-0.3849-0.1948 (  3932 PWs)   bands (ev):

   -10.7123 -10.4942 -10.1506  -9.9680   0.9192   1.0546   1.1269   1.1950
     1.4581   1.5335   1.6184   1.7477   1.7730   1.8795   2.0123   2.0878
     2.3215   2.3629   2.4580   2.5413   2.5919   2.7062   2.7498   2.8855
     3.1466   3.4022   3.6663   3.9629   4.3815   4.6049   4.7271   5.4202
     5.6081   5.9046   6.1742   6.3115

     occupation numbers 
     1.0000   1.0000   1.0000   1.0000   1.0000   1.0000   1.0000   1.0000
     1.0000   1.0000   1.0000   1.0000   1.0000   1.0000   1.0000   1.0000
     1.0000   1.0000   1.0000   1.0000   1.0000   1.0000   1.0000   1.0000
     1.0000   1.0000   1.0000   1.0000   1.0000   1.0000   1.0000   1.0000
     1.0000   1.0000   1.0000   1.0000

          k =-0.6667 0.3849-0.1948 (  3932 PWs)   bands (ev):

   -10.7119 -10.4923 -10.1548  -9.9662   0.8920   1.0497   1.1470   1.2182
     1.4609   1.5014   1.6586   1.7205   1.7993   1.8691   2.0075   2.0346
     2.3176   2.3813   2.4738   2.5444   2.5850   2.6867   2.7758   2.8796
     3.1948   3.4345   3.6731   3.8954   4.3672   4.6232   4.7377   5.3997
     5.6754   5.8974   6.1150   6.3122

     occupation numbers 
     1.0000   1.0000   1.0000   1.0000   1.0000   1.0000   1.0000   1.0000
     1.0000   1.0000   1.0000   1.0000   1.0000   1.0000   1.0000   1.0000
     1.0000   1.0000   1.0000   1.0000   1.0000   1.0000   1.0000   1.0000
     1.0000   1.0000   1.0000   1.0000   1.0000   1.0000   1.0000   1.0000
     1.0000   1.0000   1.0000   1.0000

          k = 0.0000-0.7698 0.3896 (  3937 PWs)   bands (ev):

   -10.6589 -10.5305 -10.1369  -9.9936   0.8823   0.9586   1.0361   1.1533
     1.4636   1.5148   1.5786   1.6409   1.7580   1.8239   1.9309   1.9930
     2.3784   2.4486   2.4845   2.5487   2.5905   2.6297   2.7337   2.8153
     3.2902   3.5663   3.7214   4.0629   4.6142   4.9440   5.0571   5.3909
     5.6670   5.7744   5.9874   6.1976

     occupation numbers 
     1.0000   1.0000   1.0000   1.0000   1.0000   1.0000   1.0000   1.0000
     1.0000   1.0000   1.0000   1.0000   1.0000   1.0000   1.0000   1.0000
     1.0000   1.0000   1.0000   1.0000   1.0000   1.0000   1.0000   1.0000
     1.0000   1.0000   1.0000   1.0000   1.0000   1.0000   1.0000   1.0000
     1.0000   1.0000   1.0000   1.0000

          k = 0.6667-0.3849-0.3896 (  3937 PWs)   bands (ev):

   -10.6609 -10.5274 -10.1395  -9.9920   0.9011   0.9567   1.0569   1.1166
     1.4431   1.5165   1.5752   1.6652   1.7385   1.8386   1.9155   2.0266
     2.3967   2.4100   2.4841   2.5507   2.5785   2.6583   2.7397   2.8183
     3.2694   3.5831   3.6854   4.0685   4.6826   4.8652   5.0005   5.4426
     5.6140   5.8794   6.0245   6.1320

     occupation numbers 
     1.0000   1.0000   1.0000   1.0000   1.0000   1.0000   1.0000   1.0000
     1.0000   1.0000   1.0000   1.0000   1.0000   1.0000   1.0000   1.0000
     1.0000   1.0000   1.0000   1.0000   1.0000   1.0000   1.0000   1.0000
     1.0000   1.0000   1.0000   1.0000   1.0000   1.0000   1.0000   1.0000
     1.0000   1.0000   1.0000   1.0000

          k =-0.6667 0.3849-0.3896 (  3937 PWs)   bands (ev):

   -10.6607 -10.5253 -10.1445  -9.9894   0.8563   0.9844   1.0653   1.1297
     1.4328   1.5206   1.5808   1.6487   1.7730   1.8327   1.9256   1.9690
     2.3797   2.4418   2.4853   2.5414   2.5922   2.6727   2.7248   2.8173
     3.3140   3.5431   3.7672   3.9915   4.6566   4.9130   5.0217   5.4512
     5.6230   5.8604   5.9775   6.1359

     occupation numbers 
     1.0000   1.0000   1.0000   1.0000   1.0000   1.0000   1.0000   1.0000
     1.0000   1.0000   1.0000   1.0000   1.0000   1.0000   1.0000   1.0000
     1.0000   1.0000   1.0000   1.0000   1.0000   1.0000   1.0000   1.0000
     1.0000   1.0000   1.0000   1.0000   1.0000   1.0000   1.0000   1.0000
     1.0000   1.0000   1.0000   1.0000

          k = 0.6667-0.3849 0.5844 (  3920 PWs)   bands (ev):

   -10.6119 -10.5669 -10.1334 -10.0051   0.8620   0.9260   1.0295   1.0686
     1.4582   1.5105   1.5668   1.6072   1.7405   1.8058   1.9017   1.9752
     2.4250   2.4693   2.4966   2.5138   2.5830   2.6590   2.7445   2.7676
     3.4143   3.4559   3.8655   3.9708   4.9452   5.0165   5.2916   5.4415
     5.6916   5.7519   5.8869   5.9344

     occupation numbers 
     1.0000   1.0000   1.0000   1.0000   1.0000   1.0000   1.0000   1.0000
     1.0000   1.0000   1.0000   1.0000   1.0000   1.0000   1.0000   1.0000
     1.0000   1.0000   1.0000   1.0000   1.0000   1.0000   1.0000   1.0000
     1.0000   1.0000   1.0000   1.0000   1.0000   1.0000   1.0000   1.0000
     1.0000   1.0000   1.0000   1.0000

          k =-0.1667-0.0962 0.1948 (  3926 PWs)   bands (ev):

   -11.0522 -10.6619 -10.2193 -10.0793   0.8587   1.0299   1.1035   1.2471
     1.2824   1.3516   1.4008   1.4295   1.7268   1.8622   1.9552   2.0223
     2.3250   2.3929   2.4545   2.4832   2.5863   2.6427   2.7402   2.7904
     3.0194   3.2466   3.6515   4.4648   5.0648   5.7104   5.9666   5.9949
     6.1942   6.4426   6.7761   6.9134

     occupation numbers 
     1.0000   1.0000   1.0000   1.0000   1.0000   1.0000   1.0000   1.0000
     1.0000   1.0000   1.0000   1.0000   1.0000   1.0000   1.0000   1.0000
     1.0000   1.0000   1.0000   1.0000   1.0000   1.0000   1.0000   1.0000
     1.0000   1.0000   1.0000   1.0000   1.0000   1.0000   1.0000   1.0000
     1.0000   1.0000   1.0000   1.0000

          k =-0.1667-0.0962 0.3896 (  3932 PWs)   bands (ev):

   -10.9622 -10.7258 -10.2242 -10.1050   0.8188   0.9209   1.0699   1.1708
     1.2562   1.3101   1.3791   1.4167   1.7670   1.8205   1.8894   1.9481
     2.3877   2.4163   2.4791   2.4978   2.5811   2.6063   2.6945   2.7474
     3.2121   3.5459   3.8580   4.8626   5.2656   5.3662   5.6828   5.8030
     6.2436   6.5295   6.6564   6.8137

     occupation numbers 
     1.0000   1.0000   1.0000   1.0000   1.0000   1.0000   1.0000   1.0000
     1.0000   1.0000   1.0000   1.0000   1.0000   1.0000   1.0000   1.0000
     1.0000   1.0000   1.0000   1.0000   1.0000   1.0000   1.0000   1.0000
     1.0000   1.0000   1.0000   1.0000   1.0000   1.0000   1.0000   1.0000
     1.0000   1.0000   1.0000   1.0000

          k = 0.5000-0.0962 0.0000 (  3928 PWs)   bands (ev):

   -10.9177 -10.6122 -10.2300 -10.0361   0.9255   1.0338   1.1937   1.2949
     1.3766   1.4421   1.5219   1.5797   1.6968   1.7797   1.9874   2.0642
     2.2493   2.3148   2.4147   2.4707   2.5676   2.6877   2.8045   2.8797
     2.9062   3.3228   3.9429   4.3832   4.7104   5.0397   5.3194   5.8014
     6.0142   6.0436   6.5383   6.6024

     occupation numbers 
     1.0000   1.0000   1.0000   1.0000   1.0000   1.0000   1.0000   1.0000
     1.0000   1.0000   1.0000   1.0000   1.0000   1.0000   1.0000   1.0000
     1.0000   1.0000   1.0000   1.0000   1.0000   1.0000   1.0000   1.0000
     1.0000   1.0000   1.0000   1.0000   1.0000   1.0000   1.0000   1.0000
     1.0000   1.0000   1.0000   1.0000

          k =-0.1667-0.4811 0.1948 (  3933 PWs)   bands (ev):

   -10.8896 -10.6227 -10.2267 -10.0576   0.9075   1.0336   1.1436   1.2247
     1.3449   1.4043   1.5164   1.5515   1.7469   1.7740   1.9092   1.9413
     2.2888   2.3625   2.4154   2.4971   2.5570   2.6478   2.7279   2.8342
     3.2351   3.5056   4.0648   4.3780   4.8365   5.0483   5.2855   5.7392
     5.9557   6.0354   6.4460   6.5983

     occupation numbers 
     1.0000   1.0000   1.0000   1.0000   1.0000   1.0000   1.0000   1.0000
     1.0000   1.0000   1.0000   1.0000   1.0000   1.0000   1.0000   1.0000
     1.0000   1.0000   1.0000   1.0000   1.0000   1.0000   1.0000   1.0000
     1.0000   1.0000   1.0000   1.0000   1.0000   1.0000   1.0000   1.0000
     1.0000   1.0000   1.0000   1.0000

          k = 0.5000-0.0962-0.1948 (  3933 PWs)   bands (ev):

   -10.8906 -10.6200 -10.2318 -10.0542   0.9234   1.0070   1.1364   1.2443
     1.3463   1.4089   1.5368   1.5655   1.6842   1.7689   1.9202   1.9743
     2.2907   2.3361   2.4239   2.4950   2.5601   2.6641   2.7300   2.8228
     3.2388   3.4735   4.0547   4.4403   4.7683   5.0794   5.2531   5.7636
     5.9806   6.0427   6.4745   6.5410

     occupation numbers 
     1.0000   1.0000   1.0000   1.0000   1.0000   1.0000   1.0000   1.0000
     1.0000   1.0000   1.0000   1.0000   1.0000   1.0000   1.0000   1.0000
     1.0000   1.0000   1.0000   1.0000   1.0000   1.0000   1.0000   1.0000
     1.0000   1.0000   1.0000   1.0000   1.0000   1.0000   1.0000   1.0000
     1.0000   1.0000   1.0000   1.0000

          k =-0.5000 0.0962-0.1948 (  3933 PWs)   bands (ev):

   -10.8912 -10.6157 -10.2401 -10.0498   0.9098   1.0026   1.1362   1.2973
     1.3444   1.4094   1.4953   1.5431   1.6939   1.7649   1.9394   1.9675
     2.2847   2.3460   2.4174   2.4894   2.5620   2.6412   2.7339   2.8481
     3.2951   3.4690   4.0567   4.3983   4.7488   5.1081   5.2446   5.7963
     5.9672   6.0553   6.4259   6.5573

     occupation numbers 
     1.0000   1.0000   1.0000   1.0000   1.0000   1.0000   1.0000   1.0000
     1.0000   1.0000   1.0000   1.0000   1.0000   1.0000   1.0000   1.0000
     1.0000   1.0000   1.0000   1.0000   1.0000   1.0000   1.0000   1.0000
     1.0000   1.0000   1.0000   1.0000   1.0000   1.0000   1.0000   1.0000
     1.0000   1.0000   1.0000   1.0000

          k =-0.1667-0.4811 0.3896 (  3916 PWs)   bands (ev):

   -10.8182 -10.6535 -10.2326 -10.0936   0.8776   0.9624   1.0473   1.1357
     1.3212   1.4020   1.4639   1.5279   1.7094   1.7660   1.8051   1.8760
     2.3616   2.4129   2.4490   2.5129   2.5389   2.5832   2.7082   2.7702
     3.6155   3.9190   4.0598   4.7614   4.8869   5.0590   5.3395   5.6276
     5.8583   6.0309   6.1816   6.4532

     occupation numbers 
     1.0000   1.0000   1.0000   1.0000   1.0000   1.0000   1.0000   1.0000
     1.0000   1.0000   1.0000   1.0000   1.0000   1.0000   1.0000   1.0000
     1.0000   1.0000   1.0000   1.0000   1.0000   1.0000   1.0000   1.0000
     1.0000   1.0000   1.0000   1.0000   1.0000   1.0000   1.0000   1.0000
     1.0000   1.0000   1.0000   1.0000

          k = 0.5000-0.0962-0.3896 (  3916 PWs)   bands (ev):

   -10.8195 -10.6515 -10.2346 -10.0923   0.8931   0.9385   1.0529   1.1407
     1.3080   1.3903   1.5145   1.5419   1.6697   1.7358   1.8066   1.9110
     2.3674   2.3904   2.4556   2.5120   2.5466   2.5929   2.7182   2.7548
     3.6230   3.8813   4.0787   4.7517   4.8765   5.0667   5.2855   5.6728
     5.8778   6.0554   6.2171   6.3912

     occupation numbers 
     1.0000   1.0000   1.0000   1.0000   1.0000   1.0000   1.0000   1.0000
     1.0000   1.0000   1.0000   1.0000   1.0000   1.0000   1.0000   1.0000
     1.0000   1.0000   1.0000   1.0000   1.0000   1.0000   1.0000   1.0000
     1.0000   1.0000   1.0000   1.0000   1.0000   1.0000   1.0000   1.0000
     1.0000   1.0000   1.0000   1.0000

          k =-0.5000 0.0962-0.3896 (  3916 PWs)   bands (ev):

   -10.8213 -10.6454 -10.2453 -10.0860   0.8665   0.9769   1.0163   1.1729
     1.3061   1.4000   1.4904   1.5284   1.6743   1.7367   1.8376   1.8864
     2.3612   2.4054   2.4484   2.5021   2.5451   2.5887   2.7149   2.7763
     3.6563   3.8793   4.1027   4.7210   4.8191   5.1065   5.3118   5.6673
     5.8790   6.0506   6.1709   6.4203

     occupation numbers 
     1.0000   1.0000   1.0000   1.0000   1.0000   1.0000   1.0000   1.0000
     1.0000   1.0000   1.0000   1.0000   1.0000   1.0000   1.0000   1.0000
     1.0000   1.0000   1.0000   1.0000   1.0000   1.0000   1.0000   1.0000
     1.0000   1.0000   1.0000   1.0000   1.0000   1.0000   1.0000   1.0000
     1.0000   1.0000   1.0000   1.0000

          k = 0.5000-0.0962 0.5844 (  3918 PWs)   bands (ev):

   -10.7520 -10.6988 -10.2354 -10.1125   0.8474   0.9262   1.0299   1.0704
     1.2991   1.3917   1.5076   1.5182   1.6628   1.7137   1.8092   1.8596
     2.4126   2.4358   2.4732   2.4833   2.5405   2.5828   2.6935   2.7302
     3.8358   3.8761   4.4542   4.5193   5.0883   5.1618   5.4738   5.5815
     5.7235   5.9059   6.1914   6.2480

     occupation numbers 
     1.0000   1.0000   1.0000   1.0000   1.0000   1.0000   1.0000   1.0000
     1.0000   1.0000   1.0000   1.0000   1.0000   1.0000   1.0000   1.0000
     1.0000   1.0000   1.0000   1.0000   1.0000   1.0000   1.0000   1.0000
     1.0000   1.0000   1.0000   1.0000   1.0000   1.0000   1.0000   1.0000
     1.0000   1.0000   1.0000   1.0000

          k =-0.1667-0.8660 0.1948 (  3926 PWs)   bands (ev):

   -10.6927 -10.5013 -10.1606  -9.9701   0.9122   0.9816   1.0682   1.2082
     1.4583   1.4978   1.6448   1.7375   1.8330   1.8939   2.0028   2.0288
     2.3243   2.3881   2.4864   2.5583   2.5727   2.6903   2.7585   2.8359
     3.2867   3.4098   3.6665   3.8139   4.4587   4.5773   5.0224   5.1316
     5.9356   6.0108   6.0773   6.1867

     occupation numbers 
     1.0000   1.0000   1.0000   1.0000   1.0000   1.0000   1.0000   1.0000
     1.0000   1.0000   1.0000   1.0000   1.0000   1.0000   1.0000   1.0000
     1.0000   1.0000   1.0000   1.0000   1.0000   1.0000   1.0000   1.0000
     1.0000   1.0000   1.0000   1.0000   1.0000   1.0000   1.0000   1.0000
     1.0000   1.0000   1.0000   1.0000

          k =-0.1667-0.8660 0.3896 (  3930 PWs)   bands (ev):

   -10.6458 -10.5264 -10.1515  -9.9956   0.8926   0.9132   0.9846   1.0905
     1.4615   1.5142   1.5819   1.6739   1.8012   1.8368   1.9364   1.9625
     2.3802   2.4495   2.4971   2.5498   2.5747   2.6403   2.7118   2.7739
     3.4574   3.5427   3.7100   3.8554   4.8149   4.9813   5.2232   5.3172
     5.7833   5.8858   5.9640   6.0096

     occupation numbers 
     1.0000   1.0000   1.0000   1.0000   1.0000   1.0000   1.0000   1.0000
     1.0000   1.0000   1.0000   1.0000   1.0000   1.0000   1.0000   1.0000
     1.0000   1.0000   1.0000   1.0000   1.0000   1.0000   1.0000   1.0000
     1.0000   1.0000   1.0000   1.0000   1.0000   1.0000   1.0000   1.0000
     1.0000   1.0000   1.0000   1.0000

          k =-0.1667 1.0585 0.1948 (  3936 PWs)   bands (ev):

   -10.6151 -10.4292 -10.1140  -9.9239   0.9408   1.0178   1.1182   1.1857
     1.4085   1.5468   1.6997   1.7927   1.9075   1.9861   2.0497   2.1018
     2.4275   2.4692   2.5009   2.5587   2.5869   2.7319   2.7828   2.8249
     3.1261   3.2591   3.4120   3.5141   4.2610   4.5897   4.9039   5.0320
     5.7062   5.8070   5.9197   6.0855

     occupation numbers 
     1.0000   1.0000   1.0000   1.0000   1.0000   1.0000   1.0000   1.0000
     1.0000   1.0000   1.0000   1.0000   1.0000   1.0000   1.0000   1.0000
     1.0000   1.0000   1.0000   1.0000   1.0000   1.0000   1.0000   1.0000
     1.0000   1.0000   1.0000   1.0000   1.0000   1.0000   1.0000   1.0000
     1.0000   1.0000   1.0000   1.0000

          k =-0.1667 1.0585 0.3896 (  3948 PWs)   bands (ev):

   -10.5763 -10.4639 -10.0933  -9.9400   0.9004   0.9517   1.0143   1.0755
     1.4410   1.5842   1.6444   1.7275   1.8743   1.9137   1.9891   2.0413
     2.4915   2.5081   2.5222   2.5819   2.6037   2.7203   2.7678   2.7987
     3.1050   3.2802   3.3537   3.4435   4.7607   4.9456   5.1770   5.3198
     5.6338   5.7243   5.8520   5.9337

     occupation numbers 
     1.0000   1.0000   1.0000   1.0000   1.0000   1.0000   1.0000   1.0000
     1.0000   1.0000   1.0000   1.0000   1.0000   1.0000   1.0000   1.0000
     1.0000   1.0000   1.0000   1.0000   1.0000   1.0000   1.0000   1.0000
     1.0000   1.0000   1.0000   1.0000   1.0000   1.0000   1.0000   1.0000
     1.0000   1.0000   1.0000   1.0000

          k =-0.5000 0.4811 0.0000 (  3936 PWs)   bands (ev):

   -10.7656 -10.4724 -10.1320  -9.9585   0.9786   1.1038   1.2420   1.3128
     1.4734   1.6023   1.6712   1.7591   1.7811   1.9195   2.1003   2.1590
     2.2849   2.3551   2.4110   2.4711   2.5947   2.6982   2.7884   2.8899
     3.0377   3.2334   3.5479   3.7168   4.3032   4.6643   4.8996   5.2334
     5.4506   5.5758   6.2733   6.3960

     occupation numbers 
     1.0000   1.0000   1.0000   1.0000   1.0000   1.0000   1.0000   1.0000
     1.0000   1.0000   1.0000   1.0000   1.0000   1.0000   1.0000   1.0000
     1.0000   1.0000   1.0000   1.0000   1.0000   1.0000   1.0000   1.0000
     1.0000   1.0000   1.0000   1.0000   1.0000   1.0000   1.0000   1.0000
     1.0000   1.0000   1.0000   1.0000

          k =-0.1667 0.6736 0.1948 (  3934 PWs)   bands (ev):

   -10.7442 -10.4902 -10.1197  -9.9716   0.9353   1.1169   1.2407   1.3325
     1.4367   1.4593   1.6330   1.6923   1.7577   1.8924   2.0563   2.1627
     2.3394   2.3740   2.4281   2.5025   2.5726   2.6474   2.7774   2.8656
     3.1135   3.4149   3.5563   3.8127   4.3378   4.8510   4.9001   5.1983
     5.4565   5.5915   6.2743   6.3601

     occupation numbers 
     1.0000   1.0000   1.0000   1.0000   1.0000   1.0000   1.0000   1.0000
     1.0000   1.0000   1.0000   1.0000   1.0000   1.0000   1.0000   1.0000
     1.0000   1.0000   1.0000   1.0000   1.0000   1.0000   1.0000   1.0000
     1.0000   1.0000   1.0000   1.0000   1.0000   1.0000   1.0000   1.0000
     1.0000   1.0000   1.0000   1.0000

          k =-0.5000 0.4811-0.1948 (  3934 PWs)   bands (ev):

   -10.7433 -10.4866 -10.1311  -9.9651   0.9438   1.1082   1.2030   1.3091
     1.4398   1.5481   1.6475   1.6932   1.7427   1.8871   2.0307   2.0928
     2.3254   2.3831   2.4417   2.5171   2.5877   2.6786   2.7614   2.8687
     3.1972   3.3781   3.5778   3.7753   4.3572   4.8109   4.8796   5.2192
     5.4759   5.6417   6.2213   6.3226

     occupation numbers 
     1.0000   1.0000   1.0000   1.0000   1.0000   1.0000   1.0000   1.0000
     1.0000   1.0000   1.0000   1.0000   1.0000   1.0000   1.0000   1.0000
     1.0000   1.0000   1.0000   1.0000   1.0000   1.0000   1.0000   1.0000
     1.0000   1.0000   1.0000   1.0000   1.0000   1.0000   1.0000   1.0000
     1.0000   1.0000   1.0000   1.0000

          k = 0.5000-0.4811-0.1948 (  3934 PWs)   bands (ev):

   -10.7442 -10.4875 -10.1266  -9.9676   0.9775   1.0773   1.1958   1.3069
     1.4459   1.5779   1.6075   1.6882   1.7583   1.9437   1.9619   2.1457
     2.3233   2.3657   2.4285   2.4996   2.6029   2.7178   2.7517   2.8359
     3.1811   3.3784   3.5180   3.8329   4.3811   4.7884   4.8856   5.2224
     5.4411   5.6464   6.2429   6.3399

     occupation numbers 
     1.0000   1.0000   1.0000   1.0000   1.0000   1.0000   1.0000   1.0000
     1.0000   1.0000   1.0000   1.0000   1.0000   1.0000   1.0000   1.0000
     1.0000   1.0000   1.0000   1.0000   1.0000   1.0000   1.0000   1.0000
     1.0000   1.0000   1.0000   1.0000   1.0000   1.0000   1.0000   1.0000
     1.0000   1.0000   1.0000   1.0000

          k =-0.1667 0.6736 0.3896 (  3928 PWs)   bands (ev):

   -10.6874 -10.5314 -10.1165  -9.9853   0.8918   1.0504   1.1968   1.2743
     1.3540   1.4618   1.5891   1.6250   1.7106   1.7540   2.0136   2.0716
     2.3875   2.4173   2.4645   2.5115   2.5879   2.6232   2.8030   2.8983
     3.1394   3.4650   3.8591   4.0789   4.3747   4.8237   5.0504   5.2969
     5.6066   5.7349   6.0532   6.1956

     occupation numbers 
     1.0000   1.0000   1.0000   1.0000   1.0000   1.0000   1.0000   1.0000
     1.0000   1.0000   1.0000   1.0000   1.0000   1.0000   1.0000   1.0000
     1.0000   1.0000   1.0000   1.0000   1.0000   1.0000   1.0000   1.0000
     1.0000   1.0000   1.0000   1.0000   1.0000   1.0000   1.0000   1.0000
     1.0000   1.0000   1.0000   1.0000

          k =-0.5000 0.4811-0.3896 (  3928 PWs)   bands (ev):

   -10.6854 -10.5307 -10.1233  -9.9816   0.8940   1.0541   1.1560   1.2582
     1.3849   1.5072   1.5842   1.5986   1.7013   1.7959   1.9661   2.0492
     2.3852   2.4271   2.4623   2.5402   2.5882   2.6433   2.7815   2.9108
     3.2178   3.3902   3.8948   4.0065   4.4448   4.8231   5.0506   5.3073
     5.6006   5.7377   6.0368   6.1437

     occupation numbers 
     1.0000   1.0000   1.0000   1.0000   1.0000   1.0000   1.0000   1.0000
     1.0000   1.0000   1.0000   1.0000   1.0000   1.0000   1.0000   1.0000
     1.0000   1.0000   1.0000   1.0000   1.0000   1.0000   1.0000   1.0000
     1.0000   1.0000   1.0000   1.0000   1.0000   1.0000   1.0000   1.0000
     1.0000   1.0000   1.0000   1.0000

          k = 0.5000-0.4811-0.3896 (  3928 PWs)   bands (ev):

   -10.6867 -10.5312 -10.1182  -9.9848   0.9462   0.9870   1.1764   1.2430
     1.4412   1.4812   1.5460   1.6135   1.7015   1.8026   1.9520   2.0832
     2.3948   2.4125   2.4532   2.5227   2.5875   2.6641   2.7950   2.8964
     3.1694   3.4282   3.8146   4.0730   4.4749   4.8165   4.9764   5.3370
     5.5876   5.7570   6.0530   6.1580

     occupation numbers 
     1.0000   1.0000   1.0000   1.0000   1.0000   1.0000   1.0000   1.0000
     1.0000   1.0000   1.0000   1.0000   1.0000   1.0000   1.0000   1.0000
     1.0000   1.0000   1.0000   1.0000   1.0000   1.0000   1.0000   1.0000
     1.0000   1.0000   1.0000   1.0000   1.0000   1.0000   1.0000   1.0000
     1.0000   1.0000   1.0000   1.0000

          k =-0.5000 0.4811 0.5844 (  3926 PWs)   bands (ev):

   -10.6290 -10.5814 -10.1155  -9.9925   0.8881   0.9778   1.1665   1.2013
     1.4114   1.4867   1.5300   1.5743   1.6768   1.7459   1.9541   2.0452
     2.4135   2.4440   2.4946   2.5173   2.5606   2.6457   2.8374   2.8907
     3.2377   3.3403   4.0689   4.1639   4.5142   4.6112   5.3183   5.4726
     5.6674   5.7676   5.9095   5.9465

     occupation numbers 
     1.0000   1.0000   1.0000   1.0000   1.0000   1.0000   1.0000   1.0000
     1.0000   1.0000   1.0000   1.0000   1.0000   1.0000   1.0000   1.0000
     1.0000   1.0000   1.0000   1.0000   1.0000   1.0000   1.0000   1.0000
     1.0000   1.0000   1.0000   1.0000   1.0000   1.0000   1.0000   1.0000
     1.0000   1.0000   1.0000   1.0000

          k =-0.1667 0.2887 0.1948 (  3934 PWs)   bands (ev):

   -10.9839 -10.6031 -10.1512 -10.0455   0.9810   1.1150   1.1765   1.2751
     1.3057   1.3608   1.4497   1.4792   1.7298   1.8662   2.0463   2.1398
     2.3592   2.3891   2.4271   2.4865   2.5615   2.5825   2.7524   2.7908
     3.0627   3.2323   3.5266   4.1144   4.8933   5.3259   5.5830   5.7536
     5.9052   6.1252   6.6192   6.8140

     occupation numbers 
     1.0000   1.0000   1.0000   1.0000   1.0000   1.0000   1.0000   1.0000
     1.0000   1.0000   1.0000   1.0000   1.0000   1.0000   1.0000   1.0000
     1.0000   1.0000   1.0000   1.0000   1.0000   1.0000   1.0000   1.0000
     1.0000   1.0000   1.0000   1.0000   1.0000   1.0000   1.0000   1.0000
     1.0000   1.0000   1.0000   1.0000

          k =-0.1667 0.2887 0.3896 (  3926 PWs)   bands (ev):

   -10.8998 -10.6687 -10.1629 -10.0539   0.9303   1.0420   1.1243   1.2106
     1.2583   1.3271   1.4104   1.4478   1.7148   1.8259   1.9867   2.0779
     2.4067   2.4278   2.4604   2.4887   2.5360   2.5861   2.7747   2.8274
     3.0823   3.3617   3.8634   4.4246   5.0952   5.1723   5.3590   5.6681
     6.0091   6.2493   6.4338   6.6759

     occupation numbers 
     1.0000   1.0000   1.0000   1.0000   1.0000   1.0000   1.0000   1.0000
     1.0000   1.0000   1.0000   1.0000   1.0000   1.0000   1.0000   1.0000
     1.0000   1.0000   1.0000   1.0000   1.0000   1.0000   1.0000   1.0000
     1.0000   1.0000   1.0000   1.0000   1.0000   1.0000   1.0000   1.0000
     1.0000   1.0000   1.0000   1.0000

          k =-0.3333-0.1925 0.1948 (  3926 PWs)   bands (ev):

   -10.9739 -10.6807 -10.2750 -10.0962   0.8120   0.9967   1.1331   1.2323
     1.3290   1.3731   1.4665   1.4915   1.7153   1.7628   1.8762   1.9146
     2.2809   2.3754   2.4234   2.4519   2.5628   2.6491   2.7332   2.7826
     3.2000   3.4951   3.8732   4.6365   5.2817   5.3836   5.7466   5.9992
     6.0601   6.3311   6.5531   6.7490

     occupation numbers 
     1.0000   1.0000   1.0000   1.0000   1.0000   1.0000   1.0000   1.0000
     1.0000   1.0000   1.0000   1.0000   1.0000   1.0000   1.0000   1.0000
     1.0000   1.0000   1.0000   1.0000   1.0000   1.0000   1.0000   1.0000
     1.0000   1.0000   1.0000   1.0000   1.0000   1.0000   1.0000   1.0000
     1.0000   1.0000   1.0000   1.0000

          k =-0.3333-0.1925 0.3896 (  3921 PWs)   bands (ev):

   -10.8947 -10.7117 -10.2830 -10.1408   0.7865   0.9090   1.0418   1.1248
     1.3056   1.3539   1.4581   1.4877   1.7115   1.7381   1.7782   1.8559
     2.3585   2.3971   2.4548   2.4814   2.5542   2.5651   2.7043   2.7346
     3.6509   3.8829   4.0679   4.8045   5.1488   5.5081   5.6468   5.8618
     5.9502   6.2971   6.3662   6.6300

     occupation numbers 
     1.0000   1.0000   1.0000   1.0000   1.0000   1.0000   1.0000   1.0000
     1.0000   1.0000   1.0000   1.0000   1.0000   1.0000   1.0000   1.0000
     1.0000   1.0000   1.0000   1.0000   1.0000   1.0000   1.0000   1.0000
     1.0000   1.0000   1.0000   1.0000   1.0000   1.0000   1.0000   1.0000
     1.0000   1.0000   1.0000   1.0000

          k =-0.3333-0.5774 0.1948 (  3934 PWs)   bands (ev):

   -10.8456 -10.6400 -10.2542 -10.0612   0.8858   1.0030   1.1156   1.2516
     1.3686   1.4167   1.4950   1.5888   1.7145   1.7851   1.8472   1.9330
     2.2804   2.3438   2.4157   2.4707   2.5520   2.6582   2.7394   2.8108
     3.3413   3.5565   4.3911   4.5911   4.6615   4.7843   5.3792   5.4613
     6.1525   6.2181   6.2923   6.3588

     occupation numbers 
     1.0000   1.0000   1.0000   1.0000   1.0000   1.0000   1.0000   1.0000
     1.0000   1.0000   1.0000   1.0000   1.0000   1.0000   1.0000   1.0000
     1.0000   1.0000   1.0000   1.0000   1.0000   1.0000   1.0000   1.0000
     1.0000   1.0000   1.0000   1.0000   1.0000   1.0000   1.0000   1.0000
     1.0000   1.0000   1.0000   1.0000

          k =-0.3333-0.5774 0.3896 (  3904 PWs)   bands (ev):

   -10.7841 -10.6492 -10.2641 -10.1048   0.8516   0.9549   1.0144   1.1282
     1.3341   1.4161   1.4599   1.5714   1.6939   1.7504   1.7988   1.8226
     2.3519   2.4006   2.4462   2.4937   2.5387   2.5776   2.7114   2.7483
     3.8501   3.9594   4.4751   4.5409   4.8079   4.9879   5.4719   5.5321
     5.9628   6.0089   6.1018   6.1805

     occupation numbers 
     1.0000   1.0000   1.0000   1.0000   1.0000   1.0000   1.0000   1.0000
     1.0000   1.0000   1.0000   1.0000   1.0000   1.0000   1.0000   1.0000
     1.0000   1.0000   1.0000   1.0000   1.0000   1.0000   1.0000   1.0000
     1.0000   1.0000   1.0000   1.0000   1.0000   1.0000   1.0000   1.0000
     1.0000   1.0000   1.0000   1.0000

          k =-0.3333 0.9623 0.1948 (  3932 PWs)   bands (ev):

   -10.6202 -10.4287 -10.1161  -9.9228   1.0292   1.0747   1.2269   1.2793
     1.4350   1.5483   1.6944   1.7627   1.8144   1.8855   2.0078   2.0813
     2.3478   2.3895   2.4874   2.5187   2.6044   2.7611   2.8713   2.8939
     3.1891   3.3938   3.6097   3.7559   4.1699   4.4165   4.7078   4.8163
     5.4825   5.7048   5.8669   5.9444

     occupation numbers 
     1.0000   1.0000   1.0000   1.0000   1.0000   1.0000   1.0000   1.0000
     1.0000   1.0000   1.0000   1.0000   1.0000   1.0000   1.0000   1.0000
     1.0000   1.0000   1.0000   1.0000   1.0000   1.0000   1.0000   1.0000
     1.0000   1.0000   1.0000   1.0000   1.0000   1.0000   1.0000   1.0000
     1.0000   1.0000   1.0000   1.0000

          k =-0.3333 0.9623 0.3896 (  3936 PWs)   bands (ev):

   -10.5803 -10.4646 -10.0939  -9.9407   0.9705   1.0562   1.1238   1.1800
     1.4197   1.5492   1.6410   1.6973   1.7924   1.8191   1.9023   1.9807
     2.4371   2.4566   2.5211   2.5554   2.6249   2.7546   2.8205   2.8632
     3.2555   3.4479   3.5656   3.6715   4.5246   4.6714   5.0199   5.2105
     5.3194   5.5733   5.8095   5.9261

     occupation numbers 
     1.0000   1.0000   1.0000   1.0000   1.0000   1.0000   1.0000   1.0000
     1.0000   1.0000   1.0000   1.0000   1.0000   1.0000   1.0000   1.0000
     1.0000   1.0000   1.0000   1.0000   1.0000   1.0000   1.0000   1.0000
     1.0000   1.0000   1.0000   1.0000   1.0000   1.0000   1.0000   1.0000
     1.0000   1.0000   1.0000   1.0000

          k =-0.3333 0.5774 0.1948 (  3950 PWs)   bands (ev):

   -10.7584 -10.4871 -10.1106  -9.9701   1.0253   1.0860   1.2358   1.3493
     1.4009   1.5454   1.6228   1.6780   1.7870   1.8991   2.1185   2.2022
     2.3392   2.3660   2.3904   2.4634   2.5665   2.6585   2.7320   2.8309
     3.2372   3.3843   3.4675   3.5565   4.7000   4.7473   5.0451   5.2034
     5.2597   5.4463   6.2756   6.3208

     occupation numbers 
     1.0000   1.0000   1.0000   1.0000   1.0000   1.0000   1.0000   1.0000
     1.0000   1.0000   1.0000   1.0000   1.0000   1.0000   1.0000   1.0000
     1.0000   1.0000   1.0000   1.0000   1.0000   1.0000   1.0000   1.0000
     1.0000   1.0000   1.0000   1.0000   1.0000   1.0000   1.0000   1.0000
     1.0000   1.0000   1.0000   1.0000

          k =-0.3333 0.5774 0.3896 (  3920 PWs)   bands (ev):

   -10.6987 -10.5339 -10.1069  -9.9818   0.9508   1.0486   1.2598   1.2950
     1.3795   1.4381   1.5459   1.6022   1.6982   1.7629   2.0573   2.1348
     2.3746   2.3925   2.4410   2.4999   2.5858   2.6281   2.8288   2.9132
     3.1780   3.3773   3.8134   3.9105   4.5795   4.6850   5.0840   5.4240
     5.4847   5.6236   6.0923   6.1171

     occupation numbers 
     1.0000   1.0000   1.0000   1.0000   1.0000   1.0000   1.0000   1.0000
     1.0000   1.0000   1.0000   1.0000   1.0000   1.0000   1.0000   1.0000
     1.0000   1.0000   1.0000   1.0000   1.0000   1.0000   1.0000   1.0000
     1.0000   1.0000   1.0000   1.0000   1.0000   1.0000   1.0000   1.0000
     1.0000   1.0000   1.0000   1.0000

     highest occupied level (ev):     7.0532

!    total energy              =    -723.23008945 Ry
     estimated scf accuracy    <          7.4E-09 Ry

     The total energy is the sum of the following terms:
     one-electron contribution =    -311.18784829 Ry
     hartree contribution      =     237.64708350 Ry
     xc contribution           =    -219.12990067 Ry
     ewald contribution        =    -430.55942399 Ry

     convergence has been achieved in  30 iterations

     Forces acting on atoms (cartesian axes, Ry/au):

     atom    1 type  1   force =    -0.00180232    0.03172043    0.02663707
     atom    2 type  1   force =     0.03859416    0.02203232    0.01167352
     atom    3 type  2   force =    -0.01906341   -0.01107252   -0.01976157
     atom    4 type  2   force =     0.06359937   -0.00386640   -0.03541903
     atom    5 type  1   force =     0.00248327   -0.05855513    0.01107673
     atom    6 type  1   force =     0.01842306    0.00529235    0.02071155
     atom    7 type  2   force =    -0.02917763   -0.01601572    0.02845509
     atom    8 type  2   force =    -0.07305650    0.03046467   -0.04337335
     The non-local contrib.  to forces
     atom    1 type  1   force =    -0.06042284    0.13803311    0.16221994
     atom    2 type  1   force =     0.03530285    0.02091836    0.20583767
     atom    3 type  2   force =     0.11159947    0.04087908    0.24684753
     atom    4 type  2   force =     0.00970276    0.07397392    0.10815252
     atom    5 type  1   force =     0.06212252   -0.20222695    0.11177798
     atom    6 type  1   force =     0.15002572    0.07099491    0.20302779
     atom    7 type  2   force =     0.10003298    0.05801547    0.16005748
     atom    8 type  2   force =    -0.09190993   -0.17258204    0.13558183
     The ionic contribution  to forces
     atom    1 type  1   force =     0.68591732    1.97128833    2.05185613
     atom    2 type  1   force =     1.88887393    0.93304341    1.02751488
     atom    3 type  2   force =    -0.48294204   -0.05653194   -2.08945903
     atom    4 type  2   force =     1.83243736   -0.14509492   -1.26080937
     atom    5 type  1   force =    -0.65862575   -2.53036484    0.09924648
     atom    6 type  1   force =    -0.59334736   -0.26798978    2.36681103
     atom    7 type  2   force =    -1.23275911   -0.89834514   -0.01683603
     atom    8 type  2   force =    -1.43955435    0.99399488   -2.17832409
     The local contribution  to forces
     atom    1 type  1   force =    -0.63067685   -2.06575565   -2.17396456
     atom    2 type  1   force =    -1.87919661   -0.92828024   -1.20812672
     atom    3 type  2   force =     0.35316273    0.00488429    1.82488236
     atom    4 type  2   force =    -1.77800892    0.06785928    1.11795679
     atom    5 type  1   force =     0.60237190    2.65500587   -0.19295247
     atom    6 type  1   force =     0.47147090    0.20647191   -2.53388960
     atom    7 type  2   force =     1.10427097    0.82470445   -0.11314491
     atom    8 type  2   force =     1.45708663   -0.79230225    2.00022380
     The core correction contribution to forces
     atom    1 type  1   force =     0.00335244   -0.01186974   -0.01345654
     atom    2 type  1   force =    -0.00637375   -0.00363851   -0.01357429
     atom    3 type  2   force =    -0.00089414   -0.00031214   -0.00203810
     atom    4 type  2   force =    -0.00054530   -0.00061819   -0.00072027
     atom    5 type  1   force =    -0.00336251    0.01906210   -0.00700318
     atom    6 type  1   force =    -0.00974894   -0.00419402   -0.01526584
     atom    7 type  2   force =    -0.00072214   -0.00039239   -0.00162185
     atom    8 type  2   force =     0.00134006    0.00136778   -0.00085909
     The Hubbard contrib.    to forces
     atom    1 type  1   force =     0.00000000    0.00000000    0.00000000
     atom    2 type  1   force =     0.00000000    0.00000000    0.00000000
     atom    3 type  2   force =     0.00000000    0.00000000    0.00000000
     atom    4 type  2   force =     0.00000000    0.00000000    0.00000000
     atom    5 type  1   force =     0.00000000    0.00000000    0.00000000
     atom    6 type  1   force =     0.00000000    0.00000000    0.00000000
     atom    7 type  2   force =     0.00000000    0.00000000    0.00000000
     atom    8 type  2   force =     0.00000000    0.00000000    0.00000000
     The SCF correction term to forces
     atom    1 type  1   force =     0.00002901    0.00002257   -0.00001475
     atom    2 type  1   force =    -0.00001086   -0.00001251    0.00002514
     atom    3 type  2   force =     0.00001196    0.00000639    0.00000883
     atom    4 type  2   force =     0.00001486    0.00001170    0.00000446
     atom    5 type  1   force =    -0.00002149   -0.00003312    0.00001109
     atom    6 type  1   force =     0.00002412    0.00000753    0.00003133
     atom    7 type  2   force =     0.00000107    0.00000008    0.00000356
     atom    8 type  2   force =    -0.00001751   -0.00001552    0.00000735

     Total force =     0.156330     Total SCF correction =     0.000084

     init_run     :      7.01s CPU      4.30s WALL (       1 calls)
     electrons    :    388.57s CPU    201.04s WALL (       1 calls)
     forces       :      2.01s CPU      1.00s WALL (       1 calls)

     Called by init_run:
     wfcinit      :      4.63s CPU      2.40s WALL (       1 calls)
     wfcinit:atom :      0.05s CPU      0.02s WALL (      28 calls)
     wfcinit:wfcr :      4.32s CPU      2.19s WALL (      28 calls)
     potinit      :      0.70s CPU      0.47s WALL (       1 calls)
     hinit0       :      1.55s CPU      1.33s WALL (       1 calls)

     Called by electrons:
     c_bands      :    335.49s CPU    175.23s WALL (      30 calls)
     sum_band     :     46.71s CPU     22.44s WALL (      30 calls)
     v_of_rho     :      2.92s CPU      1.54s WALL (      31 calls)
     v_h          :      0.20s CPU      0.10s WALL (      31 calls)
     v_xc         :      2.81s CPU      1.48s WALL (      32 calls)
     newd         :      2.76s CPU      1.43s WALL (      31 calls)
     mix_rho      :      0.46s CPU      0.28s WALL (      30 calls)

     Called by c_bands:
     init_us_2    :      2.73s CPU      1.51s WALL (    1736 calls)
     init_us_2:cp :      2.72s CPU      1.51s WALL (    1736 calls)
     cegterg      :    311.09s CPU    158.32s WALL (     840 calls)

     Called by sum_band:
     sum_band:wei :      0.01s CPU      0.01s WALL (      30 calls)
     sum_band:loo :     43.04s CPU     20.44s WALL (      30 calls)
     sum_band:buf :      0.33s CPU      0.21s WALL (     840 calls)
     sum_band:ini :      1.16s CPU      0.60s WALL (     840 calls)
     sum_band:cal :      4.94s CPU      2.13s WALL (     840 calls)
     sum_band:bec :      0.17s CPU      0.12s WALL (     840 calls)
     addusdens    :      2.72s CPU      1.28s WALL (      30 calls)
     addusd:skk   :      0.02s CPU      0.01s WALL (      60 calls)
     addusd:dgemm :      0.62s CPU      0.29s WALL (      60 calls)
     addusd:qvan2 :      1.77s CPU      0.82s WALL (      60 calls)

     Called by *egterg:
     cdiaghg      :     25.13s CPU     20.95s WALL (    3906 calls)
     cegterg:over :     17.88s CPU      9.78s WALL (    3066 calls)
     cegterg:upda :     10.85s CPU      4.97s WALL (    3066 calls)
     cegterg:last :     17.23s CPU      8.15s WALL (    2133 calls)
     cdiaghg:chol :      1.31s CPU      1.08s WALL (    3906 calls)
     cdiaghg:inve :      0.44s CPU      0.34s WALL (    3906 calls)
     cdiaghg:para :      3.40s CPU      2.92s WALL (    7812 calls)
     h_psi        :    224.08s CPU    107.23s WALL (    3934 calls)
     s_psi        :     12.46s CPU      5.04s WALL (    3934 calls)
     g_psi        :      0.85s CPU      0.46s WALL (    3066 calls)

     Called by h_psi:
     h_psi:calbec :     18.17s CPU      7.60s WALL (    3934 calls)
     vloc_psi     :    196.02s CPU     94.44s WALL (    3934 calls)
     add_vuspsi   :      9.17s CPU      4.85s WALL (    3934 calls)

     General routines
     calbec       :     23.72s CPU      9.99s WALL (    4886 calls)
     fft          :      2.71s CPU      1.79s WALL (     412 calls)
     ffts         :      0.29s CPU      0.25s WALL (      61 calls)
     fftw         :    206.86s CPU     99.75s WALL (  209156 calls)
     interpolate  :      0.39s CPU      0.30s WALL (      31 calls)

     Parallel routines

     PWSCF        :   6m37.99s CPU   3m26.76s WALL


   This run was terminated on:  18: 4: 4  23Sep2025            

=------------------------------------------------------------------------------=
   JOB DONE.
=------------------------------------------------------------------------------=
Note: The following floating-point exceptions are signalling: IEEE_UNDERFLOW_FLAG IEEE_DENORMAL
Note: The following floating-point exceptions are signalling: IEEE_UNDERFLOW_FLAG IEEE_DENORMAL
Note: The following floating-point exceptions are signalling: IEEE_UNDERFLOW_FLAG IEEE_DENORMAL
Note: The following floating-point exceptions are signalling: IEEE_UNDERFLOW_FLAG IEEE_DENORMAL
Note: The following floating-point exceptions are signalling: IEEE_UNDERFLOW_FLAG IEEE_DENORMAL
Note: The following floating-point exceptions are signalling: IEEE_UNDERFLOW_FLAG IEEE_DENORMAL
Note: The following floating-point exceptions are signalling: IEEE_UNDERFLOW_FLAG IEEE_DENORMAL
Note: The following floating-point exceptions are signalling: IEEE_UNDERFLOW_FLAG IEEE_DENORMAL
Note: The following floating-point exceptions are signalling: IEEE_UNDERFLOW_FLAG IEEE_DENORMAL
Note: The following floating-point exceptions are signalling: IEEE_UNDERFLOW_FLAG IEEE_DENORMAL
Note: The following floating-point exceptions are signalling: IEEE_UNDERFLOW_FLAG IEEE_DENORMAL
Note: The following floating-point exceptions are signalling: IEEE_UNDERFLOW_FLAG IEEE_DENORMAL
Note: The following floating-point exceptions are signalling: IEEE_UNDERFLOW_FLAG IEEE_DENORMAL
Note: The following floating-point exceptions are signalling: IEEE_UNDERFLOW_FLAG IEEE_DENORMAL
Note: The following floating-point exceptions are signalling: IEEE_UNDERFLOW_FLAG IEEE_DENORMAL
Note: The following floating-point exceptions are signalling: IEEE_UNDERFLOW_FLAG IEEE_DENORMAL
