
     Program PWSCF v.7.0 starts on 23Sep2025 at 13:46:25 

     This program is part of the open-source Quantum ESPRESSO suite
     for quantum simulation of materials; please cite
         "P. Giannozzi et al., J. Phys.:Condens. Matter 21 395502 (2009);
         "P. Giannozzi et al., J. Phys.:Condens. Matter 29 465901 (2017);
         "P. Giannozzi et al., J. Chem. Phys. 152 154105 (2020);
          URL http://www.quantum-espresso.org", 
     in publications or presentations arising from this work. More details at
     http://www.quantum-espresso.org/quote

     Parallel version (MPI & OpenMP), running on      32 processor cores
     Number of MPI processes:                16
     Threads/MPI process:                     2

     MPI processes distributed on     1 nodes
     K-points division:     npool     =       4
     R & G space division:  proc/nbgrp/npool/nimage =       4
     106806 MiB available memory on the printing compute node when the environment starts

     Reading input from /home/jvc/QEspresso7.2/ZnO_database/scripts/random_2x1x1.in/ZnO-3.07-1.61-211-0.12-3.in
Warning: card &CELL ignored
Warning: card / ignored
Warning: card &FCP ignored
Warning: card / ignored
Warning: card &RISM ignored
Warning: card / ignored

     Current dimensions of program PWSCF are:
     Max number of different atomic species (ntypx) = 10
     Max number of k-points (npk) =  40000
     Max angular momentum in pseudopotentials (lmaxx) =  4
     file Zn.upf: wavefunction(s)  3D renormalized

     Subspace diagonalization in iterative solution of the eigenvalue problem:
     one sub-group per band group will be used
     scalapack distributed-memory algorithm (size of sub-group:  2*  2 procs)


     Parallelization info
     --------------------
     sticks:   dense  smooth     PW     G-vecs:    dense   smooth      PW
     Min         463     232     73                18497     6548    1163
     Max         464     233     74                18499     6551    1168
     Sum        1853     931    295                73991    26201    4665

     Using Slab Decomposition



     bravais-lattice index     =            0
     lattice parameter (alat)  =      11.6162  a.u.
     unit-cell volume          =     547.8579 (a.u.)^3
     number of atoms/cell      =            8
     number of atomic types    =            2
     number of electrons       =        72.00
     number of Kohn-Sham states=           36
     kinetic-energy cutoff     =      50.0000  Ry
     charge density cutoff     =     400.0000  Ry
     scf convergence threshold =      1.0E-08
     mixing beta               =       0.3000
     number of iterations used =            8  plain     mixing
     Exchange-correlation= PBE
                           (   1   4   3   4   0   0   0)

     celldm(1)=  11.616245  celldm(2)=   0.000000  celldm(3)=   0.000000
     celldm(4)=   0.000000  celldm(5)=   0.000000  celldm(6)=   0.000000

     crystal axes: (cart. coord. in units of alat)
               a(1) = (   1.000000   0.000000   0.000000 )  
               a(2) = (  -0.250000   0.433013   0.000000 )  
               a(3) = (   0.000000   0.000000   0.807179 )  

     reciprocal axes: (cart. coord. in units 2 pi/alat)
               b(1) = (  1.000000  0.577350 -0.000000 )  
               b(2) = (  0.000000  2.309401  0.000000 )  
               b(3) = (  0.000000 -0.000000  1.238882 )  


     PseudoPot. # 1 for Zn read from file:
     /home/jvc/QEspresso7.2/ZnO_database/pseudos/Zn.upf
     MD5 check sum: 7f56cabf9682ed8c977c2f7d0c5985c5
     Pseudo is Ultrasoft + core correction, Zval = 12.0
     Generated using &quot;atomic&quot; code by A. Dal Corso  v.6.2.2
     Using radial grid of 1201 points,  6 beta functions with: 
                l(1) =   0
                l(2) =   0
                l(3) =   1
                l(4) =   1
                l(5) =   2
                l(6) =   2
     Q(r) pseudized with 0 coefficients 


     PseudoPot. # 2 for O  read from file:
     /home/jvc/QEspresso7.2/ZnO_database/pseudos/O.upf
     MD5 check sum: 91400c9766925bcf19f520983a725ff0
     Pseudo is Ultrasoft + core correction, Zval =  6.0
     Generated using &quot;atomic&quot; code by A. Dal Corso  v.6.3MaX
     Using radial grid of 1095 points,  4 beta functions with: 
                l(1) =   0
                l(2) =   0
                l(3) =   1
                l(4) =   1
     Q(r) pseudized with 0 coefficients 


     atomic species   valence    mass     pseudopotential
        Zn            12.00    65.38000     Zn( 1.00)
        O              6.00    15.99900     O ( 1.00)

     No symmetry found


                                    s                        frac. trans.

      isym =  1     identity                                     

 cryst.   s( 1) = (     1          0          0      )
                  (     0          1          0      )
                  (     0          0          1      )

 cart.    s( 1) = (  1.0000000  0.0000000  0.0000000 )
                  (  0.0000000  1.0000000  0.0000000 )
                  (  0.0000000  0.0000000  1.0000000 )


   Cartesian axes

     site n.     atom                  positions (alat units)
         1           Zn  tau(   1) = (   0.2106581   0.1532829   0.3924314  )
         2           Zn  tau(   2) = (  -0.0045106   0.2968739  -0.0204092  )
         3           O   tau(   3) = (   0.2572231   0.1166534   0.7073239  )
         4           O   tau(   4) = (  -0.0017963   0.2525237   0.3542895  )
         5           Zn  tau(   5) = (   0.7304515   0.1114430   0.3932640  )
         6           Zn  tau(   6) = (   0.4727864   0.2731680   0.0005289  )
         7           O   tau(   7) = (   0.7757899   0.1597697   0.7125336  )
         8           O   tau(   8) = (   0.5053203   0.3018833   0.2943119  )

   Crystallographic axes

     site n.     atom                  positions (cryst. coord.)
         1           Zn  tau(   1) = (  0.2991561  0.3539918  0.4861763  )
         2           Zn  tau(   2) = (  0.1668897  0.6856009 -0.0252846  )
         3           O   tau(   3) = (  0.3245729  0.2693994  0.8762910  )
         4           O   tau(   4) = (  0.1439983  0.5831785  0.4389230  )
         5           Zn  tau(   5) = (  0.7947931  0.2573665  0.4872078  )
         6           Zn  tau(   6) = (  0.6305000  0.6308545  0.0006552  )
         7           O   tau(   7) = (  0.8680330  0.3689723  0.8827453  )
         8           O   tau(   8) = (  0.6796127  0.6971695  0.3646178  )

     number of k points=   112
                       cart. coord. in units 2pi/alat
        k(    1) = (   0.0000000   0.0000000   0.0000000), wk =   0.0092593
        k(    2) = (   0.0000000   0.0000000   0.2064804), wk =   0.0185185
        k(    3) = (   0.0000000   0.0000000   0.4129608), wk =   0.0185185
        k(    4) = (   0.0000000   0.0000000  -0.6194412), wk =   0.0092593
        k(    5) = (   0.0000000   0.3849002   0.0000000), wk =   0.0185185
        k(    6) = (   0.0000000   0.3849002   0.2064804), wk =   0.0185185
        k(    7) = (   0.0000000   0.3849002   0.4129608), wk =   0.0185185
        k(    8) = (   0.0000000   0.3849002  -0.6194412), wk =   0.0185185
        k(    9) = (   0.0000000   0.7698004   0.0000000), wk =   0.0185185
        k(   10) = (   0.0000000   0.7698004   0.2064804), wk =   0.0185185
        k(   11) = (   0.0000000   0.7698004   0.4129608), wk =   0.0185185
        k(   12) = (   0.0000000   0.7698004  -0.6194412), wk =   0.0185185
        k(   13) = (   0.0000000  -1.1547005   0.0000000), wk =   0.0092593
        k(   14) = (   0.0000000  -1.1547005   0.2064804), wk =   0.0185185
        k(   15) = (   0.0000000  -1.1547005   0.4129608), wk =   0.0185185
        k(   16) = (   0.0000000  -1.1547005  -0.6194412), wk =   0.0092593
        k(   17) = (   0.1666667   0.0962250   0.0000000), wk =   0.0185185
        k(   18) = (   0.1666667   0.0962250   0.2064804), wk =   0.0185185
        k(   19) = (   0.1666667   0.0962250   0.4129608), wk =   0.0185185
        k(   20) = (   0.1666667   0.0962250  -0.6194412), wk =   0.0185185
        k(   21) = (   0.1666667   0.4811252   0.0000000), wk =   0.0185185
        k(   22) = (   0.1666667   0.4811252   0.2064804), wk =   0.0185185
        k(   23) = (   0.1666667   0.4811252   0.4129608), wk =   0.0185185
        k(   24) = (   0.1666667   0.4811252  -0.6194412), wk =   0.0185185
        k(   25) = (   0.1666667   0.8660254   0.0000000), wk =   0.0185185
        k(   26) = (   0.1666667   0.8660254   0.2064804), wk =   0.0185185
        k(   27) = (   0.1666667   0.8660254   0.4129608), wk =   0.0185185
        k(   28) = (   0.1666667   0.8660254  -0.6194412), wk =   0.0185185
        k(   29) = (   0.1666667  -1.0584755   0.0000000), wk =   0.0185185
        k(   30) = (   0.1666667  -1.0584755   0.2064804), wk =   0.0185185
        k(   31) = (   0.1666667  -1.0584755   0.4129608), wk =   0.0185185
        k(   32) = (   0.1666667  -1.0584755  -0.6194412), wk =   0.0185185
        k(   33) = (   0.1666667  -0.6735753   0.0000000), wk =   0.0185185
        k(   34) = (   0.1666667  -0.6735753   0.2064804), wk =   0.0185185
        k(   35) = (   0.1666667  -0.6735753   0.4129608), wk =   0.0185185
        k(   36) = (   0.1666667  -0.6735753  -0.6194412), wk =   0.0185185
        k(   37) = (   0.1666667  -0.2886751   0.0000000), wk =   0.0185185
        k(   38) = (   0.1666667  -0.2886751   0.2064804), wk =   0.0185185
        k(   39) = (   0.1666667  -0.2886751   0.4129608), wk =   0.0185185
        k(   40) = (   0.1666667  -0.2886751  -0.6194412), wk =   0.0185185
        k(   41) = (   0.3333333   0.1924501   0.0000000), wk =   0.0185185
        k(   42) = (   0.3333333   0.1924501   0.2064804), wk =   0.0185185
        k(   43) = (   0.3333333   0.1924501   0.4129608), wk =   0.0185185
        k(   44) = (   0.3333333   0.1924501  -0.6194412), wk =   0.0185185
        k(   45) = (   0.3333333   0.5773503   0.0000000), wk =   0.0185185
        k(   46) = (   0.3333333   0.5773503   0.2064804), wk =   0.0185185
        k(   47) = (   0.3333333   0.5773503   0.4129608), wk =   0.0185185
        k(   48) = (   0.3333333   0.5773503  -0.6194412), wk =   0.0185185
        k(   49) = (   0.3333333  -0.9622504   0.0000000), wk =   0.0185185
        k(   50) = (   0.3333333  -0.9622504   0.2064804), wk =   0.0185185
        k(   51) = (   0.3333333  -0.9622504   0.4129608), wk =   0.0185185
        k(   52) = (   0.3333333  -0.9622504  -0.6194412), wk =   0.0185185
        k(   53) = (   0.3333333  -0.5773503   0.0000000), wk =   0.0185185
        k(   54) = (   0.3333333  -0.5773503   0.2064804), wk =   0.0185185
        k(   55) = (   0.3333333  -0.5773503   0.4129608), wk =   0.0185185
        k(   56) = (   0.3333333  -0.5773503  -0.6194412), wk =   0.0185185
        k(   57) = (  -0.5000000  -0.2886751   0.0000000), wk =   0.0092593
        k(   58) = (  -0.5000000  -0.2886751   0.2064804), wk =   0.0185185
        k(   59) = (  -0.5000000  -0.2886751   0.4129608), wk =   0.0185185
        k(   60) = (  -0.5000000  -0.2886751  -0.6194412), wk =   0.0092593
        k(   61) = (  -0.5000000  -1.4433757   0.0000000), wk =   0.0092593
        k(   62) = (  -0.5000000  -1.4433757   0.2064804), wk =   0.0185185
        k(   63) = (  -0.5000000  -1.4433757   0.4129608), wk =   0.0185185
        k(   64) = (  -0.5000000  -1.4433757  -0.6194412), wk =   0.0092593
        k(   65) = (   0.3333333  -0.1924501   0.0000000), wk =   0.0185185
        k(   66) = (   0.0000000  -0.3849002   0.2064804), wk =   0.0185185
        k(   67) = (   0.3333333  -0.1924501  -0.2064804), wk =   0.0185185
        k(   68) = (  -0.3333333   0.1924501  -0.2064804), wk =   0.0185185
        k(   69) = (   0.0000000  -0.3849002   0.4129608), wk =   0.0185185
        k(   70) = (   0.3333333  -0.1924501  -0.4129608), wk =   0.0185185
        k(   71) = (  -0.3333333   0.1924501  -0.4129608), wk =   0.0185185
        k(   72) = (   0.3333333  -0.1924501   0.6194412), wk =   0.0185185
        k(   73) = (   0.6666667  -0.3849002   0.0000000), wk =   0.0185185
        k(   74) = (   0.0000000  -0.7698004   0.2064804), wk =   0.0185185
        k(   75) = (   0.6666667  -0.3849002  -0.2064804), wk =   0.0185185
        k(   76) = (  -0.6666667   0.3849002  -0.2064804), wk =   0.0185185
        k(   77) = (   0.0000000  -0.7698004   0.4129608), wk =   0.0185185
        k(   78) = (   0.6666667  -0.3849002  -0.4129608), wk =   0.0185185
        k(   79) = (  -0.6666667   0.3849002  -0.4129608), wk =   0.0185185
        k(   80) = (   0.6666667  -0.3849002   0.6194412), wk =   0.0185185
        k(   81) = (  -0.1666667  -0.0962250   0.2064804), wk =   0.0185185
        k(   82) = (  -0.1666667  -0.0962250   0.4129608), wk =   0.0185185
        k(   83) = (   0.5000000  -0.0962250   0.0000000), wk =   0.0185185
        k(   84) = (  -0.1666667  -0.4811252   0.2064804), wk =   0.0185185
        k(   85) = (   0.5000000  -0.0962250  -0.2064804), wk =   0.0185185
        k(   86) = (  -0.5000000   0.0962250  -0.2064804), wk =   0.0185185
        k(   87) = (  -0.1666667  -0.4811252   0.4129608), wk =   0.0185185
        k(   88) = (   0.5000000  -0.0962250  -0.4129608), wk =   0.0185185
        k(   89) = (  -0.5000000   0.0962250  -0.4129608), wk =   0.0185185
        k(   90) = (   0.5000000  -0.0962250   0.6194412), wk =   0.0185185
        k(   91) = (  -0.1666667  -0.8660254   0.2064804), wk =   0.0185185
        k(   92) = (  -0.1666667  -0.8660254   0.4129608), wk =   0.0185185
        k(   93) = (  -0.1666667   1.0584755   0.2064804), wk =   0.0185185
        k(   94) = (  -0.1666667   1.0584755   0.4129608), wk =   0.0185185
        k(   95) = (  -0.5000000   0.4811252   0.0000000), wk =   0.0185185
        k(   96) = (  -0.1666667   0.6735753   0.2064804), wk =   0.0185185
        k(   97) = (  -0.5000000   0.4811252  -0.2064804), wk =   0.0185185
        k(   98) = (   0.5000000  -0.4811252  -0.2064804), wk =   0.0185185
        k(   99) = (  -0.1666667   0.6735753   0.4129608), wk =   0.0185185
        k(  100) = (  -0.5000000   0.4811252  -0.4129608), wk =   0.0185185
        k(  101) = (   0.5000000  -0.4811252  -0.4129608), wk =   0.0185185
        k(  102) = (  -0.5000000   0.4811252   0.6194412), wk =   0.0185185
        k(  103) = (  -0.1666667   0.2886751   0.2064804), wk =   0.0185185
        k(  104) = (  -0.1666667   0.2886751   0.4129608), wk =   0.0185185
        k(  105) = (  -0.3333333  -0.1924501   0.2064804), wk =   0.0185185
        k(  106) = (  -0.3333333  -0.1924501   0.4129608), wk =   0.0185185
        k(  107) = (  -0.3333333  -0.5773503   0.2064804), wk =   0.0185185
        k(  108) = (  -0.3333333  -0.5773503   0.4129608), wk =   0.0185185
        k(  109) = (  -0.3333333   0.9622504   0.2064804), wk =   0.0185185
        k(  110) = (  -0.3333333   0.9622504   0.4129608), wk =   0.0185185
        k(  111) = (  -0.3333333   0.5773503   0.2064804), wk =   0.0185185
        k(  112) = (  -0.3333333   0.5773503   0.4129608), wk =   0.0185185

                       cryst. coord.
        k(    1) = (   0.0000000   0.0000000   0.0000000), wk =   0.0092593
        k(    2) = (   0.0000000   0.0000000   0.1666667), wk =   0.0185185
        k(    3) = (   0.0000000   0.0000000   0.3333333), wk =   0.0185185
        k(    4) = (   0.0000000   0.0000000  -0.5000000), wk =   0.0092593
        k(    5) = (   0.0000000   0.1666667   0.0000000), wk =   0.0185185
        k(    6) = (   0.0000000   0.1666667   0.1666667), wk =   0.0185185
        k(    7) = (   0.0000000   0.1666667   0.3333333), wk =   0.0185185
        k(    8) = (   0.0000000   0.1666667  -0.5000000), wk =   0.0185185
        k(    9) = (   0.0000000   0.3333333   0.0000000), wk =   0.0185185
        k(   10) = (   0.0000000   0.3333333   0.1666667), wk =   0.0185185
        k(   11) = (   0.0000000   0.3333333   0.3333333), wk =   0.0185185
        k(   12) = (   0.0000000   0.3333333  -0.5000000), wk =   0.0185185
        k(   13) = (   0.0000000  -0.5000000   0.0000000), wk =   0.0092593
        k(   14) = (   0.0000000  -0.5000000   0.1666667), wk =   0.0185185
        k(   15) = (   0.0000000  -0.5000000   0.3333333), wk =   0.0185185
        k(   16) = (   0.0000000  -0.5000000  -0.5000000), wk =   0.0092593
        k(   17) = (   0.1666667  -0.0000000   0.0000000), wk =   0.0185185
        k(   18) = (   0.1666667  -0.0000000   0.1666667), wk =   0.0185185
        k(   19) = (   0.1666667  -0.0000000   0.3333333), wk =   0.0185185
        k(   20) = (   0.1666667  -0.0000000  -0.5000000), wk =   0.0185185
        k(   21) = (   0.1666667   0.1666667   0.0000000), wk =   0.0185185
        k(   22) = (   0.1666667   0.1666667   0.1666667), wk =   0.0185185
        k(   23) = (   0.1666667   0.1666667   0.3333333), wk =   0.0185185
        k(   24) = (   0.1666667   0.1666667  -0.5000000), wk =   0.0185185
        k(   25) = (   0.1666667   0.3333333   0.0000000), wk =   0.0185185
        k(   26) = (   0.1666667   0.3333333   0.1666667), wk =   0.0185185
        k(   27) = (   0.1666667   0.3333333   0.3333333), wk =   0.0185185
        k(   28) = (   0.1666667   0.3333333  -0.5000000), wk =   0.0185185
        k(   29) = (   0.1666667  -0.5000000   0.0000000), wk =   0.0185185
        k(   30) = (   0.1666667  -0.5000000   0.1666667), wk =   0.0185185
        k(   31) = (   0.1666667  -0.5000000   0.3333333), wk =   0.0185185
        k(   32) = (   0.1666667  -0.5000000  -0.5000000), wk =   0.0185185
        k(   33) = (   0.1666667  -0.3333333   0.0000000), wk =   0.0185185
        k(   34) = (   0.1666667  -0.3333333   0.1666667), wk =   0.0185185
        k(   35) = (   0.1666667  -0.3333333   0.3333333), wk =   0.0185185
        k(   36) = (   0.1666667  -0.3333333  -0.5000000), wk =   0.0185185
        k(   37) = (   0.1666667  -0.1666667   0.0000000), wk =   0.0185185
        k(   38) = (   0.1666667  -0.1666667   0.1666667), wk =   0.0185185
        k(   39) = (   0.1666667  -0.1666667   0.3333333), wk =   0.0185185
        k(   40) = (   0.1666667  -0.1666667  -0.5000000), wk =   0.0185185
        k(   41) = (   0.3333333  -0.0000000   0.0000000), wk =   0.0185185
        k(   42) = (   0.3333333  -0.0000000   0.1666667), wk =   0.0185185
        k(   43) = (   0.3333333  -0.0000000   0.3333333), wk =   0.0185185
        k(   44) = (   0.3333333  -0.0000000  -0.5000000), wk =   0.0185185
        k(   45) = (   0.3333333   0.1666667   0.0000000), wk =   0.0185185
        k(   46) = (   0.3333333   0.1666667   0.1666667), wk =   0.0185185
        k(   47) = (   0.3333333   0.1666667   0.3333333), wk =   0.0185185
        k(   48) = (   0.3333333   0.1666667  -0.5000000), wk =   0.0185185
        k(   49) = (   0.3333333  -0.5000000   0.0000000), wk =   0.0185185
        k(   50) = (   0.3333333  -0.5000000   0.1666667), wk =   0.0185185
        k(   51) = (   0.3333333  -0.5000000   0.3333333), wk =   0.0185185
        k(   52) = (   0.3333333  -0.5000000  -0.5000000), wk =   0.0185185
        k(   53) = (   0.3333333  -0.3333333   0.0000000), wk =   0.0185185
        k(   54) = (   0.3333333  -0.3333333   0.1666667), wk =   0.0185185
        k(   55) = (   0.3333333  -0.3333333   0.3333333), wk =   0.0185185
        k(   56) = (   0.3333333  -0.3333333  -0.5000000), wk =   0.0185185
        k(   57) = (  -0.5000000   0.0000000   0.0000000), wk =   0.0092593
        k(   58) = (  -0.5000000   0.0000000   0.1666667), wk =   0.0185185
        k(   59) = (  -0.5000000   0.0000000   0.3333333), wk =   0.0185185
        k(   60) = (  -0.5000000   0.0000000  -0.5000000), wk =   0.0092593
        k(   61) = (  -0.5000000  -0.5000000   0.0000000), wk =   0.0092593
        k(   62) = (  -0.5000000  -0.5000000   0.1666667), wk =   0.0185185
        k(   63) = (  -0.5000000  -0.5000000   0.3333333), wk =   0.0185185
        k(   64) = (  -0.5000000  -0.5000000  -0.5000000), wk =   0.0092593
        k(   65) = (   0.3333333  -0.1666667   0.0000000), wk =   0.0185185
        k(   66) = (   0.0000000  -0.1666667   0.1666667), wk =   0.0185185
        k(   67) = (   0.3333333  -0.1666667  -0.1666667), wk =   0.0185185
        k(   68) = (  -0.3333333   0.1666667  -0.1666667), wk =   0.0185185
        k(   69) = (   0.0000000  -0.1666667   0.3333333), wk =   0.0185185
        k(   70) = (   0.3333333  -0.1666667  -0.3333333), wk =   0.0185185
        k(   71) = (  -0.3333333   0.1666667  -0.3333333), wk =   0.0185185
        k(   72) = (   0.3333333  -0.1666667   0.5000000), wk =   0.0185185
        k(   73) = (   0.6666667  -0.3333333   0.0000000), wk =   0.0185185
        k(   74) = (   0.0000000  -0.3333333   0.1666667), wk =   0.0185185
        k(   75) = (   0.6666667  -0.3333333  -0.1666667), wk =   0.0185185
        k(   76) = (  -0.6666667   0.3333333  -0.1666667), wk =   0.0185185
        k(   77) = (   0.0000000  -0.3333333   0.3333333), wk =   0.0185185
        k(   78) = (   0.6666667  -0.3333333  -0.3333333), wk =   0.0185185
        k(   79) = (  -0.6666667   0.3333333  -0.3333333), wk =   0.0185185
        k(   80) = (   0.6666667  -0.3333333   0.5000000), wk =   0.0185185
        k(   81) = (  -0.1666667   0.0000000   0.1666667), wk =   0.0185185
        k(   82) = (  -0.1666667   0.0000000   0.3333333), wk =   0.0185185
        k(   83) = (   0.5000000  -0.1666667   0.0000000), wk =   0.0185185
        k(   84) = (  -0.1666667  -0.1666667   0.1666667), wk =   0.0185185
        k(   85) = (   0.5000000  -0.1666667  -0.1666667), wk =   0.0185185
        k(   86) = (  -0.5000000   0.1666667  -0.1666667), wk =   0.0185185
        k(   87) = (  -0.1666667  -0.1666667   0.3333333), wk =   0.0185185
        k(   88) = (   0.5000000  -0.1666667  -0.3333333), wk =   0.0185185
        k(   89) = (  -0.5000000   0.1666667  -0.3333333), wk =   0.0185185
        k(   90) = (   0.5000000  -0.1666667   0.5000000), wk =   0.0185185
        k(   91) = (  -0.1666667  -0.3333333   0.1666667), wk =   0.0185185
        k(   92) = (  -0.1666667  -0.3333333   0.3333333), wk =   0.0185185
        k(   93) = (  -0.1666667   0.5000000   0.1666667), wk =   0.0185185
        k(   94) = (  -0.1666667   0.5000000   0.3333333), wk =   0.0185185
        k(   95) = (  -0.5000000   0.3333333   0.0000000), wk =   0.0185185
        k(   96) = (  -0.1666667   0.3333333   0.1666667), wk =   0.0185185
        k(   97) = (  -0.5000000   0.3333333  -0.1666667), wk =   0.0185185
        k(   98) = (   0.5000000  -0.3333333  -0.1666667), wk =   0.0185185
        k(   99) = (  -0.1666667   0.3333333   0.3333333), wk =   0.0185185
        k(  100) = (  -0.5000000   0.3333333  -0.3333333), wk =   0.0185185
        k(  101) = (   0.5000000  -0.3333333  -0.3333333), wk =   0.0185185
        k(  102) = (  -0.5000000   0.3333333   0.5000000), wk =   0.0185185
        k(  103) = (  -0.1666667   0.1666667   0.1666667), wk =   0.0185185
        k(  104) = (  -0.1666667   0.1666667   0.3333333), wk =   0.0185185
        k(  105) = (  -0.3333333   0.0000000   0.1666667), wk =   0.0185185
        k(  106) = (  -0.3333333   0.0000000   0.3333333), wk =   0.0185185
        k(  107) = (  -0.3333333  -0.1666667   0.1666667), wk =   0.0185185
        k(  108) = (  -0.3333333  -0.1666667   0.3333333), wk =   0.0185185
        k(  109) = (  -0.3333333   0.5000000   0.1666667), wk =   0.0185185
        k(  110) = (  -0.3333333   0.5000000   0.3333333), wk =   0.0185185
        k(  111) = (  -0.3333333   0.3333333   0.1666667), wk =   0.0185185
        k(  112) = (  -0.3333333   0.3333333   0.3333333), wk =   0.0185185

     Dense  grid:    73991 G-vectors     FFT dimensions: (  75,  40,  60)

     Smooth grid:    26201 G-vectors     FFT dimensions: (  54,  27,  45)

     Dynamical RAM for                 wfc:       0.45 MB

     Dynamical RAM for     wfc (w. buffer):      13.01 MB

     Dynamical RAM for           str. fact:       0.56 MB

     Dynamical RAM for           local pot:       0.00 MB

     Dynamical RAM for          nlocal pot:       1.30 MB

     Dynamical RAM for                qrad:       3.21 MB

     Dynamical RAM for          rho,v,vnew:       1.88 MB

     Dynamical RAM for               rhoin:       0.63 MB

     Dynamical RAM for            rho*nmix:       4.52 MB

     Dynamical RAM for           G-vectors:       1.11 MB

     Dynamical RAM for          h,s,v(r/c):       0.06 MB

     Dynamical RAM for          <psi|beta>:       0.06 MB

     Dynamical RAM for                 psi:       0.90 MB

     Dynamical RAM for                hpsi:       0.90 MB

     Dynamical RAM for                spsi:       0.90 MB

     Dynamical RAM for      wfcinit/wfcrot:       1.36 MB

     Dynamical RAM for           addusdens:      13.62 MB

     Dynamical RAM for          addusforce:      13.99 MB

     Estimated static dynamical RAM per process >      24.26 MB

     Estimated max dynamical RAM per process >      42.76 MB

     Estimated total dynamical RAM >     630.02 MB

     Check: negative core charge=   -0.000002

     Initial potential from superposition of free atoms

     starting charge      71.9851, renormalised to      72.0000
     Starting wfcs are   52 randomized atomic wfcs

     total cpu time spent up to now is        4.2 secs

     per-process dynamical memory:    38.0 Mb

     Self-consistent Calculation

     iteration #  1     ecut=    50.00 Ry     beta= 0.30
     Davidson diagonalization with overlap

---- Real-time Memory Report at c_bands before calling an iterative solver
            65 MiB given to the printing process from OS
            37 MiB allocation reported by mallinfo(arena+hblkhd)
        106128 MiB available memory on the node where the printing process lives
------------------
     ethr =  1.00E-02,  avg # of iterations =  2.0

     total cpu time spent up to now is        8.9 secs

     total energy              =    -722.38968646 Ry
     estimated scf accuracy    <       1.59761403 Ry

     iteration #  2     ecut=    50.00 Ry     beta= 0.30
     Davidson diagonalization with overlap

---- Real-time Memory Report at c_bands before calling an iterative solver
            79 MiB given to the printing process from OS
            51 MiB allocation reported by mallinfo(arena+hblkhd)
        105959 MiB available memory on the node where the printing process lives
------------------
     ethr =  2.22E-03,  avg # of iterations =  2.0

     total cpu time spent up to now is       14.4 secs

     total energy              =    -722.52638339 Ry
     estimated scf accuracy    <       0.26574469 Ry

     iteration #  3     ecut=    50.00 Ry     beta= 0.30
     Davidson diagonalization with overlap

---- Real-time Memory Report at c_bands before calling an iterative solver
            79 MiB given to the printing process from OS
            51 MiB allocation reported by mallinfo(arena+hblkhd)
        105981 MiB available memory on the node where the printing process lives
------------------
     ethr =  3.69E-04,  avg # of iterations =  6.9

     total cpu time spent up to now is       24.3 secs

     total energy              =    -722.67397320 Ry
     estimated scf accuracy    <       0.18626669 Ry

     iteration #  4     ecut=    50.00 Ry     beta= 0.30
     Davidson diagonalization with overlap

---- Real-time Memory Report at c_bands before calling an iterative solver
            80 MiB given to the printing process from OS
            52 MiB allocation reported by mallinfo(arena+hblkhd)
        105995 MiB available memory on the node where the printing process lives
------------------
     ethr =  2.59E-04,  avg # of iterations =  2.4

     total cpu time spent up to now is       29.8 secs

     total energy              =    -722.70162484 Ry
     estimated scf accuracy    <       0.02728865 Ry

     iteration #  5     ecut=    50.00 Ry     beta= 0.30
     Davidson diagonalization with overlap

---- Real-time Memory Report at c_bands before calling an iterative solver
            80 MiB given to the printing process from OS
            52 MiB allocation reported by mallinfo(arena+hblkhd)
        105997 MiB available memory on the node where the printing process lives
------------------
     ethr =  3.79E-05,  avg # of iterations = 10.3

     total cpu time spent up to now is       45.2 secs

     total energy              =    -722.75964280 Ry
     estimated scf accuracy    <       0.80178565 Ry

     iteration #  6     ecut=    50.00 Ry     beta= 0.30
     Davidson diagonalization with overlap

---- Real-time Memory Report at c_bands before calling an iterative solver
            80 MiB given to the printing process from OS
            52 MiB allocation reported by mallinfo(arena+hblkhd)
        106003 MiB available memory on the node where the printing process lives
------------------
     ethr =  3.79E-05,  avg # of iterations =  6.9

     total cpu time spent up to now is       55.3 secs

     total energy              =    -722.64019352 Ry
     estimated scf accuracy    <       0.28835870 Ry

     iteration #  7     ecut=    50.00 Ry     beta= 0.30
     Davidson diagonalization with overlap

---- Real-time Memory Report at c_bands before calling an iterative solver
            81 MiB given to the printing process from OS
            52 MiB allocation reported by mallinfo(arena+hblkhd)
        106003 MiB available memory on the node where the printing process lives
------------------
     ethr =  3.79E-05,  avg # of iterations =  8.5

     total cpu time spent up to now is       68.9 secs

     total energy              =    -722.71527414 Ry
     estimated scf accuracy    <       0.00906764 Ry

     iteration #  8     ecut=    50.00 Ry     beta= 0.30
     Davidson diagonalization with overlap

---- Real-time Memory Report at c_bands before calling an iterative solver
            81 MiB given to the printing process from OS
            52 MiB allocation reported by mallinfo(arena+hblkhd)
        105998 MiB available memory on the node where the printing process lives
------------------
     ethr =  1.26E-05,  avg # of iterations =  2.2

     total cpu time spent up to now is       74.2 secs

     total energy              =    -722.71510632 Ry
     estimated scf accuracy    <       0.00242891 Ry

     iteration #  9     ecut=    50.00 Ry     beta= 0.30
     Davidson diagonalization with overlap

---- Real-time Memory Report at c_bands before calling an iterative solver
            81 MiB given to the printing process from OS
            53 MiB allocation reported by mallinfo(arena+hblkhd)
        105997 MiB available memory on the node where the printing process lives
------------------
     ethr =  3.37E-06,  avg # of iterations =  5.6

     total cpu time spent up to now is       82.5 secs

     total energy              =    -722.71645771 Ry
     estimated scf accuracy    <       0.00030559 Ry

     iteration # 10     ecut=    50.00 Ry     beta= 0.30
     Davidson diagonalization with overlap

---- Real-time Memory Report at c_bands before calling an iterative solver
            81 MiB given to the printing process from OS
            53 MiB allocation reported by mallinfo(arena+hblkhd)
        105996 MiB available memory on the node where the printing process lives
------------------
     ethr =  4.24E-07,  avg # of iterations =  3.2

     total cpu time spent up to now is       88.4 secs

     total energy              =    -722.71639922 Ry
     estimated scf accuracy    <       0.00014794 Ry

     iteration # 11     ecut=    50.00 Ry     beta= 0.30
     Davidson diagonalization with overlap

---- Real-time Memory Report at c_bands before calling an iterative solver
            81 MiB given to the printing process from OS
            53 MiB allocation reported by mallinfo(arena+hblkhd)
        105996 MiB available memory on the node where the printing process lives
------------------
     ethr =  2.05E-07,  avg # of iterations =  8.8

     total cpu time spent up to now is      100.5 secs

     total energy              =    -722.71643102 Ry
     estimated scf accuracy    <       0.00079721 Ry

     iteration # 12     ecut=    50.00 Ry     beta= 0.30
     Davidson diagonalization with overlap

---- Real-time Memory Report at c_bands before calling an iterative solver
            81 MiB given to the printing process from OS
            53 MiB allocation reported by mallinfo(arena+hblkhd)
        105996 MiB available memory on the node where the printing process lives
------------------
     ethr =  2.05E-07,  avg # of iterations =  5.9

     total cpu time spent up to now is      108.5 secs

     total energy              =    -722.71648273 Ry
     estimated scf accuracy    <       0.00007158 Ry

     iteration # 13     ecut=    50.00 Ry     beta= 0.30
     Davidson diagonalization with overlap

---- Real-time Memory Report at c_bands before calling an iterative solver
            81 MiB given to the printing process from OS
            53 MiB allocation reported by mallinfo(arena+hblkhd)
        105996 MiB available memory on the node where the printing process lives
------------------
     ethr =  9.94E-08,  avg # of iterations =  4.8

     total cpu time spent up to now is      114.9 secs

     total energy              =    -722.71649499 Ry
     estimated scf accuracy    <       0.00000315 Ry

     iteration # 14     ecut=    50.00 Ry     beta= 0.30
     Davidson diagonalization with overlap

---- Real-time Memory Report at c_bands before calling an iterative solver
            81 MiB given to the printing process from OS
            53 MiB allocation reported by mallinfo(arena+hblkhd)
        105996 MiB available memory on the node where the printing process lives
------------------
     ethr =  4.38E-09,  avg # of iterations = 10.5

     total cpu time spent up to now is      129.1 secs

     total energy              =    -722.71650362 Ry
     estimated scf accuracy    <       0.00002866 Ry

     iteration # 15     ecut=    50.00 Ry     beta= 0.30
     Davidson diagonalization with overlap

---- Real-time Memory Report at c_bands before calling an iterative solver
            81 MiB given to the printing process from OS
            53 MiB allocation reported by mallinfo(arena+hblkhd)
        105996 MiB available memory on the node where the printing process lives
------------------
     ethr =  4.38E-09,  avg # of iterations =  5.2

     total cpu time spent up to now is      135.6 secs

     total energy              =    -722.71650045 Ry
     estimated scf accuracy    <       0.00001034 Ry

     iteration # 16     ecut=    50.00 Ry     beta= 0.30
     Davidson diagonalization with overlap

---- Real-time Memory Report at c_bands before calling an iterative solver
            81 MiB given to the printing process from OS
            53 MiB allocation reported by mallinfo(arena+hblkhd)
        105996 MiB available memory on the node where the printing process lives
------------------
     ethr =  4.38E-09,  avg # of iterations =  6.0

     total cpu time spent up to now is      144.3 secs

     total energy              =    -722.71650250 Ry
     estimated scf accuracy    <       0.00000003 Ry

     iteration # 17     ecut=    50.00 Ry     beta= 0.30
     Davidson diagonalization with overlap

---- Real-time Memory Report at c_bands before calling an iterative solver
            81 MiB given to the printing process from OS
            53 MiB allocation reported by mallinfo(arena+hblkhd)
        105996 MiB available memory on the node where the printing process lives
------------------
     ethr =  4.85E-11,  avg # of iterations = 10.5

     total cpu time spent up to now is      157.4 secs

     total energy              =    -722.71650256 Ry
     estimated scf accuracy    <       0.00000013 Ry

     iteration # 18     ecut=    50.00 Ry     beta= 0.30
     Davidson diagonalization with overlap

---- Real-time Memory Report at c_bands before calling an iterative solver
            81 MiB given to the printing process from OS
            53 MiB allocation reported by mallinfo(arena+hblkhd)
        105996 MiB available memory on the node where the printing process lives
------------------
     ethr =  4.85E-11,  avg # of iterations =  6.0

     total cpu time spent up to now is      166.2 secs

     total energy              =    -722.71650257 Ry
     estimated scf accuracy    <       0.00000002 Ry

     iteration # 19     ecut=    50.00 Ry     beta= 0.30
     Davidson diagonalization with overlap

---- Real-time Memory Report at c_bands before calling an iterative solver
            81 MiB given to the printing process from OS
            53 MiB allocation reported by mallinfo(arena+hblkhd)
        105996 MiB available memory on the node where the printing process lives
------------------
     ethr =  2.38E-11,  avg # of iterations =  5.4

     total cpu time spent up to now is      174.1 secs

     End of self-consistent calculation

          k = 0.0000 0.0000 0.0000 (  3279 PWs)   bands (ev):

   -10.1372  -9.3810  -9.0851  -8.0187   1.8671   2.1495   2.3219   2.4139
     2.5524   2.8222   2.9798   2.9996   3.2948   3.6601   3.9405   4.3464
     4.4857   4.6357   4.6995   4.8877   4.9682   5.0316   5.1243   5.2166
     5.4987   5.8472   6.0773   6.7680   7.3795   8.4823   8.7493   9.3241
     9.5433   9.5787   9.8573  10.1556

     occupation numbers 
     1.0000   1.0000   1.0000   1.0000   1.0000   1.0000   1.0000   1.0000
     1.0000   1.0000   1.0000   1.0000   1.0000   1.0000   1.0000   1.0000
     1.0000   1.0000   1.0000   1.0000   1.0000   1.0000   1.0000   1.0000
     1.0000   1.0000   1.0000   1.0000   1.0000   1.0000   1.0000   1.0000
     1.0000   1.0000   1.0000   1.0000

          k = 0.0000 0.0000 0.2065 (  3291 PWs)   bands (ev):

   -10.0884  -9.4213  -9.0818  -8.0321   1.8520   2.0871   2.2818   2.4072
     2.5488   2.7575   2.9580   3.0111   3.2979   3.6157   3.9614   4.3092
     4.5394   4.6461   4.7121   4.8891   4.9648   5.0116   5.1062   5.1895
     5.4894   5.9650   6.1168   7.0251   7.4936   8.5675   8.7064   9.1047
     9.3634   9.5605   9.9126  10.1098

     occupation numbers 
     1.0000   1.0000   1.0000   1.0000   1.0000   1.0000   1.0000   1.0000
     1.0000   1.0000   1.0000   1.0000   1.0000   1.0000   1.0000   1.0000
     1.0000   1.0000   1.0000   1.0000   1.0000   1.0000   1.0000   1.0000
     1.0000   1.0000   1.0000   1.0000   1.0000   1.0000   1.0000   1.0000
     1.0000   1.0000   1.0000   1.0000

          k = 0.0000 0.0000 0.4130 (  3283 PWs)   bands (ev):

    -9.9599  -9.5359  -9.0727  -8.0583   1.8304   1.9567   2.1877   2.3872
     2.5509   2.6878   2.9212   3.0189   3.2992   3.5422   3.9665   4.2753
     4.5692   4.6844   4.7489   4.8911   4.9515   4.9834   5.0693   5.1588
     5.4677   5.9416   6.6691   7.4095   7.7899   8.3046   8.5587   8.8205
     9.4526   9.5926   9.8791  10.0447

     occupation numbers 
     1.0000   1.0000   1.0000   1.0000   1.0000   1.0000   1.0000   1.0000
     1.0000   1.0000   1.0000   1.0000   1.0000   1.0000   1.0000   1.0000
     1.0000   1.0000   1.0000   1.0000   1.0000   1.0000   1.0000   1.0000
     1.0000   1.0000   1.0000   1.0000   1.0000   1.0000   1.0000   1.0000
     1.0000   1.0000   1.0000   1.0000

          k = 0.0000 0.0000-0.6194 (  3282 PWs)   bands (ev):

    -9.8476  -9.6424  -9.0672  -8.0712   1.8430   1.8687   2.1374   2.3752
     2.5578   2.6702   2.9036   3.0200   3.2949   3.5115   3.9562   4.2719
     4.5578   4.7219   4.7613   4.8772   4.9369   5.0093   5.0428   5.1430
     5.4601   5.9290   7.3470   7.4506   7.6055   8.1611   8.4424   8.8418
     9.5082   9.6187   9.8574  10.0097

     occupation numbers 
     1.0000   1.0000   1.0000   1.0000   1.0000   1.0000   1.0000   1.0000
     1.0000   1.0000   1.0000   1.0000   1.0000   1.0000   1.0000   1.0000
     1.0000   1.0000   1.0000   1.0000   1.0000   1.0000   1.0000   1.0000
     1.0000   1.0000   1.0000   1.0000   1.0000   1.0000   1.0000   1.0000
     1.0000   1.0000   1.0000   1.0000

          k = 0.0000 0.3849 0.0000 (  3294 PWs)   bands (ev):

    -9.9605  -9.3431  -9.0501  -7.9815   1.9701   2.1652   2.3917   2.5540
     2.5960   2.7835   3.0468   3.1046   3.2836   3.5929   3.9445   4.2514
     4.4216   4.5727   4.7098   4.8699   4.9849   5.0654   5.1756   5.4049
     5.6878   5.8961   6.2638   6.7630   7.0430   7.9178   8.4074   8.5954
     8.8570   9.1770   9.4966   9.6943

     occupation numbers 
     1.0000   1.0000   1.0000   1.0000   1.0000   1.0000   1.0000   1.0000
     1.0000   1.0000   1.0000   1.0000   1.0000   1.0000   1.0000   1.0000
     1.0000   1.0000   1.0000   1.0000   1.0000   1.0000   1.0000   1.0000
     1.0000   1.0000   1.0000   1.0000   1.0000   1.0000   1.0000   1.0000
     1.0000   1.0000   1.0000   1.0000

          k = 0.0000 0.3849 0.2065 (  3280 PWs)   bands (ev):

    -9.9120  -9.3896  -9.0354  -7.9975   1.9710   2.1236   2.3399   2.4695
     2.6094   2.7695   3.0015   3.0835   3.2804   3.5740   3.9546   4.2578
     4.4891   4.5858   4.7227   4.8639   4.9764   5.0354   5.1785   5.3406
     5.6599   6.1162   6.3834   6.7136   7.1551   7.9260   8.4255   8.6014
     8.9168   9.0681   9.5604   9.6856

     occupation numbers 
     1.0000   1.0000   1.0000   1.0000   1.0000   1.0000   1.0000   1.0000
     1.0000   1.0000   1.0000   1.0000   1.0000   1.0000   1.0000   1.0000
     1.0000   1.0000   1.0000   1.0000   1.0000   1.0000   1.0000   1.0000
     1.0000   1.0000   1.0000   1.0000   1.0000   1.0000   1.0000   1.0000
     1.0000   1.0000   1.0000   1.0000

          k = 0.0000 0.3849 0.4130 (  3271 PWs)   bands (ev):

    -9.7991  -9.4686  -9.0404  -8.0246   1.9424   2.0216   2.2501   2.3735
     2.5660   2.7018   3.0254   3.0535   3.2855   3.5267   3.9589   4.2045
     4.5420   4.6470   4.7517   4.8607   4.9594   5.0116   5.1394   5.2620
     5.7145   6.2556   6.7499   6.9777   7.4356   7.8155   8.2068   8.6269
     9.0280   9.1280   9.4485   9.6117

     occupation numbers 
     1.0000   1.0000   1.0000   1.0000   1.0000   1.0000   1.0000   1.0000
     1.0000   1.0000   1.0000   1.0000   1.0000   1.0000   1.0000   1.0000
     1.0000   1.0000   1.0000   1.0000   1.0000   1.0000   1.0000   1.0000
     1.0000   1.0000   1.0000   1.0000   1.0000   1.0000   1.0000   1.0000
     1.0000   1.0000   1.0000   1.0000

          k = 0.0000 0.3849-0.6194 (  3258 PWs)   bands (ev):

    -9.7273  -9.5095  -9.0589  -8.0355   1.9141   1.9592   2.2061   2.3563
     2.5135   2.6920   2.9949   3.0768   3.3098   3.5160   3.9504   4.1720
     4.5468   4.6373   4.7949   4.8400   4.9570   5.0085   5.1213   5.2297
     5.8224   6.1744   7.1460   7.2777   7.4487   7.6490   8.2024   8.6191
     8.9452   9.1523   9.4005   9.5577

     occupation numbers 
     1.0000   1.0000   1.0000   1.0000   1.0000   1.0000   1.0000   1.0000
     1.0000   1.0000   1.0000   1.0000   1.0000   1.0000   1.0000   1.0000
     1.0000   1.0000   1.0000   1.0000   1.0000   1.0000   1.0000   1.0000
     1.0000   1.0000   1.0000   1.0000   1.0000   1.0000   1.0000   1.0000
     1.0000   1.0000   1.0000   1.0000

          k = 0.0000 0.7698 0.0000 (  3268 PWs)   bands (ev):

    -9.5956  -9.2488  -8.9908  -7.8894   1.9879   2.2521   2.3306   2.5767
     2.7405   2.9015   3.1893   3.3367   3.3985   3.6369   4.0050   4.2343
     4.4652   4.5619   4.7502   4.8602   4.9915   5.0924   5.3084   5.4545
     5.7864   5.9057   6.0979   6.4653   6.9224   7.0380   7.4570   7.8826
     8.3689   8.7664   8.9440   9.3444

     occupation numbers 
     1.0000   1.0000   1.0000   1.0000   1.0000   1.0000   1.0000   1.0000
     1.0000   1.0000   1.0000   1.0000   1.0000   1.0000   1.0000   1.0000
     1.0000   1.0000   1.0000   1.0000   1.0000   1.0000   1.0000   1.0000
     1.0000   1.0000   1.0000   1.0000   1.0000   1.0000   1.0000   1.0000
     1.0000   1.0000   1.0000   1.0000

          k = 0.0000 0.7698 0.2065 (  3264 PWs)   bands (ev):

    -9.5684  -9.2587  -8.9905  -7.9006   1.9703   2.2054   2.2535   2.5677
     2.7492   2.8220   3.1440   3.3284   3.3581   3.6906   3.9878   4.2484
     4.4626   4.6282   4.7966   4.8542   4.9928   5.0668   5.2664   5.3157
     5.8774   6.0728   6.1645   6.4473   6.9101   7.0641   7.5453   7.9263
     8.3996   8.8079   9.0367   9.3318

     occupation numbers 
     1.0000   1.0000   1.0000   1.0000   1.0000   1.0000   1.0000   1.0000
     1.0000   1.0000   1.0000   1.0000   1.0000   1.0000   1.0000   1.0000
     1.0000   1.0000   1.0000   1.0000   1.0000   1.0000   1.0000   1.0000
     1.0000   1.0000   1.0000   1.0000   1.0000   1.0000   1.0000   1.0000
     1.0000   1.0000   1.0000   1.0000

          k = 0.0000 0.7698 0.4130 (  3261 PWs)   bands (ev):

    -9.5170  -9.2544  -9.0126  -7.9202   1.9362   2.1024   2.1619   2.4547
     2.5678   2.8449   3.1164   3.3092   3.4073   3.7268   3.9348   4.2304
     4.4897   4.7298   4.7917   4.8865   4.9375   5.0888   5.1595   5.2204
     5.9193   6.0816   6.3704   6.6275   6.9378   7.3373   7.7774   8.1213
     8.3787   8.7200   8.9866   9.3650

     occupation numbers 
     1.0000   1.0000   1.0000   1.0000   1.0000   1.0000   1.0000   1.0000
     1.0000   1.0000   1.0000   1.0000   1.0000   1.0000   1.0000   1.0000
     1.0000   1.0000   1.0000   1.0000   1.0000   1.0000   1.0000   1.0000
     1.0000   1.0000   1.0000   1.0000   1.0000   1.0000   1.0000   1.0000
     1.0000   1.0000   1.0000   1.0000

          k = 0.0000 0.7698-0.6194 (  3264 PWs)   bands (ev):

    -9.4960  -9.2303  -9.0422  -7.9283   1.9279   2.0190   2.1518   2.3958
     2.4557   2.8472   3.1170   3.3055   3.4918   3.7040   3.8927   4.2396
     4.5126   4.7095   4.8250   4.8585   4.9512   5.0551   5.1033   5.2317
     5.9797   6.0406   6.4495   6.5776   7.1983   7.4621   7.9485   8.2588
     8.4949   8.6094   8.8306   9.2574

     occupation numbers 
     1.0000   1.0000   1.0000   1.0000   1.0000   1.0000   1.0000   1.0000
     1.0000   1.0000   1.0000   1.0000   1.0000   1.0000   1.0000   1.0000
     1.0000   1.0000   1.0000   1.0000   1.0000   1.0000   1.0000   1.0000
     1.0000   1.0000   1.0000   1.0000   1.0000   1.0000   1.0000   1.0000
     1.0000   1.0000   1.0000   1.0000

          k = 0.0000-1.1547 0.0000 (  3252 PWs)   bands (ev):

    -9.4355  -9.1272  -9.0027  -7.8343   1.9846   2.2272   2.3341   2.4528
     2.7975   2.9325   3.2021   3.4243   3.6194   3.8347   4.1805   4.3907
     4.5236   4.6652   4.8314   4.8715   4.9730   5.0095   5.1037   5.2801
     5.4888   5.7950   5.9273   6.2275   6.5727   6.9846   7.3162   7.8621
     8.3604   8.5444   8.9306   9.2311

     occupation numbers 
     1.0000   1.0000   1.0000   1.0000   1.0000   1.0000   1.0000   1.0000
     1.0000   1.0000   1.0000   1.0000   1.0000   1.0000   1.0000   1.0000
     1.0000   1.0000   1.0000   1.0000   1.0000   1.0000   1.0000   1.0000
     1.0000   1.0000   1.0000   1.0000   1.0000   1.0000   1.0000   1.0000
     1.0000   1.0000   1.0000   1.0000

          k = 0.0000-1.1547 0.2065 (  3252 PWs)   bands (ev):

    -9.4236  -9.1178  -9.0088  -7.8391   1.9668   2.1603   2.2939   2.4019
     2.7534   2.8752   3.2321   3.4694   3.5183   3.8896   4.1715   4.4046
     4.5588   4.6864   4.8150   4.8816   4.9478   5.0081   5.0828   5.2701
     5.4941   5.7076   5.9200   6.1259   6.8367   7.1058   7.5402   7.9093
     8.3254   8.5916   8.9925   9.2103

     occupation numbers 
     1.0000   1.0000   1.0000   1.0000   1.0000   1.0000   1.0000   1.0000
     1.0000   1.0000   1.0000   1.0000   1.0000   1.0000   1.0000   1.0000
     1.0000   1.0000   1.0000   1.0000   1.0000   1.0000   1.0000   1.0000
     1.0000   1.0000   1.0000   1.0000   1.0000   1.0000   1.0000   1.0000
     1.0000   1.0000   1.0000   1.0000

          k = 0.0000-1.1547 0.4130 (  3248 PWs)   bands (ev):

    -9.3983  -9.0988  -9.0223  -7.8491   1.9202   2.0513   2.2065   2.3080
     2.6104   2.8649   3.2473   3.3911   3.6209   3.8858   4.1454   4.4159
     4.5749   4.6976   4.8485   4.8659   4.9398   5.0055   5.0577   5.2359
     5.4754   5.6069   5.8863   6.0809   7.2589   7.4443   7.9100   8.0126
     8.2937   8.5713   8.9808   9.2583

     occupation numbers 
     1.0000   1.0000   1.0000   1.0000   1.0000   1.0000   1.0000   1.0000
     1.0000   1.0000   1.0000   1.0000   1.0000   1.0000   1.0000   1.0000
     1.0000   1.0000   1.0000   1.0000   1.0000   1.0000   1.0000   1.0000
     1.0000   1.0000   1.0000   1.0000   1.0000   1.0000   1.0000   1.0000
     1.0000   1.0000   1.0000   1.0000

          k = 0.0000-1.1547-0.6194 (  3280 PWs)   bands (ev):

    -9.3848  -9.0892  -9.0299  -7.8543   1.8907   2.0072   2.1616   2.2619
     2.5441   2.8678   3.2490   3.3628   3.7035   3.8446   4.1370   4.3961
     4.5865   4.6892   4.8353   4.8782   4.9644   5.0069   5.0485   5.2122
     5.4470   5.5864   5.8780   6.0699   7.5484   7.7154   7.9207   7.9530
     8.3214   8.6970   8.9112   9.2236

     occupation numbers 
     1.0000   1.0000   1.0000   1.0000   1.0000   1.0000   1.0000   1.0000
     1.0000   1.0000   1.0000   1.0000   1.0000   1.0000   1.0000   1.0000
     1.0000   1.0000   1.0000   1.0000   1.0000   1.0000   1.0000   1.0000
     1.0000   1.0000   1.0000   1.0000   1.0000   1.0000   1.0000   1.0000
     1.0000   1.0000   1.0000   1.0000

          k = 0.1667 0.0962 0.0000 (  3295 PWs)   bands (ev):

   -10.0981  -9.4025  -9.1038  -8.0257   1.8576   2.1426   2.3255   2.4058
     2.5651   2.8410   2.9694   2.9997   3.2500   3.6219   3.9409   4.3214
     4.4200   4.6133   4.7165   4.8766   4.9295   5.0752   5.1251   5.3322
     5.5935   5.8410   6.1335   6.8508   7.5041   8.6063   8.7881   9.0888
     9.3869   9.5239   9.6008  10.0507

     occupation numbers 
     1.0000   1.0000   1.0000   1.0000   1.0000   1.0000   1.0000   1.0000
     1.0000   1.0000   1.0000   1.0000   1.0000   1.0000   1.0000   1.0000
     1.0000   1.0000   1.0000   1.0000   1.0000   1.0000   1.0000   1.0000
     1.0000   1.0000   1.0000   1.0000   1.0000   1.0000   1.0000   1.0000
     1.0000   1.0000   1.0000   1.0000

          k = 0.1667 0.0962 0.2065 (  3288 PWs)   bands (ev):

   -10.0460  -9.4530  -9.0889  -8.0441   1.8577   2.0751   2.2705   2.4146
     2.5431   2.7767   2.9003   3.0028   3.2590   3.6545   3.9657   4.2848
     4.4688   4.6137   4.7233   4.8800   4.9208   5.0540   5.1132   5.2853
     5.5289   6.0745   6.3092   6.8899   7.6047   8.6355   8.8571   9.0226
     9.1840   9.3873   9.7256  10.0520

     occupation numbers 
     1.0000   1.0000   1.0000   1.0000   1.0000   1.0000   1.0000   1.0000
     1.0000   1.0000   1.0000   1.0000   1.0000   1.0000   1.0000   1.0000
     1.0000   1.0000   1.0000   1.0000   1.0000   1.0000   1.0000   1.0000
     1.0000   1.0000   1.0000   1.0000   1.0000   1.0000   1.0000   1.0000
     1.0000   1.0000   1.0000   1.0000

          k = 0.1667 0.0962 0.4130 (  3281 PWs)   bands (ev):

    -9.9199  -9.5475  -9.0919  -8.0763   1.8480   1.9245   2.1721   2.3886
     2.5520   2.6964   2.8700   3.0214   3.2541   3.5786   3.9728   4.2523
     4.5294   4.6559   4.7298   4.8680   4.9285   4.9761   5.0977   5.1952
     5.5968   6.2116   6.7607   7.3178   7.7799   8.2866   8.6071   8.9733
     9.2889   9.4032   9.7570   9.9621

     occupation numbers 
     1.0000   1.0000   1.0000   1.0000   1.0000   1.0000   1.0000   1.0000
     1.0000   1.0000   1.0000   1.0000   1.0000   1.0000   1.0000   1.0000
     1.0000   1.0000   1.0000   1.0000   1.0000   1.0000   1.0000   1.0000
     1.0000   1.0000   1.0000   1.0000   1.0000   1.0000   1.0000   1.0000
     1.0000   1.0000   1.0000   1.0000

          k = 0.1667 0.0962-0.6194 (  3264 PWs)   bands (ev):

    -9.8312  -9.6087  -9.1077  -8.0897   1.8135   1.8712   2.1272   2.3674
     2.5708   2.6786   2.8874   3.0214   3.2474   3.5142   3.9416   4.2644
     4.5257   4.6794   4.7490   4.8578   4.9300   4.9832   5.0828   5.1363
     5.6831   6.1488   7.3119   7.4737   7.7251   8.1529   8.5048   8.7997
     9.3688   9.4740   9.7347   9.9058

     occupation numbers 
     1.0000   1.0000   1.0000   1.0000   1.0000   1.0000   1.0000   1.0000
     1.0000   1.0000   1.0000   1.0000   1.0000   1.0000   1.0000   1.0000
     1.0000   1.0000   1.0000   1.0000   1.0000   1.0000   1.0000   1.0000
     1.0000   1.0000   1.0000   1.0000   1.0000   1.0000   1.0000   1.0000
     1.0000   1.0000   1.0000   1.0000

          k = 0.1667 0.4811 0.0000 (  3277 PWs)   bands (ev):

    -9.8746  -9.4055  -9.0737  -7.9920   1.9563   2.1364   2.3467   2.5668
     2.5913   2.7902   2.9903   3.1109   3.2525   3.5633   3.9509   4.1720
     4.4181   4.5348   4.7203   4.8476   4.9307   5.0855   5.2963   5.4319
     5.7266   6.1168   6.4205   7.0685   7.1926   7.7431   8.2424   8.5005
     8.8796   9.0982   9.3879   9.4924

     occupation numbers 
     1.0000   1.0000   1.0000   1.0000   1.0000   1.0000   1.0000   1.0000
     1.0000   1.0000   1.0000   1.0000   1.0000   1.0000   1.0000   1.0000
     1.0000   1.0000   1.0000   1.0000   1.0000   1.0000   1.0000   1.0000
     1.0000   1.0000   1.0000   1.0000   1.0000   1.0000   1.0000   1.0000
     1.0000   1.0000   1.0000   1.0000

          k = 0.1667 0.4811 0.2065 (  3278 PWs)   bands (ev):

    -9.8316  -9.4268  -9.0747  -8.0125   1.9504   2.0907   2.3061   2.4658
     2.6153   2.7816   2.9292   3.0594   3.2617   3.5833   3.9842   4.1643
     4.4679   4.5653   4.7203   4.8517   4.9120   5.0541   5.2404   5.3310
     5.9125   6.2481   6.6456   7.0038   7.2208   7.7336   8.2015   8.5196
     8.8741   9.1616   9.3633   9.5149

     occupation numbers 
     1.0000   1.0000   1.0000   1.0000   1.0000   1.0000   1.0000   1.0000
     1.0000   1.0000   1.0000   1.0000   1.0000   1.0000   1.0000   1.0000
     1.0000   1.0000   1.0000   1.0000   1.0000   1.0000   1.0000   1.0000
     1.0000   1.0000   1.0000   1.0000   1.0000   1.0000   1.0000   1.0000
     1.0000   1.0000   1.0000   1.0000

          k = 0.1667 0.4811 0.4130 (  3272 PWs)   bands (ev):

    -9.7424  -9.4432  -9.1097  -8.0488   1.9024   2.0133   2.1800   2.3691
     2.5815   2.6804   2.9594   3.0783   3.2495   3.5651   3.9713   4.1394
     4.5210   4.6189   4.7493   4.8308   4.9158   5.0347   5.1372   5.2098
     6.1436   6.6839   6.8418   7.1199   7.4516   7.6794   8.2811   8.3763
     8.9037   9.0551   9.2332   9.5310

     occupation numbers 
     1.0000   1.0000   1.0000   1.0000   1.0000   1.0000   1.0000   1.0000
     1.0000   1.0000   1.0000   1.0000   1.0000   1.0000   1.0000   1.0000
     1.0000   1.0000   1.0000   1.0000   1.0000   1.0000   1.0000   1.0000
     1.0000   1.0000   1.0000   1.0000   1.0000   1.0000   1.0000   1.0000
     1.0000   1.0000   1.0000   1.0000

          k = 0.1667 0.4811-0.6194 (  3276 PWs)   bands (ev):

    -9.7012  -9.4242  -9.1533  -8.0643   1.8605   1.9688   2.1184   2.3586
     2.5045   2.6751   2.9508   3.1307   3.2649   3.5408   3.9365   4.1397
     4.5365   4.5920   4.7787   4.8167   4.9446   5.0328   5.0984   5.1604
     6.3423   6.5792   7.1176   7.2101   7.6464   7.7896   8.2288   8.5309
     8.7017   8.9289   9.1625   9.4663

     occupation numbers 
     1.0000   1.0000   1.0000   1.0000   1.0000   1.0000   1.0000   1.0000
     1.0000   1.0000   1.0000   1.0000   1.0000   1.0000   1.0000   1.0000
     1.0000   1.0000   1.0000   1.0000   1.0000   1.0000   1.0000   1.0000
     1.0000   1.0000   1.0000   1.0000   1.0000   1.0000   1.0000   1.0000
     1.0000   1.0000   1.0000   1.0000

          k = 0.1667 0.8660 0.0000 (  3272 PWs)   bands (ev):

    -9.5781  -9.2342  -9.0232  -7.8883   1.9580   2.1874   2.3542   2.5302
     2.7323   2.8897   3.1731   3.2972   3.3832   3.7045   4.1007   4.2717
     4.4645   4.5953   4.7507   4.8469   4.9590   5.0691   5.2889   5.4629
     5.8176   5.8789   6.1512   6.3637   6.8209   7.2288   7.3956   7.9649
     8.4850   8.8253   9.0607   9.2274

     occupation numbers 
     1.0000   1.0000   1.0000   1.0000   1.0000   1.0000   1.0000   1.0000
     1.0000   1.0000   1.0000   1.0000   1.0000   1.0000   1.0000   1.0000
     1.0000   1.0000   1.0000   1.0000   1.0000   1.0000   1.0000   1.0000
     1.0000   1.0000   1.0000   1.0000   1.0000   1.0000   1.0000   1.0000
     1.0000   1.0000   1.0000   1.0000

          k = 0.1667 0.8660 0.2065 (  3266 PWs)   bands (ev):

    -9.5609  -9.2163  -9.0404  -7.8997   1.9562   2.1191   2.2850   2.5155
     2.7270   2.8126   3.1799   3.2419   3.3695   3.7800   4.0858   4.2777
     4.4519   4.6383   4.7749   4.8530   4.9557   5.0269   5.2486   5.3253
     5.8664   5.9859   6.2490   6.4474   6.8926   7.2151   7.4730   8.0507
     8.4039   8.8864   9.1263   9.2616

     occupation numbers 
     1.0000   1.0000   1.0000   1.0000   1.0000   1.0000   1.0000   1.0000
     1.0000   1.0000   1.0000   1.0000   1.0000   1.0000   1.0000   1.0000
     1.0000   1.0000   1.0000   1.0000   1.0000   1.0000   1.0000   1.0000
     1.0000   1.0000   1.0000   1.0000   1.0000   1.0000   1.0000   1.0000
     1.0000   1.0000   1.0000   1.0000

          k = 0.1667 0.8660 0.4130 (  3258 PWs)   bands (ev):

    -9.5181  -9.1816  -9.0828  -7.9206   1.9323   2.0172   2.1856   2.4201
     2.5257   2.8241   3.1421   3.2423   3.4456   3.8024   4.0362   4.2568
     4.4929   4.7144   4.7843   4.8468   4.9413   5.0007   5.1420   5.2130
     5.9074   6.1077   6.3579   6.4872   7.2547   7.4429   7.7723   8.1826
     8.3263   8.6896   9.0507   9.3757

     occupation numbers 
     1.0000   1.0000   1.0000   1.0000   1.0000   1.0000   1.0000   1.0000
     1.0000   1.0000   1.0000   1.0000   1.0000   1.0000   1.0000   1.0000
     1.0000   1.0000   1.0000   1.0000   1.0000   1.0000   1.0000   1.0000
     1.0000   1.0000   1.0000   1.0000   1.0000   1.0000   1.0000   1.0000
     1.0000   1.0000   1.0000   1.0000

          k = 0.1667 0.8660-0.6194 (  3256 PWs)   bands (ev):

    -9.4910  -9.1631  -9.1113  -7.9301   1.9138   1.9694   2.1516   2.3402
     2.4379   2.8275   3.1311   3.2443   3.5415   3.7454   4.0006   4.2735
     4.5297   4.7125   4.7909   4.8306   4.9330   5.0245   5.0788   5.1789
     5.9864   6.0857   6.3017   6.5842   7.4812   7.7861   7.8935   8.2036
     8.2920   8.7098   8.9067   9.2209

     occupation numbers 
     1.0000   1.0000   1.0000   1.0000   1.0000   1.0000   1.0000   1.0000
     1.0000   1.0000   1.0000   1.0000   1.0000   1.0000   1.0000   1.0000
     1.0000   1.0000   1.0000   1.0000   1.0000   1.0000   1.0000   1.0000
     1.0000   1.0000   1.0000   1.0000   1.0000   1.0000   1.0000   1.0000
     1.0000   1.0000   1.0000   1.0000

          k = 0.1667-1.0585 0.0000 (  3232 PWs)   bands (ev):

    -9.4390  -9.1458  -8.9834  -7.8347   1.9759   2.2316   2.4029   2.4925
     2.8126   2.9633   3.2220   3.4199   3.6165   3.8157   4.1360   4.3680
     4.4869   4.5776   4.8123   4.8570   5.0060   5.0678   5.1287   5.3094
     5.5059   5.8390   5.9854   6.2530   6.5838   7.0520   7.2250   7.6642
     8.2795   8.5227   8.7825   9.1933

     occupation numbers 
     1.0000   1.0000   1.0000   1.0000   1.0000   1.0000   1.0000   1.0000
     1.0000   1.0000   1.0000   1.0000   1.0000   1.0000   1.0000   1.0000
     1.0000   1.0000   1.0000   1.0000   1.0000   1.0000   1.0000   1.0000
     1.0000   1.0000   1.0000   1.0000   1.0000   1.0000   1.0000   1.0000
     1.0000   1.0000   1.0000   1.0000

          k = 0.1667-1.0585 0.2065 (  3246 PWs)   bands (ev):

    -9.4272  -9.1374  -8.9885  -7.8396   1.9707   2.1560   2.3736   2.4420
     2.7766   2.8666   3.2396   3.4908   3.5099   3.8893   4.1327   4.3668
     4.5335   4.5823   4.7835   4.8601   4.9879   5.0690   5.1309   5.2841
     5.5032   5.7824   5.8946   6.1924   6.8910   7.1551   7.4444   7.7269
     8.2625   8.4673   8.8368   9.2446

     occupation numbers 
     1.0000   1.0000   1.0000   1.0000   1.0000   1.0000   1.0000   1.0000
     1.0000   1.0000   1.0000   1.0000   1.0000   1.0000   1.0000   1.0000
     1.0000   1.0000   1.0000   1.0000   1.0000   1.0000   1.0000   1.0000
     1.0000   1.0000   1.0000   1.0000   1.0000   1.0000   1.0000   1.0000
     1.0000   1.0000   1.0000   1.0000

          k = 0.1667-1.0585 0.4130 (  3266 PWs)   bands (ev):

    -9.4008  -9.1241  -8.9974  -7.8499   1.9182   2.0457   2.2822   2.3693
     2.6215   2.8520   3.2353   3.4202   3.6278   3.8890   4.0363   4.4137
     4.5144   4.6633   4.8009   4.8911   4.9633   5.0496   5.1200   5.2299
     5.5271   5.6756   5.8772   6.1627   7.2811   7.4046   7.7229   7.9298
     8.1718   8.5714   8.7699   9.3177

     occupation numbers 
     1.0000   1.0000   1.0000   1.0000   1.0000   1.0000   1.0000   1.0000
     1.0000   1.0000   1.0000   1.0000   1.0000   1.0000   1.0000   1.0000
     1.0000   1.0000   1.0000   1.0000   1.0000   1.0000   1.0000   1.0000
     1.0000   1.0000   1.0000   1.0000   1.0000   1.0000   1.0000   1.0000
     1.0000   1.0000   1.0000   1.0000

          k = 0.1667-1.0585-0.6194 (  3260 PWs)   bands (ev):

    -9.3859  -9.1204  -9.0004  -7.8552   1.8762   1.9976   2.2325   2.3420
     2.5513   2.8650   3.2303   3.4067   3.6944   3.8130   4.0291   4.3615
     4.5467   4.7069   4.8216   4.8963   5.0001   5.0248   5.0965   5.2150
     5.5284   5.6729   5.8881   6.1567   7.3230   7.6164   7.8282   8.0034
     8.2035   8.6148   8.8074   9.2527

     occupation numbers 
     1.0000   1.0000   1.0000   1.0000   1.0000   1.0000   1.0000   1.0000
     1.0000   1.0000   1.0000   1.0000   1.0000   1.0000   1.0000   1.0000
     1.0000   1.0000   1.0000   1.0000   1.0000   1.0000   1.0000   1.0000
     1.0000   1.0000   1.0000   1.0000   1.0000   1.0000   1.0000   1.0000
     1.0000   1.0000   1.0000   1.0000

          k = 0.1667-0.6736 0.0000 (  3274 PWs)   bands (ev):

    -9.6452  -9.2236  -8.9698  -7.8866   1.9830   2.2666   2.4240   2.6508
     2.7733   2.9440   3.2558   3.3931   3.4063   3.5755   3.9280   4.1868
     4.4405   4.5467   4.7452   4.8379   5.0029   5.1217   5.2995   5.3984
     5.7561   5.9251   6.0630   6.3217   6.9110   7.2416   7.5658   7.7216
     8.1190   8.4646   9.0530   9.4027

     occupation numbers 
     1.0000   1.0000   1.0000   1.0000   1.0000   1.0000   1.0000   1.0000
     1.0000   1.0000   1.0000   1.0000   1.0000   1.0000   1.0000   1.0000
     1.0000   1.0000   1.0000   1.0000   1.0000   1.0000   1.0000   1.0000
     1.0000   1.0000   1.0000   1.0000   1.0000   1.0000   1.0000   1.0000
     1.0000   1.0000   1.0000   1.0000

          k = 0.1667-0.6736 0.2065 (  3269 PWs)   bands (ev):

    -9.6236  -9.2116  -8.9892  -7.8935   1.9805   2.1544   2.4417   2.5793
     2.7003   2.8830   3.2361   3.3351   3.4892   3.5998   3.8878   4.2266
     4.4654   4.5631   4.7502   4.8122   4.9783   5.1203   5.2298   5.4032
     5.8752   5.9982   6.1575   6.2991   6.9874   7.3244   7.4932   7.9879
     8.1773   8.4378   8.9830   9.3547

     occupation numbers 
     1.0000   1.0000   1.0000   1.0000   1.0000   1.0000   1.0000   1.0000
     1.0000   1.0000   1.0000   1.0000   1.0000   1.0000   1.0000   1.0000
     1.0000   1.0000   1.0000   1.0000   1.0000   1.0000   1.0000   1.0000
     1.0000   1.0000   1.0000   1.0000   1.0000   1.0000   1.0000   1.0000
     1.0000   1.0000   1.0000   1.0000

          k = 0.1667-0.6736 0.4130 (  3270 PWs)   bands (ev):

    -9.5602  -9.2387  -8.9955  -7.9098   1.9584   2.0230   2.3560   2.4732
     2.6227   2.8485   3.1660   3.3345   3.4333   3.6521   3.8568   4.2349
     4.5337   4.5865   4.7948   4.8361   4.9629   5.0483   5.1984   5.4079
     5.9173   6.0088   6.3333   6.4784   7.0662   7.1888   7.6964   8.1981
     8.3629   8.6585   8.8700   9.2136

     occupation numbers 
     1.0000   1.0000   1.0000   1.0000   1.0000   1.0000   1.0000   1.0000
     1.0000   1.0000   1.0000   1.0000   1.0000   1.0000   1.0000   1.0000
     1.0000   1.0000   1.0000   1.0000   1.0000   1.0000   1.0000   1.0000
     1.0000   1.0000   1.0000   1.0000   1.0000   1.0000   1.0000   1.0000
     1.0000   1.0000   1.0000   1.0000

          k = 0.1667-0.6736-0.6194 (  3266 PWs)   bands (ev):

    -9.5061  -9.2914  -8.9810  -7.9195   1.9182   2.0099   2.2870   2.4182
     2.6181   2.8531   3.1351   3.3292   3.3809   3.6677   3.8474   4.2059
     4.5222   4.6898   4.8010   4.8769   4.9388   5.0354   5.2215   5.3785
     5.8671   5.9854   6.5537   6.6067   6.8544   7.1432   7.9216   8.3019
     8.4377   8.6486   8.8440   9.2446

     occupation numbers 
     1.0000   1.0000   1.0000   1.0000   1.0000   1.0000   1.0000   1.0000
     1.0000   1.0000   1.0000   1.0000   1.0000   1.0000   1.0000   1.0000
     1.0000   1.0000   1.0000   1.0000   1.0000   1.0000   1.0000   1.0000
     1.0000   1.0000   1.0000   1.0000   1.0000   1.0000   1.0000   1.0000
     1.0000   1.0000   1.0000   1.0000

          k = 0.1667-0.2887 0.0000 (  3271 PWs)   bands (ev):

    -9.9984  -9.3111  -9.0455  -7.9742   1.9362   2.1931   2.4503   2.5269
     2.5724   2.8254   3.0389   3.1183   3.3226   3.5839   3.9542   4.3574
     4.4750   4.6118   4.6776   4.8369   4.9983   5.0287   5.1755   5.3240
     5.5862   5.9316   6.0898   6.4982   7.1911   7.9583   8.3692   8.6719
     8.8359   9.2753   9.5556   9.8196

     occupation numbers 
     1.0000   1.0000   1.0000   1.0000   1.0000   1.0000   1.0000   1.0000
     1.0000   1.0000   1.0000   1.0000   1.0000   1.0000   1.0000   1.0000
     1.0000   1.0000   1.0000   1.0000   1.0000   1.0000   1.0000   1.0000
     1.0000   1.0000   1.0000   1.0000   1.0000   1.0000   1.0000   1.0000
     1.0000   1.0000   1.0000   1.0000

          k = 0.1667-0.2887 0.2065 (  3289 PWs)   bands (ev):

    -9.9553  -9.3425  -9.0446  -7.9854   1.9134   2.1397   2.4058   2.4830
     2.5993   2.7471   2.9557   3.1040   3.3409   3.6342   3.9847   4.2973
     4.5307   4.5742   4.6956   4.8395   4.9734   5.0136   5.1773   5.2834
     5.6601   6.0107   6.1168   6.7346   7.3509   7.9560   8.3552   8.6645
     8.8952   9.1663   9.4714   9.7917

     occupation numbers 
     1.0000   1.0000   1.0000   1.0000   1.0000   1.0000   1.0000   1.0000
     1.0000   1.0000   1.0000   1.0000   1.0000   1.0000   1.0000   1.0000
     1.0000   1.0000   1.0000   1.0000   1.0000   1.0000   1.0000   1.0000
     1.0000   1.0000   1.0000   1.0000   1.0000   1.0000   1.0000   1.0000
     1.0000   1.0000   1.0000   1.0000

          k = 0.1667-0.2887 0.4130 (  3283 PWs)   bands (ev):

    -9.8406  -9.4435  -9.0338  -8.0078   1.8861   2.0335   2.3186   2.4028
     2.5648   2.7026   2.8912   3.1171   3.3496   3.5953   3.9682   4.2712
     4.5583   4.6295   4.7283   4.8437   4.9244   4.9768   5.1821   5.2777
     5.6038   5.9895   6.6709   6.9908   7.5451   7.9312   8.2597   8.5894
     8.9611   9.2175   9.4066   9.7178

     occupation numbers 
     1.0000   1.0000   1.0000   1.0000   1.0000   1.0000   1.0000   1.0000
     1.0000   1.0000   1.0000   1.0000   1.0000   1.0000   1.0000   1.0000
     1.0000   1.0000   1.0000   1.0000   1.0000   1.0000   1.0000   1.0000
     1.0000   1.0000   1.0000   1.0000   1.0000   1.0000   1.0000   1.0000
     1.0000   1.0000   1.0000   1.0000

          k = 0.1667-0.2887-0.6194 (  3252 PWs)   bands (ev):

    -9.7398  -9.5409  -9.0251  -8.0190   1.8732   1.9888   2.2753   2.3765
     2.5162   2.7075   2.9045   3.1291   3.3347   3.5348   3.9409   4.2674
     4.5762   4.7042   4.7411   4.8518   4.8819   4.9730   5.1719   5.2947
     5.5598   5.9755   7.0095   7.2685   7.4871   7.6073   8.2017   8.7417
     9.0289   9.3018   9.4148   9.6161

     occupation numbers 
     1.0000   1.0000   1.0000   1.0000   1.0000   1.0000   1.0000   1.0000
     1.0000   1.0000   1.0000   1.0000   1.0000   1.0000   1.0000   1.0000
     1.0000   1.0000   1.0000   1.0000   1.0000   1.0000   1.0000   1.0000
     1.0000   1.0000   1.0000   1.0000   1.0000   1.0000   1.0000   1.0000
     1.0000   1.0000   1.0000   1.0000

          k = 0.3333 0.1925 0.0000 (  3288 PWs)   bands (ev):

   -10.0014  -9.4761  -9.1285  -8.0404   1.8445   2.1252   2.3245   2.4005
     2.5829   2.8857   2.9496   3.0091   3.1808   3.5291   3.9230   4.2689
     4.3786   4.5492   4.7029   4.8563   4.8730   5.1077   5.2130   5.4256
     5.7067   5.9413   6.2800   7.2622   7.8147   8.4355   8.6515   8.8619
     8.9952   9.3523   9.5139   9.8896

     occupation numbers 
     1.0000   1.0000   1.0000   1.0000   1.0000   1.0000   1.0000   1.0000
     1.0000   1.0000   1.0000   1.0000   1.0000   1.0000   1.0000   1.0000
     1.0000   1.0000   1.0000   1.0000   1.0000   1.0000   1.0000   1.0000
     1.0000   1.0000   1.0000   1.0000   1.0000   1.0000   1.0000   1.0000
     1.0000   1.0000   1.0000   1.0000

          k = 0.3333 0.1925 0.2065 (  3284 PWs)   bands (ev):

    -9.9530  -9.5005  -9.1311  -8.0639   1.8460   2.0416   2.2703   2.4099
     2.5570   2.7980   2.8975   2.9902   3.2135   3.5967   3.9265   4.2432
     4.4243   4.5438   4.7073   4.8432   4.8730   5.0946   5.1757   5.2894
     5.8501   6.1920   6.5607   7.0957   7.8864   8.4565   8.6227   8.7764
     9.1246   9.3249   9.4485   9.8760

     occupation numbers 
     1.0000   1.0000   1.0000   1.0000   1.0000   1.0000   1.0000   1.0000
     1.0000   1.0000   1.0000   1.0000   1.0000   1.0000   1.0000   1.0000
     1.0000   1.0000   1.0000   1.0000   1.0000   1.0000   1.0000   1.0000
     1.0000   1.0000   1.0000   1.0000   1.0000   1.0000   1.0000   1.0000
     1.0000   1.0000   1.0000   1.0000

          k = 0.3333 0.1925 0.4130 (  3276 PWs)   bands (ev):

    -9.8492  -9.5261  -9.1699  -8.1078   1.8299   1.8897   2.1546   2.3845
     2.5701   2.7080   2.8566   3.0058   3.2103   3.5756   3.9051   4.2294
     4.5040   4.5555   4.7326   4.8025   4.8965   5.0258   5.1119   5.1861
     6.0679   6.7040   6.9090   7.1793   7.9115   8.2379   8.6511   8.8068
     9.0312   9.2840   9.4686   9.7731

     occupation numbers 
     1.0000   1.0000   1.0000   1.0000   1.0000   1.0000   1.0000   1.0000
     1.0000   1.0000   1.0000   1.0000   1.0000   1.0000   1.0000   1.0000
     1.0000   1.0000   1.0000   1.0000   1.0000   1.0000   1.0000   1.0000
     1.0000   1.0000   1.0000   1.0000   1.0000   1.0000   1.0000   1.0000
     1.0000   1.0000   1.0000   1.0000

          k = 0.3333 0.1925-0.6194 (  3258 PWs)   bands (ev):

    -9.7976  -9.5150  -9.2149  -8.1277   1.7712   1.8626   2.0994   2.3657
     2.5955   2.6782   2.8625   3.0113   3.1997   3.5295   3.8755   4.2437
     4.5044   4.5898   4.7616   4.7883   4.9128   4.9831   5.0934   5.1434
     6.2120   6.6600   7.2255   7.4465   7.9032   8.1796   8.5517   8.8015
     8.9653   9.2973   9.4445   9.6840

     occupation numbers 
     1.0000   1.0000   1.0000   1.0000   1.0000   1.0000   1.0000   1.0000
     1.0000   1.0000   1.0000   1.0000   1.0000   1.0000   1.0000   1.0000
     1.0000   1.0000   1.0000   1.0000   1.0000   1.0000   1.0000   1.0000
     1.0000   1.0000   1.0000   1.0000   1.0000   1.0000   1.0000   1.0000
     1.0000   1.0000   1.0000   1.0000

          k = 0.3333 0.5774 0.0000 (  3286 PWs)   bands (ev):

    -9.8237  -9.4389  -9.0928  -7.9952   1.9113   2.1328   2.3504   2.5037
     2.6173   2.8430   2.9738   3.0980   3.2217   3.5468   3.9777   4.1908
     4.4433   4.5033   4.7227   4.8192   4.8857   5.0908   5.3806   5.4547
     5.7389   5.9939   6.6373   7.2426   7.4096   7.6266   8.0879   8.3117
     8.9768   9.1515   9.2968   9.3844

     occupation numbers 
     1.0000   1.0000   1.0000   1.0000   1.0000   1.0000   1.0000   1.0000
     1.0000   1.0000   1.0000   1.0000   1.0000   1.0000   1.0000   1.0000
     1.0000   1.0000   1.0000   1.0000   1.0000   1.0000   1.0000   1.0000
     1.0000   1.0000   1.0000   1.0000   1.0000   1.0000   1.0000   1.0000
     1.0000   1.0000   1.0000   1.0000

          k = 0.3333 0.5774 0.2065 (  3290 PWs)   bands (ev):

    -9.7962  -9.4159  -9.1225  -8.0158   1.8948   2.0773   2.3339   2.4291
     2.6225   2.8070   2.9122   3.0575   3.2432   3.5854   3.9802   4.1966
     4.4514   4.5608   4.7190   4.8295   4.8673   5.0515   5.2731   5.3201
     5.9890   6.2737   6.7138   7.3308   7.4337   7.5753   7.9865   8.3581
     8.9363   9.1481   9.2995   9.4356

     occupation numbers 
     1.0000   1.0000   1.0000   1.0000   1.0000   1.0000   1.0000   1.0000
     1.0000   1.0000   1.0000   1.0000   1.0000   1.0000   1.0000   1.0000
     1.0000   1.0000   1.0000   1.0000   1.0000   1.0000   1.0000   1.0000
     1.0000   1.0000   1.0000   1.0000   1.0000   1.0000   1.0000   1.0000
     1.0000   1.0000   1.0000   1.0000

          k = 0.3333 0.5774 0.4130 (  3280 PWs)   bands (ev):

    -9.7299  -9.3659  -9.1970  -8.0564   1.8425   1.9901   2.1963   2.3625
     2.5963   2.6816   2.9055   3.1070   3.2334   3.6046   3.9437   4.1900
     4.4870   4.6359   4.7349   4.7874   4.8956   5.0061   5.1404   5.2060
     6.3868   6.6770   6.9332   7.2956   7.5083   7.7499   8.0253   8.5105
     8.7954   8.9204   9.1531   9.4794

     occupation numbers 
     1.0000   1.0000   1.0000   1.0000   1.0000   1.0000   1.0000   1.0000
     1.0000   1.0000   1.0000   1.0000   1.0000   1.0000   1.0000   1.0000
     1.0000   1.0000   1.0000   1.0000   1.0000   1.0000   1.0000   1.0000
     1.0000   1.0000   1.0000   1.0000   1.0000   1.0000   1.0000   1.0000
     1.0000   1.0000   1.0000   1.0000

          k = 0.3333 0.5774-0.6194 (  3272 PWs)   bands (ev):

    -9.6879  -9.3302  -9.2536  -8.0764   1.8126   1.9440   2.1088   2.3710
     2.5154   2.6643   2.9042   3.1443   3.2571   3.5916   3.9117   4.1875
     4.5178   4.6126   4.7444   4.7907   4.9108   5.0127   5.0948   5.1529
     6.6084   6.8353   7.0058   7.1739   7.6524   8.0572   8.1714   8.5450
     8.6596   8.8401   8.9452   9.3581

     occupation numbers 
     1.0000   1.0000   1.0000   1.0000   1.0000   1.0000   1.0000   1.0000
     1.0000   1.0000   1.0000   1.0000   1.0000   1.0000   1.0000   1.0000
     1.0000   1.0000   1.0000   1.0000   1.0000   1.0000   1.0000   1.0000
     1.0000   1.0000   1.0000   1.0000   1.0000   1.0000   1.0000   1.0000
     1.0000   1.0000   1.0000   1.0000

          k = 0.3333-0.9623 0.0000 (  3274 PWs)   bands (ev):

    -9.4461  -9.1734  -8.9545  -7.8355   1.9681   2.2491   2.5072   2.5811
     2.8404   3.0717   3.2641   3.4152   3.6173   3.7773   3.9961   4.2047
     4.4276   4.5255   4.7806   4.8691   5.0475   5.1277   5.2676   5.3559
     5.5595   5.8524   6.1348   6.3003   6.6477   6.9614   7.1664   7.3630
     8.1298   8.3774   8.4868   9.1601

     occupation numbers 
     1.0000   1.0000   1.0000   1.0000   1.0000   1.0000   1.0000   1.0000
     1.0000   1.0000   1.0000   1.0000   1.0000   1.0000   1.0000   1.0000
     1.0000   1.0000   1.0000   1.0000   1.0000   1.0000   1.0000   1.0000
     1.0000   1.0000   1.0000   1.0000   1.0000   1.0000   1.0000   1.0000
     1.0000   1.0000   1.0000   1.0000

          k = 0.3333-0.9623 0.2065 (  3260 PWs)   bands (ev):

    -9.4333  -9.1671  -8.9584  -7.8407   1.9618   2.1667   2.5002   2.5364
     2.7985   2.9407   3.2489   3.4579   3.6007   3.8134   3.9698   4.2195
     4.4962   4.5360   4.7485   4.8783   5.0411   5.1204   5.2502   5.3390
     5.5826   5.7745   6.1038   6.3796   6.7676   6.9961   7.2628   7.5721
     8.1665   8.3175   8.4744   9.2542

     occupation numbers 
     1.0000   1.0000   1.0000   1.0000   1.0000   1.0000   1.0000   1.0000
     1.0000   1.0000   1.0000   1.0000   1.0000   1.0000   1.0000   1.0000
     1.0000   1.0000   1.0000   1.0000   1.0000   1.0000   1.0000   1.0000
     1.0000   1.0000   1.0000   1.0000   1.0000   1.0000   1.0000   1.0000
     1.0000   1.0000   1.0000   1.0000

          k = 0.3333-0.9623 0.4130 (  3256 PWs)   bands (ev):

    -9.4045  -9.1585  -8.9649  -7.8515   1.9052   2.0545   2.3891   2.4928
     2.6991   2.8562   3.2224   3.4486   3.6557   3.7819   3.8678   4.2782
     4.5222   4.6076   4.7947   4.9088   5.0371   5.0982   5.1974   5.2818
     5.6665   5.7730   6.0330   6.3877   6.9650   7.0891   7.5749   7.8403
     8.0577   8.3036   8.6361   9.3359

     occupation numbers 
     1.0000   1.0000   1.0000   1.0000   1.0000   1.0000   1.0000   1.0000
     1.0000   1.0000   1.0000   1.0000   1.0000   1.0000   1.0000   1.0000
     1.0000   1.0000   1.0000   1.0000   1.0000   1.0000   1.0000   1.0000
     1.0000   1.0000   1.0000   1.0000   1.0000   1.0000   1.0000   1.0000
     1.0000   1.0000   1.0000   1.0000

          k = 0.3333-0.9623-0.6194 (  3264 PWs)   bands (ev):

    -9.3881  -9.1571  -8.9672  -7.8571   1.8606   2.0066   2.3396   2.4580
     2.6456   2.8621   3.2145   3.4470   3.6289   3.7790   3.8489   4.2425
     4.5338   4.6670   4.8425   4.9163   5.0328   5.1033   5.1782   5.2546
     5.6946   5.8292   6.0212   6.3749   6.9202   7.2168   7.7192   7.8647
     8.0567   8.3682   8.7834   9.2932

     occupation numbers 
     1.0000   1.0000   1.0000   1.0000   1.0000   1.0000   1.0000   1.0000
     1.0000   1.0000   1.0000   1.0000   1.0000   1.0000   1.0000   1.0000
     1.0000   1.0000   1.0000   1.0000   1.0000   1.0000   1.0000   1.0000
     1.0000   1.0000   1.0000   1.0000   1.0000   1.0000   1.0000   1.0000
     1.0000   1.0000   1.0000   1.0000

          k = 0.3333-0.5774 0.0000 (  3275 PWs)   bands (ev):

    -9.6733  -9.1914  -8.9774  -7.8828   1.9500   2.2589   2.5253   2.6199
     2.8222   2.9836   3.2784   3.4074   3.4483   3.5293   3.9510   4.1958
     4.4419   4.5348   4.7444   4.8113   5.0011   5.1757   5.2149   5.4317
     5.6271   5.8419   6.0701   6.2613   6.9785   7.3814   7.5094   7.7699
     7.9416   8.3863   9.0835   9.4031

     occupation numbers 
     1.0000   1.0000   1.0000   1.0000   1.0000   1.0000   1.0000   1.0000
     1.0000   1.0000   1.0000   1.0000   1.0000   1.0000   1.0000   1.0000
     1.0000   1.0000   1.0000   1.0000   1.0000   1.0000   1.0000   1.0000
     1.0000   1.0000   1.0000   1.0000   1.0000   1.0000   1.0000   1.0000
     1.0000   1.0000   1.0000   1.0000

          k = 0.3333-0.5774 0.2065 (  3271 PWs)   bands (ev):

    -9.6455  -9.2019  -8.9803  -7.8900   1.9265   2.1699   2.5320   2.5780
     2.7867   2.9033   3.2167   3.3307   3.3964   3.6777   3.9693   4.1918
     4.4717   4.5708   4.7509   4.7939   4.9430   5.1484   5.2516   5.4014
     5.7229   5.9093   6.1979   6.2469   7.0195   7.3458   7.5810   7.7713
     8.2034   8.4148   9.0217   9.3210

     occupation numbers 
     1.0000   1.0000   1.0000   1.0000   1.0000   1.0000   1.0000   1.0000
     1.0000   1.0000   1.0000   1.0000   1.0000   1.0000   1.0000   1.0000
     1.0000   1.0000   1.0000   1.0000   1.0000   1.0000   1.0000   1.0000
     1.0000   1.0000   1.0000   1.0000   1.0000   1.0000   1.0000   1.0000
     1.0000   1.0000   1.0000   1.0000

          k = 0.3333-0.5774 0.4130 (  3275 PWs)   bands (ev):

    -9.5712  -9.2573  -8.9709  -7.9048   1.8855   2.0568   2.4484   2.4980
     2.7245   2.8401   3.1125   3.3274   3.3661   3.7131   3.9283   4.1830
     4.5665   4.5935   4.7795   4.8126   4.9073   5.0764   5.3037   5.4331
     5.7844   5.9977   6.1382   6.5631   6.8996   7.2993   7.8441   7.9829
     8.2663   8.7295   8.9163   9.1891

     occupation numbers 
     1.0000   1.0000   1.0000   1.0000   1.0000   1.0000   1.0000   1.0000
     1.0000   1.0000   1.0000   1.0000   1.0000   1.0000   1.0000   1.0000
     1.0000   1.0000   1.0000   1.0000   1.0000   1.0000   1.0000   1.0000
     1.0000   1.0000   1.0000   1.0000   1.0000   1.0000   1.0000   1.0000
     1.0000   1.0000   1.0000   1.0000

          k = 0.3333-0.5774-0.6194 (  3232 PWs)   bands (ev):

    -9.5108  -9.3141  -8.9602  -7.9124   1.8662   2.0274   2.4041   2.4314
     2.6885   2.8521   3.0829   3.2861   3.4051   3.6741   3.8943   4.1785
     4.5649   4.6688   4.7832   4.8650   4.8887   5.0294   5.3383   5.4682
     5.7097   6.0193   6.3827   6.4940   6.8071   7.2648   7.8649   8.2910
     8.4546   8.5615   8.9009   9.2405

     occupation numbers 
     1.0000   1.0000   1.0000   1.0000   1.0000   1.0000   1.0000   1.0000
     1.0000   1.0000   1.0000   1.0000   1.0000   1.0000   1.0000   1.0000
     1.0000   1.0000   1.0000   1.0000   1.0000   1.0000   1.0000   1.0000
     1.0000   1.0000   1.0000   1.0000   1.0000   1.0000   1.0000   1.0000
     1.0000   1.0000   1.0000   1.0000

          k =-0.5000-0.2887 0.0000 (  3298 PWs)   bands (ev):

    -9.9349  -9.5368  -9.1346  -8.0481   1.8415   2.1129   2.3184   2.4055
     2.5888   2.8939   2.9517   3.0473   3.1272   3.4779   3.9070   4.2569
     4.3700   4.5057   4.6892   4.8448   4.8568   5.1091   5.3386   5.3901
     5.7050   5.8610   6.7220   7.5234   7.9939   8.1512   8.3243   8.6230
     9.1223   9.3329   9.4931   9.7677

     occupation numbers 
     1.0000   1.0000   1.0000   1.0000   1.0000   1.0000   1.0000   1.0000
     1.0000   1.0000   1.0000   1.0000   1.0000   1.0000   1.0000   1.0000
     1.0000   1.0000   1.0000   1.0000   1.0000   1.0000   1.0000   1.0000
     1.0000   1.0000   1.0000   1.0000   1.0000   1.0000   1.0000   1.0000
     1.0000   1.0000   1.0000   1.0000

          k =-0.5000-0.2887 0.2065 (  3274 PWs)   bands (ev):

    -9.9023  -9.5133  -9.1695  -8.0716   1.8276   2.0229   2.2760   2.4070
     2.5840   2.7845   2.9214   3.0203   3.2181   3.4773   3.8986   4.2484
     4.4091   4.5110   4.6921   4.8232   4.8659   5.0922   5.2173   5.2786
     5.9685   6.2340   6.7832   7.5249   7.9087   8.1738   8.3091   8.6643
     9.1282   9.3451   9.4444   9.7268

     occupation numbers 
     1.0000   1.0000   1.0000   1.0000   1.0000   1.0000   1.0000   1.0000
     1.0000   1.0000   1.0000   1.0000   1.0000   1.0000   1.0000   1.0000
     1.0000   1.0000   1.0000   1.0000   1.0000   1.0000   1.0000   1.0000
     1.0000   1.0000   1.0000   1.0000   1.0000   1.0000   1.0000   1.0000
     1.0000   1.0000   1.0000   1.0000

          k =-0.5000-0.2887 0.4130 (  3274 PWs)   bands (ev):

    -9.8266  -9.4581  -9.2558  -8.1211   1.7869   1.8964   2.1492   2.3856
     2.5948   2.6977   2.8770   2.9989   3.2193   3.5167   3.8605   4.2341
     4.4763   4.5327   4.7299   4.7760   4.8897   5.0290   5.1217   5.1835
     6.4448   6.7399   6.9784   7.4397   7.7985   8.2471   8.4348   8.7576
     8.9405   9.2810   9.3870   9.6075

     occupation numbers 
     1.0000   1.0000   1.0000   1.0000   1.0000   1.0000   1.0000   1.0000
     1.0000   1.0000   1.0000   1.0000   1.0000   1.0000   1.0000   1.0000
     1.0000   1.0000   1.0000   1.0000   1.0000   1.0000   1.0000   1.0000
     1.0000   1.0000   1.0000   1.0000   1.0000   1.0000   1.0000   1.0000
     1.0000   1.0000   1.0000   1.0000

          k =-0.5000-0.2887-0.6194 (  3280 PWs)   bands (ev):

    -9.7805  -9.4153  -9.3211  -8.1472   1.7533   1.8570   2.0813   2.3712
     2.6098   2.6655   2.8586   2.9959   3.1964   3.5397   3.8346   4.2279
     4.5163   4.5434   4.7436   4.7700   4.9057   4.9837   5.0996   5.1429
     6.6645   6.9712   7.1672   7.2594   7.8993   8.2666   8.5159   8.7760
     8.8332   9.2515   9.3124   9.4943

     occupation numbers 
     1.0000   1.0000   1.0000   1.0000   1.0000   1.0000   1.0000   1.0000
     1.0000   1.0000   1.0000   1.0000   1.0000   1.0000   1.0000   1.0000
     1.0000   1.0000   1.0000   1.0000   1.0000   1.0000   1.0000   1.0000
     1.0000   1.0000   1.0000   1.0000   1.0000   1.0000   1.0000   1.0000
     1.0000   1.0000   1.0000   1.0000

          k =-0.5000-1.4434 0.0000 (  3270 PWs)   bands (ev):

    -9.4497  -9.1845  -8.9427  -7.8359   1.9672   2.2592   2.5461   2.6320
     2.8508   3.1622   3.2926   3.4085   3.6590   3.7542   3.8723   4.0668
     4.4202   4.5185   4.7785   4.8750   5.0665   5.1411   5.3488   5.4066
     5.6879   5.8380   6.0399   6.3583   6.7264   6.8402   7.1305   7.3272
     8.0046   8.2587   8.3817   9.1544

     occupation numbers 
     1.0000   1.0000   1.0000   1.0000   1.0000   1.0000   1.0000   1.0000
     1.0000   1.0000   1.0000   1.0000   1.0000   1.0000   1.0000   1.0000
     1.0000   1.0000   1.0000   1.0000   1.0000   1.0000   1.0000   1.0000
     1.0000   1.0000   1.0000   1.0000   1.0000   1.0000   1.0000   1.0000
     1.0000   1.0000   1.0000   1.0000

          k =-0.5000-1.4434 0.2065 (  3274 PWs)   bands (ev):

    -9.4358  -9.1798  -8.9460  -7.8412   1.9476   2.1821   2.5436   2.5804
     2.8153   3.0561   3.2529   3.4167   3.6273   3.7407   3.9145   4.0897
     4.4735   4.5371   4.7823   4.8941   5.0549   5.1333   5.3259   5.3853
     5.7065   5.7895   6.1808   6.4264   6.6738   6.8704   7.1735   7.5179
     8.0136   8.2100   8.4653   9.2222

     occupation numbers 
     1.0000   1.0000   1.0000   1.0000   1.0000   1.0000   1.0000   1.0000
     1.0000   1.0000   1.0000   1.0000   1.0000   1.0000   1.0000   1.0000
     1.0000   1.0000   1.0000   1.0000   1.0000   1.0000   1.0000   1.0000
     1.0000   1.0000   1.0000   1.0000   1.0000   1.0000   1.0000   1.0000
     1.0000   1.0000   1.0000   1.0000

          k =-0.5000-1.4434 0.4130 (  3260 PWs)   bands (ev):

    -9.4057  -9.1729  -8.9522  -7.8523   1.8938   2.0617   2.4465   2.5190
     2.7610   2.9315   3.2096   3.4160   3.5939   3.7063   3.9291   4.1070
     4.5352   4.5970   4.8316   4.9215   5.0385   5.1278   5.2672   5.3188
     5.7601   5.8338   6.2734   6.5534   6.6417   6.8085   7.5051   7.7559
     7.9877   8.1491   8.6855   9.3122

     occupation numbers 
     1.0000   1.0000   1.0000   1.0000   1.0000   1.0000   1.0000   1.0000
     1.0000   1.0000   1.0000   1.0000   1.0000   1.0000   1.0000   1.0000
     1.0000   1.0000   1.0000   1.0000   1.0000   1.0000   1.0000   1.0000
     1.0000   1.0000   1.0000   1.0000   1.0000   1.0000   1.0000   1.0000
     1.0000   1.0000   1.0000   1.0000

          k =-0.5000-1.4434-0.6194 (  3260 PWs)   bands (ev):

    -9.3892  -9.1713  -8.9548  -7.8580   1.8574   2.0156   2.3796   2.4944
     2.7391   2.8893   3.2040   3.4119   3.5816   3.6895   3.9244   4.0996
     4.5466   4.6490   4.8572   4.9254   5.0531   5.1280   5.2262   5.2765
     5.8182   5.8550   6.2570   6.6181   6.6347   6.8520   7.5866   7.7360
     8.0275   8.2941   8.7845   9.3107

     occupation numbers 
     1.0000   1.0000   1.0000   1.0000   1.0000   1.0000   1.0000   1.0000
     1.0000   1.0000   1.0000   1.0000   1.0000   1.0000   1.0000   1.0000
     1.0000   1.0000   1.0000   1.0000   1.0000   1.0000   1.0000   1.0000
     1.0000   1.0000   1.0000   1.0000   1.0000   1.0000   1.0000   1.0000
     1.0000   1.0000   1.0000   1.0000

          k = 0.3333-0.1925 0.0000 (  3294 PWs)   bands (ev):

    -9.9671  -9.3141  -9.0758  -7.9770   1.8942   2.1939   2.4206   2.5061
     2.6033   2.8818   2.9889   3.0909   3.2970   3.5725   3.9615   4.3470
     4.4711   4.6121   4.7388   4.8131   4.9381   5.0663   5.2325   5.3602
     5.6222   5.8759   6.3475   6.4264   7.1516   8.1125   8.3420   8.5755
     8.8433   9.1122   9.5070   9.8526

     occupation numbers 
     1.0000   1.0000   1.0000   1.0000   1.0000   1.0000   1.0000   1.0000
     1.0000   1.0000   1.0000   1.0000   1.0000   1.0000   1.0000   1.0000
     1.0000   1.0000   1.0000   1.0000   1.0000   1.0000   1.0000   1.0000
     1.0000   1.0000   1.0000   1.0000   1.0000   1.0000   1.0000   1.0000
     1.0000   1.0000   1.0000   1.0000

          k = 0.0000-0.3849 0.2065 (  3280 PWs)   bands (ev):

    -9.9249  -9.3385  -9.0778  -7.9925   1.9481   2.0998   2.3507   2.5029
     2.6102   2.7029   3.0038   3.1320   3.3205   3.5555   3.9695   4.2001
     4.4598   4.5540   4.7286   4.8858   4.9650   5.0562   5.1248   5.3835
     5.8295   6.0221   6.2457   6.8724   7.3786   7.9173   8.3230   8.6037
     8.8389   9.0345   9.4931   9.6591

     occupation numbers 
     1.0000   1.0000   1.0000   1.0000   1.0000   1.0000   1.0000   1.0000
     1.0000   1.0000   1.0000   1.0000   1.0000   1.0000   1.0000   1.0000
     1.0000   1.0000   1.0000   1.0000   1.0000   1.0000   1.0000   1.0000
     1.0000   1.0000   1.0000   1.0000   1.0000   1.0000   1.0000   1.0000
     1.0000   1.0000   1.0000   1.0000

          k = 0.3333-0.1925-0.2065 (  3280 PWs)   bands (ev):

    -9.9287  -9.3226  -9.0931  -7.9889   1.8765   2.1455   2.3709   2.5101
     2.5689   2.8007   2.9911   3.1336   3.3476   3.4598   3.9407   4.3450
     4.5035   4.6274   4.7614   4.8409   4.9318   5.0137   5.1394   5.3328
     5.7542   6.0025   6.2880   6.5669   7.4286   8.0981   8.3472   8.4954
     8.6828   9.1673   9.6190   9.7825

     occupation numbers 
     1.0000   1.0000   1.0000   1.0000   1.0000   1.0000   1.0000   1.0000
     1.0000   1.0000   1.0000   1.0000   1.0000   1.0000   1.0000   1.0000
     1.0000   1.0000   1.0000   1.0000   1.0000   1.0000   1.0000   1.0000
     1.0000   1.0000   1.0000   1.0000   1.0000   1.0000   1.0000   1.0000
     1.0000   1.0000   1.0000   1.0000

          k =-0.3333 0.1925-0.2065 (  3280 PWs)   bands (ev):

    -9.9203  -9.3618  -9.0587  -7.9919   1.8717   2.1540   2.3699   2.4654
     2.6129   2.7753   2.8949   3.1220   3.2837   3.6739   3.9711   4.3299
     4.4994   4.6109   4.7157   4.7981   4.9220   5.0826   5.2125   5.3123
     5.5595   6.1155   6.3736   6.7602   7.1658   8.0781   8.2920   8.6834
     8.8712   9.1512   9.3313   9.8175

     occupation numbers 
     1.0000   1.0000   1.0000   1.0000   1.0000   1.0000   1.0000   1.0000
     1.0000   1.0000   1.0000   1.0000   1.0000   1.0000   1.0000   1.0000
     1.0000   1.0000   1.0000   1.0000   1.0000   1.0000   1.0000   1.0000
     1.0000   1.0000   1.0000   1.0000   1.0000   1.0000   1.0000   1.0000
     1.0000   1.0000   1.0000   1.0000

          k = 0.0000-0.3849 0.4130 (  3271 PWs)   bands (ev):

    -9.8229  -9.4087  -9.0809  -8.0194   1.9202   1.9982   2.2546   2.4093
     2.5460   2.6841   2.9812   3.0989   3.3380   3.5302   3.9620   4.1796
     4.5103   4.5765   4.7735   4.8812   4.9370   5.0219   5.1120   5.2953
     5.8704   6.1635   6.6309   7.0735   7.6707   7.9353   8.2652   8.4257
     8.8977   9.0474   9.4233   9.6137

     occupation numbers 
     1.0000   1.0000   1.0000   1.0000   1.0000   1.0000   1.0000   1.0000
     1.0000   1.0000   1.0000   1.0000   1.0000   1.0000   1.0000   1.0000
     1.0000   1.0000   1.0000   1.0000   1.0000   1.0000   1.0000   1.0000
     1.0000   1.0000   1.0000   1.0000   1.0000   1.0000   1.0000   1.0000
     1.0000   1.0000   1.0000   1.0000

          k = 0.3333-0.1925-0.4130 (  3271 PWs)   bands (ev):

    -9.8224  -9.4099  -9.0833  -8.0157   1.8292   2.0542   2.2899   2.4442
     2.5301   2.7300   2.8998   3.1792   3.2753   3.5327   3.9155   4.3240
     4.5347   4.6816   4.7897   4.8411   4.8935   4.9696   5.0845   5.2770
     5.7981   6.1163   6.6368   6.8786   7.8018   7.9375   8.1603   8.5192
     8.7567   9.3056   9.5196   9.6121

     occupation numbers 
     1.0000   1.0000   1.0000   1.0000   1.0000   1.0000   1.0000   1.0000
     1.0000   1.0000   1.0000   1.0000   1.0000   1.0000   1.0000   1.0000
     1.0000   1.0000   1.0000   1.0000   1.0000   1.0000   1.0000   1.0000
     1.0000   1.0000   1.0000   1.0000   1.0000   1.0000   1.0000   1.0000
     1.0000   1.0000   1.0000   1.0000

          k =-0.3333 0.1925-0.4130 (  3271 PWs)   bands (ev):

    -9.8069  -9.4511  -9.0539  -8.0188   1.8352   2.0450   2.2815   2.4098
     2.5894   2.6812   2.8290   3.1750   3.2767   3.6526   3.9381   4.3295
     4.5658   4.5956   4.7400   4.8048   4.9009   5.0302   5.1741   5.2430
     5.6080   6.2491   6.7781   7.0990   7.4123   7.9534   8.1164   8.7530
     8.9018   9.1262   9.3170   9.7161

     occupation numbers 
     1.0000   1.0000   1.0000   1.0000   1.0000   1.0000   1.0000   1.0000
     1.0000   1.0000   1.0000   1.0000   1.0000   1.0000   1.0000   1.0000
     1.0000   1.0000   1.0000   1.0000   1.0000   1.0000   1.0000   1.0000
     1.0000   1.0000   1.0000   1.0000   1.0000   1.0000   1.0000   1.0000
     1.0000   1.0000   1.0000   1.0000

          k = 0.3333-0.1925 0.6194 (  3258 PWs)   bands (ev):

    -9.7266  -9.5100  -9.0628  -8.0306   1.8107   1.9969   2.2377   2.4031
     2.5441   2.6818   2.8351   3.1944   3.2646   3.5914   3.9085   4.3193
     4.5568   4.6768   4.7785   4.8187   4.8835   4.9761   5.1135   5.2360
     5.7196   6.1803   7.0495   7.3041   7.5035   7.6995   8.1734   8.7720
     8.8458   9.2042   9.3941   9.5835

     occupation numbers 
     1.0000   1.0000   1.0000   1.0000   1.0000   1.0000   1.0000   1.0000
     1.0000   1.0000   1.0000   1.0000   1.0000   1.0000   1.0000   1.0000
     1.0000   1.0000   1.0000   1.0000   1.0000   1.0000   1.0000   1.0000
     1.0000   1.0000   1.0000   1.0000   1.0000   1.0000   1.0000   1.0000
     1.0000   1.0000   1.0000   1.0000

          k = 0.6667-0.3849 0.0000 (  3268 PWs)   bands (ev):

    -9.6152  -9.1800  -9.0439  -7.8844   1.9089   2.2165   2.4283   2.5561
     2.7606   2.8937   3.1767   3.3024   3.3655   3.7367   4.0795   4.3154
     4.4827   4.5903   4.7567   4.8203   4.9684   5.0589   5.2507   5.4226
     5.7227   5.9121   6.2745   6.4067   6.5879   7.1001   7.5081   8.1495
     8.1790   8.7467   9.0407   9.3898

     occupation numbers 
     1.0000   1.0000   1.0000   1.0000   1.0000   1.0000   1.0000   1.0000
     1.0000   1.0000   1.0000   1.0000   1.0000   1.0000   1.0000   1.0000
     1.0000   1.0000   1.0000   1.0000   1.0000   1.0000   1.0000   1.0000
     1.0000   1.0000   1.0000   1.0000   1.0000   1.0000   1.0000   1.0000
     1.0000   1.0000   1.0000   1.0000

          k = 0.0000-0.7698 0.2065 (  3264 PWs)   bands (ev):

    -9.5787  -9.2238  -9.0176  -7.8970   1.9897   2.1660   2.3253   2.4733
     2.6361   2.8755   3.1981   3.3284   3.4643   3.6552   3.9439   4.2769
     4.4874   4.5450   4.7474   4.8735   4.9713   5.0848   5.2441   5.4112
     5.8386   5.9653   6.1332   6.5948   7.0495   7.1569   7.6041   7.9421
     8.3381   8.6356   8.9896   9.3063

     occupation numbers 
     1.0000   1.0000   1.0000   1.0000   1.0000   1.0000   1.0000   1.0000
     1.0000   1.0000   1.0000   1.0000   1.0000   1.0000   1.0000   1.0000
     1.0000   1.0000   1.0000   1.0000   1.0000   1.0000   1.0000   1.0000
     1.0000   1.0000   1.0000   1.0000   1.0000   1.0000   1.0000   1.0000
     1.0000   1.0000   1.0000   1.0000

          k = 0.6667-0.3849-0.2065 (  3264 PWs)   bands (ev):

    -9.5953  -9.1571  -9.0705  -7.8941   1.9084   2.1582   2.3589   2.5543
     2.7292   2.7965   3.1688   3.2805   3.3839   3.7945   4.0662   4.3053
     4.4635   4.6096   4.7729   4.8417   4.9702   5.0122   5.2393   5.3127
     5.7427   5.9756   6.2357   6.5719   6.8459   7.1846   7.4017   8.0936
     8.2520   8.7400   9.1693   9.3987

     occupation numbers 
     1.0000   1.0000   1.0000   1.0000   1.0000   1.0000   1.0000   1.0000
     1.0000   1.0000   1.0000   1.0000   1.0000   1.0000   1.0000   1.0000
     1.0000   1.0000   1.0000   1.0000   1.0000   1.0000   1.0000   1.0000
     1.0000   1.0000   1.0000   1.0000   1.0000   1.0000   1.0000   1.0000
     1.0000   1.0000   1.0000   1.0000

          k =-0.6667 0.3849-0.2065 (  3264 PWs)   bands (ev):

    -9.5851  -9.2037  -9.0337  -7.8934   1.8763   2.1680   2.4217   2.4822
     2.6469   2.8553   3.1891   3.2573   3.4301   3.7304   4.0604   4.3335
     4.5292   4.6295   4.7322   4.8043   4.9464   5.0699   5.2180   5.3688
     5.6833   6.0483   6.2949   6.5016   6.7433   7.2901   7.5741   8.1212
     8.2147   8.7259   9.0600   9.3127

     occupation numbers 
     1.0000   1.0000   1.0000   1.0000   1.0000   1.0000   1.0000   1.0000
     1.0000   1.0000   1.0000   1.0000   1.0000   1.0000   1.0000   1.0000
     1.0000   1.0000   1.0000   1.0000   1.0000   1.0000   1.0000   1.0000
     1.0000   1.0000   1.0000   1.0000   1.0000   1.0000   1.0000   1.0000
     1.0000   1.0000   1.0000   1.0000

          k = 0.0000-0.7698 0.4130 (  3261 PWs)   bands (ev):

    -9.5314  -9.2059  -9.0495  -7.9164   1.9855   2.0163   2.2405   2.3849
     2.5089   2.8480   3.1496   3.3023   3.5548   3.6488   3.8944   4.2979
     4.4952   4.5955   4.8082   4.8713   4.9550   5.0551   5.1342   5.3176
     5.8971   6.0975   6.2908   6.6191   7.1708   7.4087   7.7898   8.1906
     8.4338   8.5509   8.9511   9.2119

     occupation numbers 
     1.0000   1.0000   1.0000   1.0000   1.0000   1.0000   1.0000   1.0000
     1.0000   1.0000   1.0000   1.0000   1.0000   1.0000   1.0000   1.0000
     1.0000   1.0000   1.0000   1.0000   1.0000   1.0000   1.0000   1.0000
     1.0000   1.0000   1.0000   1.0000   1.0000   1.0000   1.0000   1.0000
     1.0000   1.0000   1.0000   1.0000

          k = 0.6667-0.3849-0.4130 (  3261 PWs)   bands (ev):

    -9.5392  -9.1775  -9.0728  -7.9133   1.8650   2.0667   2.2688   2.4872
     2.5317   2.7795   3.1293   3.2517   3.4905   3.7902   4.0122   4.2976
     4.5057   4.7011   4.7660   4.8503   4.9343   4.9888   5.1318   5.2462
     5.7819   6.1009   6.2706   6.7383   7.1529   7.3500   7.5917   8.1141
     8.3325   8.7684   9.0764   9.3939

     occupation numbers 
     1.0000   1.0000   1.0000   1.0000   1.0000   1.0000   1.0000   1.0000
     1.0000   1.0000   1.0000   1.0000   1.0000   1.0000   1.0000   1.0000
     1.0000   1.0000   1.0000   1.0000   1.0000   1.0000   1.0000   1.0000
     1.0000   1.0000   1.0000   1.0000   1.0000   1.0000   1.0000   1.0000
     1.0000   1.0000   1.0000   1.0000

          k =-0.6667 0.3849-0.4130 (  3261 PWs)   bands (ev):

    -9.5246  -9.2279  -9.0365  -7.9127   1.8362   2.0640   2.3222   2.4160
     2.5126   2.8052   3.1362   3.2398   3.5457   3.7082   4.0129   4.3427
     4.5829   4.6455   4.7613   4.8053   4.9070   5.0598   5.1783   5.2215
     5.7475   6.0916   6.3596   6.7147   7.0154   7.5528   7.7044   8.1230
     8.4163   8.6110   9.1162   9.1891

     occupation numbers 
     1.0000   1.0000   1.0000   1.0000   1.0000   1.0000   1.0000   1.0000
     1.0000   1.0000   1.0000   1.0000   1.0000   1.0000   1.0000   1.0000
     1.0000   1.0000   1.0000   1.0000   1.0000   1.0000   1.0000   1.0000
     1.0000   1.0000   1.0000   1.0000   1.0000   1.0000   1.0000   1.0000
     1.0000   1.0000   1.0000   1.0000

          k = 0.6667-0.3849 0.6194 (  3264 PWs)   bands (ev):

    -9.4960  -9.2267  -9.0496  -7.9229   1.8255   2.0198   2.2469   2.4106
     2.4615   2.7811   3.1156   3.2433   3.5716   3.7255   3.9821   4.3089
     4.5689   4.7367   4.7716   4.8239   4.8835   5.0181   5.1038   5.2077
     5.8328   6.0231   6.4064   6.7887   7.2223   7.4673   7.8299   8.1870
     8.3960   8.8264   8.9914   9.1804

     occupation numbers 
     1.0000   1.0000   1.0000   1.0000   1.0000   1.0000   1.0000   1.0000
     1.0000   1.0000   1.0000   1.0000   1.0000   1.0000   1.0000   1.0000
     1.0000   1.0000   1.0000   1.0000   1.0000   1.0000   1.0000   1.0000
     1.0000   1.0000   1.0000   1.0000   1.0000   1.0000   1.0000   1.0000
     1.0000   1.0000   1.0000   1.0000

          k =-0.1667-0.0962 0.2065 (  3288 PWs)   bands (ev):

   -10.0571  -9.4045  -9.1311  -8.0392   1.8283   2.0719   2.2958   2.3897
     2.5796   2.7649   2.9778   3.0304   3.2814   3.4969   3.9528   4.3006
     4.4726   4.6210   4.7203   4.8701   4.9339   5.0420   5.1048   5.2533
     5.7000   5.9890   6.1629   7.1666   7.5722   8.5872   8.7408   8.9736
     9.1888   9.4464   9.7823   9.9991

     occupation numbers 
     1.0000   1.0000   1.0000   1.0000   1.0000   1.0000   1.0000   1.0000
     1.0000   1.0000   1.0000   1.0000   1.0000   1.0000   1.0000   1.0000
     1.0000   1.0000   1.0000   1.0000   1.0000   1.0000   1.0000   1.0000
     1.0000   1.0000   1.0000   1.0000   1.0000   1.0000   1.0000   1.0000
     1.0000   1.0000   1.0000   1.0000

          k =-0.1667-0.0962 0.4130 (  3281 PWs)   bands (ev):

    -9.9409  -9.4930  -9.1306  -8.0710   1.7938   1.9540   2.1896   2.3727
     2.5792   2.6946   2.9426   3.0191   3.2685   3.4778   3.9400   4.2818
     4.5152   4.6374   4.7491   4.8600   4.9401   5.0222   5.0650   5.1652
     5.7233   6.1096   6.6265   7.5598   7.8709   8.2588   8.6331   8.7113
     9.2794   9.5004   9.7276   9.9545

     occupation numbers 
     1.0000   1.0000   1.0000   1.0000   1.0000   1.0000   1.0000   1.0000
     1.0000   1.0000   1.0000   1.0000   1.0000   1.0000   1.0000   1.0000
     1.0000   1.0000   1.0000   1.0000   1.0000   1.0000   1.0000   1.0000
     1.0000   1.0000   1.0000   1.0000   1.0000   1.0000   1.0000   1.0000
     1.0000   1.0000   1.0000   1.0000

          k = 0.5000-0.0962 0.0000 (  3277 PWs)   bands (ev):

    -9.8847  -9.3732  -9.0994  -7.9875   1.8830   2.1605   2.3862   2.4722
     2.6334   2.8849   2.9943   3.0594   3.2304   3.5648   3.9682   4.2770
     4.4485   4.5553   4.7336   4.8206   4.8851   5.0879   5.3186   5.4403
     5.7179   6.0701   6.2501   6.8778   7.4023   7.7925   8.2806   8.5522
     8.7789   9.0533   9.3859   9.6605

     occupation numbers 
     1.0000   1.0000   1.0000   1.0000   1.0000   1.0000   1.0000   1.0000
     1.0000   1.0000   1.0000   1.0000   1.0000   1.0000   1.0000   1.0000
     1.0000   1.0000   1.0000   1.0000   1.0000   1.0000   1.0000   1.0000
     1.0000   1.0000   1.0000   1.0000   1.0000   1.0000   1.0000   1.0000
     1.0000   1.0000   1.0000   1.0000

          k =-0.1667-0.4811 0.2065 (  3278 PWs)   bands (ev):

    -9.8476  -9.3712  -9.1192  -8.0065   1.9369   2.0747   2.2828   2.5017
     2.5812   2.7234   2.9710   3.1728   3.3190   3.4850   3.9451   4.1636
     4.4389   4.5178   4.7284   4.8743   4.9112   5.0902   5.1697   5.3797
     5.9835   6.3005   6.5050   7.1121   7.3600   7.8246   8.2411   8.4649
     8.7902   8.9469   9.3849   9.4962

     occupation numbers 
     1.0000   1.0000   1.0000   1.0000   1.0000   1.0000   1.0000   1.0000
     1.0000   1.0000   1.0000   1.0000   1.0000   1.0000   1.0000   1.0000
     1.0000   1.0000   1.0000   1.0000   1.0000   1.0000   1.0000   1.0000
     1.0000   1.0000   1.0000   1.0000   1.0000   1.0000   1.0000   1.0000
     1.0000   1.0000   1.0000   1.0000

          k = 0.5000-0.0962-0.2065 (  3278 PWs)   bands (ev):

    -9.8566  -9.3391  -9.1449  -8.0038   1.8627   2.1030   2.3594   2.4400
     2.6249   2.8135   2.9329   3.0897   3.2699   3.5421   3.9489   4.2928
     4.4617   4.5854   4.7327   4.8494   4.8701   5.0391   5.1968   5.3561
     5.9311   6.1685   6.4625   6.9830   7.4420   7.8399   8.1471   8.4927
     8.8273   9.0013   9.4741   9.6276

     occupation numbers 
     1.0000   1.0000   1.0000   1.0000   1.0000   1.0000   1.0000   1.0000
     1.0000   1.0000   1.0000   1.0000   1.0000   1.0000   1.0000   1.0000
     1.0000   1.0000   1.0000   1.0000   1.0000   1.0000   1.0000   1.0000
     1.0000   1.0000   1.0000   1.0000   1.0000   1.0000   1.0000   1.0000
     1.0000   1.0000   1.0000   1.0000

          k =-0.5000 0.0962-0.2065 (  3278 PWs)   bands (ev):

    -9.8404  -9.3998  -9.0975  -8.0059   1.8614   2.1225   2.3021   2.4628
     2.5852   2.7729   2.9364   3.1343   3.2427   3.6189   3.9618   4.2613
     4.4700   4.5624   4.7214   4.8320   4.8608   5.1053   5.2425   5.3071
     5.8324   6.2937   6.6037   6.8686   7.4087   7.8162   8.3193   8.4437
     8.8462   9.1040   9.2569   9.6199

     occupation numbers 
     1.0000   1.0000   1.0000   1.0000   1.0000   1.0000   1.0000   1.0000
     1.0000   1.0000   1.0000   1.0000   1.0000   1.0000   1.0000   1.0000
     1.0000   1.0000   1.0000   1.0000   1.0000   1.0000   1.0000   1.0000
     1.0000   1.0000   1.0000   1.0000   1.0000   1.0000   1.0000   1.0000
     1.0000   1.0000   1.0000   1.0000

          k =-0.1667-0.4811 0.4130 (  3272 PWs)   bands (ev):

    -9.7686  -9.3612  -9.1709  -8.0424   1.8938   1.9805   2.1766   2.4092
     2.5154   2.6903   2.9446   3.1554   3.3299   3.4943   3.9347   4.1613
     4.4805   4.5388   4.7690   4.8474   4.9247   5.0523   5.1025   5.2529
     6.3448   6.5647   6.6320   7.2083   7.6461   7.9344   8.2416   8.4541
     8.6959   8.8294   9.2591   9.4911

     occupation numbers 
     1.0000   1.0000   1.0000   1.0000   1.0000   1.0000   1.0000   1.0000
     1.0000   1.0000   1.0000   1.0000   1.0000   1.0000   1.0000   1.0000
     1.0000   1.0000   1.0000   1.0000   1.0000   1.0000   1.0000   1.0000
     1.0000   1.0000   1.0000   1.0000   1.0000   1.0000   1.0000   1.0000
     1.0000   1.0000   1.0000   1.0000

          k = 0.5000-0.0962-0.4130 (  3272 PWs)   bands (ev):

    -9.7733  -9.3449  -9.1850  -8.0396   1.8108   2.0101   2.2483   2.3808
     2.5957   2.7075   2.8716   3.1407   3.2492   3.5937   3.9072   4.2860
     4.4848   4.6676   4.7431   4.8080   4.8930   4.9874   5.1010   5.2373
     6.1583   6.4276   6.7758   7.2127   7.6449   7.8516   8.1178   8.4201
     8.7866   9.0497   9.3609   9.5148

     occupation numbers 
     1.0000   1.0000   1.0000   1.0000   1.0000   1.0000   1.0000   1.0000
     1.0000   1.0000   1.0000   1.0000   1.0000   1.0000   1.0000   1.0000
     1.0000   1.0000   1.0000   1.0000   1.0000   1.0000   1.0000   1.0000
     1.0000   1.0000   1.0000   1.0000   1.0000   1.0000   1.0000   1.0000
     1.0000   1.0000   1.0000   1.0000

          k =-0.5000 0.0962-0.4130 (  3272 PWs)   bands (ev):

    -9.7469  -9.4289  -9.1243  -8.0418   1.8190   2.0099   2.2008   2.4163
     2.5397   2.6865   2.8706   3.1713   3.2584   3.6381   3.9139   4.2634
     4.5308   4.5738   4.7417   4.8152   4.8631   5.0749   5.1255   5.1984
     6.0074   6.7112   6.8493   7.1805   7.4923   7.8216   8.1923   8.5042
     8.8788   9.0100   9.1596   9.5352

     occupation numbers 
     1.0000   1.0000   1.0000   1.0000   1.0000   1.0000   1.0000   1.0000
     1.0000   1.0000   1.0000   1.0000   1.0000   1.0000   1.0000   1.0000
     1.0000   1.0000   1.0000   1.0000   1.0000   1.0000   1.0000   1.0000
     1.0000   1.0000   1.0000   1.0000   1.0000   1.0000   1.0000   1.0000
     1.0000   1.0000   1.0000   1.0000

          k = 0.5000-0.0962 0.6194 (  3276 PWs)   bands (ev):

    -9.7009  -9.4225  -9.1590  -8.0593   1.7880   1.9608   2.1637   2.3870
     2.5571   2.6467   2.8587   3.1676   3.2501   3.6270   3.8837   4.2706
     4.5226   4.6622   4.7605   4.7865   4.8877   4.9900   5.1065   5.1613
     6.1434   6.6118   7.1346   7.3532   7.4966   7.8694   8.1876   8.5938
     8.7075   9.0224   9.2301   9.3888

     occupation numbers 
     1.0000   1.0000   1.0000   1.0000   1.0000   1.0000   1.0000   1.0000
     1.0000   1.0000   1.0000   1.0000   1.0000   1.0000   1.0000   1.0000
     1.0000   1.0000   1.0000   1.0000   1.0000   1.0000   1.0000   1.0000
     1.0000   1.0000   1.0000   1.0000   1.0000   1.0000   1.0000   1.0000
     1.0000   1.0000   1.0000   1.0000

          k =-0.1667-0.8660 0.2065 (  3266 PWs)   bands (ev):

    -9.5562  -9.2235  -9.0394  -7.8970   1.9401   2.1527   2.3203   2.4330
     2.6086   2.8714   3.1893   3.2988   3.4410   3.6914   4.0614   4.3028
     4.5114   4.5793   4.7390   4.8845   4.9265   5.0492   5.2496   5.3713
     5.8114   5.9675   6.1583   6.6416   6.9497   7.2819   7.5613   8.0064
     8.4922   8.6583   9.1302   9.1700

     occupation numbers 
     1.0000   1.0000   1.0000   1.0000   1.0000   1.0000   1.0000   1.0000
     1.0000   1.0000   1.0000   1.0000   1.0000   1.0000   1.0000   1.0000
     1.0000   1.0000   1.0000   1.0000   1.0000   1.0000   1.0000   1.0000
     1.0000   1.0000   1.0000   1.0000   1.0000   1.0000   1.0000   1.0000
     1.0000   1.0000   1.0000   1.0000

          k =-0.1667-0.8660 0.4130 (  3258 PWs)   bands (ev):

    -9.5126  -9.1926  -9.0789  -7.9178   1.9180   2.0350   2.2227   2.3324
     2.4919   2.8377   3.1540   3.2534   3.5644   3.6824   4.0114   4.3319
     4.5268   4.6037   4.7851   4.8563   4.9402   5.0071   5.1523   5.2382
     5.9177   6.0574   6.2565   6.6907   7.2286   7.5356   7.9767   8.0829
     8.4184   8.5873   8.9808   9.2070

     occupation numbers 
     1.0000   1.0000   1.0000   1.0000   1.0000   1.0000   1.0000   1.0000
     1.0000   1.0000   1.0000   1.0000   1.0000   1.0000   1.0000   1.0000
     1.0000   1.0000   1.0000   1.0000   1.0000   1.0000   1.0000   1.0000
     1.0000   1.0000   1.0000   1.0000   1.0000   1.0000   1.0000   1.0000
     1.0000   1.0000   1.0000   1.0000

          k =-0.1667 1.0585 0.2065 (  3246 PWs)   bands (ev):

    -9.4260  -9.1398  -8.9872  -7.8396   1.9456   2.1577   2.3708   2.4587
     2.7547   2.9145   3.2391   3.4443   3.5493   3.8478   4.0986   4.3984
     4.4730   4.6420   4.8144   4.8858   4.9948   5.0635   5.0991   5.3056
     5.5118   5.8047   6.0204   6.2171   6.6390   7.1264   7.4357   7.7658
     8.3183   8.5916   8.7658   9.1888

     occupation numbers 
     1.0000   1.0000   1.0000   1.0000   1.0000   1.0000   1.0000   1.0000
     1.0000   1.0000   1.0000   1.0000   1.0000   1.0000   1.0000   1.0000
     1.0000   1.0000   1.0000   1.0000   1.0000   1.0000   1.0000   1.0000
     1.0000   1.0000   1.0000   1.0000   1.0000   1.0000   1.0000   1.0000
     1.0000   1.0000   1.0000   1.0000

          k =-0.1667 1.0585 0.4130 (  3266 PWs)   bands (ev):

    -9.3995  -9.1271  -8.9957  -7.8499   1.8996   2.0382   2.2828   2.3854
     2.6145   2.8804   3.2354   3.4246   3.6032   3.8416   4.0642   4.3605
     4.5308   4.7057   4.8135   4.8884   4.9971   5.0538   5.0801   5.2617
     5.5195   5.7318   5.9355   6.1762   6.9762   7.4454   7.6748   8.0838
     8.3735   8.3985   8.8181   9.2568

     occupation numbers 
     1.0000   1.0000   1.0000   1.0000   1.0000   1.0000   1.0000   1.0000
     1.0000   1.0000   1.0000   1.0000   1.0000   1.0000   1.0000   1.0000
     1.0000   1.0000   1.0000   1.0000   1.0000   1.0000   1.0000   1.0000
     1.0000   1.0000   1.0000   1.0000   1.0000   1.0000   1.0000   1.0000
     1.0000   1.0000   1.0000   1.0000

          k =-0.5000 0.4811 0.0000 (  3274 PWs)   bands (ev):

    -9.6598  -9.1662  -9.0164  -7.8817   1.9099   2.2484   2.5233   2.5936
     2.8095   2.9491   3.2109   3.3008   3.4107   3.6793   3.9970   4.3179
     4.4811   4.5302   4.7547   4.7983   5.0113   5.0934   5.2429   5.4049
     5.6830   5.8547   6.0852   6.3178   6.8264   7.1768   7.5703   7.8011
     8.2234   8.4414   9.1204   9.4063

     occupation numbers 
     1.0000   1.0000   1.0000   1.0000   1.0000   1.0000   1.0000   1.0000
     1.0000   1.0000   1.0000   1.0000   1.0000   1.0000   1.0000   1.0000
     1.0000   1.0000   1.0000   1.0000   1.0000   1.0000   1.0000   1.0000
     1.0000   1.0000   1.0000   1.0000   1.0000   1.0000   1.0000   1.0000
     1.0000   1.0000   1.0000   1.0000

          k =-0.1667 0.6736 0.2065 (  3269 PWs)   bands (ev):

    -9.6105  -9.2524  -8.9597  -7.8960   1.9670   2.2277   2.3504   2.6268
     2.7727   2.8944   3.1885   3.3275   3.4165   3.5947   3.9175   4.2142
     4.4640   4.5743   4.8054   4.8318   5.0251   5.1087   5.2725   5.3467
     5.7623   6.0347   6.1943   6.2506   6.9758   7.1817   7.5523   7.8500
     8.1854   8.5408   9.1062   9.3861

     occupation numbers 
     1.0000   1.0000   1.0000   1.0000   1.0000   1.0000   1.0000   1.0000
     1.0000   1.0000   1.0000   1.0000   1.0000   1.0000   1.0000   1.0000
     1.0000   1.0000   1.0000   1.0000   1.0000   1.0000   1.0000   1.0000
     1.0000   1.0000   1.0000   1.0000   1.0000   1.0000   1.0000   1.0000
     1.0000   1.0000   1.0000   1.0000

          k =-0.5000 0.4811-0.2065 (  3269 PWs)   bands (ev):

    -9.6284  -9.1963  -9.0020  -7.8900   1.8752   2.1822   2.5148   2.5524
     2.7622   2.8644   3.1572   3.2767   3.4123   3.7422   4.0001   4.3178
     4.5103   4.5773   4.7294   4.7833   4.9669   5.1480   5.2346   5.3803
     5.7102   5.8413   6.2496   6.3333   6.9610   7.2752   7.5754   7.8733
     8.1597   8.6162   9.0820   9.3073

     occupation numbers 
     1.0000   1.0000   1.0000   1.0000   1.0000   1.0000   1.0000   1.0000
     1.0000   1.0000   1.0000   1.0000   1.0000   1.0000   1.0000   1.0000
     1.0000   1.0000   1.0000   1.0000   1.0000   1.0000   1.0000   1.0000
     1.0000   1.0000   1.0000   1.0000   1.0000   1.0000   1.0000   1.0000
     1.0000   1.0000   1.0000   1.0000

          k = 0.5000-0.4811-0.2065 (  3269 PWs)   bands (ev):

    -9.6316  -9.1815  -9.0149  -7.8895   1.9076   2.1957   2.4647   2.5989
     2.7723   2.8350   3.1681   3.3084   3.4577   3.6859   3.9720   4.2713
     4.4913   4.5734   4.7886   4.8113   4.9928   5.0736   5.2326   5.3390
     5.6952   5.9899   6.1511   6.3431   6.8730   7.2977   7.4963   7.8949
     8.2616   8.4482   9.1317   9.4646

     occupation numbers 
     1.0000   1.0000   1.0000   1.0000   1.0000   1.0000   1.0000   1.0000
     1.0000   1.0000   1.0000   1.0000   1.0000   1.0000   1.0000   1.0000
     1.0000   1.0000   1.0000   1.0000   1.0000   1.0000   1.0000   1.0000
     1.0000   1.0000   1.0000   1.0000   1.0000   1.0000   1.0000   1.0000
     1.0000   1.0000   1.0000   1.0000

          k =-0.1667 0.6736 0.4130 (  3270 PWs)   bands (ev):

    -9.5393  -9.2885  -8.9649  -7.9125   1.9339   2.0924   2.2991   2.4816
     2.6935   2.8648   3.1514   3.2827   3.4022   3.6445   3.8770   4.2098
     4.4900   4.6719   4.8002   4.8699   4.9713   5.1025   5.2303   5.3480
     5.7711   6.0742   6.3569   6.4984   6.8994   7.2776   7.5966   8.1311
     8.3302   8.6737   8.9802   9.3485

     occupation numbers 
     1.0000   1.0000   1.0000   1.0000   1.0000   1.0000   1.0000   1.0000
     1.0000   1.0000   1.0000   1.0000   1.0000   1.0000   1.0000   1.0000
     1.0000   1.0000   1.0000   1.0000   1.0000   1.0000   1.0000   1.0000
     1.0000   1.0000   1.0000   1.0000   1.0000   1.0000   1.0000   1.0000
     1.0000   1.0000   1.0000   1.0000

          k =-0.5000 0.4811-0.4130 (  3270 PWs)   bands (ev):

    -9.5544  -9.2543  -8.9881  -7.9062   1.8294   2.0764   2.4401   2.4805
     2.6637   2.7682   3.0895   3.2828   3.4626   3.7394   3.9541   4.2907
     4.5767   4.6271   4.7424   4.8034   4.9166   5.0962   5.2830   5.3297
     5.6648   6.0115   6.2828   6.5785   7.1336   7.2202   7.7160   8.0955
     8.2615   8.7077   9.0929   9.1637

     occupation numbers 
     1.0000   1.0000   1.0000   1.0000   1.0000   1.0000   1.0000   1.0000
     1.0000   1.0000   1.0000   1.0000   1.0000   1.0000   1.0000   1.0000
     1.0000   1.0000   1.0000   1.0000   1.0000   1.0000   1.0000   1.0000
     1.0000   1.0000   1.0000   1.0000   1.0000   1.0000   1.0000   1.0000
     1.0000   1.0000   1.0000   1.0000

          k = 0.5000-0.4811-0.4130 (  3270 PWs)   bands (ev):

    -9.5594  -9.2402  -8.9983  -7.9057   1.8580   2.1006   2.3830   2.5332
     2.6448   2.7662   3.1031   3.2856   3.5350   3.6621   3.9337   4.2620
     4.5218   4.6873   4.7958   4.8307   4.9159   5.0506   5.1682   5.3581
     5.7770   5.9343   6.3787   6.5778   6.9353   7.2214   7.6122   8.2295
     8.2728   8.6607   8.9849   9.4166

     occupation numbers 
     1.0000   1.0000   1.0000   1.0000   1.0000   1.0000   1.0000   1.0000
     1.0000   1.0000   1.0000   1.0000   1.0000   1.0000   1.0000   1.0000
     1.0000   1.0000   1.0000   1.0000   1.0000   1.0000   1.0000   1.0000
     1.0000   1.0000   1.0000   1.0000   1.0000   1.0000   1.0000   1.0000
     1.0000   1.0000   1.0000   1.0000

          k =-0.5000 0.4811 0.6194 (  3266 PWs)   bands (ev):

    -9.5058  -9.2907  -8.9858  -7.9142   1.8148   2.0447   2.3681   2.4532
     2.6210   2.7398   3.0786   3.2820   3.5233   3.6854   3.9159   4.2647
     4.5725   4.7270   4.7786   4.8213   4.8803   5.0173   5.2320   5.3487
     5.7453   5.9451   6.5008   6.7034   6.9149   7.1941   7.8192   8.2560
     8.4552   8.7024   8.9734   9.2141

     occupation numbers 
     1.0000   1.0000   1.0000   1.0000   1.0000   1.0000   1.0000   1.0000
     1.0000   1.0000   1.0000   1.0000   1.0000   1.0000   1.0000   1.0000
     1.0000   1.0000   1.0000   1.0000   1.0000   1.0000   1.0000   1.0000
     1.0000   1.0000   1.0000   1.0000   1.0000   1.0000   1.0000   1.0000
     1.0000   1.0000   1.0000   1.0000

          k =-0.1667 0.2887 0.2065 (  3289 PWs)   bands (ev):

    -9.9525  -9.3530  -9.0371  -7.9859   1.9274   2.1521   2.4061   2.4671
     2.5733   2.7810   3.0430   3.1305   3.3119   3.5204   3.9381   4.3487
     4.5254   4.6477   4.7106   4.8242   4.9828   5.0069   5.1668   5.2781
     5.6280   6.0133   6.1708   6.4991   7.4429   7.9324   8.4521   8.5820
     8.8074   9.1923   9.6753   9.7650

     occupation numbers 
     1.0000   1.0000   1.0000   1.0000   1.0000   1.0000   1.0000   1.0000
     1.0000   1.0000   1.0000   1.0000   1.0000   1.0000   1.0000   1.0000
     1.0000   1.0000   1.0000   1.0000   1.0000   1.0000   1.0000   1.0000
     1.0000   1.0000   1.0000   1.0000   1.0000   1.0000   1.0000   1.0000
     1.0000   1.0000   1.0000   1.0000

          k =-0.1667 0.2887 0.4130 (  3283 PWs)   bands (ev):

    -9.8352  -9.4555  -9.0273  -8.0083   1.8895   2.0565   2.3197   2.4069
     2.5277   2.7220   2.9753   3.1314   3.3130   3.5078   3.9367   4.2977
     4.5640   4.7137   4.7369   4.8294   4.9290   4.9700   5.1651   5.2831
     5.5872   5.9882   6.6381   6.8183   7.7065   7.8242   8.2004   8.6614
     8.9528   9.2818   9.5557   9.6390

     occupation numbers 
     1.0000   1.0000   1.0000   1.0000   1.0000   1.0000   1.0000   1.0000
     1.0000   1.0000   1.0000   1.0000   1.0000   1.0000   1.0000   1.0000
     1.0000   1.0000   1.0000   1.0000   1.0000   1.0000   1.0000   1.0000
     1.0000   1.0000   1.0000   1.0000   1.0000   1.0000   1.0000   1.0000
     1.0000   1.0000   1.0000   1.0000

          k =-0.3333-0.1925 0.2065 (  3284 PWs)   bands (ev):

    -9.9704  -9.4393  -9.1798  -8.0589   1.8148   2.0423   2.2895   2.3942
     2.6020   2.7731   2.9479   3.0331   3.2869   3.3938   3.9212   4.2747
     4.4122   4.5538   4.7081   4.8391   4.8832   5.0801   5.1350   5.3225
     5.9425   6.1865   6.3773   7.3881   7.8304   8.4030   8.5848   8.7982
     8.9801   9.3158   9.5720   9.8385

     occupation numbers 
     1.0000   1.0000   1.0000   1.0000   1.0000   1.0000   1.0000   1.0000
     1.0000   1.0000   1.0000   1.0000   1.0000   1.0000   1.0000   1.0000
     1.0000   1.0000   1.0000   1.0000   1.0000   1.0000   1.0000   1.0000
     1.0000   1.0000   1.0000   1.0000   1.0000   1.0000   1.0000   1.0000
     1.0000   1.0000   1.0000   1.0000

          k =-0.3333-0.1925 0.4130 (  3276 PWs)   bands (ev):

    -9.8787  -9.4354  -9.2365  -8.1023   1.7706   1.9260   2.1689   2.3755
     2.6070   2.6919   2.9045   3.0177   3.2421   3.4560   3.8898   4.2658
     4.4611   4.5750   4.7474   4.8027   4.9023   5.0191   5.0967   5.1971
     6.2085   6.5236   6.6825   7.6632   7.9053   8.1564   8.6162   8.7819
     8.9093   9.3387   9.4710   9.7547

     occupation numbers 
     1.0000   1.0000   1.0000   1.0000   1.0000   1.0000   1.0000   1.0000
     1.0000   1.0000   1.0000   1.0000   1.0000   1.0000   1.0000   1.0000
     1.0000   1.0000   1.0000   1.0000   1.0000   1.0000   1.0000   1.0000
     1.0000   1.0000   1.0000   1.0000   1.0000   1.0000   1.0000   1.0000
     1.0000   1.0000   1.0000   1.0000

          k =-0.3333-0.5774 0.2065 (  3290 PWs)   bands (ev):

    -9.7930  -9.4202  -9.1229  -8.0134   1.8920   2.0846   2.2615   2.4837
     2.5572   2.7610   2.9576   3.1568   3.2897   3.5097   3.9639   4.1843
     4.4751   4.4888   4.7170   4.8414   4.8698   5.0976   5.2419   5.3251
     6.0093   6.3625   6.7117   7.2591   7.5004   7.6132   8.1758   8.2768
     8.9252   9.0453   9.1858   9.4484

     occupation numbers 
     1.0000   1.0000   1.0000   1.0000   1.0000   1.0000   1.0000   1.0000
     1.0000   1.0000   1.0000   1.0000   1.0000   1.0000   1.0000   1.0000
     1.0000   1.0000   1.0000   1.0000   1.0000   1.0000   1.0000   1.0000
     1.0000   1.0000   1.0000   1.0000   1.0000   1.0000   1.0000   1.0000
     1.0000   1.0000   1.0000   1.0000

          k =-0.3333-0.5774 0.4130 (  3280 PWs)   bands (ev):

    -9.7258  -9.3722  -9.1963  -8.0539   1.8487   1.9761   2.1526   2.4147
     2.5024   2.7000   2.9119   3.1546   3.3112   3.5438   3.9287   4.1916
     4.4925   4.5413   4.7481   4.8002   4.8978   5.0699   5.1036   5.2172
     6.4364   6.7341   6.9038   7.2355   7.5236   7.8838   8.2448   8.3937
     8.8100   8.8660   8.9789   9.4433

     occupation numbers 
     1.0000   1.0000   1.0000   1.0000   1.0000   1.0000   1.0000   1.0000
     1.0000   1.0000   1.0000   1.0000   1.0000   1.0000   1.0000   1.0000
     1.0000   1.0000   1.0000   1.0000   1.0000   1.0000   1.0000   1.0000
     1.0000   1.0000   1.0000   1.0000   1.0000   1.0000   1.0000   1.0000
     1.0000   1.0000   1.0000   1.0000

          k =-0.3333 0.9623 0.2065 (  3260 PWs)   bands (ev):

    -9.4321  -9.1690  -8.9576  -7.8407   1.9370   2.1760   2.4823   2.5504
     2.8002   2.9933   3.2509   3.4086   3.5845   3.8173   3.9350   4.2419
     4.4572   4.5573   4.8121   4.8947   5.0360   5.1117   5.2602   5.3444
     5.5682   5.8887   6.1721   6.3434   6.5681   7.0351   7.2302   7.5434
     8.1930   8.3034   8.5921   9.1835

     occupation numbers 
     1.0000   1.0000   1.0000   1.0000   1.0000   1.0000   1.0000   1.0000
     1.0000   1.0000   1.0000   1.0000   1.0000   1.0000   1.0000   1.0000
     1.0000   1.0000   1.0000   1.0000   1.0000   1.0000   1.0000   1.0000
     1.0000   1.0000   1.0000   1.0000   1.0000   1.0000   1.0000   1.0000
     1.0000   1.0000   1.0000   1.0000

          k =-0.3333 0.9623 0.4130 (  3256 PWs)   bands (ev):

    -9.4032  -9.1608  -8.9640  -7.8515   1.8874   2.0499   2.4043   2.4835
     2.6928   2.9028   3.2212   3.4350   3.5766   3.8311   3.8754   4.2279
     4.5198   4.6254   4.8467   4.9062   5.0221   5.1064   5.2257   5.2971
     5.6254   5.8759   6.1137   6.3895   6.6730   7.1568   7.5104   7.9223
     8.1093   8.2552   8.7105   9.2789

     occupation numbers 
     1.0000   1.0000   1.0000   1.0000   1.0000   1.0000   1.0000   1.0000
     1.0000   1.0000   1.0000   1.0000   1.0000   1.0000   1.0000   1.0000
     1.0000   1.0000   1.0000   1.0000   1.0000   1.0000   1.0000   1.0000
     1.0000   1.0000   1.0000   1.0000   1.0000   1.0000   1.0000   1.0000
     1.0000   1.0000   1.0000   1.0000

          k =-0.3333 0.5774 0.2065 (  3271 PWs)   bands (ev):

    -9.6391  -9.2225  -8.9664  -7.8905   1.9437   2.2096   2.4713   2.5988
     2.7818   2.9522   3.2272   3.3112   3.4753   3.5605   3.9204   4.1954
     4.4923   4.5438   4.7803   4.8202   5.0103   5.1567   5.2315   5.3903
     5.6846   5.9162   6.1412   6.2328   6.9687   7.3568   7.5020   7.9853
     8.0717   8.3319   9.0720   9.4531

     occupation numbers 
     1.0000   1.0000   1.0000   1.0000   1.0000   1.0000   1.0000   1.0000
     1.0000   1.0000   1.0000   1.0000   1.0000   1.0000   1.0000   1.0000
     1.0000   1.0000   1.0000   1.0000   1.0000   1.0000   1.0000   1.0000
     1.0000   1.0000   1.0000   1.0000   1.0000   1.0000   1.0000   1.0000
     1.0000   1.0000   1.0000   1.0000

          k =-0.3333 0.5774 0.4130 (  3275 PWs)   bands (ev):

    -9.5603  -9.2807  -8.9585  -7.9053   1.9021   2.0919   2.4251   2.4851
     2.7101   2.8963   3.1239   3.2702   3.4462   3.6213   3.8990   4.1922
     4.5241   4.6378   4.7844   4.8500   4.9556   5.0779   5.2787   5.4402
     5.7369   5.9672   6.2035   6.5297   6.8004   7.3753   7.5931   8.1455
     8.3719   8.5392   8.9198   9.3945

     occupation numbers 
     1.0000   1.0000   1.0000   1.0000   1.0000   1.0000   1.0000   1.0000
     1.0000   1.0000   1.0000   1.0000   1.0000   1.0000   1.0000   1.0000
     1.0000   1.0000   1.0000   1.0000   1.0000   1.0000   1.0000   1.0000
     1.0000   1.0000   1.0000   1.0000   1.0000   1.0000   1.0000   1.0000
     1.0000   1.0000   1.0000   1.0000

     highest occupied level (ev):    10.1556

!    total energy              =    -722.71650257 Ry
     estimated scf accuracy    <          5.8E-09 Ry

     The total energy is the sum of the following terms:
     one-electron contribution =    -276.79362427 Ry
     hartree contribution      =     226.62589336 Ry
     xc contribution           =    -220.11557341 Ry
     ewald contribution        =    -452.43319825 Ry

     convergence has been achieved in  19 iterations

     Forces acting on atoms (cartesian axes, Ry/au):

     atom    1 type  1   force =     0.64919351   -0.32007050    0.08994649
     atom    2 type  1   force =     0.13177033   -0.15489485    0.15629627
     atom    3 type  2   force =    -0.02632800    0.21648717   -0.07889017
     atom    4 type  2   force =    -0.58590037    0.37059039   -0.18445306
     atom    5 type  1   force =    -0.03954276    0.25190922    0.13203627
     atom    6 type  1   force =     0.12134103    0.08100351   -0.04120006
     atom    7 type  2   force =    -0.24113483   -0.15962395   -0.03617951
     atom    8 type  2   force =    -0.00939890   -0.28540098   -0.03755624
     The non-local contrib.  to forces
     atom    1 type  1   force =     0.93198115   -0.32035223    0.02213967
     atom    2 type  1   force =     0.52778147   -0.15493252    0.46784097
     atom    3 type  2   force =     0.33227602    0.02004720    0.33061911
     atom    4 type  2   force =     0.48062013   -0.07377879   -0.11426374
     atom    5 type  1   force =    -0.26314096    0.29467528    0.17511940
     atom    6 type  1   force =     0.06810003    0.09798487   -0.10847815
     atom    7 type  2   force =    -0.00753991   -0.06047781    0.10932158
     atom    8 type  2   force =    -0.16795168    0.07974192    0.04261497
     The ionic contribution  to forces
     atom    1 type  1   force =     8.78634479   -3.17931740   -2.35235811
     atom    2 type  1   force =     1.45424918   -2.62764993    6.99031520
     atom    3 type  2   force =    -0.48510857    2.46452589   -1.32609569
     atom    4 type  2   force =    -6.41895377    4.43375956   -3.40809334
     atom    5 type  1   force =    -3.24605522    2.88946778    2.18214699
     atom    6 type  1   force =     3.03861860    2.01780422   -1.97314923
     atom    7 type  2   force =    -3.73429576   -2.11201025    0.10836197
     atom    8 type  2   force =     0.60520075   -3.88657986   -0.22112779
     The local contribution  to forces
     atom    1 type  1   force =    -8.96136311    3.13461710    2.42451996
     atom    2 type  1   force =    -1.80724406    2.60082731   -7.25498674
     atom    3 type  2   force =     0.12943075   -2.26678308    0.91923702
     atom    4 type  2   force =     5.35399898   -3.98803994    3.33576380
     atom    5 type  1   force =     3.45006082   -2.89235023   -2.20114039
     atom    6 type  1   force =    -2.96715027   -2.01899942    2.02749983
     atom    7 type  2   force =     3.49922936    2.01135189   -0.25301045
     atom    8 type  2   force =    -0.44815237    3.52058761    0.14131754
     The core correction contribution to forces
     atom    1 type  1   force =    -0.10789188    0.04497692   -0.00436825
     atom    2 type  1   force =    -0.04311299    0.02678898   -0.04689482
     atom    3 type  2   force =    -0.00294558   -0.00132407   -0.00265801
     atom    4 type  2   force =    -0.00157495   -0.00136808    0.00215725
     atom    5 type  1   force =     0.01968220   -0.03982580   -0.02404280
     atom    6 type  1   force =    -0.01816011   -0.01574758    0.01289917
     atom    7 type  2   force =     0.00149974    0.00152334   -0.00086228
     atom    8 type  2   force =     0.00153737    0.00086646   -0.00034784
     The Hubbard contrib.    to forces
     atom    1 type  1   force =     0.00000000    0.00000000    0.00000000
     atom    2 type  1   force =     0.00000000    0.00000000    0.00000000
     atom    3 type  2   force =     0.00000000    0.00000000    0.00000000
     atom    4 type  2   force =     0.00000000    0.00000000    0.00000000
     atom    5 type  1   force =     0.00000000    0.00000000    0.00000000
     atom    6 type  1   force =     0.00000000    0.00000000    0.00000000
     atom    7 type  2   force =     0.00000000    0.00000000    0.00000000
     atom    8 type  2   force =     0.00000000    0.00000000    0.00000000
     The SCF correction term to forces
     atom    1 type  1   force =     0.00012849    0.00000365    0.00001666
     atom    2 type  1   force =     0.00010265    0.00006985    0.00002509
     atom    3 type  2   force =     0.00002530    0.00001978    0.00001084
     atom    4 type  2   force =     0.00001517    0.00001618   -0.00001358
     atom    5 type  1   force =    -0.00008367   -0.00005928   -0.00004349
     atom    6 type  1   force =    -0.00006130   -0.00004005    0.00003175
     atom    7 type  2   force =    -0.00002234   -0.00001258    0.00001310
     atom    8 type  2   force =    -0.00002703   -0.00001856   -0.00000969

     Total force =     1.199800     Total SCF correction =     0.000235

     init_run     :      5.98s CPU      3.63s WALL (       1 calls)
     electrons    :    328.16s CPU    169.98s WALL (       1 calls)
     forces       :      1.95s CPU      1.05s WALL (       1 calls)

     Called by init_run:
     wfcinit      :      3.96s CPU      2.03s WALL (       1 calls)
     wfcinit:atom :      0.04s CPU      0.02s WALL (      28 calls)
     wfcinit:wfcr :      3.69s CPU      1.85s WALL (      28 calls)
     potinit      :      0.57s CPU      0.37s WALL (       1 calls)
     hinit0       :      1.34s CPU      1.15s WALL (       1 calls)

     Called by electrons:
     c_bands      :    295.51s CPU    154.06s WALL (      19 calls)
     sum_band     :     28.28s CPU     13.58s WALL (      19 calls)
     v_of_rho     :      1.65s CPU      0.87s WALL (      20 calls)
     v_h          :      0.09s CPU      0.05s WALL (      20 calls)
     v_xc         :      1.62s CPU      0.86s WALL (      21 calls)
     newd         :      2.44s CPU      1.31s WALL (      20 calls)
     mix_rho      :      0.20s CPU      0.12s WALL (      19 calls)

     Called by c_bands:
     init_us_2    :      1.98s CPU      1.04s WALL (    1120 calls)
     init_us_2:cp :      1.97s CPU      1.04s WALL (    1120 calls)
     cegterg      :    276.57s CPU    140.92s WALL (     532 calls)

     Called by sum_band:
     sum_band:wei :      0.00s CPU      0.00s WALL (      19 calls)
     sum_band:loo :     25.41s CPU     12.04s WALL (      19 calls)
     sum_band:buf :      0.20s CPU      0.13s WALL (     532 calls)
     sum_band:ini :      0.89s CPU      0.44s WALL (     532 calls)
     sum_band:cal :      2.72s CPU      1.14s WALL (     532 calls)
     sum_band:bec :      0.11s CPU      0.08s WALL (     532 calls)
     addusdens    :      2.15s CPU      0.99s WALL (      19 calls)
     addusd:skk   :      0.01s CPU      0.01s WALL (      38 calls)
     addusd:dgemm :      0.33s CPU      0.16s WALL (      38 calls)
     addusd:qvan2 :      1.62s CPU      0.73s WALL (      38 calls)

     Called by *egterg:
     cdiaghg      :     25.81s CPU     21.56s WALL (    3812 calls)
     cegterg:over :     16.30s CPU      8.70s WALL (    3280 calls)
     cegterg:upda :      9.86s CPU      4.47s WALL (    3280 calls)
     cegterg:last :     18.02s CPU      8.42s WALL (    2138 calls)
     cdiaghg:chol :      1.30s CPU      1.05s WALL (    3812 calls)
     cdiaghg:inve :      0.43s CPU      0.32s WALL (    3812 calls)
     cdiaghg:para :      3.43s CPU      2.98s WALL (    7624 calls)
     h_psi        :    195.57s CPU     93.05s WALL (    3840 calls)
     s_psi        :      9.58s CPU      3.82s WALL (    3840 calls)
     g_psi        :      0.72s CPU      0.35s WALL (    3280 calls)

     Called by h_psi:
     h_psi:calbec :     15.00s CPU      6.14s WALL (    3840 calls)
     vloc_psi     :    172.35s CPU     82.63s WALL (    3840 calls)
     add_vuspsi   :      7.65s CPU      4.00s WALL (    3840 calls)

     General routines
     calbec       :     18.29s CPU      7.52s WALL (    4484 calls)
     fft          :      1.56s CPU      1.05s WALL (     269 calls)
     ffts         :      0.15s CPU      0.13s WALL (      39 calls)
     fftw         :    169.37s CPU     81.35s WALL (  179948 calls)
     interpolate  :      0.21s CPU      0.15s WALL (      20 calls)

     Parallel routines

     PWSCF        :   5m36.67s CPU   2m55.24s WALL


   This run was terminated on:  13:49:20  23Sep2025            

=------------------------------------------------------------------------------=
   JOB DONE.
=------------------------------------------------------------------------------=
Note: The following floating-point exceptions are signalling: IEEE_UNDERFLOW_FLAG IEEE_DENORMAL
Note: The following floating-point exceptions are signalling: IEEE_UNDERFLOW_FLAG IEEE_DENORMAL
Note: The following floating-point exceptions are signalling: IEEE_UNDERFLOW_FLAG IEEE_DENORMAL
Note: The following floating-point exceptions are signalling: IEEE_UNDERFLOW_FLAG IEEE_DENORMAL
Note: The following floating-point exceptions are signalling: IEEE_UNDERFLOW_FLAG IEEE_DENORMAL
Note: The following floating-point exceptions are signalling: IEEE_UNDERFLOW_FLAG IEEE_DENORMAL
Note: The following floating-point exceptions are signalling: IEEE_UNDERFLOW_FLAG IEEE_DENORMAL
Note: The following floating-point exceptions are signalling: IEEE_UNDERFLOW_FLAG IEEE_DENORMAL
Note: The following floating-point exceptions are signalling: IEEE_UNDERFLOW_FLAG IEEE_DENORMAL
Note: The following floating-point exceptions are signalling: IEEE_UNDERFLOW_FLAG IEEE_DENORMAL
Note: The following floating-point exceptions are signalling: IEEE_UNDERFLOW_FLAG IEEE_DENORMAL
Note: The following floating-point exceptions are signalling: IEEE_UNDERFLOW_FLAG IEEE_DENORMAL
Note: The following floating-point exceptions are signalling: IEEE_UNDERFLOW_FLAG IEEE_DENORMAL
Note: The following floating-point exceptions are signalling: IEEE_UNDERFLOW_FLAG IEEE_DENORMAL
Note: The following floating-point exceptions are signalling: IEEE_UNDERFLOW_FLAG IEEE_DENORMAL
Note: The following floating-point exceptions are signalling: IEEE_UNDERFLOW_FLAG IEEE_DENORMAL
