
     Program PWSCF v.7.0 starts on 24Sep2025 at  6: 8: 0 

     This program is part of the open-source Quantum ESPRESSO suite
     for quantum simulation of materials; please cite
         "P. Giannozzi et al., J. Phys.:Condens. Matter 21 395502 (2009);
         "P. Giannozzi et al., J. Phys.:Condens. Matter 29 465901 (2017);
         "P. Giannozzi et al., J. Chem. Phys. 152 154105 (2020);
          URL http://www.quantum-espresso.org", 
     in publications or presentations arising from this work. More details at
     http://www.quantum-espresso.org/quote

     Parallel version (MPI & OpenMP), running on      32 processor cores
     Number of MPI processes:                16
     Threads/MPI process:                     2

     MPI processes distributed on     1 nodes
     K-points division:     npool     =       4
     R & G space division:  proc/nbgrp/npool/nimage =       4
     106741 MiB available memory on the printing compute node when the environment starts

     Reading input from /home/jvc/QEspresso7.2/ZnO_database/scripts/random_2x1x1.in/ZnO-3.53-1.74-211-0.06-2.in
Warning: card &CELL ignored
Warning: card / ignored
Warning: card &FCP ignored
Warning: card / ignored
Warning: card &RISM ignored
Warning: card / ignored

     Current dimensions of program PWSCF are:
     Max number of different atomic species (ntypx) = 10
     Max number of k-points (npk) =  40000
     Max angular momentum in pseudopotentials (lmaxx) =  4
     file Zn.upf: wavefunction(s)  3D renormalized

     Subspace diagonalization in iterative solution of the eigenvalue problem:
     one sub-group per band group will be used
     scalapack distributed-memory algorithm (size of sub-group:  2*  2 procs)


     Parallelization info
     --------------------
     sticks:   dense  smooth     PW     G-vecs:    dense   smooth      PW
     Min         616     306     93                30314    10701    1831
     Max         617     308     94                30317    10702    1836
     Sum        2467    1227    373               121261    42807    7333

     Using Slab Decomposition



     bravais-lattice index     =            0
     lattice parameter (alat)  =      13.3463  a.u.
     unit-cell volume          =     897.3862 (a.u.)^3
     number of atoms/cell      =            8
     number of atomic types    =            2
     number of electrons       =        72.00
     number of Kohn-Sham states=           36
     kinetic-energy cutoff     =      50.0000  Ry
     charge density cutoff     =     400.0000  Ry
     scf convergence threshold =      1.0E-08
     mixing beta               =       0.3000
     number of iterations used =            8  plain     mixing
     Exchange-correlation= PBE
                           (   1   4   3   4   0   0   0)

     celldm(1)=  13.346325  celldm(2)=   0.000000  celldm(3)=   0.000000
     celldm(4)=   0.000000  celldm(5)=   0.000000  celldm(6)=   0.000000

     crystal axes: (cart. coord. in units of alat)
               a(1) = (   1.000000   0.000000   0.000000 )  
               a(2) = (  -0.250000   0.433013   0.000000 )  
               a(3) = (   0.000000   0.000000   0.871754 )  

     reciprocal axes: (cart. coord. in units 2 pi/alat)
               b(1) = (  1.000000  0.577350 -0.000000 )  
               b(2) = (  0.000000  2.309401  0.000000 )  
               b(3) = (  0.000000 -0.000000  1.147113 )  


     PseudoPot. # 1 for Zn read from file:
     /home/jvc/QEspresso7.2/ZnO_database/pseudos/Zn.upf
     MD5 check sum: 7f56cabf9682ed8c977c2f7d0c5985c5
     Pseudo is Ultrasoft + core correction, Zval = 12.0
     Generated using &quot;atomic&quot; code by A. Dal Corso  v.6.2.2
     Using radial grid of 1201 points,  6 beta functions with: 
                l(1) =   0
                l(2) =   0
                l(3) =   1
                l(4) =   1
                l(5) =   2
                l(6) =   2
     Q(r) pseudized with 0 coefficients 


     PseudoPot. # 2 for O  read from file:
     /home/jvc/QEspresso7.2/ZnO_database/pseudos/O.upf
     MD5 check sum: 91400c9766925bcf19f520983a725ff0
     Pseudo is Ultrasoft + core correction, Zval =  6.0
     Generated using &quot;atomic&quot; code by A. Dal Corso  v.6.3MaX
     Using radial grid of 1095 points,  4 beta functions with: 
                l(1) =   0
                l(2) =   0
                l(3) =   1
                l(4) =   1
     Q(r) pseudized with 0 coefficients 


     atomic species   valence    mass     pseudopotential
        Zn            12.00    65.38000     Zn( 1.00)
        O              6.00    15.99900     O ( 1.00)

     No symmetry found


                                    s                        frac. trans.

      isym =  1     identity                                     

 cryst.   s( 1) = (     1          0          0      )
                  (     0          1          0      )
                  (     0          0          1      )

 cart.    s( 1) = (  1.0000000 -0.0000000  0.0000000 )
                  (  0.0000000  1.0000000  0.0000000 )
                  (  0.0000000  0.0000000  1.0000000 )


   Cartesian axes

     site n.     atom                  positions (alat units)
         1           Zn  tau(   1) = (   0.2480136   0.1444627   0.4283271  )
         2           Zn  tau(   2) = (  -0.0059180   0.3045079   0.0027589  )
         3           O   tau(   3) = (   0.2563243   0.1376819   0.7815909  )
         4           O   tau(   4) = (   0.0011183   0.2934547   0.3441296  )
         5           Zn  tau(   5) = (   0.7264978   0.1402861   0.4293754  )
         6           Zn  tau(   6) = (   0.5087236   0.2912601   0.0012369  )
         7           O   tau(   7) = (   0.7462992   0.1430777   0.7772407  )
         8           O   tau(   8) = (   0.4905144   0.2719935   0.3523549  )

   Crystallographic axes

     site n.     atom                  positions (cryst. coord.)
         1           Zn  tau(   1) = (  0.3314192  0.3336223  0.4913397  )
         2           Zn  tau(   2) = (  0.1698897  0.7032308  0.0031648  )
         3           O   tau(   3) = (  0.3358149  0.3179626  0.8965732  )
         4           O   tau(   4) = (  0.1705445  0.6777046  0.3947556  )
         5           Zn  tau(   5) = (  0.8074920  0.3239768  0.4925422  )
         6           Zn  tau(   6) = (  0.6768827  0.6726364  0.0014188  )
         7           O   tau(   7) = (  0.8289051  0.3304237  0.8915831  )
         8           O   tau(   8) = (  0.6475500  0.6281422  0.4041909  )

     number of k points=   112
                       cart. coord. in units 2pi/alat
        k(    1) = (   0.0000000   0.0000000   0.0000000), wk =   0.0092593
        k(    2) = (   0.0000000   0.0000000   0.1911855), wk =   0.0185185
        k(    3) = (   0.0000000   0.0000000   0.3823711), wk =   0.0185185
        k(    4) = (   0.0000000   0.0000000  -0.5735566), wk =   0.0092593
        k(    5) = (   0.0000000   0.3849002   0.0000000), wk =   0.0185185
        k(    6) = (   0.0000000   0.3849002   0.1911855), wk =   0.0185185
        k(    7) = (   0.0000000   0.3849002   0.3823711), wk =   0.0185185
        k(    8) = (   0.0000000   0.3849002  -0.5735566), wk =   0.0185185
        k(    9) = (   0.0000000   0.7698004   0.0000000), wk =   0.0185185
        k(   10) = (   0.0000000   0.7698004   0.1911855), wk =   0.0185185
        k(   11) = (   0.0000000   0.7698004   0.3823711), wk =   0.0185185
        k(   12) = (   0.0000000   0.7698004  -0.5735566), wk =   0.0185185
        k(   13) = (   0.0000000  -1.1547005   0.0000000), wk =   0.0092593
        k(   14) = (   0.0000000  -1.1547005   0.1911855), wk =   0.0185185
        k(   15) = (   0.0000000  -1.1547005   0.3823711), wk =   0.0185185
        k(   16) = (   0.0000000  -1.1547005  -0.5735566), wk =   0.0092593
        k(   17) = (   0.1666667   0.0962250   0.0000000), wk =   0.0185185
        k(   18) = (   0.1666667   0.0962250   0.1911855), wk =   0.0185185
        k(   19) = (   0.1666667   0.0962250   0.3823711), wk =   0.0185185
        k(   20) = (   0.1666667   0.0962250  -0.5735566), wk =   0.0185185
        k(   21) = (   0.1666667   0.4811252   0.0000000), wk =   0.0185185
        k(   22) = (   0.1666667   0.4811252   0.1911855), wk =   0.0185185
        k(   23) = (   0.1666667   0.4811252   0.3823711), wk =   0.0185185
        k(   24) = (   0.1666667   0.4811252  -0.5735566), wk =   0.0185185
        k(   25) = (   0.1666667   0.8660254   0.0000000), wk =   0.0185185
        k(   26) = (   0.1666667   0.8660254   0.1911855), wk =   0.0185185
        k(   27) = (   0.1666667   0.8660254   0.3823711), wk =   0.0185185
        k(   28) = (   0.1666667   0.8660254  -0.5735566), wk =   0.0185185
        k(   29) = (   0.1666667  -1.0584755   0.0000000), wk =   0.0185185
        k(   30) = (   0.1666667  -1.0584755   0.1911855), wk =   0.0185185
        k(   31) = (   0.1666667  -1.0584755   0.3823711), wk =   0.0185185
        k(   32) = (   0.1666667  -1.0584755  -0.5735566), wk =   0.0185185
        k(   33) = (   0.1666667  -0.6735753   0.0000000), wk =   0.0185185
        k(   34) = (   0.1666667  -0.6735753   0.1911855), wk =   0.0185185
        k(   35) = (   0.1666667  -0.6735753   0.3823711), wk =   0.0185185
        k(   36) = (   0.1666667  -0.6735753  -0.5735566), wk =   0.0185185
        k(   37) = (   0.1666667  -0.2886751   0.0000000), wk =   0.0185185
        k(   38) = (   0.1666667  -0.2886751   0.1911855), wk =   0.0185185
        k(   39) = (   0.1666667  -0.2886751   0.3823711), wk =   0.0185185
        k(   40) = (   0.1666667  -0.2886751  -0.5735566), wk =   0.0185185
        k(   41) = (   0.3333333   0.1924501   0.0000000), wk =   0.0185185
        k(   42) = (   0.3333333   0.1924501   0.1911855), wk =   0.0185185
        k(   43) = (   0.3333333   0.1924501   0.3823711), wk =   0.0185185
        k(   44) = (   0.3333333   0.1924501  -0.5735566), wk =   0.0185185
        k(   45) = (   0.3333333   0.5773503   0.0000000), wk =   0.0185185
        k(   46) = (   0.3333333   0.5773503   0.1911855), wk =   0.0185185
        k(   47) = (   0.3333333   0.5773503   0.3823711), wk =   0.0185185
        k(   48) = (   0.3333333   0.5773503  -0.5735566), wk =   0.0185185
        k(   49) = (   0.3333333  -0.9622504   0.0000000), wk =   0.0185185
        k(   50) = (   0.3333333  -0.9622504   0.1911855), wk =   0.0185185
        k(   51) = (   0.3333333  -0.9622504   0.3823711), wk =   0.0185185
        k(   52) = (   0.3333333  -0.9622504  -0.5735566), wk =   0.0185185
        k(   53) = (   0.3333333  -0.5773503   0.0000000), wk =   0.0185185
        k(   54) = (   0.3333333  -0.5773503   0.1911855), wk =   0.0185185
        k(   55) = (   0.3333333  -0.5773503   0.3823711), wk =   0.0185185
        k(   56) = (   0.3333333  -0.5773503  -0.5735566), wk =   0.0185185
        k(   57) = (  -0.5000000  -0.2886751   0.0000000), wk =   0.0092593
        k(   58) = (  -0.5000000  -0.2886751   0.1911855), wk =   0.0185185
        k(   59) = (  -0.5000000  -0.2886751   0.3823711), wk =   0.0185185
        k(   60) = (  -0.5000000  -0.2886751  -0.5735566), wk =   0.0092593
        k(   61) = (  -0.5000000  -1.4433757   0.0000000), wk =   0.0092593
        k(   62) = (  -0.5000000  -1.4433757   0.1911855), wk =   0.0185185
        k(   63) = (  -0.5000000  -1.4433757   0.3823711), wk =   0.0185185
        k(   64) = (  -0.5000000  -1.4433757  -0.5735566), wk =   0.0092593
        k(   65) = (   0.3333333  -0.1924501   0.0000000), wk =   0.0185185
        k(   66) = (   0.0000000  -0.3849002   0.1911855), wk =   0.0185185
        k(   67) = (   0.3333333  -0.1924501  -0.1911855), wk =   0.0185185
        k(   68) = (  -0.3333333   0.1924501  -0.1911855), wk =   0.0185185
        k(   69) = (   0.0000000  -0.3849002   0.3823711), wk =   0.0185185
        k(   70) = (   0.3333333  -0.1924501  -0.3823711), wk =   0.0185185
        k(   71) = (  -0.3333333   0.1924501  -0.3823711), wk =   0.0185185
        k(   72) = (   0.3333333  -0.1924501   0.5735566), wk =   0.0185185
        k(   73) = (   0.6666667  -0.3849002   0.0000000), wk =   0.0185185
        k(   74) = (   0.0000000  -0.7698004   0.1911855), wk =   0.0185185
        k(   75) = (   0.6666667  -0.3849002  -0.1911855), wk =   0.0185185
        k(   76) = (  -0.6666667   0.3849002  -0.1911855), wk =   0.0185185
        k(   77) = (   0.0000000  -0.7698004   0.3823711), wk =   0.0185185
        k(   78) = (   0.6666667  -0.3849002  -0.3823711), wk =   0.0185185
        k(   79) = (  -0.6666667   0.3849002  -0.3823711), wk =   0.0185185
        k(   80) = (   0.6666667  -0.3849002   0.5735566), wk =   0.0185185
        k(   81) = (  -0.1666667  -0.0962250   0.1911855), wk =   0.0185185
        k(   82) = (  -0.1666667  -0.0962250   0.3823711), wk =   0.0185185
        k(   83) = (   0.5000000  -0.0962250   0.0000000), wk =   0.0185185
        k(   84) = (  -0.1666667  -0.4811252   0.1911855), wk =   0.0185185
        k(   85) = (   0.5000000  -0.0962250  -0.1911855), wk =   0.0185185
        k(   86) = (  -0.5000000   0.0962250  -0.1911855), wk =   0.0185185
        k(   87) = (  -0.1666667  -0.4811252   0.3823711), wk =   0.0185185
        k(   88) = (   0.5000000  -0.0962250  -0.3823711), wk =   0.0185185
        k(   89) = (  -0.5000000   0.0962250  -0.3823711), wk =   0.0185185
        k(   90) = (   0.5000000  -0.0962250   0.5735566), wk =   0.0185185
        k(   91) = (  -0.1666667  -0.8660254   0.1911855), wk =   0.0185185
        k(   92) = (  -0.1666667  -0.8660254   0.3823711), wk =   0.0185185
        k(   93) = (  -0.1666667   1.0584755   0.1911855), wk =   0.0185185
        k(   94) = (  -0.1666667   1.0584755   0.3823711), wk =   0.0185185
        k(   95) = (  -0.5000000   0.4811252   0.0000000), wk =   0.0185185
        k(   96) = (  -0.1666667   0.6735753   0.1911855), wk =   0.0185185
        k(   97) = (  -0.5000000   0.4811252  -0.1911855), wk =   0.0185185
        k(   98) = (   0.5000000  -0.4811252  -0.1911855), wk =   0.0185185
        k(   99) = (  -0.1666667   0.6735753   0.3823711), wk =   0.0185185
        k(  100) = (  -0.5000000   0.4811252  -0.3823711), wk =   0.0185185
        k(  101) = (   0.5000000  -0.4811252  -0.3823711), wk =   0.0185185
        k(  102) = (  -0.5000000   0.4811252   0.5735566), wk =   0.0185185
        k(  103) = (  -0.1666667   0.2886751   0.1911855), wk =   0.0185185
        k(  104) = (  -0.1666667   0.2886751   0.3823711), wk =   0.0185185
        k(  105) = (  -0.3333333  -0.1924501   0.1911855), wk =   0.0185185
        k(  106) = (  -0.3333333  -0.1924501   0.3823711), wk =   0.0185185
        k(  107) = (  -0.3333333  -0.5773503   0.1911855), wk =   0.0185185
        k(  108) = (  -0.3333333  -0.5773503   0.3823711), wk =   0.0185185
        k(  109) = (  -0.3333333   0.9622504   0.1911855), wk =   0.0185185
        k(  110) = (  -0.3333333   0.9622504   0.3823711), wk =   0.0185185
        k(  111) = (  -0.3333333   0.5773503   0.1911855), wk =   0.0185185
        k(  112) = (  -0.3333333   0.5773503   0.3823711), wk =   0.0185185

                       cryst. coord.
        k(    1) = (   0.0000000   0.0000000   0.0000000), wk =   0.0092593
        k(    2) = (   0.0000000   0.0000000   0.1666667), wk =   0.0185185
        k(    3) = (   0.0000000   0.0000000   0.3333333), wk =   0.0185185
        k(    4) = (   0.0000000   0.0000000  -0.5000000), wk =   0.0092593
        k(    5) = (   0.0000000   0.1666667   0.0000000), wk =   0.0185185
        k(    6) = (   0.0000000   0.1666667   0.1666667), wk =   0.0185185
        k(    7) = (   0.0000000   0.1666667   0.3333333), wk =   0.0185185
        k(    8) = (   0.0000000   0.1666667  -0.5000000), wk =   0.0185185
        k(    9) = (   0.0000000   0.3333333   0.0000000), wk =   0.0185185
        k(   10) = (   0.0000000   0.3333333   0.1666667), wk =   0.0185185
        k(   11) = (   0.0000000   0.3333333   0.3333333), wk =   0.0185185
        k(   12) = (   0.0000000   0.3333333  -0.5000000), wk =   0.0185185
        k(   13) = (   0.0000000  -0.5000000   0.0000000), wk =   0.0092593
        k(   14) = (   0.0000000  -0.5000000   0.1666667), wk =   0.0185185
        k(   15) = (   0.0000000  -0.5000000   0.3333333), wk =   0.0185185
        k(   16) = (   0.0000000  -0.5000000  -0.5000000), wk =   0.0092593
        k(   17) = (   0.1666667  -0.0000000   0.0000000), wk =   0.0185185
        k(   18) = (   0.1666667  -0.0000000   0.1666667), wk =   0.0185185
        k(   19) = (   0.1666667  -0.0000000   0.3333333), wk =   0.0185185
        k(   20) = (   0.1666667  -0.0000000  -0.5000000), wk =   0.0185185
        k(   21) = (   0.1666667   0.1666667   0.0000000), wk =   0.0185185
        k(   22) = (   0.1666667   0.1666667   0.1666667), wk =   0.0185185
        k(   23) = (   0.1666667   0.1666667   0.3333333), wk =   0.0185185
        k(   24) = (   0.1666667   0.1666667  -0.5000000), wk =   0.0185185
        k(   25) = (   0.1666667   0.3333333   0.0000000), wk =   0.0185185
        k(   26) = (   0.1666667   0.3333333   0.1666667), wk =   0.0185185
        k(   27) = (   0.1666667   0.3333333   0.3333333), wk =   0.0185185
        k(   28) = (   0.1666667   0.3333333  -0.5000000), wk =   0.0185185
        k(   29) = (   0.1666667  -0.5000000   0.0000000), wk =   0.0185185
        k(   30) = (   0.1666667  -0.5000000   0.1666667), wk =   0.0185185
        k(   31) = (   0.1666667  -0.5000000   0.3333333), wk =   0.0185185
        k(   32) = (   0.1666667  -0.5000000  -0.5000000), wk =   0.0185185
        k(   33) = (   0.1666667  -0.3333333   0.0000000), wk =   0.0185185
        k(   34) = (   0.1666667  -0.3333333   0.1666667), wk =   0.0185185
        k(   35) = (   0.1666667  -0.3333333   0.3333333), wk =   0.0185185
        k(   36) = (   0.1666667  -0.3333333  -0.5000000), wk =   0.0185185
        k(   37) = (   0.1666667  -0.1666667   0.0000000), wk =   0.0185185
        k(   38) = (   0.1666667  -0.1666667   0.1666667), wk =   0.0185185
        k(   39) = (   0.1666667  -0.1666667   0.3333333), wk =   0.0185185
        k(   40) = (   0.1666667  -0.1666667  -0.5000000), wk =   0.0185185
        k(   41) = (   0.3333333  -0.0000000   0.0000000), wk =   0.0185185
        k(   42) = (   0.3333333  -0.0000000   0.1666667), wk =   0.0185185
        k(   43) = (   0.3333333  -0.0000000   0.3333333), wk =   0.0185185
        k(   44) = (   0.3333333  -0.0000000  -0.5000000), wk =   0.0185185
        k(   45) = (   0.3333333   0.1666667   0.0000000), wk =   0.0185185
        k(   46) = (   0.3333333   0.1666667   0.1666667), wk =   0.0185185
        k(   47) = (   0.3333333   0.1666667   0.3333333), wk =   0.0185185
        k(   48) = (   0.3333333   0.1666667  -0.5000000), wk =   0.0185185
        k(   49) = (   0.3333333  -0.5000000   0.0000000), wk =   0.0185185
        k(   50) = (   0.3333333  -0.5000000   0.1666667), wk =   0.0185185
        k(   51) = (   0.3333333  -0.5000000   0.3333333), wk =   0.0185185
        k(   52) = (   0.3333333  -0.5000000  -0.5000000), wk =   0.0185185
        k(   53) = (   0.3333333  -0.3333333   0.0000000), wk =   0.0185185
        k(   54) = (   0.3333333  -0.3333333   0.1666667), wk =   0.0185185
        k(   55) = (   0.3333333  -0.3333333   0.3333333), wk =   0.0185185
        k(   56) = (   0.3333333  -0.3333333  -0.5000000), wk =   0.0185185
        k(   57) = (  -0.5000000   0.0000000   0.0000000), wk =   0.0092593
        k(   58) = (  -0.5000000   0.0000000   0.1666667), wk =   0.0185185
        k(   59) = (  -0.5000000   0.0000000   0.3333333), wk =   0.0185185
        k(   60) = (  -0.5000000   0.0000000  -0.5000000), wk =   0.0092593
        k(   61) = (  -0.5000000  -0.5000000   0.0000000), wk =   0.0092593
        k(   62) = (  -0.5000000  -0.5000000   0.1666667), wk =   0.0185185
        k(   63) = (  -0.5000000  -0.5000000   0.3333333), wk =   0.0185185
        k(   64) = (  -0.5000000  -0.5000000  -0.5000000), wk =   0.0092593
        k(   65) = (   0.3333333  -0.1666667   0.0000000), wk =   0.0185185
        k(   66) = (   0.0000000  -0.1666667   0.1666667), wk =   0.0185185
        k(   67) = (   0.3333333  -0.1666667  -0.1666667), wk =   0.0185185
        k(   68) = (  -0.3333333   0.1666667  -0.1666667), wk =   0.0185185
        k(   69) = (   0.0000000  -0.1666667   0.3333333), wk =   0.0185185
        k(   70) = (   0.3333333  -0.1666667  -0.3333333), wk =   0.0185185
        k(   71) = (  -0.3333333   0.1666667  -0.3333333), wk =   0.0185185
        k(   72) = (   0.3333333  -0.1666667   0.5000000), wk =   0.0185185
        k(   73) = (   0.6666667  -0.3333333   0.0000000), wk =   0.0185185
        k(   74) = (   0.0000000  -0.3333333   0.1666667), wk =   0.0185185
        k(   75) = (   0.6666667  -0.3333333  -0.1666667), wk =   0.0185185
        k(   76) = (  -0.6666667   0.3333333  -0.1666667), wk =   0.0185185
        k(   77) = (   0.0000000  -0.3333333   0.3333333), wk =   0.0185185
        k(   78) = (   0.6666667  -0.3333333  -0.3333333), wk =   0.0185185
        k(   79) = (  -0.6666667   0.3333333  -0.3333333), wk =   0.0185185
        k(   80) = (   0.6666667  -0.3333333   0.5000000), wk =   0.0185185
        k(   81) = (  -0.1666667   0.0000000   0.1666667), wk =   0.0185185
        k(   82) = (  -0.1666667   0.0000000   0.3333333), wk =   0.0185185
        k(   83) = (   0.5000000  -0.1666667   0.0000000), wk =   0.0185185
        k(   84) = (  -0.1666667  -0.1666667   0.1666667), wk =   0.0185185
        k(   85) = (   0.5000000  -0.1666667  -0.1666667), wk =   0.0185185
        k(   86) = (  -0.5000000   0.1666667  -0.1666667), wk =   0.0185185
        k(   87) = (  -0.1666667  -0.1666667   0.3333333), wk =   0.0185185
        k(   88) = (   0.5000000  -0.1666667  -0.3333333), wk =   0.0185185
        k(   89) = (  -0.5000000   0.1666667  -0.3333333), wk =   0.0185185
        k(   90) = (   0.5000000  -0.1666667   0.5000000), wk =   0.0185185
        k(   91) = (  -0.1666667  -0.3333333   0.1666667), wk =   0.0185185
        k(   92) = (  -0.1666667  -0.3333333   0.3333333), wk =   0.0185185
        k(   93) = (  -0.1666667   0.5000000   0.1666667), wk =   0.0185185
        k(   94) = (  -0.1666667   0.5000000   0.3333333), wk =   0.0185185
        k(   95) = (  -0.5000000   0.3333333   0.0000000), wk =   0.0185185
        k(   96) = (  -0.1666667   0.3333333   0.1666667), wk =   0.0185185
        k(   97) = (  -0.5000000   0.3333333  -0.1666667), wk =   0.0185185
        k(   98) = (   0.5000000  -0.3333333  -0.1666667), wk =   0.0185185
        k(   99) = (  -0.1666667   0.3333333   0.3333333), wk =   0.0185185
        k(  100) = (  -0.5000000   0.3333333  -0.3333333), wk =   0.0185185
        k(  101) = (   0.5000000  -0.3333333  -0.3333333), wk =   0.0185185
        k(  102) = (  -0.5000000   0.3333333   0.5000000), wk =   0.0185185
        k(  103) = (  -0.1666667   0.1666667   0.1666667), wk =   0.0185185
        k(  104) = (  -0.1666667   0.1666667   0.3333333), wk =   0.0185185
        k(  105) = (  -0.3333333   0.0000000   0.1666667), wk =   0.0185185
        k(  106) = (  -0.3333333   0.0000000   0.3333333), wk =   0.0185185
        k(  107) = (  -0.3333333  -0.1666667   0.1666667), wk =   0.0185185
        k(  108) = (  -0.3333333  -0.1666667   0.3333333), wk =   0.0185185
        k(  109) = (  -0.3333333   0.5000000   0.1666667), wk =   0.0185185
        k(  110) = (  -0.3333333   0.5000000   0.3333333), wk =   0.0185185
        k(  111) = (  -0.3333333   0.3333333   0.1666667), wk =   0.0185185
        k(  112) = (  -0.3333333   0.3333333   0.3333333), wk =   0.0185185

     Dense  grid:   121261 G-vectors     FFT dimensions: (  90,  45,  75)

     Smooth grid:    42807 G-vectors     FFT dimensions: (  64,  32,  54)

     Dynamical RAM for                 wfc:       0.74 MB

     Dynamical RAM for     wfc (w. buffer):      21.33 MB

     Dynamical RAM for           str. fact:       0.93 MB

     Dynamical RAM for           local pot:       0.00 MB

     Dynamical RAM for          nlocal pot:       2.12 MB

     Dynamical RAM for                qrad:       3.21 MB

     Dynamical RAM for          rho,v,vnew:       3.15 MB

     Dynamical RAM for               rhoin:       1.05 MB

     Dynamical RAM for            rho*nmix:       7.40 MB

     Dynamical RAM for           G-vectors:       1.82 MB

     Dynamical RAM for          h,s,v(r/c):       0.06 MB

     Dynamical RAM for          <psi|beta>:       0.06 MB

     Dynamical RAM for                 psi:       1.47 MB

     Dynamical RAM for                hpsi:       1.47 MB

     Dynamical RAM for                spsi:       1.47 MB

     Dynamical RAM for      wfcinit/wfcrot:       2.19 MB

     Dynamical RAM for           addusdens:      22.32 MB

     Dynamical RAM for          addusforce:      22.91 MB

     Estimated static dynamical RAM per process >      37.93 MB

     Estimated max dynamical RAM per process >      68.24 MB

     Estimated total dynamical RAM >    1003.10 MB

     Check: negative core charge=   -0.000002

     Initial potential from superposition of free atoms

     starting charge      71.9851, renormalised to      72.0000
     Starting wfcs are   52 randomized atomic wfcs

     total cpu time spent up to now is        5.6 secs

     per-process dynamical memory:    51.8 Mb

     Self-consistent Calculation

     iteration #  1     ecut=    50.00 Ry     beta= 0.30
     Davidson diagonalization with overlap

---- Real-time Memory Report at c_bands before calling an iterative solver
            79 MiB given to the printing process from OS
            50 MiB allocation reported by mallinfo(arena+hblkhd)
        105799 MiB available memory on the node where the printing process lives
------------------
     ethr =  1.00E-02,  avg # of iterations =  1.2

     total cpu time spent up to now is       10.9 secs

     total energy              =    -722.62379785 Ry
     estimated scf accuracy    <       1.78977582 Ry

     iteration #  2     ecut=    50.00 Ry     beta= 0.30
     Davidson diagonalization with overlap

---- Real-time Memory Report at c_bands before calling an iterative solver
           101 MiB given to the printing process from OS
            72 MiB allocation reported by mallinfo(arena+hblkhd)
        105509 MiB available memory on the node where the printing process lives
------------------
     ethr =  2.49E-03,  avg # of iterations =  2.1

     total cpu time spent up to now is       17.4 secs

     total energy              =    -722.88193431 Ry
     estimated scf accuracy    <       0.20877904 Ry

     iteration #  3     ecut=    50.00 Ry     beta= 0.30
     Davidson diagonalization with overlap

---- Real-time Memory Report at c_bands before calling an iterative solver
           102 MiB given to the printing process from OS
            73 MiB allocation reported by mallinfo(arena+hblkhd)
        105553 MiB available memory on the node where the printing process lives
------------------
     ethr =  2.90E-04,  avg # of iterations =  5.7

     total cpu time spent up to now is       28.4 secs

     total energy              =    -722.91298395 Ry
     estimated scf accuracy    <       0.40713964 Ry

     iteration #  4     ecut=    50.00 Ry     beta= 0.30
     Davidson diagonalization with overlap

---- Real-time Memory Report at c_bands before calling an iterative solver
           102 MiB given to the printing process from OS
            73 MiB allocation reported by mallinfo(arena+hblkhd)
        105577 MiB available memory on the node where the printing process lives
------------------
     c_bands:  1 eigenvalues not converged
     ethr =  2.90E-04,  avg # of iterations =  6.5

     total cpu time spent up to now is       41.0 secs

     total energy              =    -723.14413319 Ry
     estimated scf accuracy    <       0.21016966 Ry

     iteration #  5     ecut=    50.00 Ry     beta= 0.30
     Davidson diagonalization with overlap

---- Real-time Memory Report at c_bands before calling an iterative solver
           102 MiB given to the printing process from OS
            73 MiB allocation reported by mallinfo(arena+hblkhd)
        105595 MiB available memory on the node where the printing process lives
------------------
     ethr =  2.90E-04,  avg # of iterations =  1.5

     total cpu time spent up to now is       47.7 secs

     total energy              =    -723.03280991 Ry
     estimated scf accuracy    <       0.29100953 Ry

     iteration #  6     ecut=    50.00 Ry     beta= 0.30
     Davidson diagonalization with overlap

---- Real-time Memory Report at c_bands before calling an iterative solver
           102 MiB given to the printing process from OS
            74 MiB allocation reported by mallinfo(arena+hblkhd)
        105595 MiB available memory on the node where the printing process lives
------------------
     ethr =  2.90E-04,  avg # of iterations =  2.0

     total cpu time spent up to now is       53.5 secs

     total energy              =    -723.00983100 Ry
     estimated scf accuracy    <       0.09704040 Ry

     iteration #  7     ecut=    50.00 Ry     beta= 0.30
     Davidson diagonalization with overlap

---- Real-time Memory Report at c_bands before calling an iterative solver
           103 MiB given to the printing process from OS
            74 MiB allocation reported by mallinfo(arena+hblkhd)
        105592 MiB available memory on the node where the printing process lives
------------------
     ethr =  1.35E-04,  avg # of iterations =  5.4

     total cpu time spent up to now is       63.4 secs

     total energy              =    -723.06663500 Ry
     estimated scf accuracy    <       0.03001491 Ry

     iteration #  8     ecut=    50.00 Ry     beta= 0.30
     Davidson diagonalization with overlap

---- Real-time Memory Report at c_bands before calling an iterative solver
           103 MiB given to the printing process from OS
            74 MiB allocation reported by mallinfo(arena+hblkhd)
        105590 MiB available memory on the node where the printing process lives
------------------
     ethr =  4.17E-05,  avg # of iterations =  1.6

     total cpu time spent up to now is       69.6 secs

     total energy              =    -723.06413704 Ry
     estimated scf accuracy    <       0.02673698 Ry

     iteration #  9     ecut=    50.00 Ry     beta= 0.30
     Davidson diagonalization with overlap

---- Real-time Memory Report at c_bands before calling an iterative solver
           103 MiB given to the printing process from OS
            75 MiB allocation reported by mallinfo(arena+hblkhd)
        105589 MiB available memory on the node where the printing process lives
------------------
     ethr =  3.71E-05,  avg # of iterations =  1.2

     total cpu time spent up to now is       75.9 secs

     total energy              =    -723.06303108 Ry
     estimated scf accuracy    <       0.01807109 Ry

     iteration # 10     ecut=    50.00 Ry     beta= 0.30
     Davidson diagonalization with overlap

---- Real-time Memory Report at c_bands before calling an iterative solver
           104 MiB given to the printing process from OS
            75 MiB allocation reported by mallinfo(arena+hblkhd)
        105587 MiB available memory on the node where the printing process lives
------------------
     ethr =  2.51E-05,  avg # of iterations =  1.0

     total cpu time spent up to now is       81.7 secs

     total energy              =    -723.06238563 Ry
     estimated scf accuracy    <       0.01394670 Ry

     iteration # 11     ecut=    50.00 Ry     beta= 0.30
     Davidson diagonalization with overlap

---- Real-time Memory Report at c_bands before calling an iterative solver
           104 MiB given to the printing process from OS
            75 MiB allocation reported by mallinfo(arena+hblkhd)
        105587 MiB available memory on the node where the printing process lives
------------------
     ethr =  1.94E-05,  avg # of iterations =  1.1

     total cpu time spent up to now is       88.0 secs

     total energy              =    -723.06020023 Ry
     estimated scf accuracy    <       0.01036537 Ry

     iteration # 12     ecut=    50.00 Ry     beta= 0.30
     Davidson diagonalization with overlap

---- Real-time Memory Report at c_bands before calling an iterative solver
           104 MiB given to the printing process from OS
            75 MiB allocation reported by mallinfo(arena+hblkhd)
        105588 MiB available memory on the node where the printing process lives
------------------
     ethr =  1.44E-05,  avg # of iterations =  2.1

     total cpu time spent up to now is       94.7 secs

     total energy              =    -723.05990489 Ry
     estimated scf accuracy    <       0.00344950 Ry

     iteration # 13     ecut=    50.00 Ry     beta= 0.30
     Davidson diagonalization with overlap

---- Real-time Memory Report at c_bands before calling an iterative solver
           104 MiB given to the printing process from OS
            75 MiB allocation reported by mallinfo(arena+hblkhd)
        105588 MiB available memory on the node where the printing process lives
------------------
     ethr =  4.79E-06,  avg # of iterations =  6.1

     total cpu time spent up to now is      105.0 secs

     total energy              =    -723.06177831 Ry
     estimated scf accuracy    <       0.00056839 Ry

     iteration # 14     ecut=    50.00 Ry     beta= 0.30
     Davidson diagonalization with overlap

---- Real-time Memory Report at c_bands before calling an iterative solver
           104 MiB given to the printing process from OS
            75 MiB allocation reported by mallinfo(arena+hblkhd)
        105588 MiB available memory on the node where the printing process lives
------------------
     ethr =  7.89E-07,  avg # of iterations =  2.8

     total cpu time spent up to now is      112.1 secs

     total energy              =    -723.06170374 Ry
     estimated scf accuracy    <       0.00036072 Ry

     iteration # 15     ecut=    50.00 Ry     beta= 0.30
     Davidson diagonalization with overlap

---- Real-time Memory Report at c_bands before calling an iterative solver
           104 MiB given to the printing process from OS
            75 MiB allocation reported by mallinfo(arena+hblkhd)
        105588 MiB available memory on the node where the printing process lives
------------------
     ethr =  5.01E-07,  avg # of iterations =  2.9

     total cpu time spent up to now is      119.5 secs

     total energy              =    -723.06179929 Ry
     estimated scf accuracy    <       0.00009739 Ry

     iteration # 16     ecut=    50.00 Ry     beta= 0.30
     Davidson diagonalization with overlap

---- Real-time Memory Report at c_bands before calling an iterative solver
           104 MiB given to the printing process from OS
            75 MiB allocation reported by mallinfo(arena+hblkhd)
        105588 MiB available memory on the node where the printing process lives
------------------
     ethr =  1.35E-07,  avg # of iterations =  4.1

     total cpu time spent up to now is      127.7 secs

     total energy              =    -723.06189084 Ry
     estimated scf accuracy    <       0.00019564 Ry

     iteration # 17     ecut=    50.00 Ry     beta= 0.30
     Davidson diagonalization with overlap

---- Real-time Memory Report at c_bands before calling an iterative solver
           104 MiB given to the printing process from OS
            75 MiB allocation reported by mallinfo(arena+hblkhd)
        105588 MiB available memory on the node where the printing process lives
------------------
     ethr =  1.35E-07,  avg # of iterations =  5.8

     total cpu time spent up to now is      137.6 secs

     total energy              =    -723.06214477 Ry
     estimated scf accuracy    <       0.00062777 Ry

     iteration # 18     ecut=    50.00 Ry     beta= 0.30
     Davidson diagonalization with overlap

---- Real-time Memory Report at c_bands before calling an iterative solver
           104 MiB given to the printing process from OS
            75 MiB allocation reported by mallinfo(arena+hblkhd)
        105588 MiB available memory on the node where the printing process lives
------------------
     ethr =  1.35E-07,  avg # of iterations =  6.2

     total cpu time spent up to now is      148.8 secs

     total energy              =    -723.06238416 Ry
     estimated scf accuracy    <       0.00197597 Ry

     iteration # 19     ecut=    50.00 Ry     beta= 0.30
     Davidson diagonalization with overlap

---- Real-time Memory Report at c_bands before calling an iterative solver
           104 MiB given to the printing process from OS
            75 MiB allocation reported by mallinfo(arena+hblkhd)
        105588 MiB available memory on the node where the printing process lives
------------------
     ethr =  1.35E-07,  avg # of iterations =  3.3

     total cpu time spent up to now is      156.1 secs

     total energy              =    -723.06223347 Ry
     estimated scf accuracy    <       0.00240009 Ry

     iteration # 20     ecut=    50.00 Ry     beta= 0.30
     Davidson diagonalization with overlap

---- Real-time Memory Report at c_bands before calling an iterative solver
           104 MiB given to the printing process from OS
            75 MiB allocation reported by mallinfo(arena+hblkhd)
        105588 MiB available memory on the node where the printing process lives
------------------
     ethr =  1.35E-07,  avg # of iterations =  2.0

     total cpu time spent up to now is      162.0 secs

     total energy              =    -723.06195244 Ry
     estimated scf accuracy    <       0.00215205 Ry

     iteration # 21     ecut=    50.00 Ry     beta= 0.30
     Davidson diagonalization with overlap

---- Real-time Memory Report at c_bands before calling an iterative solver
           104 MiB given to the printing process from OS
            75 MiB allocation reported by mallinfo(arena+hblkhd)
        105588 MiB available memory on the node where the printing process lives
------------------
     ethr =  1.35E-07,  avg # of iterations =  5.6

     total cpu time spent up to now is      170.9 secs

     total energy              =    -723.06175926 Ry
     estimated scf accuracy    <       0.00114985 Ry

     iteration # 22     ecut=    50.00 Ry     beta= 0.30
     Davidson diagonalization with overlap

---- Real-time Memory Report at c_bands before calling an iterative solver
           104 MiB given to the printing process from OS
            75 MiB allocation reported by mallinfo(arena+hblkhd)
        105588 MiB available memory on the node where the printing process lives
------------------
     ethr =  1.35E-07,  avg # of iterations =  5.7

     total cpu time spent up to now is      180.6 secs

     total energy              =    -723.06170778 Ry
     estimated scf accuracy    <       0.00028787 Ry

     iteration # 23     ecut=    50.00 Ry     beta= 0.30
     Davidson diagonalization with overlap

---- Real-time Memory Report at c_bands before calling an iterative solver
           104 MiB given to the printing process from OS
            75 MiB allocation reported by mallinfo(arena+hblkhd)
        105587 MiB available memory on the node where the printing process lives
------------------
     ethr =  1.35E-07,  avg # of iterations =  7.0

     total cpu time spent up to now is      191.4 secs

     total energy              =    -723.06181806 Ry
     estimated scf accuracy    <       0.00004996 Ry

     iteration # 24     ecut=    50.00 Ry     beta= 0.30
     Davidson diagonalization with overlap

---- Real-time Memory Report at c_bands before calling an iterative solver
           104 MiB given to the printing process from OS
            75 MiB allocation reported by mallinfo(arena+hblkhd)
        105587 MiB available memory on the node where the printing process lives
------------------
     ethr =  6.94E-08,  avg # of iterations =  7.2

     total cpu time spent up to now is      202.4 secs

     total energy              =    -723.06169284 Ry
     estimated scf accuracy    <       0.00038657 Ry

     iteration # 25     ecut=    50.00 Ry     beta= 0.30
     Davidson diagonalization with overlap

---- Real-time Memory Report at c_bands before calling an iterative solver
           104 MiB given to the printing process from OS
            75 MiB allocation reported by mallinfo(arena+hblkhd)
        105587 MiB available memory on the node where the printing process lives
------------------
     ethr =  6.94E-08,  avg # of iterations =  6.8

     total cpu time spent up to now is      214.7 secs

     total energy              =    -723.06177842 Ry
     estimated scf accuracy    <       0.00001681 Ry

     iteration # 26     ecut=    50.00 Ry     beta= 0.30
     Davidson diagonalization with overlap

---- Real-time Memory Report at c_bands before calling an iterative solver
           104 MiB given to the printing process from OS
            75 MiB allocation reported by mallinfo(arena+hblkhd)
        105587 MiB available memory on the node where the printing process lives
------------------
     ethr =  2.34E-08,  avg # of iterations =  3.3

     total cpu time spent up to now is      221.7 secs

     total energy              =    -723.06177577 Ry
     estimated scf accuracy    <       0.00002251 Ry

     iteration # 27     ecut=    50.00 Ry     beta= 0.30
     Davidson diagonalization with overlap

---- Real-time Memory Report at c_bands before calling an iterative solver
           104 MiB given to the printing process from OS
            75 MiB allocation reported by mallinfo(arena+hblkhd)
        105587 MiB available memory on the node where the printing process lives
------------------
     ethr =  2.34E-08,  avg # of iterations =  1.3

     total cpu time spent up to now is      227.3 secs

     total energy              =    -723.06177362 Ry
     estimated scf accuracy    <       0.00001670 Ry

     iteration # 28     ecut=    50.00 Ry     beta= 0.30
     Davidson diagonalization with overlap

---- Real-time Memory Report at c_bands before calling an iterative solver
           104 MiB given to the printing process from OS
            75 MiB allocation reported by mallinfo(arena+hblkhd)
        105587 MiB available memory on the node where the printing process lives
------------------
     ethr =  2.32E-08,  avg # of iterations =  2.9

     total cpu time spent up to now is      234.2 secs

     total energy              =    -723.06177859 Ry
     estimated scf accuracy    <       0.00001244 Ry

     iteration # 29     ecut=    50.00 Ry     beta= 0.30
     Davidson diagonalization with overlap

---- Real-time Memory Report at c_bands before calling an iterative solver
           104 MiB given to the printing process from OS
            75 MiB allocation reported by mallinfo(arena+hblkhd)
        105587 MiB available memory on the node where the printing process lives
------------------
     ethr =  1.73E-08,  avg # of iterations =  5.5

     total cpu time spent up to now is      243.4 secs

     total energy              =    -723.06175194 Ry
     estimated scf accuracy    <       0.00004290 Ry

     iteration # 30     ecut=    50.00 Ry     beta= 0.30
     Davidson diagonalization with overlap

---- Real-time Memory Report at c_bands before calling an iterative solver
           104 MiB given to the printing process from OS
            75 MiB allocation reported by mallinfo(arena+hblkhd)
        105587 MiB available memory on the node where the printing process lives
------------------
     ethr =  1.73E-08,  avg # of iterations = 10.9

     total cpu time spent up to now is      261.4 secs

     total energy              =    -723.06174538 Ry
     estimated scf accuracy    <       0.00011792 Ry

     iteration # 31     ecut=    50.00 Ry     beta= 0.30
     Davidson diagonalization with overlap

---- Real-time Memory Report at c_bands before calling an iterative solver
           104 MiB given to the printing process from OS
            75 MiB allocation reported by mallinfo(arena+hblkhd)
        105587 MiB available memory on the node where the printing process lives
------------------
     ethr =  1.73E-08,  avg # of iterations =  8.6

     total cpu time spent up to now is      276.6 secs

     total energy              =    -723.06177207 Ry
     estimated scf accuracy    <       0.00000537 Ry

     iteration # 32     ecut=    50.00 Ry     beta= 0.30
     Davidson diagonalization with overlap

---- Real-time Memory Report at c_bands before calling an iterative solver
           104 MiB given to the printing process from OS
            75 MiB allocation reported by mallinfo(arena+hblkhd)
        105587 MiB available memory on the node where the printing process lives
------------------
     ethr =  7.46E-09,  avg # of iterations =  5.2

     total cpu time spent up to now is      286.1 secs

     total energy              =    -723.06177354 Ry
     estimated scf accuracy    <       0.00000076 Ry

     iteration # 33     ecut=    50.00 Ry     beta= 0.30
     Davidson diagonalization with overlap

---- Real-time Memory Report at c_bands before calling an iterative solver
           104 MiB given to the printing process from OS
            75 MiB allocation reported by mallinfo(arena+hblkhd)
        105587 MiB available memory on the node where the printing process lives
------------------
     ethr =  1.06E-09,  avg # of iterations =  5.3

     total cpu time spent up to now is      295.3 secs

     total energy              =    -723.06177380 Ry
     estimated scf accuracy    <       0.00000009 Ry

     iteration # 34     ecut=    50.00 Ry     beta= 0.30
     Davidson diagonalization with overlap

---- Real-time Memory Report at c_bands before calling an iterative solver
           104 MiB given to the printing process from OS
            75 MiB allocation reported by mallinfo(arena+hblkhd)
        105586 MiB available memory on the node where the printing process lives
------------------
     ethr =  1.21E-10,  avg # of iterations =  4.2

     total cpu time spent up to now is      303.1 secs

     total energy              =    -723.06177379 Ry
     estimated scf accuracy    <       0.00000004 Ry

     iteration # 35     ecut=    50.00 Ry     beta= 0.30
     Davidson diagonalization with overlap

---- Real-time Memory Report at c_bands before calling an iterative solver
           104 MiB given to the printing process from OS
            75 MiB allocation reported by mallinfo(arena+hblkhd)
        105586 MiB available memory on the node where the printing process lives
------------------
     ethr =  5.04E-11,  avg # of iterations =  6.8

     total cpu time spent up to now is      315.1 secs

     total energy              =    -723.06177381 Ry
     estimated scf accuracy    <       0.00000011 Ry

     iteration # 36     ecut=    50.00 Ry     beta= 0.30
     Davidson diagonalization with overlap

---- Real-time Memory Report at c_bands before calling an iterative solver
           104 MiB given to the printing process from OS
            75 MiB allocation reported by mallinfo(arena+hblkhd)
        105586 MiB available memory on the node where the printing process lives
------------------
     ethr =  5.04E-11,  avg # of iterations =  5.7

     total cpu time spent up to now is      323.8 secs

     total energy              =    -723.06177381 Ry
     estimated scf accuracy    <       0.00000001 Ry

     iteration # 37     ecut=    50.00 Ry     beta= 0.30
     Davidson diagonalization with overlap

---- Real-time Memory Report at c_bands before calling an iterative solver
           104 MiB given to the printing process from OS
            75 MiB allocation reported by mallinfo(arena+hblkhd)
        105586 MiB available memory on the node where the printing process lives
------------------
     ethr =  1.58E-11,  avg # of iterations =  6.5

     total cpu time spent up to now is      335.1 secs

     total energy              =    -723.06177382 Ry
     estimated scf accuracy    <       0.00000002 Ry

     iteration # 38     ecut=    50.00 Ry     beta= 0.30
     Davidson diagonalization with overlap

---- Real-time Memory Report at c_bands before calling an iterative solver
           104 MiB given to the printing process from OS
            75 MiB allocation reported by mallinfo(arena+hblkhd)
        105586 MiB available memory on the node where the printing process lives
------------------
     ethr =  1.58E-11,  avg # of iterations =  1.1

     total cpu time spent up to now is      340.6 secs

     total energy              =    -723.06177381 Ry
     estimated scf accuracy    <       0.00000002 Ry

     iteration # 39     ecut=    50.00 Ry     beta= 0.30
     Davidson diagonalization with overlap

---- Real-time Memory Report at c_bands before calling an iterative solver
           104 MiB given to the printing process from OS
            75 MiB allocation reported by mallinfo(arena+hblkhd)
        105586 MiB available memory on the node where the printing process lives
------------------
     ethr =  1.58E-11,  avg # of iterations =  6.4

     total cpu time spent up to now is      350.8 secs

     End of self-consistent calculation

          k = 0.0000 0.0000 0.0000 (  5315 PWs)   bands (ev):

   -13.3002 -12.7898 -12.5537 -12.4064  -2.0759  -1.9472  -1.7582  -1.7293
    -1.6618  -1.6064  -1.5583  -1.5080  -1.4097  -1.3847  -1.3566  -1.2972
    -1.2250  -1.1964  -1.1492  -1.1291  -1.0756  -1.0710  -1.0421  -1.0108
    -0.0150   0.0996   0.3315   1.5537   1.8699   2.4121   2.5179   2.8694
     2.9271   3.0355   3.2061   3.2799

     occupation numbers 
     1.0000   1.0000   1.0000   1.0000   1.0000   1.0000   1.0000   1.0000
     1.0000   1.0000   1.0000   1.0000   1.0000   1.0000   1.0000   1.0000
     1.0000   1.0000   1.0000   1.0000   1.0000   1.0000   1.0000   1.0000
     1.0000   1.0000   1.0000   1.0000   1.0000   1.0000   1.0000   1.0000
     1.0000   1.0000   1.0000   1.0000

          k = 0.0000 0.0000 0.1912 (  5338 PWs)   bands (ev):

   -13.2951 -12.7926 -12.5495 -12.4132  -2.0764  -1.9473  -1.7632  -1.7315
    -1.6628  -1.6052  -1.5674  -1.5183  -1.4235  -1.3980  -1.3555  -1.3149
    -1.2259  -1.1971  -1.1704  -1.1318  -1.0751  -1.0707  -1.0414  -1.0138
    -0.0191   0.2438   0.2929   1.6923   1.9041   2.3425   2.4320   2.6866
     2.8940   2.9577   3.1845   3.2669

     occupation numbers 
     1.0000   1.0000   1.0000   1.0000   1.0000   1.0000   1.0000   1.0000
     1.0000   1.0000   1.0000   1.0000   1.0000   1.0000   1.0000   1.0000
     1.0000   1.0000   1.0000   1.0000   1.0000   1.0000   1.0000   1.0000
     1.0000   1.0000   1.0000   1.0000   1.0000   1.0000   1.0000   1.0000
     1.0000   1.0000   1.0000   1.0000

          k = 0.0000 0.0000 0.3824 (  5346 PWs)   bands (ev):

   -13.2847 -12.7985 -12.5394 -12.4284  -2.0774  -1.9475  -1.7708  -1.7359
    -1.6648  -1.6213  -1.5841  -1.5163  -1.4729  -1.4287  -1.3533  -1.3328
    -1.2451  -1.1990  -1.1662  -1.1372  -1.0790  -1.0665  -1.0392  -1.0209
    -0.0511   0.2089   0.6557   1.7866   1.9427   2.0685   2.3562   2.5827
     2.9324   2.9952   3.1318   3.2400

     occupation numbers 
     1.0000   1.0000   1.0000   1.0000   1.0000   1.0000   1.0000   1.0000
     1.0000   1.0000   1.0000   1.0000   1.0000   1.0000   1.0000   1.0000
     1.0000   1.0000   1.0000   1.0000   1.0000   1.0000   1.0000   1.0000
     1.0000   1.0000   1.0000   1.0000   1.0000   1.0000   1.0000   1.0000
     1.0000   1.0000   1.0000   1.0000

          k = 0.0000 0.0000-0.5736 (  5390 PWs)   bands (ev):

   -13.2793 -12.8017 -12.5331 -12.4372  -2.0781  -1.9475  -1.7729  -1.7383
    -1.6669  -1.6446  -1.5746  -1.5240  -1.4944  -1.4465  -1.3524  -1.3356
    -1.2544  -1.1999  -1.1593  -1.1409  -1.0808  -1.0641  -1.0366  -1.0263
    -0.0611   0.1682   1.1248   1.2695   2.0014   2.2902   2.3300   2.4595
     2.9554   3.0394   3.0782   3.2246

     occupation numbers 
     1.0000   1.0000   1.0000   1.0000   1.0000   1.0000   1.0000   1.0000
     1.0000   1.0000   1.0000   1.0000   1.0000   1.0000   1.0000   1.0000
     1.0000   1.0000   1.0000   1.0000   1.0000   1.0000   1.0000   1.0000
     1.0000   1.0000   1.0000   1.0000   1.0000   1.0000   1.0000   1.0000
     1.0000   1.0000   1.0000   1.0000

          k = 0.0000 0.3849 0.0000 (  5353 PWs)   bands (ev):

   -13.2534 -12.7443 -12.5318 -12.3957  -2.0305  -1.9111  -1.7303  -1.7085
    -1.6268  -1.5848  -1.5300  -1.4594  -1.4298  -1.3956  -1.3569  -1.3014
    -1.2799  -1.2141  -1.1544  -1.1238  -1.0960  -1.0590  -1.0299  -0.9783
     0.1957   0.2872   0.5387   1.3615   1.6410   1.8431   2.1983   2.2281
     2.5218   2.6892   3.0599   3.0976

     occupation numbers 
     1.0000   1.0000   1.0000   1.0000   1.0000   1.0000   1.0000   1.0000
     1.0000   1.0000   1.0000   1.0000   1.0000   1.0000   1.0000   1.0000
     1.0000   1.0000   1.0000   1.0000   1.0000   1.0000   1.0000   1.0000
     1.0000   1.0000   1.0000   1.0000   1.0000   1.0000   1.0000   1.0000
     1.0000   1.0000   1.0000   1.0000

          k = 0.0000 0.3849 0.1912 (  5361 PWs)   bands (ev):

   -13.2497 -12.7456 -12.5275 -12.4023  -2.0284  -1.9107  -1.7499  -1.7016
    -1.6286  -1.5791  -1.5428  -1.4836  -1.4429  -1.3950  -1.3532  -1.3046
    -1.2866  -1.2114  -1.1720  -1.1313  -1.0884  -1.0703  -1.0251  -0.9852
     0.1948   0.3790   0.5165   1.3803   1.7349   1.8148   2.1604   2.2526
     2.5437   2.7124   2.9835   3.0700

     occupation numbers 
     1.0000   1.0000   1.0000   1.0000   1.0000   1.0000   1.0000   1.0000
     1.0000   1.0000   1.0000   1.0000   1.0000   1.0000   1.0000   1.0000
     1.0000   1.0000   1.0000   1.0000   1.0000   1.0000   1.0000   1.0000
     1.0000   1.0000   1.0000   1.0000   1.0000   1.0000   1.0000   1.0000
     1.0000   1.0000   1.0000   1.0000

          k = 0.0000 0.3849 0.3824 (  5371 PWs)   bands (ev):

   -13.2419 -12.7482 -12.5172 -12.4177  -2.0267  -1.9108  -1.7722  -1.7008
    -1.6287  -1.5846  -1.5636  -1.5165  -1.4617  -1.4026  -1.3633  -1.3192
    -1.2889  -1.2204  -1.1787  -1.1459  -1.0839  -1.0707  -1.0244  -0.9997
     0.1527   0.4230   0.7396   1.4367   1.5850   2.0009   2.0811   2.3735
     2.5330   2.7503   2.8106   3.0281

     occupation numbers 
     1.0000   1.0000   1.0000   1.0000   1.0000   1.0000   1.0000   1.0000
     1.0000   1.0000   1.0000   1.0000   1.0000   1.0000   1.0000   1.0000
     1.0000   1.0000   1.0000   1.0000   1.0000   1.0000   1.0000   1.0000
     1.0000   1.0000   1.0000   1.0000   1.0000   1.0000   1.0000   1.0000
     1.0000   1.0000   1.0000   1.0000

          k = 0.0000 0.3849-0.5736 (  5372 PWs)   bands (ev):

   -13.2379 -12.7495 -12.5106 -12.4271  -2.0272  -1.9114  -1.7786  -1.7033
    -1.6298  -1.6053  -1.5552  -1.5319  -1.4640  -1.4149  -1.3793  -1.3191
    -1.2892  -1.2292  -1.1670  -1.1580  -1.0860  -1.0633  -1.0234  -1.0108
     0.1312   0.4032   1.1054   1.1736   1.6483   1.8802   2.2726   2.4132
     2.5593   2.6107   2.7962   3.0093

     occupation numbers 
     1.0000   1.0000   1.0000   1.0000   1.0000   1.0000   1.0000   1.0000
     1.0000   1.0000   1.0000   1.0000   1.0000   1.0000   1.0000   1.0000
     1.0000   1.0000   1.0000   1.0000   1.0000   1.0000   1.0000   1.0000
     1.0000   1.0000   1.0000   1.0000   1.0000   1.0000   1.0000   1.0000
     1.0000   1.0000   1.0000   1.0000

          k = 0.0000 0.7698 0.0000 (  5343 PWs)   bands (ev):

   -13.1668 -12.6607 -12.4693 -12.3698  -1.9528  -1.8345  -1.6539  -1.6185
    -1.6081  -1.5342  -1.5044  -1.4424  -1.3850  -1.3764  -1.3237  -1.2984
    -1.2308  -1.1919  -1.1629  -1.1201  -1.0791  -1.0531  -1.0357  -0.9422
     0.0976   0.4093   0.5828   0.7183   1.2657   1.4621   1.7430   2.1273
     2.2596   2.5079   2.7181   2.8566

     occupation numbers 
     1.0000   1.0000   1.0000   1.0000   1.0000   1.0000   1.0000   1.0000
     1.0000   1.0000   1.0000   1.0000   1.0000   1.0000   1.0000   1.0000
     1.0000   1.0000   1.0000   1.0000   1.0000   1.0000   1.0000   1.0000
     1.0000   1.0000   1.0000   1.0000   1.0000   1.0000   1.0000   1.0000
     1.0000   1.0000   1.0000   1.0000

          k = 0.0000 0.7698 0.1912 (  5348 PWs)   bands (ev):

   -13.1652 -12.6597 -12.4671 -12.3739  -1.9496  -1.8345  -1.6806  -1.6332
    -1.6042  -1.5417  -1.5035  -1.4450  -1.3963  -1.3732  -1.3172  -1.2990
    -1.2415  -1.2005  -1.1566  -1.1161  -1.0841  -1.0564  -1.0329  -0.9525
     0.0793   0.3642   0.5698   0.7040   1.3816   1.5425   1.8215   2.1036
     2.2696   2.5374   2.6980   2.8417

     occupation numbers 
     1.0000   1.0000   1.0000   1.0000   1.0000   1.0000   1.0000   1.0000
     1.0000   1.0000   1.0000   1.0000   1.0000   1.0000   1.0000   1.0000
     1.0000   1.0000   1.0000   1.0000   1.0000   1.0000   1.0000   1.0000
     1.0000   1.0000   1.0000   1.0000   1.0000   1.0000   1.0000   1.0000
     1.0000   1.0000   1.0000   1.0000

          k = 0.0000 0.7698 0.3824 (  5362 PWs)   bands (ev):

   -13.1619 -12.6576 -12.4608 -12.3844  -1.9443  -1.8444  -1.7078  -1.6545
    -1.5961  -1.5708  -1.5081  -1.4545  -1.4072  -1.3775  -1.3333  -1.2837
    -1.2478  -1.2266  -1.1510  -1.1157  -1.0844  -1.0520  -1.0302  -0.9795
     0.0554   0.3458   0.5326   0.6502   1.5784   1.7589   1.9726   2.1098
     2.3361   2.5089   2.6483   2.7329

     occupation numbers 
     1.0000   1.0000   1.0000   1.0000   1.0000   1.0000   1.0000   1.0000
     1.0000   1.0000   1.0000   1.0000   1.0000   1.0000   1.0000   1.0000
     1.0000   1.0000   1.0000   1.0000   1.0000   1.0000   1.0000   1.0000
     1.0000   1.0000   1.0000   1.0000   1.0000   1.0000   1.0000   1.0000
     1.0000   1.0000   1.0000   1.0000

          k = 0.0000 0.7698-0.5736 (  5356 PWs)   bands (ev):

   -13.1602 -12.6565 -12.4561 -12.3913  -1.9420  -1.8554  -1.7042  -1.6692
    -1.6077  -1.5706  -1.5132  -1.4614  -1.4099  -1.3791  -1.3432  -1.3015
    -1.2474  -1.2200  -1.1484  -1.1215  -1.0783  -1.0513  -1.0236  -0.9995
     0.0467   0.3666   0.5150   0.6089   1.6738   1.8315   2.0944   2.2242
     2.3860   2.4619   2.5643   2.6065

     occupation numbers 
     1.0000   1.0000   1.0000   1.0000   1.0000   1.0000   1.0000   1.0000
     1.0000   1.0000   1.0000   1.0000   1.0000   1.0000   1.0000   1.0000
     1.0000   1.0000   1.0000   1.0000   1.0000   1.0000   1.0000   1.0000
     1.0000   1.0000   1.0000   1.0000   1.0000   1.0000   1.0000   1.0000
     1.0000   1.0000   1.0000   1.0000

          k = 0.0000-1.1547 0.0000 (  5332 PWs)   bands (ev):

   -13.1274 -12.6261 -12.4204 -12.3591  -1.9124  -1.8248  -1.6141  -1.5946
    -1.5680  -1.5351  -1.4800  -1.4340  -1.3444  -1.3023  -1.2512  -1.2139
    -1.1813  -1.1783  -1.1074  -1.0992  -1.0736  -1.0581  -1.0037  -0.9832
    -0.1532  -0.1150   0.2302   0.4120   1.5043   1.6059   1.8802   2.0015
     2.4551   2.4994   2.5757   2.6399

     occupation numbers 
     1.0000   1.0000   1.0000   1.0000   1.0000   1.0000   1.0000   1.0000
     1.0000   1.0000   1.0000   1.0000   1.0000   1.0000   1.0000   1.0000
     1.0000   1.0000   1.0000   1.0000   1.0000   1.0000   1.0000   1.0000
     1.0000   1.0000   1.0000   1.0000   1.0000   1.0000   1.0000   1.0000
     1.0000   1.0000   1.0000   1.0000

          k = 0.0000-1.1547 0.1912 (  5332 PWs)   bands (ev):

   -13.1266 -12.6244 -12.4212 -12.3598  -1.9123  -1.8325  -1.6278  -1.6008
    -1.5759  -1.5515  -1.4832  -1.4315  -1.3453  -1.2974  -1.2462  -1.2236
    -1.1850  -1.1750  -1.1111  -1.0956  -1.0699  -1.0582  -1.0078  -0.9867
    -0.1650  -0.1243   0.1818   0.3745   1.6210   1.7227   1.9123   2.0397
     2.4421   2.4856   2.5747   2.6532

     occupation numbers 
     1.0000   1.0000   1.0000   1.0000   1.0000   1.0000   1.0000   1.0000
     1.0000   1.0000   1.0000   1.0000   1.0000   1.0000   1.0000   1.0000
     1.0000   1.0000   1.0000   1.0000   1.0000   1.0000   1.0000   1.0000
     1.0000   1.0000   1.0000   1.0000   1.0000   1.0000   1.0000   1.0000
     1.0000   1.0000   1.0000   1.0000

          k = 0.0000-1.1547 0.3824 (  5336 PWs)   bands (ev):

   -13.1249 -12.6209 -12.4228 -12.3614  -1.9123  -1.8480  -1.6721  -1.6081
    -1.5946  -1.5573  -1.4913  -1.4330  -1.3447  -1.2895  -1.2430  -1.2401
    -1.1908  -1.1710  -1.1245  -1.0839  -1.0713  -1.0450  -1.0165  -0.9956
    -0.1860  -0.1175   0.0763   0.3042   1.8741   1.9499   2.0194   2.1524
     2.3753   2.4300   2.5610   2.6393

     occupation numbers 
     1.0000   1.0000   1.0000   1.0000   1.0000   1.0000   1.0000   1.0000
     1.0000   1.0000   1.0000   1.0000   1.0000   1.0000   1.0000   1.0000
     1.0000   1.0000   1.0000   1.0000   1.0000   1.0000   1.0000   1.0000
     1.0000   1.0000   1.0000   1.0000   1.0000   1.0000   1.0000   1.0000
     1.0000   1.0000   1.0000   1.0000

          k = 0.0000-1.1547-0.5736 (  5352 PWs)   bands (ev):

   -13.1241 -12.6191 -12.4237 -12.3621  -1.9128  -1.8551  -1.6958  -1.6145
    -1.6040  -1.5511  -1.4969  -1.4359  -1.3438  -1.2845  -1.2506  -1.2444
    -1.1915  -1.1690  -1.1315  -1.0848  -1.0650  -1.0365  -1.0201  -1.0029
    -0.1952  -0.0875   0.0034   0.2709   1.9900   2.0597   2.1393   2.2634
     2.3241   2.4258   2.4749   2.5857

     occupation numbers 
     1.0000   1.0000   1.0000   1.0000   1.0000   1.0000   1.0000   1.0000
     1.0000   1.0000   1.0000   1.0000   1.0000   1.0000   1.0000   1.0000
     1.0000   1.0000   1.0000   1.0000   1.0000   1.0000   1.0000   1.0000
     1.0000   1.0000   1.0000   1.0000   1.0000   1.0000   1.0000   1.0000
     1.0000   1.0000   1.0000   1.0000

          k = 0.1667 0.0962 0.0000 (  5350 PWs)   bands (ev):

   -13.2937 -12.7817 -12.5649 -12.4117  -2.0779  -1.9443  -1.7560  -1.7200
    -1.6598  -1.6068  -1.5563  -1.5162  -1.4216  -1.4017  -1.3693  -1.3220
    -1.2477  -1.2133  -1.1912  -1.1249  -1.0874  -1.0787  -1.0178  -1.0091
     0.0820   0.2164   0.4678   1.4594   1.9170   2.4687   2.5271   2.6305
     2.7572   2.8507   3.1202   3.2075

     occupation numbers 
     1.0000   1.0000   1.0000   1.0000   1.0000   1.0000   1.0000   1.0000
     1.0000   1.0000   1.0000   1.0000   1.0000   1.0000   1.0000   1.0000
     1.0000   1.0000   1.0000   1.0000   1.0000   1.0000   1.0000   1.0000
     1.0000   1.0000   1.0000   1.0000   1.0000   1.0000   1.0000   1.0000
     1.0000   1.0000   1.0000   1.0000

          k = 0.1667 0.0962 0.1912 (  5364 PWs)   bands (ev):

   -13.2889 -12.7841 -12.5594 -12.4198  -2.0786  -1.9441  -1.7582  -1.7222
    -1.6627  -1.6051  -1.5725  -1.5211  -1.4325  -1.4048  -1.3718  -1.3496
    -1.2476  -1.2187  -1.1986  -1.1172  -1.0991  -1.0759  -1.0279  -1.0159
     0.1442   0.2849   0.4346   1.6170   1.9422   2.2667   2.4679   2.6511
     2.7552   2.8434   3.0874   3.1973

     occupation numbers 
     1.0000   1.0000   1.0000   1.0000   1.0000   1.0000   1.0000   1.0000
     1.0000   1.0000   1.0000   1.0000   1.0000   1.0000   1.0000   1.0000
     1.0000   1.0000   1.0000   1.0000   1.0000   1.0000   1.0000   1.0000
     1.0000   1.0000   1.0000   1.0000   1.0000   1.0000   1.0000   1.0000
     1.0000   1.0000   1.0000   1.0000

          k = 0.1667 0.0962 0.3824 (  5366 PWs)   bands (ev):

   -13.2792 -12.7888 -12.5468 -12.4380  -2.0798  -1.9439  -1.7665  -1.7266
    -1.6662  -1.6247  -1.5857  -1.5169  -1.4750  -1.4313  -1.3715  -1.3649
    -1.2689  -1.2067  -1.2032  -1.1382  -1.0956  -1.0698  -1.0436  -1.0240
     0.1227   0.3363   0.6979   1.7278   1.9632   2.0503   2.4057   2.5849
     2.8047   2.8827   3.0251   3.1533

     occupation numbers 
     1.0000   1.0000   1.0000   1.0000   1.0000   1.0000   1.0000   1.0000
     1.0000   1.0000   1.0000   1.0000   1.0000   1.0000   1.0000   1.0000
     1.0000   1.0000   1.0000   1.0000   1.0000   1.0000   1.0000   1.0000
     1.0000   1.0000   1.0000   1.0000   1.0000   1.0000   1.0000   1.0000
     1.0000   1.0000   1.0000   1.0000

          k = 0.1667 0.0962-0.5736 (  5372 PWs)   bands (ev):

   -13.2743 -12.7911 -12.5391 -12.4487  -2.0805  -1.9439  -1.7730  -1.7291
    -1.6675  -1.6434  -1.5751  -1.5269  -1.4901  -1.4517  -1.3671  -1.3623
    -1.2794  -1.2112  -1.1914  -1.1607  -1.0860  -1.0654  -1.0508  -1.0292
     0.1054   0.3166   1.1357   1.2658   2.0463   2.2897   2.3332   2.4471
     2.8458   2.9204   2.9734   3.1249

     occupation numbers 
     1.0000   1.0000   1.0000   1.0000   1.0000   1.0000   1.0000   1.0000
     1.0000   1.0000   1.0000   1.0000   1.0000   1.0000   1.0000   1.0000
     1.0000   1.0000   1.0000   1.0000   1.0000   1.0000   1.0000   1.0000
     1.0000   1.0000   1.0000   1.0000   1.0000   1.0000   1.0000   1.0000
     1.0000   1.0000   1.0000   1.0000

          k = 0.1667 0.4811 0.0000 (  5363 PWs)   bands (ev):

   -13.2430 -12.7291 -12.5516 -12.4037  -2.0281  -1.9132  -1.7228  -1.6873
    -1.6296  -1.5811  -1.5285  -1.4956  -1.4591  -1.4205  -1.3720  -1.3311
    -1.3226  -1.2391  -1.1637  -1.1445  -1.1126  -1.0589  -1.0375  -0.9702
     0.3733   0.4966   0.7936   1.3767   1.5176   1.7025   1.9433   2.3406
     2.4835   2.6599   2.9293   3.0595

     occupation numbers 
     1.0000   1.0000   1.0000   1.0000   1.0000   1.0000   1.0000   1.0000
     1.0000   1.0000   1.0000   1.0000   1.0000   1.0000   1.0000   1.0000
     1.0000   1.0000   1.0000   1.0000   1.0000   1.0000   1.0000   1.0000
     1.0000   1.0000   1.0000   1.0000   1.0000   1.0000   1.0000   1.0000
     1.0000   1.0000   1.0000   1.0000

          k = 0.1667 0.4811 0.1912 (  5368 PWs)   bands (ev):

   -13.2398 -12.7294 -12.5459 -12.4121  -2.0263  -1.9126  -1.7389  -1.6870
    -1.6332  -1.5800  -1.5449  -1.5027  -1.4653  -1.4193  -1.3663  -1.3465
    -1.3246  -1.2394  -1.1796  -1.1522  -1.1013  -1.0654  -1.0358  -0.9883
     0.4564   0.4767   0.7714   1.4008   1.6261   1.7089   1.9803   2.2999
     2.5128   2.6502   2.9061   2.9966

     occupation numbers 
     1.0000   1.0000   1.0000   1.0000   1.0000   1.0000   1.0000   1.0000
     1.0000   1.0000   1.0000   1.0000   1.0000   1.0000   1.0000   1.0000
     1.0000   1.0000   1.0000   1.0000   1.0000   1.0000   1.0000   1.0000
     1.0000   1.0000   1.0000   1.0000   1.0000   1.0000   1.0000   1.0000
     1.0000   1.0000   1.0000   1.0000

          k = 0.1667 0.4811 0.3824 (  5372 PWs)   bands (ev):

   -13.2333 -12.7301 -12.5310 -12.4329  -2.0252  -1.9121  -1.7626  -1.6896
    -1.6371  -1.5915  -1.5652  -1.5246  -1.4692  -1.4230  -1.3765  -1.3663
    -1.3279  -1.2453  -1.1902  -1.1629  -1.0913  -1.0672  -1.0416  -1.0206
     0.4269   0.6278   0.8269   1.2857   1.7700   1.9307   2.1364   2.1990
     2.5473   2.5789   2.7692   2.8926

     occupation numbers 
     1.0000   1.0000   1.0000   1.0000   1.0000   1.0000   1.0000   1.0000
     1.0000   1.0000   1.0000   1.0000   1.0000   1.0000   1.0000   1.0000
     1.0000   1.0000   1.0000   1.0000   1.0000   1.0000   1.0000   1.0000
     1.0000   1.0000   1.0000   1.0000   1.0000   1.0000   1.0000   1.0000
     1.0000   1.0000   1.0000   1.0000

          k = 0.1667 0.4811-0.5736 (  5370 PWs)   bands (ev):

   -13.2299 -12.7305 -12.5198 -12.4471  -2.0262  -1.9122  -1.7701  -1.6934
    -1.6371  -1.6117  -1.5551  -1.5450  -1.4655  -1.4266  -1.4011  -1.3686
    -1.3218  -1.2540  -1.1834  -1.1731  -1.0840  -1.0656  -1.0486  -1.0349
     0.4103   0.6677   1.0427   1.0759   1.8549   2.0725   2.1740   2.3459
     2.4587   2.4973   2.6239   2.8628

     occupation numbers 
     1.0000   1.0000   1.0000   1.0000   1.0000   1.0000   1.0000   1.0000
     1.0000   1.0000   1.0000   1.0000   1.0000   1.0000   1.0000   1.0000
     1.0000   1.0000   1.0000   1.0000   1.0000   1.0000   1.0000   1.0000
     1.0000   1.0000   1.0000   1.0000   1.0000   1.0000   1.0000   1.0000
     1.0000   1.0000   1.0000   1.0000

          k = 0.1667 0.8660 0.0000 (  5344 PWs)   bands (ev):

   -13.1646 -12.6580 -12.4735 -12.3703  -1.9677  -1.8208  -1.6484  -1.6293
    -1.5834  -1.5596  -1.5144  -1.4678  -1.3864  -1.3666  -1.3213  -1.3072
    -1.2326  -1.1940  -1.1555  -1.1186  -1.0866  -1.0606  -1.0471  -0.9425
     0.2153   0.2739   0.5505   0.6808   1.2807   1.5172   1.9209   2.0210
     2.4755   2.5420   2.5921   2.8350

     occupation numbers 
     1.0000   1.0000   1.0000   1.0000   1.0000   1.0000   1.0000   1.0000
     1.0000   1.0000   1.0000   1.0000   1.0000   1.0000   1.0000   1.0000
     1.0000   1.0000   1.0000   1.0000   1.0000   1.0000   1.0000   1.0000
     1.0000   1.0000   1.0000   1.0000   1.0000   1.0000   1.0000   1.0000
     1.0000   1.0000   1.0000   1.0000

          k = 0.1667 0.8660 0.1912 (  5358 PWs)   bands (ev):

   -13.1631 -12.6567 -12.4712 -12.3747  -1.9662  -1.8218  -1.6668  -1.6367
    -1.5987  -1.5667  -1.5158  -1.4678  -1.3762  -1.3680  -1.3268  -1.3147
    -1.2330  -1.1946  -1.1444  -1.1206  -1.0938  -1.0676  -1.0459  -0.9543
     0.1833   0.2471   0.5220   0.6688   1.4089   1.6448   1.9520   2.0609
     2.3993   2.5172   2.6328   2.8355

     occupation numbers 
     1.0000   1.0000   1.0000   1.0000   1.0000   1.0000   1.0000   1.0000
     1.0000   1.0000   1.0000   1.0000   1.0000   1.0000   1.0000   1.0000
     1.0000   1.0000   1.0000   1.0000   1.0000   1.0000   1.0000   1.0000
     1.0000   1.0000   1.0000   1.0000   1.0000   1.0000   1.0000   1.0000
     1.0000   1.0000   1.0000   1.0000

          k = 0.1667 0.8660 0.3824 (  5360 PWs)   bands (ev):

   -13.1600 -12.6544 -12.4638 -12.3862  -1.9629  -1.8319  -1.6940  -1.6644
    -1.6073  -1.5729  -1.5217  -1.4762  -1.3846  -1.3722  -1.3360  -1.2984
    -1.2446  -1.2012  -1.1452  -1.1335  -1.0813  -1.0684  -1.0466  -0.9871
     0.1530   0.2540   0.4434   0.6162   1.7039   1.9334   2.0460   2.1723
     2.2808   2.4372   2.6081   2.7474

     occupation numbers 
     1.0000   1.0000   1.0000   1.0000   1.0000   1.0000   1.0000   1.0000
     1.0000   1.0000   1.0000   1.0000   1.0000   1.0000   1.0000   1.0000
     1.0000   1.0000   1.0000   1.0000   1.0000   1.0000   1.0000   1.0000
     1.0000   1.0000   1.0000   1.0000   1.0000   1.0000   1.0000   1.0000
     1.0000   1.0000   1.0000   1.0000

          k = 0.1667 0.8660-0.5736 (  5368 PWs)   bands (ev):

   -13.1583 -12.6534 -12.4578 -12.3942  -1.9605  -1.8425  -1.7041  -1.6761
    -1.6124  -1.5767  -1.5169  -1.4864  -1.3919  -1.3712  -1.3407  -1.2970
    -1.2450  -1.2135  -1.1482  -1.1378  -1.0806  -1.0497  -1.0417  -1.0179
     0.1508   0.2997   0.3766   0.5835   1.9403   1.9786   2.1454   2.2888
     2.3273   2.3864   2.5010   2.5701

     occupation numbers 
     1.0000   1.0000   1.0000   1.0000   1.0000   1.0000   1.0000   1.0000
     1.0000   1.0000   1.0000   1.0000   1.0000   1.0000   1.0000   1.0000
     1.0000   1.0000   1.0000   1.0000   1.0000   1.0000   1.0000   1.0000
     1.0000   1.0000   1.0000   1.0000   1.0000   1.0000   1.0000   1.0000
     1.0000   1.0000   1.0000   1.0000

          k = 0.1667-1.0585 0.0000 (  5334 PWs)   bands (ev):

   -13.1278 -12.6267 -12.4202 -12.3593  -1.9083  -1.8115  -1.6107  -1.5909
    -1.5569  -1.5215  -1.4805  -1.4334  -1.3454  -1.2999  -1.2590  -1.2442
    -1.2118  -1.1747  -1.1292  -1.1048  -1.0615  -1.0379  -0.9974  -0.9802
    -0.0932  -0.0490   0.2793   0.4548   1.4817   1.5735   1.7895   1.9200
     2.3658   2.4149   2.5459   2.6634

     occupation numbers 
     1.0000   1.0000   1.0000   1.0000   1.0000   1.0000   1.0000   1.0000
     1.0000   1.0000   1.0000   1.0000   1.0000   1.0000   1.0000   1.0000
     1.0000   1.0000   1.0000   1.0000   1.0000   1.0000   1.0000   1.0000
     1.0000   1.0000   1.0000   1.0000   1.0000   1.0000   1.0000   1.0000
     1.0000   1.0000   1.0000   1.0000

          k = 0.1667-1.0585 0.1912 (  5328 PWs)   bands (ev):

   -13.1269 -12.6249 -12.4211 -12.3600  -1.9082  -1.8204  -1.6218  -1.5963
    -1.5563  -1.5399  -1.4899  -1.4315  -1.3476  -1.2886  -1.2723  -1.2441
    -1.2124  -1.1678  -1.1410  -1.0912  -1.0658  -1.0391  -1.0000  -0.9870
    -0.1100  -0.0480   0.2207   0.4284   1.5654   1.6891   1.8509   1.9612
     2.3165   2.4129   2.5753   2.6661

     occupation numbers 
     1.0000   1.0000   1.0000   1.0000   1.0000   1.0000   1.0000   1.0000
     1.0000   1.0000   1.0000   1.0000   1.0000   1.0000   1.0000   1.0000
     1.0000   1.0000   1.0000   1.0000   1.0000   1.0000   1.0000   1.0000
     1.0000   1.0000   1.0000   1.0000   1.0000   1.0000   1.0000   1.0000
     1.0000   1.0000   1.0000   1.0000

          k = 0.1667-1.0585 0.3824 (  5342 PWs)   bands (ev):

   -13.1252 -12.6213 -12.4230 -12.3614  -1.9074  -1.8352  -1.6583  -1.5982
    -1.5820  -1.5531  -1.4973  -1.4321  -1.3473  -1.3021  -1.2709  -1.2539
    -1.2076  -1.1583  -1.1440  -1.0852  -1.0642  -1.0370  -1.0152  -0.9941
    -0.1356  -0.0259   0.1098   0.3620   1.7425   1.9135   1.9813   2.1000
     2.2452   2.3634   2.5826   2.6504

     occupation numbers 
     1.0000   1.0000   1.0000   1.0000   1.0000   1.0000   1.0000   1.0000
     1.0000   1.0000   1.0000   1.0000   1.0000   1.0000   1.0000   1.0000
     1.0000   1.0000   1.0000   1.0000   1.0000   1.0000   1.0000   1.0000
     1.0000   1.0000   1.0000   1.0000   1.0000   1.0000   1.0000   1.0000
     1.0000   1.0000   1.0000   1.0000

          k = 0.1667-1.0585-0.5736 (  5348 PWs)   bands (ev):

   -13.1244 -12.6195 -12.4239 -12.3622  -1.9068  -1.8400  -1.6829  -1.6066
    -1.5893  -1.5520  -1.5002  -1.4367  -1.3454  -1.3082  -1.2717  -1.2657
    -1.1979  -1.1661  -1.1255  -1.0858  -1.0708  -1.0383  -1.0117  -1.0020
    -0.1369  -0.0182   0.0612   0.3226   1.8521   2.0010   2.0552   2.1310
     2.3158   2.3671   2.5028   2.6138

     occupation numbers 
     1.0000   1.0000   1.0000   1.0000   1.0000   1.0000   1.0000   1.0000
     1.0000   1.0000   1.0000   1.0000   1.0000   1.0000   1.0000   1.0000
     1.0000   1.0000   1.0000   1.0000   1.0000   1.0000   1.0000   1.0000
     1.0000   1.0000   1.0000   1.0000   1.0000   1.0000   1.0000   1.0000
     1.0000   1.0000   1.0000   1.0000

          k = 0.1667-0.6736 0.0000 (  5361 PWs)   bands (ev):

   -13.1709 -12.6675 -12.4608 -12.3681  -1.9573  -1.8171  -1.6568  -1.6237
    -1.6043  -1.5212  -1.5049  -1.4209  -1.3866  -1.3581  -1.3214  -1.2936
    -1.2243  -1.1866  -1.1614  -1.1225  -1.0731  -1.0351  -0.9998  -0.9386
     0.0804   0.4449   0.5574   0.8766   1.0525   1.3937   1.8342   1.9331
     2.2463   2.3628   2.7293   2.9044

     occupation numbers 
     1.0000   1.0000   1.0000   1.0000   1.0000   1.0000   1.0000   1.0000
     1.0000   1.0000   1.0000   1.0000   1.0000   1.0000   1.0000   1.0000
     1.0000   1.0000   1.0000   1.0000   1.0000   1.0000   1.0000   1.0000
     1.0000   1.0000   1.0000   1.0000   1.0000   1.0000   1.0000   1.0000
     1.0000   1.0000   1.0000   1.0000

          k = 0.1667-0.6736 0.1912 (  5347 PWs)   bands (ev):

   -13.1689 -12.6666 -12.4590 -12.3721  -1.9557  -1.8249  -1.6459  -1.6283
    -1.6107  -1.5402  -1.5177  -1.4245  -1.3957  -1.3515  -1.3288  -1.3025
    -1.2366  -1.1881  -1.1678  -1.1118  -1.0727  -1.0489  -0.9952  -0.9439
     0.0618   0.4460   0.5579   0.9007   1.0655   1.4905   1.7938   2.0322
     2.2568   2.4149   2.7054   2.8464

     occupation numbers 
     1.0000   1.0000   1.0000   1.0000   1.0000   1.0000   1.0000   1.0000
     1.0000   1.0000   1.0000   1.0000   1.0000   1.0000   1.0000   1.0000
     1.0000   1.0000   1.0000   1.0000   1.0000   1.0000   1.0000   1.0000
     1.0000   1.0000   1.0000   1.0000   1.0000   1.0000   1.0000   1.0000
     1.0000   1.0000   1.0000   1.0000

          k = 0.1667-0.6736 0.3824 (  5352 PWs)   bands (ev):

   -13.1651 -12.6650 -12.4552 -12.3801  -1.9498  -1.8354  -1.6662  -1.6401
    -1.6211  -1.5471  -1.5336  -1.4290  -1.4138  -1.3740  -1.3228  -1.3070
    -1.2653  -1.1962  -1.1535  -1.1047  -1.0875  -1.0594  -0.9834  -0.9516
     0.0294   0.3928   0.6088   0.8320   1.1920   1.6394   1.8034   2.2141
     2.3317   2.4801   2.6350   2.7194

     occupation numbers 
     1.0000   1.0000   1.0000   1.0000   1.0000   1.0000   1.0000   1.0000
     1.0000   1.0000   1.0000   1.0000   1.0000   1.0000   1.0000   1.0000
     1.0000   1.0000   1.0000   1.0000   1.0000   1.0000   1.0000   1.0000
     1.0000   1.0000   1.0000   1.0000   1.0000   1.0000   1.0000   1.0000
     1.0000   1.0000   1.0000   1.0000

          k = 0.1667-0.6736-0.5736 (  5352 PWs)   bands (ev):

   -13.1633 -12.6642 -12.4532 -12.3839  -1.9451  -1.8378  -1.6991  -1.6461
    -1.6136  -1.5602  -1.5202  -1.4370  -1.4210  -1.3878  -1.3260  -1.3007
    -1.2695  -1.2055  -1.1426  -1.1149  -1.0872  -1.0628  -0.9751  -0.9560
     0.0162   0.3564   0.6628   0.7553   1.3285   1.4994   2.0775   2.2103
     2.3960   2.4842   2.6011   2.6419

     occupation numbers 
     1.0000   1.0000   1.0000   1.0000   1.0000   1.0000   1.0000   1.0000
     1.0000   1.0000   1.0000   1.0000   1.0000   1.0000   1.0000   1.0000
     1.0000   1.0000   1.0000   1.0000   1.0000   1.0000   1.0000   1.0000
     1.0000   1.0000   1.0000   1.0000   1.0000   1.0000   1.0000   1.0000
     1.0000   1.0000   1.0000   1.0000

          k = 0.1667-0.2887 0.0000 (  5367 PWs)   bands (ev):

   -13.2583 -12.7517 -12.5225 -12.3916  -2.0472  -1.8908  -1.7282  -1.7117
    -1.6319  -1.5928  -1.5365  -1.4498  -1.4231  -1.3811  -1.3554  -1.2725
    -1.2538  -1.1884  -1.1377  -1.1212  -1.0977  -1.0475  -1.0093  -0.9996
     0.0976   0.2328   0.3913   1.2765   1.7652   1.9255   2.2088   2.3098
     2.4719   2.7841   3.0786   3.1073

     occupation numbers 
     1.0000   1.0000   1.0000   1.0000   1.0000   1.0000   1.0000   1.0000
     1.0000   1.0000   1.0000   1.0000   1.0000   1.0000   1.0000   1.0000
     1.0000   1.0000   1.0000   1.0000   1.0000   1.0000   1.0000   1.0000
     1.0000   1.0000   1.0000   1.0000   1.0000   1.0000   1.0000   1.0000
     1.0000   1.0000   1.0000   1.0000

          k = 0.1667-0.2887 0.1912 (  5367 PWs)   bands (ev):

   -13.2541 -12.7534 -12.5188 -12.3977  -2.0478  -1.8911  -1.7351  -1.7129
    -1.6274  -1.5953  -1.5461  -1.4660  -1.4425  -1.3907  -1.3550  -1.2747
    -1.2609  -1.1823  -1.1498  -1.1289  -1.0985  -1.0671  -1.0102  -0.9897
     0.0718   0.3439   0.3992   1.3447   1.8192   1.9007   2.1234   2.3286
     2.4828   2.8033   3.0038   3.0899

     occupation numbers 
     1.0000   1.0000   1.0000   1.0000   1.0000   1.0000   1.0000   1.0000
     1.0000   1.0000   1.0000   1.0000   1.0000   1.0000   1.0000   1.0000
     1.0000   1.0000   1.0000   1.0000   1.0000   1.0000   1.0000   1.0000
     1.0000   1.0000   1.0000   1.0000   1.0000   1.0000   1.0000   1.0000
     1.0000   1.0000   1.0000   1.0000

          k = 0.1667-0.2887 0.3824 (  5358 PWs)   bands (ev):

   -13.2458 -12.7570 -12.5108 -12.4105  -2.0466  -1.8909  -1.7600  -1.7060
    -1.6305  -1.5896  -1.5798  -1.4870  -1.4739  -1.4130  -1.3526  -1.2838
    -1.2691  -1.1971  -1.1552  -1.1409  -1.0983  -1.0691  -1.0062  -0.9858
     0.0350   0.2797   0.7559   1.4105   1.6249   1.9115   2.1620   2.4209
     2.5122   2.8288   2.8711   3.0484

     occupation numbers 
     1.0000   1.0000   1.0000   1.0000   1.0000   1.0000   1.0000   1.0000
     1.0000   1.0000   1.0000   1.0000   1.0000   1.0000   1.0000   1.0000
     1.0000   1.0000   1.0000   1.0000   1.0000   1.0000   1.0000   1.0000
     1.0000   1.0000   1.0000   1.0000   1.0000   1.0000   1.0000   1.0000
     1.0000   1.0000   1.0000   1.0000

          k = 0.1667-0.2887-0.5736 (  5354 PWs)   bands (ev):

   -13.2416 -12.7588 -12.5063 -12.4173  -2.0446  -1.8904  -1.7745  -1.7018
    -1.6384  -1.6097  -1.5582  -1.5193  -1.4778  -1.4207  -1.3539  -1.2930
    -1.2667  -1.2048  -1.1575  -1.1412  -1.1012  -1.0660  -1.0003  -0.9873
     0.0216   0.2525   1.1135   1.1963   1.5669   1.8161   2.3198   2.4407
     2.6243   2.6998   2.8751   3.0170

     occupation numbers 
     1.0000   1.0000   1.0000   1.0000   1.0000   1.0000   1.0000   1.0000
     1.0000   1.0000   1.0000   1.0000   1.0000   1.0000   1.0000   1.0000
     1.0000   1.0000   1.0000   1.0000   1.0000   1.0000   1.0000   1.0000
     1.0000   1.0000   1.0000   1.0000   1.0000   1.0000   1.0000   1.0000
     1.0000   1.0000   1.0000   1.0000

          k = 0.3333 0.1925 0.0000 (  5356 PWs)   bands (ev):

   -13.2802 -12.7634 -12.5891 -12.4229  -2.0839  -1.9357  -1.7511  -1.6979
    -1.6585  -1.6036  -1.5625  -1.5241  -1.4623  -1.4379  -1.3936  -1.3690
    -1.2733  -1.2488  -1.2058  -1.1564  -1.0938  -1.0746  -1.0182  -0.9934
     0.2398   0.5264   0.7703   1.3778   1.9585   2.0444   2.2760   2.5738
     2.6821   2.7454   3.0594   3.1487

     occupation numbers 
     1.0000   1.0000   1.0000   1.0000   1.0000   1.0000   1.0000   1.0000
     1.0000   1.0000   1.0000   1.0000   1.0000   1.0000   1.0000   1.0000
     1.0000   1.0000   1.0000   1.0000   1.0000   1.0000   1.0000   1.0000
     1.0000   1.0000   1.0000   1.0000   1.0000   1.0000   1.0000   1.0000
     1.0000   1.0000   1.0000   1.0000

          k = 0.3333 0.1925 0.1912 (  5369 PWs)   bands (ev):

   -13.2762 -12.7644 -12.5821 -12.4331  -2.0848  -1.9352  -1.7538  -1.7004
    -1.6602  -1.6096  -1.5756  -1.5224  -1.4753  -1.4384  -1.3973  -1.3775
    -1.2870  -1.2567  -1.2081  -1.1606  -1.0925  -1.0722  -1.0238  -1.0206
     0.3661   0.5231   0.7516   1.5260   1.8635   2.0678   2.2861   2.5595
     2.6823   2.7433   2.9920   3.1113

     occupation numbers 
     1.0000   1.0000   1.0000   1.0000   1.0000   1.0000   1.0000   1.0000
     1.0000   1.0000   1.0000   1.0000   1.0000   1.0000   1.0000   1.0000
     1.0000   1.0000   1.0000   1.0000   1.0000   1.0000   1.0000   1.0000
     1.0000   1.0000   1.0000   1.0000   1.0000   1.0000   1.0000   1.0000
     1.0000   1.0000   1.0000   1.0000

          k = 0.3333 0.1925 0.3824 (  5395 PWs)   bands (ev):

   -13.2681 -12.7664 -12.5643 -12.4577  -2.0865  -1.9344  -1.7642  -1.7050
    -1.6651  -1.6302  -1.5845  -1.5261  -1.4967  -1.4503  -1.3984  -1.3902
    -1.3308  -1.2451  -1.2119  -1.1772  -1.0902  -1.0729  -1.0566  -1.0293
     0.4864   0.6027   0.8365   1.5330   1.9132   2.1256   2.3725   2.5139
     2.5925   2.7510   2.8430   3.0388

     occupation numbers 
     1.0000   1.0000   1.0000   1.0000   1.0000   1.0000   1.0000   1.0000
     1.0000   1.0000   1.0000   1.0000   1.0000   1.0000   1.0000   1.0000
     1.0000   1.0000   1.0000   1.0000   1.0000   1.0000   1.0000   1.0000
     1.0000   1.0000   1.0000   1.0000   1.0000   1.0000   1.0000   1.0000
     1.0000   1.0000   1.0000   1.0000

          k = 0.3333 0.1925-0.5736 (  5396 PWs)   bands (ev):

   -13.2640 -12.7674 -12.5514 -12.4741  -2.0874  -1.9340  -1.7721  -1.7076
    -1.6678  -1.6445  -1.5771  -1.5437  -1.4896  -1.4652  -1.4081  -1.3908
    -1.3322  -1.2566  -1.2130  -1.1849  -1.0892  -1.0719  -1.0629  -1.0348
     0.4739   0.6500   1.1308   1.2139   2.1412   2.2386   2.3440   2.4784
     2.5507   2.6175   2.8423   2.9934

     occupation numbers 
     1.0000   1.0000   1.0000   1.0000   1.0000   1.0000   1.0000   1.0000
     1.0000   1.0000   1.0000   1.0000   1.0000   1.0000   1.0000   1.0000
     1.0000   1.0000   1.0000   1.0000   1.0000   1.0000   1.0000   1.0000
     1.0000   1.0000   1.0000   1.0000   1.0000   1.0000   1.0000   1.0000
     1.0000   1.0000   1.0000   1.0000

          k = 0.3333 0.5774 0.0000 (  5350 PWs)   bands (ev):

   -13.2375 -12.7213 -12.5621 -12.4076  -2.0444  -1.8919  -1.7147  -1.6692
    -1.6267  -1.5875  -1.5500  -1.5052  -1.4878  -1.4276  -1.3909  -1.3444
    -1.3208  -1.2411  -1.1713  -1.1529  -1.1208  -1.0622  -1.0380  -0.9650
     0.4803   0.6172   1.0226   1.1656   1.4674   1.5778   2.0862   2.2247
     2.5143   2.6963   2.7872   3.0403

     occupation numbers 
     1.0000   1.0000   1.0000   1.0000   1.0000   1.0000   1.0000   1.0000
     1.0000   1.0000   1.0000   1.0000   1.0000   1.0000   1.0000   1.0000
     1.0000   1.0000   1.0000   1.0000   1.0000   1.0000   1.0000   1.0000
     1.0000   1.0000   1.0000   1.0000   1.0000   1.0000   1.0000   1.0000
     1.0000   1.0000   1.0000   1.0000

          k = 0.3333 0.5774 0.1912 (  5362 PWs)   bands (ev):

   -13.2346 -12.7208 -12.5564 -12.4166  -2.0429  -1.8921  -1.7298  -1.6691
    -1.6328  -1.5914  -1.5628  -1.5068  -1.4914  -1.4185  -1.3930  -1.3532
    -1.3300  -1.2442  -1.1799  -1.1663  -1.1069  -1.0649  -1.0453  -0.9833
     0.5273   0.6165   1.0216   1.1440   1.5691   1.6699   2.0999   2.2394
     2.4683   2.6826   2.7820   2.9795

     occupation numbers 
     1.0000   1.0000   1.0000   1.0000   1.0000   1.0000   1.0000   1.0000
     1.0000   1.0000   1.0000   1.0000   1.0000   1.0000   1.0000   1.0000
     1.0000   1.0000   1.0000   1.0000   1.0000   1.0000   1.0000   1.0000
     1.0000   1.0000   1.0000   1.0000   1.0000   1.0000   1.0000   1.0000
     1.0000   1.0000   1.0000   1.0000

          k = 0.3333 0.5774 0.3824 (  5378 PWs)   bands (ev):

   -13.2287 -12.7204 -12.5394 -12.4399  -2.0428  -1.8915  -1.7521  -1.6700
    -1.6485  -1.5977  -1.5809  -1.5312  -1.4892  -1.4296  -1.3883  -1.3659
    -1.3436  -1.2510  -1.1933  -1.1761  -1.0924  -1.0705  -1.0557  -1.0177
     0.6218   0.6847   0.9722   1.0609   1.8145   1.9455   2.1421   2.2955
     2.3933   2.5932   2.7094   2.7856

     occupation numbers 
     1.0000   1.0000   1.0000   1.0000   1.0000   1.0000   1.0000   1.0000
     1.0000   1.0000   1.0000   1.0000   1.0000   1.0000   1.0000   1.0000
     1.0000   1.0000   1.0000   1.0000   1.0000   1.0000   1.0000   1.0000
     1.0000   1.0000   1.0000   1.0000   1.0000   1.0000   1.0000   1.0000
     1.0000   1.0000   1.0000   1.0000

          k = 0.3333 0.5774-0.5736 (  5376 PWs)   bands (ev):

   -13.2256 -12.7207 -12.5248 -12.4573  -2.0442  -1.8903  -1.7597  -1.6702
    -1.6570  -1.6176  -1.5722  -1.5509  -1.4837  -1.4418  -1.3867  -1.3748
    -1.3450  -1.2589  -1.1938  -1.1797  -1.0898  -1.0670  -1.0533  -1.0414
     0.6581   0.8195   0.8768   0.9988   2.0044   2.1117   2.2541   2.3414
     2.4125   2.4555   2.5052   2.6791

     occupation numbers 
     1.0000   1.0000   1.0000   1.0000   1.0000   1.0000   1.0000   1.0000
     1.0000   1.0000   1.0000   1.0000   1.0000   1.0000   1.0000   1.0000
     1.0000   1.0000   1.0000   1.0000   1.0000   1.0000   1.0000   1.0000
     1.0000   1.0000   1.0000   1.0000   1.0000   1.0000   1.0000   1.0000
     1.0000   1.0000   1.0000   1.0000

          k = 0.3333-0.9623 0.0000 (  5340 PWs)   bands (ev):

   -13.1285 -12.6280 -12.4198 -12.3597  -1.9005  -1.7829  -1.6018  -1.5842
    -1.5404  -1.4915  -1.4664  -1.4283  -1.3556  -1.3045  -1.2870  -1.2703
    -1.2587  -1.2047  -1.1436  -1.1241  -1.0389  -1.0245  -0.9877  -0.9642
     0.0526   0.1169   0.3786   0.5484   1.3654   1.4803   1.6550   1.7610
     2.1471   2.2652   2.5161   2.6974

     occupation numbers 
     1.0000   1.0000   1.0000   1.0000   1.0000   1.0000   1.0000   1.0000
     1.0000   1.0000   1.0000   1.0000   1.0000   1.0000   1.0000   1.0000
     1.0000   1.0000   1.0000   1.0000   1.0000   1.0000   1.0000   1.0000
     1.0000   1.0000   1.0000   1.0000   1.0000   1.0000   1.0000   1.0000
     1.0000   1.0000   1.0000   1.0000

          k = 0.3333-0.9623 0.1912 (  5340 PWs)   bands (ev):

   -13.1276 -12.6261 -12.4209 -12.3604  -1.8993  -1.7908  -1.6092  -1.5887
    -1.5402  -1.5084  -1.4803  -1.4282  -1.3573  -1.3069  -1.2953  -1.2788
    -1.2527  -1.2058  -1.1394  -1.1093  -1.0443  -1.0315  -0.9858  -0.9749
     0.0253   0.1315   0.3167   0.5318   1.4003   1.5729   1.7250   1.8525
     2.1104   2.2422   2.5531   2.7030

     occupation numbers 
     1.0000   1.0000   1.0000   1.0000   1.0000   1.0000   1.0000   1.0000
     1.0000   1.0000   1.0000   1.0000   1.0000   1.0000   1.0000   1.0000
     1.0000   1.0000   1.0000   1.0000   1.0000   1.0000   1.0000   1.0000
     1.0000   1.0000   1.0000   1.0000   1.0000   1.0000   1.0000   1.0000
     1.0000   1.0000   1.0000   1.0000

          k = 0.3333-0.9623 0.3824 (  5338 PWs)   bands (ev):

   -13.1259 -12.6223 -12.4232 -12.3617  -1.8966  -1.8038  -1.6357  -1.5866
    -1.5522  -1.5431  -1.4903  -1.4339  -1.3545  -1.3387  -1.3053  -1.2938
    -1.2448  -1.1846  -1.1279  -1.0887  -1.0581  -1.0320  -1.0006  -0.9883
    -0.0001   0.1508   0.2170   0.4760   1.5042   1.7103   1.8905   1.9317
     2.1635   2.2195   2.5800   2.6827

     occupation numbers 
     1.0000   1.0000   1.0000   1.0000   1.0000   1.0000   1.0000   1.0000
     1.0000   1.0000   1.0000   1.0000   1.0000   1.0000   1.0000   1.0000
     1.0000   1.0000   1.0000   1.0000   1.0000   1.0000   1.0000   1.0000
     1.0000   1.0000   1.0000   1.0000   1.0000   1.0000   1.0000   1.0000
     1.0000   1.0000   1.0000   1.0000

          k = 0.3333-0.9623-0.5736 (  5332 PWs)   bands (ev):

   -13.1250 -12.6204 -12.4244 -12.3624  -1.8953  -1.8076  -1.6566  -1.5846
    -1.5618  -1.5504  -1.4930  -1.4424  -1.3668  -1.3383  -1.3126  -1.3009
    -1.2405  -1.1767  -1.1067  -1.0847  -1.0674  -1.0356  -1.0092  -0.9932
    -0.0002   0.1307   0.2020   0.4393   1.5891   1.7768   1.8530   1.9568
     2.2227   2.3725   2.5274   2.6361

     occupation numbers 
     1.0000   1.0000   1.0000   1.0000   1.0000   1.0000   1.0000   1.0000
     1.0000   1.0000   1.0000   1.0000   1.0000   1.0000   1.0000   1.0000
     1.0000   1.0000   1.0000   1.0000   1.0000   1.0000   1.0000   1.0000
     1.0000   1.0000   1.0000   1.0000   1.0000   1.0000   1.0000   1.0000
     1.0000   1.0000   1.0000   1.0000

          k = 0.3333-0.5774 0.0000 (  5339 PWs)   bands (ev):

   -13.1727 -12.6714 -12.4566 -12.3668  -1.9739  -1.7847  -1.6485  -1.6258
    -1.6063  -1.5361  -1.5053  -1.4352  -1.3620  -1.3483  -1.3229  -1.2927
    -1.2244  -1.1729  -1.1599  -1.1194  -1.0757  -1.0249  -0.9693  -0.9378
     0.1639   0.3753   0.5218   0.7963   1.0759   1.4319   1.7349   2.1139
     2.1544   2.2566   2.6838   2.9310

     occupation numbers 
     1.0000   1.0000   1.0000   1.0000   1.0000   1.0000   1.0000   1.0000
     1.0000   1.0000   1.0000   1.0000   1.0000   1.0000   1.0000   1.0000
     1.0000   1.0000   1.0000   1.0000   1.0000   1.0000   1.0000   1.0000
     1.0000   1.0000   1.0000   1.0000   1.0000   1.0000   1.0000   1.0000
     1.0000   1.0000   1.0000   1.0000

          k = 0.3333-0.5774 0.1912 (  5348 PWs)   bands (ev):

   -13.1706 -12.6708 -12.4552 -12.3704  -1.9719  -1.7923  -1.6419  -1.6303
    -1.6030  -1.5564  -1.5241  -1.4420  -1.3746  -1.3503  -1.3140  -1.2887
    -1.2381  -1.1846  -1.1657  -1.1220  -1.0722  -1.0373  -0.9652  -0.9379
     0.1365   0.3668   0.5634   0.8561   1.0351   1.5343   1.6770   2.1618
     2.2145   2.3235   2.6604   2.8661

     occupation numbers 
     1.0000   1.0000   1.0000   1.0000   1.0000   1.0000   1.0000   1.0000
     1.0000   1.0000   1.0000   1.0000   1.0000   1.0000   1.0000   1.0000
     1.0000   1.0000   1.0000   1.0000   1.0000   1.0000   1.0000   1.0000
     1.0000   1.0000   1.0000   1.0000   1.0000   1.0000   1.0000   1.0000
     1.0000   1.0000   1.0000   1.0000

          k = 0.3333-0.5774 0.3824 (  5353 PWs)   bands (ev):

   -13.1666 -12.6694 -12.4529 -12.3768  -1.9668  -1.8034  -1.6646  -1.6299
    -1.6085  -1.5732  -1.5392  -1.4474  -1.4088  -1.3571  -1.3101  -1.2826
    -1.2762  -1.1899  -1.1541  -1.1219  -1.0741  -1.0672  -0.9545  -0.9346
     0.0855   0.3286   0.6475   0.8890   1.0541   1.5177   1.8310   2.2074
     2.3491   2.4683   2.6031   2.7167

     occupation numbers 
     1.0000   1.0000   1.0000   1.0000   1.0000   1.0000   1.0000   1.0000
     1.0000   1.0000   1.0000   1.0000   1.0000   1.0000   1.0000   1.0000
     1.0000   1.0000   1.0000   1.0000   1.0000   1.0000   1.0000   1.0000
     1.0000   1.0000   1.0000   1.0000   1.0000   1.0000   1.0000   1.0000
     1.0000   1.0000   1.0000   1.0000

          k = 0.3333-0.5774-0.5736 (  5340 PWs)   bands (ev):

   -13.1647 -12.6687 -12.4521 -12.3796  -1.9639  -1.8062  -1.6863  -1.6391
    -1.6095  -1.5750  -1.5268  -1.4458  -1.4372  -1.3650  -1.3147  -1.2909
    -1.2717  -1.1965  -1.1374  -1.1106  -1.0958  -1.0773  -0.9479  -0.9331
     0.0625   0.3059   0.6952   0.8365   1.1772   1.3774   2.0861   2.1988
     2.3840   2.4941   2.5799   2.6504

     occupation numbers 
     1.0000   1.0000   1.0000   1.0000   1.0000   1.0000   1.0000   1.0000
     1.0000   1.0000   1.0000   1.0000   1.0000   1.0000   1.0000   1.0000
     1.0000   1.0000   1.0000   1.0000   1.0000   1.0000   1.0000   1.0000
     1.0000   1.0000   1.0000   1.0000   1.0000   1.0000   1.0000   1.0000
     1.0000   1.0000   1.0000   1.0000

          k =-0.5000-0.2887 0.0000 (  5398 PWs)   bands (ev):

   -13.2733 -12.7527 -12.6026 -12.4288  -2.0879  -1.9304  -1.7486  -1.6788
    -1.6691  -1.5956  -1.5739  -1.5101  -1.4990  -1.4561  -1.4048  -1.3899
    -1.2925  -1.2526  -1.2119  -1.1653  -1.0987  -1.0760  -1.0197  -0.9856
     0.3670   0.5698   1.1413   1.4613   1.5994   1.8547   2.1447   2.5680
     2.7203   2.7418   3.0057   3.1280

     occupation numbers 
     1.0000   1.0000   1.0000   1.0000   1.0000   1.0000   1.0000   1.0000
     1.0000   1.0000   1.0000   1.0000   1.0000   1.0000   1.0000   1.0000
     1.0000   1.0000   1.0000   1.0000   1.0000   1.0000   1.0000   1.0000
     1.0000   1.0000   1.0000   1.0000   1.0000   1.0000   1.0000   1.0000
     1.0000   1.0000   1.0000   1.0000

          k =-0.5000-0.2887 0.1912 (  5380 PWs)   bands (ev):

   -13.2697 -12.7524 -12.5956 -12.4399  -2.0888  -1.9297  -1.7553  -1.6818
    -1.6709  -1.6027  -1.5768  -1.5114  -1.5077  -1.4584  -1.4052  -1.3885
    -1.3139  -1.2660  -1.2142  -1.1732  -1.0952  -1.0750  -1.0235  -1.0152
     0.4620   0.6292   1.1493   1.3951   1.6798   1.8915   2.1670   2.5775
     2.6930   2.7306   2.9518   3.0661

     occupation numbers 
     1.0000   1.0000   1.0000   1.0000   1.0000   1.0000   1.0000   1.0000
     1.0000   1.0000   1.0000   1.0000   1.0000   1.0000   1.0000   1.0000
     1.0000   1.0000   1.0000   1.0000   1.0000   1.0000   1.0000   1.0000
     1.0000   1.0000   1.0000   1.0000   1.0000   1.0000   1.0000   1.0000
     1.0000   1.0000   1.0000   1.0000

          k =-0.5000-0.2887 0.3824 (  5386 PWs)   bands (ev):

   -13.2624 -12.7530 -12.5751 -12.4677  -2.0906  -1.9284  -1.7668  -1.6875
    -1.6738  -1.6258  -1.5810  -1.5414  -1.5008  -1.4652  -1.4066  -1.3920
    -1.3622  -1.2689  -1.2175  -1.1879  -1.0895  -1.0769  -1.0555  -1.0315
     0.6532   0.7656   1.1215   1.2247   1.9277   2.0531   2.2204   2.5568
     2.5899   2.7127   2.7542   2.9698

     occupation numbers 
     1.0000   1.0000   1.0000   1.0000   1.0000   1.0000   1.0000   1.0000
     1.0000   1.0000   1.0000   1.0000   1.0000   1.0000   1.0000   1.0000
     1.0000   1.0000   1.0000   1.0000   1.0000   1.0000   1.0000   1.0000
     1.0000   1.0000   1.0000   1.0000   1.0000   1.0000   1.0000   1.0000
     1.0000   1.0000   1.0000   1.0000

          k =-0.5000-0.2887-0.5736 (  5388 PWs)   bands (ev):

   -13.2587 -12.7538 -12.5577 -12.4884  -2.0916  -1.9277  -1.7711  -1.6886
    -1.6720  -1.6495  -1.5786  -1.5599  -1.4949  -1.4709  -1.4060  -1.4010
    -1.3752  -1.2725  -1.2190  -1.1924  -1.0904  -1.0753  -1.0663  -1.0373
     0.7442   0.9354   1.0097   1.1179   2.1584   2.2368   2.3509   2.3970
     2.4065   2.5746   2.7713   2.9157

     occupation numbers 
     1.0000   1.0000   1.0000   1.0000   1.0000   1.0000   1.0000   1.0000
     1.0000   1.0000   1.0000   1.0000   1.0000   1.0000   1.0000   1.0000
     1.0000   1.0000   1.0000   1.0000   1.0000   1.0000   1.0000   1.0000
     1.0000   1.0000   1.0000   1.0000   1.0000   1.0000   1.0000   1.0000
     1.0000   1.0000   1.0000   1.0000

          k =-0.5000-1.4434 0.0000 (  5332 PWs)   bands (ev):

   -13.1289 -12.6286 -12.4196 -12.3599  -1.8966  -1.7674  -1.5986  -1.5674
    -1.5521  -1.4700  -1.4494  -1.4191  -1.3656  -1.3214  -1.3057  -1.2795
    -1.2627  -1.2369  -1.1478  -1.1271  -1.0387  -1.0182  -0.9797  -0.9555
     0.1441   0.2435   0.4108   0.6003   1.2356   1.4923   1.5297   1.7119
     2.0475   2.1715   2.5102   2.7125

     occupation numbers 
     1.0000   1.0000   1.0000   1.0000   1.0000   1.0000   1.0000   1.0000
     1.0000   1.0000   1.0000   1.0000   1.0000   1.0000   1.0000   1.0000
     1.0000   1.0000   1.0000   1.0000   1.0000   1.0000   1.0000   1.0000
     1.0000   1.0000   1.0000   1.0000   1.0000   1.0000   1.0000   1.0000
     1.0000   1.0000   1.0000   1.0000

          k =-0.5000-1.4434 0.1912 (  5348 PWs)   bands (ev):

   -13.1280 -12.6267 -12.4208 -12.3606  -1.8948  -1.7726  -1.6008  -1.5752
    -1.5551  -1.4944  -1.4576  -1.4228  -1.3731  -1.3287  -1.3133  -1.2773
    -1.2692  -1.2225  -1.1385  -1.1218  -1.0413  -1.0225  -0.9838  -0.9642
     0.1239   0.2272   0.3867   0.5742   1.2669   1.5175   1.6521   1.8088
     2.0234   2.1429   2.5447   2.7223

     occupation numbers 
     1.0000   1.0000   1.0000   1.0000   1.0000   1.0000   1.0000   1.0000
     1.0000   1.0000   1.0000   1.0000   1.0000   1.0000   1.0000   1.0000
     1.0000   1.0000   1.0000   1.0000   1.0000   1.0000   1.0000   1.0000
     1.0000   1.0000   1.0000   1.0000   1.0000   1.0000   1.0000   1.0000
     1.0000   1.0000   1.0000   1.0000

          k =-0.5000-1.4434 0.3824 (  5336 PWs)   bands (ev):

   -13.1262 -12.6228 -12.4233 -12.3618  -1.8912  -1.7842  -1.6241  -1.5781
    -1.5569  -1.5275  -1.4666  -1.4387  -1.3860  -1.3503  -1.3241  -1.2954
    -1.2710  -1.1965  -1.1177  -1.0971  -1.0534  -1.0306  -0.9928  -0.9838
     0.0933   0.2117   0.3290   0.5281   1.3650   1.5877   1.7878   1.8930
     2.0700   2.2108   2.5756   2.6995

     occupation numbers 
     1.0000   1.0000   1.0000   1.0000   1.0000   1.0000   1.0000   1.0000
     1.0000   1.0000   1.0000   1.0000   1.0000   1.0000   1.0000   1.0000
     1.0000   1.0000   1.0000   1.0000   1.0000   1.0000   1.0000   1.0000
     1.0000   1.0000   1.0000   1.0000   1.0000   1.0000   1.0000   1.0000
     1.0000   1.0000   1.0000   1.0000

          k =-0.5000-1.4434-0.5736 (  5300 PWs)   bands (ev):

   -13.1253 -12.6208 -12.4246 -12.3624  -1.8897  -1.7898  -1.6434  -1.5697
    -1.5564  -1.5432  -1.4689  -1.4489  -1.3923  -1.3606  -1.3320  -1.3013
    -1.2754  -1.1856  -1.0977  -1.0828  -1.0622  -1.0354  -1.0062  -0.9894
     0.0826   0.2144   0.2928   0.5064   1.4491   1.6530   1.7176   1.8647
     2.1998   2.3751   2.5343   2.6422

     occupation numbers 
     1.0000   1.0000   1.0000   1.0000   1.0000   1.0000   1.0000   1.0000
     1.0000   1.0000   1.0000   1.0000   1.0000   1.0000   1.0000   1.0000
     1.0000   1.0000   1.0000   1.0000   1.0000   1.0000   1.0000   1.0000
     1.0000   1.0000   1.0000   1.0000   1.0000   1.0000   1.0000   1.0000
     1.0000   1.0000   1.0000   1.0000

          k = 0.3333-0.1925 0.0000 (  5353 PWs)   bands (ev):

   -13.2530 -12.7456 -12.5315 -12.3950  -2.0606  -1.8718  -1.7189  -1.7060
    -1.6289  -1.5919  -1.5350  -1.4590  -1.4435  -1.4064  -1.3611  -1.2872
    -1.2587  -1.2192  -1.1662  -1.1262  -1.1050  -1.0551  -1.0253  -0.9692
     0.2366   0.2944   0.4671   1.3421   1.6313   1.8506   2.1672   2.2924
     2.5726   2.6938   3.0379   3.0778

     occupation numbers 
     1.0000   1.0000   1.0000   1.0000   1.0000   1.0000   1.0000   1.0000
     1.0000   1.0000   1.0000   1.0000   1.0000   1.0000   1.0000   1.0000
     1.0000   1.0000   1.0000   1.0000   1.0000   1.0000   1.0000   1.0000
     1.0000   1.0000   1.0000   1.0000   1.0000   1.0000   1.0000   1.0000
     1.0000   1.0000   1.0000   1.0000

          k = 0.0000-0.3849 0.1912 (  5361 PWs)   bands (ev):

   -13.2496 -12.7453 -12.5278 -12.4026  -2.0311  -1.9120  -1.7383  -1.7102
    -1.6203  -1.5908  -1.5417  -1.4665  -1.4430  -1.4008  -1.3740  -1.3028
    -1.2727  -1.2222  -1.1610  -1.1228  -1.0983  -1.0767  -1.0333  -0.9815
     0.1693   0.4324   0.5099   1.4364   1.7112   1.8134   2.1450   2.2150
     2.5353   2.7100   2.9834   3.0810

     occupation numbers 
     1.0000   1.0000   1.0000   1.0000   1.0000   1.0000   1.0000   1.0000
     1.0000   1.0000   1.0000   1.0000   1.0000   1.0000   1.0000   1.0000
     1.0000   1.0000   1.0000   1.0000   1.0000   1.0000   1.0000   1.0000
     1.0000   1.0000   1.0000   1.0000   1.0000   1.0000   1.0000   1.0000
     1.0000   1.0000   1.0000   1.0000

          k = 0.3333-0.1925-0.1912 (  5361 PWs)   bands (ev):

   -13.2493 -12.7465 -12.5283 -12.4010  -2.0591  -1.8726  -1.7387  -1.6991
    -1.6317  -1.5862  -1.5413  -1.4839  -1.4548  -1.3994  -1.3744  -1.2876
    -1.2555  -1.2283  -1.1660  -1.1359  -1.0944  -1.0734  -1.0256  -0.9763
     0.2162   0.3991   0.4520   1.3649   1.7253   1.8327   2.1632   2.2411
     2.6123   2.7176   2.9755   3.0415

     occupation numbers 
     1.0000   1.0000   1.0000   1.0000   1.0000   1.0000   1.0000   1.0000
     1.0000   1.0000   1.0000   1.0000   1.0000   1.0000   1.0000   1.0000
     1.0000   1.0000   1.0000   1.0000   1.0000   1.0000   1.0000   1.0000
     1.0000   1.0000   1.0000   1.0000   1.0000   1.0000   1.0000   1.0000
     1.0000   1.0000   1.0000   1.0000

          k =-0.3333 0.1925-0.1912 (  5361 PWs)   bands (ev):

   -13.2491 -12.7470 -12.5268 -12.4022  -2.0616  -1.8708  -1.7285  -1.7039
    -1.6288  -1.5936  -1.5419  -1.4796  -1.4578  -1.4187  -1.3515  -1.2945
    -1.2683  -1.2128  -1.1781  -1.1373  -1.0926  -1.0762  -1.0206  -0.9778
     0.2370   0.3704   0.4828   1.3900   1.7309   1.7980   2.1441   2.3088
     2.5441   2.7186   2.9932   3.0283

     occupation numbers 
     1.0000   1.0000   1.0000   1.0000   1.0000   1.0000   1.0000   1.0000
     1.0000   1.0000   1.0000   1.0000   1.0000   1.0000   1.0000   1.0000
     1.0000   1.0000   1.0000   1.0000   1.0000   1.0000   1.0000   1.0000
     1.0000   1.0000   1.0000   1.0000   1.0000   1.0000   1.0000   1.0000
     1.0000   1.0000   1.0000   1.0000

          k = 0.0000-0.3849 0.3824 (  5371 PWs)   bands (ev):

   -13.2418 -12.7479 -12.5174 -12.4180  -2.0295  -1.9123  -1.7631  -1.7070
    -1.6191  -1.5965  -1.5682  -1.4980  -1.4591  -1.4114  -1.3847  -1.3015
    -1.2882  -1.2307  -1.1665  -1.1460  -1.0925  -1.0689  -1.0326  -0.9959
     0.1365   0.4399   0.7697   1.4413   1.6379   1.9179   2.1228   2.3137
     2.5246   2.7468   2.8217   3.0408

     occupation numbers 
     1.0000   1.0000   1.0000   1.0000   1.0000   1.0000   1.0000   1.0000
     1.0000   1.0000   1.0000   1.0000   1.0000   1.0000   1.0000   1.0000
     1.0000   1.0000   1.0000   1.0000   1.0000   1.0000   1.0000   1.0000
     1.0000   1.0000   1.0000   1.0000   1.0000   1.0000   1.0000   1.0000
     1.0000   1.0000   1.0000   1.0000

          k = 0.3333-0.1925-0.3824 (  5371 PWs)   bands (ev):

   -13.2415 -12.7491 -12.5185 -12.4160  -2.0585  -1.8724  -1.7585  -1.7003
    -1.6346  -1.5947  -1.5518  -1.5106  -1.4842  -1.4139  -1.3782  -1.2934
    -1.2731  -1.2293  -1.1707  -1.1513  -1.0907  -1.0704  -1.0257  -0.9941
     0.1771   0.3825   0.7256   1.4302   1.6025   1.9626   2.1290   2.3147
     2.6244   2.7533   2.8393   2.9715

     occupation numbers 
     1.0000   1.0000   1.0000   1.0000   1.0000   1.0000   1.0000   1.0000
     1.0000   1.0000   1.0000   1.0000   1.0000   1.0000   1.0000   1.0000
     1.0000   1.0000   1.0000   1.0000   1.0000   1.0000   1.0000   1.0000
     1.0000   1.0000   1.0000   1.0000   1.0000   1.0000   1.0000   1.0000
     1.0000   1.0000   1.0000   1.0000

          k =-0.3333 0.1925-0.3824 (  5371 PWs)   bands (ev):

   -13.2413 -12.7497 -12.5166 -12.4175  -2.0612  -1.8700  -1.7523  -1.6991
    -1.6331  -1.5988  -1.5710  -1.4917  -1.4814  -1.4378  -1.3531  -1.2975
    -1.2951  -1.2159  -1.1758  -1.1513  -1.0916  -1.0730  -1.0214  -0.9946
     0.2010   0.3444   0.7861   1.3831   1.6341   1.9742   2.1086   2.3871
     2.5067   2.7731   2.8448   2.9731

     occupation numbers 
     1.0000   1.0000   1.0000   1.0000   1.0000   1.0000   1.0000   1.0000
     1.0000   1.0000   1.0000   1.0000   1.0000   1.0000   1.0000   1.0000
     1.0000   1.0000   1.0000   1.0000   1.0000   1.0000   1.0000   1.0000
     1.0000   1.0000   1.0000   1.0000   1.0000   1.0000   1.0000   1.0000
     1.0000   1.0000   1.0000   1.0000

          k = 0.3333-0.1925 0.5736 (  5372 PWs)   bands (ev):

   -13.2375 -12.7508 -12.5111 -12.4257  -2.0596  -1.8707  -1.7649  -1.6998
    -1.6364  -1.6165  -1.5595  -1.5118  -1.4861  -1.4390  -1.3705  -1.3021
    -1.2897  -1.2221  -1.1680  -1.1617  -1.0904  -1.0636  -1.0182  -1.0100
     0.1779   0.3320   1.0938   1.1775   1.6332   1.9009   2.2744   2.3969
     2.5731   2.6835   2.8402   2.9197

     occupation numbers 
     1.0000   1.0000   1.0000   1.0000   1.0000   1.0000   1.0000   1.0000
     1.0000   1.0000   1.0000   1.0000   1.0000   1.0000   1.0000   1.0000
     1.0000   1.0000   1.0000   1.0000   1.0000   1.0000   1.0000   1.0000
     1.0000   1.0000   1.0000   1.0000   1.0000   1.0000   1.0000   1.0000
     1.0000   1.0000   1.0000   1.0000

          k = 0.6667-0.3849 0.0000 (  5343 PWs)   bands (ev):

   -13.1664 -12.6624 -12.4689 -12.3689  -1.9875  -1.7832  -1.6497  -1.6355
    -1.6005  -1.5303  -1.5079  -1.4713  -1.3894  -1.3464  -1.3239  -1.3101
    -1.2252  -1.1923  -1.1568  -1.1194  -1.0849  -1.0588  -1.0259  -0.9386
     0.1496   0.3623   0.4914   0.7398   1.2957   1.4996   1.7181   2.1386
     2.2695   2.5133   2.7043   2.8633

     occupation numbers 
     1.0000   1.0000   1.0000   1.0000   1.0000   1.0000   1.0000   1.0000
     1.0000   1.0000   1.0000   1.0000   1.0000   1.0000   1.0000   1.0000
     1.0000   1.0000   1.0000   1.0000   1.0000   1.0000   1.0000   1.0000
     1.0000   1.0000   1.0000   1.0000   1.0000   1.0000   1.0000   1.0000
     1.0000   1.0000   1.0000   1.0000

          k = 0.0000-0.7698 0.1912 (  5348 PWs)   bands (ev):

   -13.1651 -12.6596 -12.4664 -12.3749  -1.9517  -1.8426  -1.6511  -1.6266
    -1.6100  -1.5446  -1.5204  -1.4503  -1.3887  -1.3696  -1.3300  -1.3075
    -1.2373  -1.1947  -1.1630  -1.1068  -1.0904  -1.0582  -1.0340  -0.9548
     0.0813   0.4137   0.5367   0.7309   1.3450   1.5431   1.8732   2.1038
     2.2591   2.5160   2.6911   2.8165

     occupation numbers 
     1.0000   1.0000   1.0000   1.0000   1.0000   1.0000   1.0000   1.0000
     1.0000   1.0000   1.0000   1.0000   1.0000   1.0000   1.0000   1.0000
     1.0000   1.0000   1.0000   1.0000   1.0000   1.0000   1.0000   1.0000
     1.0000   1.0000   1.0000   1.0000   1.0000   1.0000   1.0000   1.0000
     1.0000   1.0000   1.0000   1.0000

          k = 0.6667-0.3849-0.1912 (  5348 PWs)   bands (ev):

   -13.1648 -12.6612 -12.4673 -12.3727  -1.9866  -1.7857  -1.6633  -1.6422
    -1.6023  -1.5401  -1.5171  -1.4748  -1.3796  -1.3624  -1.3297  -1.3169
    -1.2188  -1.1930  -1.1408  -1.1163  -1.0944  -1.0634  -1.0293  -0.9499
     0.1256   0.3339   0.4364   0.7836   1.3627   1.5956   1.8151   2.1128
     2.2549   2.5522   2.6804   2.8537

     occupation numbers 
     1.0000   1.0000   1.0000   1.0000   1.0000   1.0000   1.0000   1.0000
     1.0000   1.0000   1.0000   1.0000   1.0000   1.0000   1.0000   1.0000
     1.0000   1.0000   1.0000   1.0000   1.0000   1.0000   1.0000   1.0000
     1.0000   1.0000   1.0000   1.0000   1.0000   1.0000   1.0000   1.0000
     1.0000   1.0000   1.0000   1.0000

          k =-0.6667 0.3849-0.1912 (  5348 PWs)   bands (ev):

   -13.1646 -12.6615 -12.4657 -12.3742  -1.9861  -1.7893  -1.6716  -1.6299
    -1.5968  -1.5497  -1.5187  -1.4729  -1.3881  -1.3531  -1.3279  -1.2935
    -1.2407  -1.1994  -1.1565  -1.1229  -1.0808  -1.0659  -1.0275  -0.9517
     0.1510   0.3159   0.5052   0.7271   1.3848   1.5639   1.8356   2.1416
     2.2815   2.5076   2.6811   2.8156

     occupation numbers 
     1.0000   1.0000   1.0000   1.0000   1.0000   1.0000   1.0000   1.0000
     1.0000   1.0000   1.0000   1.0000   1.0000   1.0000   1.0000   1.0000
     1.0000   1.0000   1.0000   1.0000   1.0000   1.0000   1.0000   1.0000
     1.0000   1.0000   1.0000   1.0000   1.0000   1.0000   1.0000   1.0000
     1.0000   1.0000   1.0000   1.0000

          k = 0.0000-0.7698 0.3824 (  5362 PWs)   bands (ev):

   -13.1618 -12.6575 -12.4598 -12.3856  -1.9465  -1.8533  -1.6732  -1.6552
    -1.6172  -1.5570  -1.5235  -1.4577  -1.4008  -1.3742  -1.3347  -1.3148
    -1.2489  -1.2058  -1.1517  -1.1124  -1.0842  -1.0562  -1.0359  -0.9788
     0.0552   0.4036   0.4887   0.6726   1.5260   1.8156   1.9791   2.1538
     2.3093   2.4930   2.6186   2.7097

     occupation numbers 
     1.0000   1.0000   1.0000   1.0000   1.0000   1.0000   1.0000   1.0000
     1.0000   1.0000   1.0000   1.0000   1.0000   1.0000   1.0000   1.0000
     1.0000   1.0000   1.0000   1.0000   1.0000   1.0000   1.0000   1.0000
     1.0000   1.0000   1.0000   1.0000   1.0000   1.0000   1.0000   1.0000
     1.0000   1.0000   1.0000   1.0000

          k = 0.6667-0.3849-0.3824 (  5362 PWs)   bands (ev):

   -13.1614 -12.6590 -12.4615 -12.3827  -1.9839  -1.7961  -1.6941  -1.6546
    -1.6051  -1.5560  -1.5310  -1.4790  -1.4017  -1.3619  -1.3344  -1.3120
    -1.2326  -1.1881  -1.1458  -1.1222  -1.0867  -1.0624  -1.0324  -0.9779
     0.1151   0.2817   0.4075   0.7510   1.5382   1.8319   2.0019   2.0834
     2.3100   2.5214   2.6263   2.7551

     occupation numbers 
     1.0000   1.0000   1.0000   1.0000   1.0000   1.0000   1.0000   1.0000
     1.0000   1.0000   1.0000   1.0000   1.0000   1.0000   1.0000   1.0000
     1.0000   1.0000   1.0000   1.0000   1.0000   1.0000   1.0000   1.0000
     1.0000   1.0000   1.0000   1.0000   1.0000   1.0000   1.0000   1.0000
     1.0000   1.0000   1.0000   1.0000

          k =-0.6667 0.3849-0.3824 (  5362 PWs)   bands (ev):

   -13.1613 -12.6594 -12.4595 -12.3845  -1.9829  -1.8006  -1.7028  -1.6351
    -1.5990  -1.5804  -1.5184  -1.4898  -1.3875  -1.3652  -1.3351  -1.2948
    -1.2376  -1.2143  -1.1510  -1.1300  -1.0800  -1.0565  -1.0326  -0.9792
     0.1522   0.2410   0.4770   0.7072   1.5461   1.7949   2.0127   2.1670
     2.3278   2.4920   2.6161   2.6915

     occupation numbers 
     1.0000   1.0000   1.0000   1.0000   1.0000   1.0000   1.0000   1.0000
     1.0000   1.0000   1.0000   1.0000   1.0000   1.0000   1.0000   1.0000
     1.0000   1.0000   1.0000   1.0000   1.0000   1.0000   1.0000   1.0000
     1.0000   1.0000   1.0000   1.0000   1.0000   1.0000   1.0000   1.0000
     1.0000   1.0000   1.0000   1.0000

          k = 0.6667-0.3849 0.5736 (  5356 PWs)   bands (ev):

   -13.1597 -12.6582 -12.4566 -12.3895  -1.9816  -1.8049  -1.7137  -1.6535
    -1.6082  -1.5708  -1.5247  -1.4903  -1.4014  -1.3679  -1.3384  -1.3019
    -1.2410  -1.1981  -1.1465  -1.1376  -1.0799  -1.0510  -1.0223  -1.0036
     0.1423   0.2223   0.4400   0.7007   1.6440   1.8907   2.0997   2.2424
     2.3729   2.4506   2.5594   2.6117

     occupation numbers 
     1.0000   1.0000   1.0000   1.0000   1.0000   1.0000   1.0000   1.0000
     1.0000   1.0000   1.0000   1.0000   1.0000   1.0000   1.0000   1.0000
     1.0000   1.0000   1.0000   1.0000   1.0000   1.0000   1.0000   1.0000
     1.0000   1.0000   1.0000   1.0000   1.0000   1.0000   1.0000   1.0000
     1.0000   1.0000   1.0000   1.0000

          k =-0.1667-0.0962 0.1912 (  5364 PWs)   bands (ev):

   -13.2890 -12.7835 -12.5605 -12.4193  -2.0784  -1.9446  -1.7649  -1.7222
    -1.6604  -1.6049  -1.5646  -1.5206  -1.4380  -1.4139  -1.3665  -1.3135
    -1.2655  -1.2277  -1.1964  -1.1377  -1.0874  -1.0781  -1.0233  -1.0148
     0.1166   0.3017   0.4521   1.6018   1.9482   2.2623   2.4563   2.6468
     2.7693   2.8640   3.0897   3.1821

     occupation numbers 
     1.0000   1.0000   1.0000   1.0000   1.0000   1.0000   1.0000   1.0000
     1.0000   1.0000   1.0000   1.0000   1.0000   1.0000   1.0000   1.0000
     1.0000   1.0000   1.0000   1.0000   1.0000   1.0000   1.0000   1.0000
     1.0000   1.0000   1.0000   1.0000   1.0000   1.0000   1.0000   1.0000
     1.0000   1.0000   1.0000   1.0000

          k =-0.1667-0.0962 0.3824 (  5366 PWs)   bands (ev):

   -13.2793 -12.7882 -12.5481 -12.4373  -2.0797  -1.9444  -1.7739  -1.7268
    -1.6643  -1.6168  -1.5833  -1.5173  -1.4780  -1.4374  -1.3652  -1.3436
    -1.2779  -1.2237  -1.1957  -1.1525  -1.0865  -1.0712  -1.0393  -1.0247
     0.0970   0.3732   0.6879   1.7468   1.9337   2.0488   2.3943   2.5946
     2.8177   2.8897   3.0244   3.1462

     occupation numbers 
     1.0000   1.0000   1.0000   1.0000   1.0000   1.0000   1.0000   1.0000
     1.0000   1.0000   1.0000   1.0000   1.0000   1.0000   1.0000   1.0000
     1.0000   1.0000   1.0000   1.0000   1.0000   1.0000   1.0000   1.0000
     1.0000   1.0000   1.0000   1.0000   1.0000   1.0000   1.0000   1.0000
     1.0000   1.0000   1.0000   1.0000

          k = 0.5000-0.0962 0.0000 (  5363 PWs)   bands (ev):

   -13.2426 -12.7307 -12.5511 -12.4030  -2.0600  -1.8708  -1.7133  -1.6906
    -1.6217  -1.5776  -1.5285  -1.5157  -1.4762  -1.4266  -1.3787  -1.3211
    -1.3059  -1.2356  -1.1721  -1.1447  -1.1189  -1.0534  -1.0354  -0.9663
     0.3839   0.5301   0.7344   1.3392   1.4587   1.7324   2.0176   2.3778
     2.4786   2.6863   2.8899   3.0490

     occupation numbers 
     1.0000   1.0000   1.0000   1.0000   1.0000   1.0000   1.0000   1.0000
     1.0000   1.0000   1.0000   1.0000   1.0000   1.0000   1.0000   1.0000
     1.0000   1.0000   1.0000   1.0000   1.0000   1.0000   1.0000   1.0000
     1.0000   1.0000   1.0000   1.0000   1.0000   1.0000   1.0000   1.0000
     1.0000   1.0000   1.0000   1.0000

          k =-0.1667-0.4811 0.1912 (  5368 PWs)   bands (ev):

   -13.2398 -12.7290 -12.5462 -12.4125  -2.0291  -1.9138  -1.7321  -1.6888
    -1.6263  -1.5878  -1.5378  -1.5068  -1.4593  -1.4238  -1.3891  -1.3335
    -1.3143  -1.2501  -1.1773  -1.1492  -1.1038  -1.0682  -1.0435  -0.9863
     0.4119   0.5504   0.7851   1.4152   1.5840   1.7243   1.9870   2.2938
     2.4853   2.6508   2.8989   2.9986

     occupation numbers 
     1.0000   1.0000   1.0000   1.0000   1.0000   1.0000   1.0000   1.0000
     1.0000   1.0000   1.0000   1.0000   1.0000   1.0000   1.0000   1.0000
     1.0000   1.0000   1.0000   1.0000   1.0000   1.0000   1.0000   1.0000
     1.0000   1.0000   1.0000   1.0000   1.0000   1.0000   1.0000   1.0000
     1.0000   1.0000   1.0000   1.0000

          k = 0.5000-0.0962-0.1912 (  5368 PWs)   bands (ev):

   -13.2395 -12.7304 -12.5466 -12.4108  -2.0586  -1.8721  -1.7306  -1.6877
    -1.6220  -1.5838  -1.5398  -1.5189  -1.4818  -1.4194  -1.3919  -1.3216
    -1.3102  -1.2425  -1.1759  -1.1574  -1.1033  -1.0626  -1.0450  -0.9791
     0.4353   0.5310   0.7198   1.3795   1.5861   1.7082   2.0431   2.3254
     2.5035   2.7106   2.8590   2.9840

     occupation numbers 
     1.0000   1.0000   1.0000   1.0000   1.0000   1.0000   1.0000   1.0000
     1.0000   1.0000   1.0000   1.0000   1.0000   1.0000   1.0000   1.0000
     1.0000   1.0000   1.0000   1.0000   1.0000   1.0000   1.0000   1.0000
     1.0000   1.0000   1.0000   1.0000   1.0000   1.0000   1.0000   1.0000
     1.0000   1.0000   1.0000   1.0000

          k =-0.5000 0.0962-0.1912 (  5368 PWs)   bands (ev):

   -13.2393 -12.7311 -12.5448 -12.4122  -2.0614  -1.8692  -1.7216  -1.6913
    -1.6249  -1.5808  -1.5352  -1.5182  -1.4966  -1.4397  -1.3711  -1.3285
    -1.3000  -1.2433  -1.1890  -1.1577  -1.1017  -1.0625  -1.0355  -0.9881
     0.4762   0.5303   0.7227   1.3264   1.5894   1.7444   2.0639   2.3501
     2.4969   2.6352   2.8696   2.9837

     occupation numbers 
     1.0000   1.0000   1.0000   1.0000   1.0000   1.0000   1.0000   1.0000
     1.0000   1.0000   1.0000   1.0000   1.0000   1.0000   1.0000   1.0000
     1.0000   1.0000   1.0000   1.0000   1.0000   1.0000   1.0000   1.0000
     1.0000   1.0000   1.0000   1.0000   1.0000   1.0000   1.0000   1.0000
     1.0000   1.0000   1.0000   1.0000

          k =-0.1667-0.4811 0.3824 (  5372 PWs)   bands (ev):

   -13.2332 -12.7297 -12.5312 -12.4333  -2.0282  -1.9135  -1.7552  -1.6924
    -1.6282  -1.6033  -1.5550  -1.5300  -1.4608  -1.4268  -1.4069  -1.3487
    -1.3172  -1.2565  -1.1870  -1.1639  -1.0840  -1.0779  -1.0506  -1.0133
     0.4048   0.7174   0.7958   1.2855   1.7860   1.9249   2.1113   2.2195
     2.4777   2.6038   2.7576   2.9052

     occupation numbers 
     1.0000   1.0000   1.0000   1.0000   1.0000   1.0000   1.0000   1.0000
     1.0000   1.0000   1.0000   1.0000   1.0000   1.0000   1.0000   1.0000
     1.0000   1.0000   1.0000   1.0000   1.0000   1.0000   1.0000   1.0000
     1.0000   1.0000   1.0000   1.0000   1.0000   1.0000   1.0000   1.0000
     1.0000   1.0000   1.0000   1.0000

          k = 0.5000-0.0962-0.3824 (  5372 PWs)   bands (ev):

   -13.2329 -12.7311 -12.5323 -12.4310  -2.0585  -1.8720  -1.7507  -1.6916
    -1.6273  -1.5966  -1.5623  -1.5202  -1.5044  -1.4301  -1.3979  -1.3307
    -1.3155  -1.2510  -1.1863  -1.1695  -1.0804  -1.0785  -1.0526  -1.0081
     0.4407   0.6477   0.7514   1.3061   1.7431   1.9141   2.1409   2.2431
     2.5474   2.6719   2.7722   2.8117

     occupation numbers 
     1.0000   1.0000   1.0000   1.0000   1.0000   1.0000   1.0000   1.0000
     1.0000   1.0000   1.0000   1.0000   1.0000   1.0000   1.0000   1.0000
     1.0000   1.0000   1.0000   1.0000   1.0000   1.0000   1.0000   1.0000
     1.0000   1.0000   1.0000   1.0000   1.0000   1.0000   1.0000   1.0000
     1.0000   1.0000   1.0000   1.0000

          k =-0.5000 0.0962-0.3824 (  5372 PWs)   bands (ev):

   -13.2327 -12.7318 -12.5300 -12.4329  -2.0614  -1.8684  -1.7449  -1.6906
    -1.6282  -1.6026  -1.5601  -1.5355  -1.4894  -1.4544  -1.3665  -1.3388
    -1.3255  -1.2475  -1.1937  -1.1689  -1.0884  -1.0675  -1.0431  -1.0192
     0.4999   0.5621   0.8467   1.2261   1.7733   1.9255   2.1812   2.2717
     2.5188   2.5713   2.7914   2.8240

     occupation numbers 
     1.0000   1.0000   1.0000   1.0000   1.0000   1.0000   1.0000   1.0000
     1.0000   1.0000   1.0000   1.0000   1.0000   1.0000   1.0000   1.0000
     1.0000   1.0000   1.0000   1.0000   1.0000   1.0000   1.0000   1.0000
     1.0000   1.0000   1.0000   1.0000   1.0000   1.0000   1.0000   1.0000
     1.0000   1.0000   1.0000   1.0000

          k = 0.5000-0.0962 0.5736 (  5370 PWs)   bands (ev):

   -13.2295 -12.7320 -12.5203 -12.4455  -2.0599  -1.8697  -1.7574  -1.6932
    -1.6323  -1.6145  -1.5690  -1.5350  -1.4936  -1.4506  -1.3839  -1.3424
    -1.3280  -1.2500  -1.1870  -1.1757  -1.0870  -1.0588  -1.0496  -1.0347
     0.4746   0.5765   0.9991   1.1123   1.8268   2.0844   2.1956   2.3246
     2.4967   2.5855   2.6783   2.7329

     occupation numbers 
     1.0000   1.0000   1.0000   1.0000   1.0000   1.0000   1.0000   1.0000
     1.0000   1.0000   1.0000   1.0000   1.0000   1.0000   1.0000   1.0000
     1.0000   1.0000   1.0000   1.0000   1.0000   1.0000   1.0000   1.0000
     1.0000   1.0000   1.0000   1.0000   1.0000   1.0000   1.0000   1.0000
     1.0000   1.0000   1.0000   1.0000

          k =-0.1667-0.8660 0.1912 (  5358 PWs)   bands (ev):

   -13.1629 -12.6569 -12.4699 -12.3760  -1.9663  -1.8290  -1.6619  -1.6291
    -1.5894  -1.5699  -1.5189  -1.4708  -1.3849  -1.3763  -1.3227  -1.3045
    -1.2401  -1.1945  -1.1579  -1.1168  -1.0933  -1.0686  -1.0419  -0.9585
     0.1971   0.2718   0.5240   0.6569   1.4096   1.6524   1.9576   2.0625
     2.4435   2.5260   2.5691   2.8019

     occupation numbers 
     1.0000   1.0000   1.0000   1.0000   1.0000   1.0000   1.0000   1.0000
     1.0000   1.0000   1.0000   1.0000   1.0000   1.0000   1.0000   1.0000
     1.0000   1.0000   1.0000   1.0000   1.0000   1.0000   1.0000   1.0000
     1.0000   1.0000   1.0000   1.0000   1.0000   1.0000   1.0000   1.0000
     1.0000   1.0000   1.0000   1.0000

          k =-0.1667-0.8660 0.3824 (  5360 PWs)   bands (ev):

   -13.1598 -12.6545 -12.4621 -12.3879  -1.9625  -1.8403  -1.6911  -1.6477
    -1.6109  -1.5785  -1.5168  -1.4800  -1.3942  -1.3646  -1.3323  -1.3107
    -1.2413  -1.2073  -1.1541  -1.1258  -1.0820  -1.0706  -1.0434  -0.9902
     0.1656   0.2773   0.4429   0.6079   1.7072   1.8997   2.0992   2.1742
     2.3308   2.4612   2.5340   2.6932

     occupation numbers 
     1.0000   1.0000   1.0000   1.0000   1.0000   1.0000   1.0000   1.0000
     1.0000   1.0000   1.0000   1.0000   1.0000   1.0000   1.0000   1.0000
     1.0000   1.0000   1.0000   1.0000   1.0000   1.0000   1.0000   1.0000
     1.0000   1.0000   1.0000   1.0000   1.0000   1.0000   1.0000   1.0000
     1.0000   1.0000   1.0000   1.0000

          k =-0.1667 1.0585 0.1912 (  5328 PWs)   bands (ev):

   -13.1269 -12.6250 -12.4210 -12.3601  -1.9072  -1.8169  -1.6182  -1.5931
    -1.5805  -1.5387  -1.4834  -1.4294  -1.3463  -1.3027  -1.2652  -1.2396
    -1.2063  -1.1786  -1.1218  -1.1059  -1.0589  -1.0387  -1.0062  -0.9820
    -0.1160  -0.0514   0.2441   0.4122   1.5877   1.6716   1.8233   1.9869
     2.3340   2.4038   2.5462   2.6866

     occupation numbers 
     1.0000   1.0000   1.0000   1.0000   1.0000   1.0000   1.0000   1.0000
     1.0000   1.0000   1.0000   1.0000   1.0000   1.0000   1.0000   1.0000
     1.0000   1.0000   1.0000   1.0000   1.0000   1.0000   1.0000   1.0000
     1.0000   1.0000   1.0000   1.0000   1.0000   1.0000   1.0000   1.0000
     1.0000   1.0000   1.0000   1.0000

          k =-0.1667 1.0585 0.3824 (  5342 PWs)   bands (ev):

   -13.1252 -12.6214 -12.4229 -12.3615  -1.9063  -1.8313  -1.6613  -1.6062
    -1.5787  -1.5576  -1.4935  -1.4338  -1.3469  -1.2998  -1.2784  -1.2543
    -1.1923  -1.1762  -1.1140  -1.1060  -1.0609  -1.0388  -1.0135  -0.9924
    -0.1301  -0.0568   0.1490   0.3465   1.7674   1.8868   1.9431   2.1471
     2.2751   2.3338   2.5539   2.6741

     occupation numbers 
     1.0000   1.0000   1.0000   1.0000   1.0000   1.0000   1.0000   1.0000
     1.0000   1.0000   1.0000   1.0000   1.0000   1.0000   1.0000   1.0000
     1.0000   1.0000   1.0000   1.0000   1.0000   1.0000   1.0000   1.0000
     1.0000   1.0000   1.0000   1.0000   1.0000   1.0000   1.0000   1.0000
     1.0000   1.0000   1.0000   1.0000

          k =-0.5000 0.4811 0.0000 (  5361 PWs)   bands (ev):

   -13.1704 -12.6691 -12.4606 -12.3672  -1.9893  -1.7648  -1.6439  -1.6335
    -1.6088  -1.5419  -1.4999  -1.4502  -1.3765  -1.3420  -1.3250  -1.2924
    -1.2233  -1.1826  -1.1572  -1.1162  -1.0818  -1.0365  -0.9980  -0.9329
     0.1517   0.3404   0.5315   0.8249   1.1199   1.4190   1.8413   1.9458
     2.2411   2.3694   2.7154   2.9121

     occupation numbers 
     1.0000   1.0000   1.0000   1.0000   1.0000   1.0000   1.0000   1.0000
     1.0000   1.0000   1.0000   1.0000   1.0000   1.0000   1.0000   1.0000
     1.0000   1.0000   1.0000   1.0000   1.0000   1.0000   1.0000   1.0000
     1.0000   1.0000   1.0000   1.0000   1.0000   1.0000   1.0000   1.0000
     1.0000   1.0000   1.0000   1.0000

          k =-0.1667 0.6736 0.1912 (  5347 PWs)   bands (ev):

   -13.1691 -12.6667 -12.4595 -12.3713  -1.9538  -1.8166  -1.6828  -1.6281
    -1.6013  -1.5348  -1.5020  -1.4246  -1.3854  -1.3803  -1.3098  -1.2878
    -1.2376  -1.2081  -1.1536  -1.1181  -1.0761  -1.0397  -0.9951  -0.9430
     0.0643   0.4072   0.5604   0.8636   1.1018   1.5035   1.7923   2.0087
     2.2739   2.4206   2.6962   2.8814

     occupation numbers 
     1.0000   1.0000   1.0000   1.0000   1.0000   1.0000   1.0000   1.0000
     1.0000   1.0000   1.0000   1.0000   1.0000   1.0000   1.0000   1.0000
     1.0000   1.0000   1.0000   1.0000   1.0000   1.0000   1.0000   1.0000
     1.0000   1.0000   1.0000   1.0000   1.0000   1.0000   1.0000   1.0000
     1.0000   1.0000   1.0000   1.0000

          k =-0.5000 0.4811-0.1912 (  5347 PWs)   bands (ev):

   -13.1685 -12.6684 -12.4584 -12.3714  -1.9876  -1.7707  -1.6593  -1.6265
    -1.6014  -1.5569  -1.5231  -1.4569  -1.3829  -1.3517  -1.3142  -1.2684
    -1.2425  -1.2094  -1.1537  -1.1216  -1.0762  -1.0394  -1.0030  -0.9366
     0.1454   0.3021   0.5816   0.8301   1.1180   1.5245   1.8149   2.0363
     2.2715   2.4086   2.6847   2.8546

     occupation numbers 
     1.0000   1.0000   1.0000   1.0000   1.0000   1.0000   1.0000   1.0000
     1.0000   1.0000   1.0000   1.0000   1.0000   1.0000   1.0000   1.0000
     1.0000   1.0000   1.0000   1.0000   1.0000   1.0000   1.0000   1.0000
     1.0000   1.0000   1.0000   1.0000   1.0000   1.0000   1.0000   1.0000
     1.0000   1.0000   1.0000   1.0000

          k = 0.5000-0.4811-0.1912 (  5347 PWs)   bands (ev):

   -13.1686 -12.6681 -12.4598 -12.3700  -1.9879  -1.7662  -1.6631  -1.6334
    -1.6124  -1.5448  -1.4964  -1.4623  -1.3799  -1.3618  -1.3273  -1.3030
    -1.2192  -1.1840  -1.1444  -1.1085  -1.0911  -1.0514  -0.9890  -0.9407
     0.1269   0.3169   0.5045   0.8762   1.1410   1.5076   1.8246   2.0113
     2.2421   2.4398   2.6898   2.8861

     occupation numbers 
     1.0000   1.0000   1.0000   1.0000   1.0000   1.0000   1.0000   1.0000
     1.0000   1.0000   1.0000   1.0000   1.0000   1.0000   1.0000   1.0000
     1.0000   1.0000   1.0000   1.0000   1.0000   1.0000   1.0000   1.0000
     1.0000   1.0000   1.0000   1.0000   1.0000   1.0000   1.0000   1.0000
     1.0000   1.0000   1.0000   1.0000

          k =-0.1667 0.6736 0.3824 (  5352 PWs)   bands (ev):

   -13.1653 -12.6651 -12.4558 -12.3791  -1.9479  -1.8264  -1.7053  -1.6350
    -1.6007  -1.5658  -1.5075  -1.4303  -1.4091  -1.3890  -1.3163  -1.2877
    -1.2521  -1.2255  -1.1500  -1.1123  -1.0782  -1.0573  -0.9837  -0.9504
     0.0324   0.3673   0.5986   0.8202   1.2112   1.6166   1.8298   2.1667
     2.3685   2.4916   2.6168   2.7616

     occupation numbers 
     1.0000   1.0000   1.0000   1.0000   1.0000   1.0000   1.0000   1.0000
     1.0000   1.0000   1.0000   1.0000   1.0000   1.0000   1.0000   1.0000
     1.0000   1.0000   1.0000   1.0000   1.0000   1.0000   1.0000   1.0000
     1.0000   1.0000   1.0000   1.0000   1.0000   1.0000   1.0000   1.0000
     1.0000   1.0000   1.0000   1.0000

          k =-0.5000 0.4811-0.3824 (  5352 PWs)   bands (ev):

   -13.1647 -12.6667 -12.4549 -12.3790  -1.9837  -1.7820  -1.6863  -1.6291
    -1.5924  -1.5831  -1.5357  -1.4692  -1.4032  -1.3627  -1.3217  -1.2763
    -1.2490  -1.2136  -1.1472  -1.1224  -1.0813  -1.0543  -0.9922  -0.9464
     0.1180   0.2449   0.6187   0.8212   1.1991   1.6571   1.8556   2.1902
     2.3537   2.4894   2.6114   2.7181

     occupation numbers 
     1.0000   1.0000   1.0000   1.0000   1.0000   1.0000   1.0000   1.0000
     1.0000   1.0000   1.0000   1.0000   1.0000   1.0000   1.0000   1.0000
     1.0000   1.0000   1.0000   1.0000   1.0000   1.0000   1.0000   1.0000
     1.0000   1.0000   1.0000   1.0000   1.0000   1.0000   1.0000   1.0000
     1.0000   1.0000   1.0000   1.0000

          k = 0.5000-0.4811-0.3824 (  5352 PWs)   bands (ev):

   -13.1648 -12.6665 -12.4566 -12.3774  -1.9845  -1.7765  -1.6864  -1.6466
    -1.6050  -1.5613  -1.5136  -1.4661  -1.4189  -1.3687  -1.3241  -1.3025
    -1.2333  -1.1910  -1.1369  -1.1098  -1.0946  -1.0669  -0.9777  -0.9541
     0.0991   0.2598   0.5430   0.8749   1.2122   1.6519   1.8286   2.2034
     2.3073   2.5078   2.6246   2.7612

     occupation numbers 
     1.0000   1.0000   1.0000   1.0000   1.0000   1.0000   1.0000   1.0000
     1.0000   1.0000   1.0000   1.0000   1.0000   1.0000   1.0000   1.0000
     1.0000   1.0000   1.0000   1.0000   1.0000   1.0000   1.0000   1.0000
     1.0000   1.0000   1.0000   1.0000   1.0000   1.0000   1.0000   1.0000
     1.0000   1.0000   1.0000   1.0000

          k =-0.5000 0.4811 0.5736 (  5352 PWs)   bands (ev):

   -13.1628 -12.6658 -12.4538 -12.3823  -1.9820  -1.7865  -1.6988  -1.6449
    -1.6017  -1.5732  -1.5277  -1.4704  -1.4295  -1.3669  -1.3331  -1.2918
    -1.2448  -1.1990  -1.1335  -1.1233  -1.0912  -1.0663  -0.9742  -0.9590
     0.0966   0.2254   0.6104   0.8166   1.2985   1.5635   2.0845   2.2147
     2.3942   2.5007   2.5711   2.6491

     occupation numbers 
     1.0000   1.0000   1.0000   1.0000   1.0000   1.0000   1.0000   1.0000
     1.0000   1.0000   1.0000   1.0000   1.0000   1.0000   1.0000   1.0000
     1.0000   1.0000   1.0000   1.0000   1.0000   1.0000   1.0000   1.0000
     1.0000   1.0000   1.0000   1.0000   1.0000   1.0000   1.0000   1.0000
     1.0000   1.0000   1.0000   1.0000

          k =-0.1667 0.2887 0.1912 (  5367 PWs)   bands (ev):

   -13.2543 -12.7533 -12.5194 -12.3970  -2.0454  -1.8907  -1.7485  -1.7025
    -1.6356  -1.5834  -1.5459  -1.4784  -1.4396  -1.3809  -1.3548  -1.2705
    -1.2618  -1.1895  -1.1426  -1.1322  -1.0980  -1.0648  -1.0074  -0.9907
     0.0796   0.3475   0.3745   1.2927   1.8194   1.9245   2.1397   2.3459
     2.5110   2.7820   3.0016   3.0908

     occupation numbers 
     1.0000   1.0000   1.0000   1.0000   1.0000   1.0000   1.0000   1.0000
     1.0000   1.0000   1.0000   1.0000   1.0000   1.0000   1.0000   1.0000
     1.0000   1.0000   1.0000   1.0000   1.0000   1.0000   1.0000   1.0000
     1.0000   1.0000   1.0000   1.0000   1.0000   1.0000   1.0000   1.0000
     1.0000   1.0000   1.0000   1.0000

          k =-0.1667 0.2887 0.3824 (  5358 PWs)   bands (ev):

   -13.2460 -12.7569 -12.5116 -12.4096  -2.0441  -1.8906  -1.7688  -1.7011
    -1.6376  -1.5843  -1.5635  -1.5118  -1.4710  -1.3973  -1.3552  -1.2843
    -1.2655  -1.2006  -1.1533  -1.1403  -1.1014  -1.0684  -1.0002  -0.9888
     0.0379   0.2909   0.7101   1.3939   1.6109   1.9406   2.1619   2.4434
     2.5602   2.7800   2.8846   3.0448

     occupation numbers 
     1.0000   1.0000   1.0000   1.0000   1.0000   1.0000   1.0000   1.0000
     1.0000   1.0000   1.0000   1.0000   1.0000   1.0000   1.0000   1.0000
     1.0000   1.0000   1.0000   1.0000   1.0000   1.0000   1.0000   1.0000
     1.0000   1.0000   1.0000   1.0000   1.0000   1.0000   1.0000   1.0000
     1.0000   1.0000   1.0000   1.0000

          k =-0.3333-0.1925 0.1912 (  5369 PWs)   bands (ev):

   -13.2763 -12.7636 -12.5834 -12.4326  -2.0846  -1.9356  -1.7614  -1.7000
    -1.6625  -1.5987  -1.5729  -1.5218  -1.4729  -1.4451  -1.3919  -1.3620
    -1.2943  -1.2692  -1.2091  -1.1644  -1.0894  -1.0803  -1.0226  -1.0128
     0.3532   0.5047   0.8075   1.4900   1.8518   2.0681   2.3069   2.5576
     2.6681   2.7723   2.9942   3.0978

     occupation numbers 
     1.0000   1.0000   1.0000   1.0000   1.0000   1.0000   1.0000   1.0000
     1.0000   1.0000   1.0000   1.0000   1.0000   1.0000   1.0000   1.0000
     1.0000   1.0000   1.0000   1.0000   1.0000   1.0000   1.0000   1.0000
     1.0000   1.0000   1.0000   1.0000   1.0000   1.0000   1.0000   1.0000
     1.0000   1.0000   1.0000   1.0000

          k =-0.3333-0.1925 0.3824 (  5395 PWs)   bands (ev):

   -13.2682 -12.7656 -12.5659 -12.4568  -2.0864  -1.9348  -1.7724  -1.7053
    -1.6679  -1.6152  -1.5832  -1.5267  -1.4898  -1.4581  -1.3992  -1.3836
    -1.3145  -1.2752  -1.2121  -1.1780  -1.0875  -1.0793  -1.0463  -1.0296
     0.4300   0.7187   0.7805   1.5540   1.8551   2.1350   2.3879   2.5046
     2.6131   2.7720   2.8239   3.0339

     occupation numbers 
     1.0000   1.0000   1.0000   1.0000   1.0000   1.0000   1.0000   1.0000
     1.0000   1.0000   1.0000   1.0000   1.0000   1.0000   1.0000   1.0000
     1.0000   1.0000   1.0000   1.0000   1.0000   1.0000   1.0000   1.0000
     1.0000   1.0000   1.0000   1.0000   1.0000   1.0000   1.0000   1.0000
     1.0000   1.0000   1.0000   1.0000

          k =-0.3333-0.5774 0.1912 (  5362 PWs)   bands (ev):

   -13.2345 -12.7209 -12.5556 -12.4175  -2.0458  -1.8914  -1.7231  -1.6703
    -1.6344  -1.5844  -1.5568  -1.5229  -1.4870  -1.4392  -1.3897  -1.3448
    -1.3215  -1.2494  -1.1917  -1.1589  -1.1078  -1.0634  -1.0459  -0.9886
     0.5436   0.6537   1.0249   1.1124   1.5592   1.6831   2.0989   2.2482
     2.4931   2.6623   2.7369   2.9843

     occupation numbers 
     1.0000   1.0000   1.0000   1.0000   1.0000   1.0000   1.0000   1.0000
     1.0000   1.0000   1.0000   1.0000   1.0000   1.0000   1.0000   1.0000
     1.0000   1.0000   1.0000   1.0000   1.0000   1.0000   1.0000   1.0000
     1.0000   1.0000   1.0000   1.0000   1.0000   1.0000   1.0000   1.0000
     1.0000   1.0000   1.0000   1.0000

          k =-0.3333-0.5774 0.3824 (  5378 PWs)   bands (ev):

   -13.2286 -12.7206 -12.5381 -12.4412  -2.0457  -1.8905  -1.7458  -1.6707
    -1.6476  -1.6037  -1.5669  -1.5467  -1.4827  -1.4449  -1.3874  -1.3639
    -1.3335  -1.2588  -1.2001  -1.1705  -1.0905  -1.0707  -1.0570  -1.0209
     0.6318   0.7334   0.9828   1.0153   1.8015   1.9749   2.1486   2.2963
     2.4281   2.5621   2.6265   2.8165

     occupation numbers 
     1.0000   1.0000   1.0000   1.0000   1.0000   1.0000   1.0000   1.0000
     1.0000   1.0000   1.0000   1.0000   1.0000   1.0000   1.0000   1.0000
     1.0000   1.0000   1.0000   1.0000   1.0000   1.0000   1.0000   1.0000
     1.0000   1.0000   1.0000   1.0000   1.0000   1.0000   1.0000   1.0000
     1.0000   1.0000   1.0000   1.0000

          k =-0.3333 0.9623 0.1912 (  5340 PWs)   bands (ev):

   -13.1276 -12.6261 -12.4208 -12.3604  -1.8986  -1.7869  -1.5988  -1.5914
    -1.5593  -1.5145  -1.4758  -1.4263  -1.3616  -1.3132  -1.2950  -1.2784
    -1.2382  -1.1935  -1.1440  -1.1203  -1.0420  -1.0226  -0.9964  -0.9698
     0.0316   0.1042   0.3607   0.5077   1.3985   1.5729   1.7178   1.8728
     2.1104   2.2319   2.5428   2.7144

     occupation numbers 
     1.0000   1.0000   1.0000   1.0000   1.0000   1.0000   1.0000   1.0000
     1.0000   1.0000   1.0000   1.0000   1.0000   1.0000   1.0000   1.0000
     1.0000   1.0000   1.0000   1.0000   1.0000   1.0000   1.0000   1.0000
     1.0000   1.0000   1.0000   1.0000   1.0000   1.0000   1.0000   1.0000
     1.0000   1.0000   1.0000   1.0000

          k =-0.3333 0.9623 0.3824 (  5338 PWs)   bands (ev):

   -13.1259 -12.6223 -12.4231 -12.3617  -1.8959  -1.7992  -1.6355  -1.5908
    -1.5615  -1.5408  -1.4884  -1.4368  -1.3708  -1.3237  -1.3069  -1.2935
    -1.2334  -1.1839  -1.1186  -1.1049  -1.0548  -1.0322  -1.0005  -0.9865
     0.0084   0.0971   0.2826   0.4551   1.5044   1.6890   1.8957   1.9987
     2.0964   2.2341   2.5694   2.6961

     occupation numbers 
     1.0000   1.0000   1.0000   1.0000   1.0000   1.0000   1.0000   1.0000
     1.0000   1.0000   1.0000   1.0000   1.0000   1.0000   1.0000   1.0000
     1.0000   1.0000   1.0000   1.0000   1.0000   1.0000   1.0000   1.0000
     1.0000   1.0000   1.0000   1.0000   1.0000   1.0000   1.0000   1.0000
     1.0000   1.0000   1.0000   1.0000

          k =-0.3333 0.5774 0.1912 (  5348 PWs)   bands (ev):

   -13.1708 -12.6707 -12.4561 -12.3694  -1.9716  -1.7845  -1.6712  -1.6215
    -1.6091  -1.5501  -1.5019  -1.4377  -1.3792  -1.3565  -1.3130  -1.2987
    -1.2316  -1.1879  -1.1489  -1.1160  -1.0807  -1.0389  -0.9620  -0.9389
     0.1367   0.3604   0.5266   0.8321   1.0675   1.5328   1.6959   2.1554
     2.2070   2.3231   2.6526   2.9040

     occupation numbers 
     1.0000   1.0000   1.0000   1.0000   1.0000   1.0000   1.0000   1.0000
     1.0000   1.0000   1.0000   1.0000   1.0000   1.0000   1.0000   1.0000
     1.0000   1.0000   1.0000   1.0000   1.0000   1.0000   1.0000   1.0000
     1.0000   1.0000   1.0000   1.0000   1.0000   1.0000   1.0000   1.0000
     1.0000   1.0000   1.0000   1.0000

          k =-0.3333 0.5774 0.3824 (  5353 PWs)   bands (ev):

   -13.1668 -12.6693 -12.4539 -12.3757  -1.9669  -1.7946  -1.6895  -1.6267
    -1.6052  -1.5799  -1.5108  -1.4422  -1.4185  -1.3638  -1.3110  -1.2956
    -1.2513  -1.2019  -1.1433  -1.1115  -1.0830  -1.0701  -0.9509  -0.9369
     0.0862   0.3232   0.6046   0.8864   1.0746   1.5093   1.8501   2.1969
     2.3496   2.4601   2.5875   2.7700

     occupation numbers 
     1.0000   1.0000   1.0000   1.0000   1.0000   1.0000   1.0000   1.0000
     1.0000   1.0000   1.0000   1.0000   1.0000   1.0000   1.0000   1.0000
     1.0000   1.0000   1.0000   1.0000   1.0000   1.0000   1.0000   1.0000
     1.0000   1.0000   1.0000   1.0000   1.0000   1.0000   1.0000   1.0000
     1.0000   1.0000   1.0000   1.0000

     highest occupied level (ev):     3.2799

!    total energy              =    -723.06177381 Ry
     estimated scf accuracy    <          7.4E-09 Ry

     The total energy is the sum of the following terms:
     one-electron contribution =    -382.80875052 Ry
     hartree contribution      =     264.34622423 Ry
     xc contribution           =    -218.10250388 Ry
     ewald contribution        =    -386.49674363 Ry

     convergence has been achieved in  39 iterations

     Forces acting on atoms (cartesian axes, Ry/au):

     atom    1 type  1   force =    -0.01846574   -0.01112644   -0.00197773
     atom    2 type  1   force =     0.00783314   -0.01365814   -0.00905333
     atom    3 type  2   force =    -0.00421570    0.01702400    0.01307905
     atom    4 type  2   force =    -0.01184558   -0.01110968    0.00198507
     atom    5 type  1   force =     0.02603146   -0.00336375    0.00498279
     atom    6 type  1   force =    -0.01418906   -0.00788615   -0.02512823
     atom    7 type  2   force =     0.00465312    0.00066901    0.02085685
     atom    8 type  2   force =     0.01019836    0.02945115   -0.00474445
     The non-local contrib.  to forces
     atom    1 type  1   force =    -0.07873288    0.01902387    0.23908301
     atom    2 type  1   force =    -0.00036631   -0.25493411    0.20793369
     atom    3 type  2   force =     0.03519734   -0.21498684    0.34678244
     atom    4 type  2   force =     0.06707835    0.05495803    0.17983267
     atom    5 type  1   force =     0.20765871   -0.09747663    0.14743991
     atom    6 type  1   force =    -0.02459265    0.04336228    0.29035041
     atom    7 type  2   force =    -0.08160489   -0.00265254    0.36617220
     atom    8 type  2   force =     0.09373044   -0.09355940    0.29308685
     The ionic contribution  to forces
     atom    1 type  1   force =    -2.79176621   -0.83853633    2.96643049
     atom    2 type  1   force =     0.00995608   -1.99864625    0.74996216
     atom    3 type  2   force =    -0.71591676    1.52323237   -2.18341995
     atom    4 type  2   force =    -1.41004629   -1.29834536   -0.72103937
     atom    5 type  1   force =     3.62432974    0.34056848    1.81357994
     atom    6 type  1   force =    -0.17645409    0.61904518    1.45213632
     atom    7 type  2   force =     1.07859318   -0.00358471   -2.16649743
     atom    8 type  2   force =     0.38130435    1.65626662   -1.91115217
     The local contribution  to forces
     atom    1 type  1   force =     2.84472513    0.80792042   -3.19150514
     atom    2 type  1   force =    -0.00048869    2.22435104   -0.95481961
     atom    3 type  2   force =     0.67678664   -1.29303885    1.85300210
     atom    4 type  2   force =     1.33159490    1.23261437    0.54491332
     atom    5 type  1   force =    -3.79077535   -0.25180440   -1.94593917
     atom    6 type  1   force =     0.18387392   -0.66872204   -1.75159755
     atom    7 type  2   force =    -0.99302460    0.00684516    1.82468888
     atom    8 type  2   force =    -0.46385462   -1.53383097    1.61597688
     The core correction contribution to forces
     atom    1 type  1   force =     0.00736695    0.00051111   -0.01594052
     atom    2 type  1   force =    -0.00128359    0.01553913   -0.01216067
     atom    3 type  2   force =    -0.00028348    0.00182282   -0.00328965
     atom    4 type  2   force =    -0.00048286   -0.00034332   -0.00171888
     atom    5 type  1   force =    -0.01521726    0.00532483   -0.01008474
     atom    6 type  1   force =     0.00299538   -0.00155556   -0.01601602
     atom    7 type  2   force =     0.00068795    0.00005844   -0.00351106
     atom    8 type  2   force =    -0.00097689    0.00058554   -0.00265605
     The Hubbard contrib.    to forces
     atom    1 type  1   force =     0.00000000    0.00000000    0.00000000
     atom    2 type  1   force =     0.00000000    0.00000000    0.00000000
     atom    3 type  2   force =     0.00000000    0.00000000    0.00000000
     atom    4 type  2   force =     0.00000000    0.00000000    0.00000000
     atom    5 type  1   force =     0.00000000    0.00000000    0.00000000
     atom    6 type  1   force =     0.00000000    0.00000000    0.00000000
     atom    7 type  2   force =     0.00000000    0.00000000    0.00000000
     atom    8 type  2   force =     0.00000000    0.00000000    0.00000000
     The SCF correction term to forces
     atom    1 type  1   force =    -0.00006089   -0.00004564   -0.00004940
     atom    2 type  1   force =     0.00001350    0.00003191    0.00002728
     atom    3 type  2   force =    -0.00000160   -0.00000563    0.00000028
     atom    4 type  2   force =     0.00000815    0.00000646   -0.00000650
     atom    5 type  1   force =     0.00003347    0.00002383   -0.00001698
     atom    6 type  1   force =    -0.00001377   -0.00001613   -0.00000523
     atom    7 type  2   force =    -0.00000067    0.00000252    0.00000043
     atom    8 type  2   force =    -0.00000708   -0.00001077   -0.00000378

     Total force =     0.067857     Total SCF correction =     0.000114

     init_run     :      8.25s CPU      4.95s WALL (       1 calls)
     electrons    :    665.45s CPU    345.28s WALL (       1 calls)
     forces       :      2.61s CPU      1.30s WALL (       1 calls)

     Called by init_run:
     wfcinit      :      5.46s CPU      2.83s WALL (       1 calls)
     wfcinit:atom :      0.06s CPU      0.03s WALL (      28 calls)
     wfcinit:wfcr :      5.06s CPU      2.54s WALL (      28 calls)
     potinit      :      0.86s CPU      0.54s WALL (       1 calls)
     hinit0       :      1.75s CPU      1.45s WALL (       1 calls)

     Called by electrons:
     c_bands      :    573.85s CPU    300.39s WALL (      39 calls)
     sum_band     :     80.86s CPU     39.24s WALL (      39 calls)
     v_of_rho     :      4.83s CPU      2.52s WALL (      40 calls)
     v_h          :      0.32s CPU      0.16s WALL (      40 calls)
     v_xc         :      4.62s CPU      2.42s WALL (      41 calls)
     newd         :      4.71s CPU      2.44s WALL (      40 calls)
     mix_rho      :      0.76s CPU      0.47s WALL (      39 calls)

     Called by c_bands:
     init_us_2    :      5.72s CPU      2.89s WALL (    2240 calls)
     init_us_2:cp :      5.70s CPU      2.88s WALL (    2240 calls)
     cegterg      :    523.46s CPU    265.36s WALL (    1092 calls)

     Called by sum_band:
     sum_band:wei :      0.01s CPU      0.01s WALL (      39 calls)
     sum_band:loo :     72.72s CPU     34.44s WALL (      39 calls)
     sum_band:buf :      0.54s CPU      0.35s WALL (    1092 calls)
     sum_band:ini :      2.46s CPU      1.19s WALL (    1092 calls)
     sum_band:cal :      8.21s CPU      3.66s WALL (    1092 calls)
     sum_band:bec :      0.20s CPU      0.15s WALL (    1092 calls)
     addusdens    :      5.68s CPU      2.85s WALL (      39 calls)
     addusd:skk   :      0.03s CPU      0.01s WALL (      78 calls)
     addusd:dgemm :      1.05s CPU      0.50s WALL (      78 calls)
     addusd:qvan2 :      3.58s CPU      1.66s WALL (      78 calls)

     Called by *egterg:
     cdiaghg      :     40.74s CPU     33.92s WALL (    6199 calls)
     cegterg:over :     31.97s CPU     17.13s WALL (    5107 calls)
     cegterg:upda :     21.18s CPU      9.69s WALL (    5107 calls)
     cegterg:last :     29.51s CPU     14.34s WALL (    2825 calls)
     cdiaghg:chol :      2.23s CPU      1.84s WALL (    6199 calls)
     cdiaghg:inve :      0.73s CPU      0.54s WALL (    6199 calls)
     cdiaghg:para :      5.49s CPU      4.65s WALL (   12398 calls)
     h_psi        :    369.27s CPU    176.02s WALL (    6227 calls)
     s_psi        :     23.01s CPU      9.55s WALL (    6227 calls)
     g_psi        :      1.51s CPU      0.91s WALL (    5107 calls)

     Called by h_psi:
     h_psi:calbec :     32.56s CPU     13.85s WALL (    6227 calls)
     vloc_psi     :    317.87s CPU    152.29s WALL (    6227 calls)
     add_vuspsi   :     17.71s CPU      9.29s WALL (    6227 calls)

     General routines
     calbec       :     41.53s CPU     17.83s WALL (    7431 calls)
     fft          :      3.48s CPU      2.16s WALL (     529 calls)
     ffts         :      0.38s CPU      0.27s WALL (      79 calls)
     fftw         :    335.24s CPU    160.59s WALL (  275604 calls)
     interpolate  :      0.52s CPU      0.35s WALL (      40 calls)

     Parallel routines

     PWSCF        :  11m16.93s CPU   5m52.15s WALL


   This run was terminated on:   6:13:53  24Sep2025            

=------------------------------------------------------------------------------=
   JOB DONE.
=------------------------------------------------------------------------------=
Note: The following floating-point exceptions are signalling: IEEE_UNDERFLOW_FLAG IEEE_DENORMAL
Note: The following floating-point exceptions are signalling: IEEE_UNDERFLOW_FLAG IEEE_DENORMAL
Note: The following floating-point exceptions are signalling: IEEE_UNDERFLOW_FLAG IEEE_DENORMAL
Note: The following floating-point exceptions are signalling: IEEE_UNDERFLOW_FLAG IEEE_DENORMAL
Note: The following floating-point exceptions are signalling: IEEE_UNDERFLOW_FLAG IEEE_DENORMAL
Note: The following floating-point exceptions are signalling: IEEE_UNDERFLOW_FLAG IEEE_DENORMAL
Note: The following floating-point exceptions are signalling: IEEE_UNDERFLOW_FLAG IEEE_DENORMAL
Note: The following floating-point exceptions are signalling: IEEE_UNDERFLOW_FLAG IEEE_DENORMAL
Note: The following floating-point exceptions are signalling: IEEE_UNDERFLOW_FLAG IEEE_DENORMAL
Note: The following floating-point exceptions are signalling: IEEE_UNDERFLOW_FLAG IEEE_DENORMAL
Note: The following floating-point exceptions are signalling: IEEE_UNDERFLOW_FLAG IEEE_DENORMAL
Note: The following floating-point exceptions are signalling: IEEE_UNDERFLOW_FLAG IEEE_DENORMAL
Note: The following floating-point exceptions are signalling: IEEE_UNDERFLOW_FLAG IEEE_DENORMAL
Note: The following floating-point exceptions are signalling: IEEE_UNDERFLOW_FLAG IEEE_DENORMAL
Note: The following floating-point exceptions are signalling: IEEE_UNDERFLOW_FLAG IEEE_DENORMAL
Note: The following floating-point exceptions are signalling: IEEE_UNDERFLOW_FLAG IEEE_DENORMAL
