
     Program PWSCF v.7.2 starts on 24Sep2025 at 14:23:42 

     This program is part of the open-source Quantum ESPRESSO suite
     for quantum simulation of materials; please cite
         "P. Giannozzi et al., J. Phys.:Condens. Matter 21 395502 (2009);
         "P. Giannozzi et al., J. Phys.:Condens. Matter 29 465901 (2017);
         "P. Giannozzi et al., J. Chem. Phys. 152 154105 (2020);
          URL http://www.quantum-espresso.org", 
     in publications or presentations arising from this work. More details at
     http://www.quantum-espresso.org/quote

     Parallel version (MPI), running on    16 processors

     MPI processes distributed on     1 nodes
     112103 MiB available memory on the printing compute node when the environment starts

     Reading input from /home/jvc/QEspresso7.2/ZnO_database/scripts/random_1x1x2.in/ZnO-3.40-1.58-112-0.06-2.in
Warning: card &CELL ignored
Warning: card / ignored
Warning: card &FCP ignored
Warning: card / ignored
Warning: card &RISM ignored
Warning: card / ignored

     Current dimensions of program PWSCF are:
     Max number of different atomic species (ntypx) = 10
     Max number of k-points (npk) =  40000
     Max angular momentum in pseudopotentials (lmaxx) =  4
     file Zn.upf: wavefunction(s)  3D renormalized

     K-points division:     npool     =       4
     R & G space division:  proc/nbgrp/npool/nimage =       4
     Subspace diagonalization in iterative solution of the eigenvalue problem:
     a serial algorithm will be used


     Parallelization info
     --------------------
     sticks:   dense  smooth     PW     G-vecs:    dense   smooth      PW
     Min         286     142     40                24583     8658    1408
     Max         287     144     41                24589     8665    1423
     Sum        1147     571    163                98343    34645    5673

     Using Slab Decomposition



     bravais-lattice index     =            0
     lattice parameter (alat)  =       6.4260  a.u.
     unit-cell volume          =     727.1273 (a.u.)^3
     number of atoms/cell      =            8
     number of atomic types    =            2
     number of electrons       =        72.00
     number of Kohn-Sham states=           36
     kinetic-energy cutoff     =      50.0000  Ry
     charge density cutoff     =     400.0000  Ry
     scf convergence threshold =      1.0E-08
     mixing beta               =       0.3000
     number of iterations used =            8  plain     mixing
     Exchange-correlation= PBE
                           (   1   4   3   4   0   0   0)

     celldm(1)=   6.426008  celldm(2)=   0.000000  celldm(3)=   0.000000
     celldm(4)=   0.000000  celldm(5)=   0.000000  celldm(6)=   0.000000

     crystal axes: (cart. coord. in units of alat)
               a(1) = (   1.000000   0.000000   0.000000 )  
               a(2) = (  -0.500000   0.866025   0.000000 )  
               a(3) = (   0.000000   0.000000   3.164142 )  

     reciprocal axes: (cart. coord. in units 2 pi/alat)
               b(1) = (  1.000000  0.577350 -0.000000 )  
               b(2) = (  0.000000  1.154701  0.000000 )  
               b(3) = (  0.000000 -0.000000  0.316041 )  


     PseudoPot. # 1 for Zn read from file:
     /home/jvc/QEspresso7.2/ZnO_database/pseudos/Zn.upf
     MD5 check sum: 7f56cabf9682ed8c977c2f7d0c5985c5
     Pseudo is Ultrasoft + core correction, Zval = 12.0
     Generated using &quot;atomic&quot; code by A. Dal Corso  v.6.2.2
     Using radial grid of 1201 points,  6 beta functions with: 
                l(1) =   0
                l(2) =   0
                l(3) =   1
                l(4) =   1
                l(5) =   2
                l(6) =   2
     Q(r) pseudized with 0 coefficients 


     PseudoPot. # 2 for O  read from file:
     /home/jvc/QEspresso7.2/ZnO_database/pseudos/O.upf
     MD5 check sum: 91400c9766925bcf19f520983a725ff0
     Pseudo is Ultrasoft + core correction, Zval =  6.0
     Generated using &quot;atomic&quot; code by A. Dal Corso  v.6.3MaX
     Using radial grid of 1095 points,  4 beta functions with: 
                l(1) =   0
                l(2) =   0
                l(3) =   1
                l(4) =   1
     Q(r) pseudized with 0 coefficients 


     atomic species   valence    mass     pseudopotential
        Zn            12.00    65.38000     Zn( 1.00)
        O              6.00    15.99900     O ( 1.00)

     No symmetry found


                                    s                        frac. trans.

      isym =  1     identity                                     

 cryst.   s( 1) = (     1          0          0      )
                  (     0          1          0      )
                  (     0          0          1      )

 cart.    s( 1) = (  1.0000000  0.0000000  0.0000000 )
                  (  0.0000000  1.0000000  0.0000000 )
                  (  0.0000000  0.0000000  1.0000000 )


   Cartesian axes

     site n.     atom                  positions (alat units)
         1           Zn  tau(   1) = (   0.5036205   0.3106672   0.7705084  )
         2           Zn  tau(   2) = (  -0.0227171   0.5695271   0.0050908  )
         3           O   tau(   3) = (   0.5102440   0.2921344   1.3722058  )
         4           O   tau(   4) = (  -0.0062840   0.5759780   0.6071866  )
         5           Zn  tau(   5) = (   0.5184387   0.2631934   2.4075322  )
         6           Zn  tau(   6) = (   0.0205270   0.5827325   1.5838405  )
         7           O   tau(   7) = (   0.5088332   0.2692413   2.9520972  )
         8           O   tau(   8) = (   0.0186447   0.5878437   2.2025394  )

   Crystallographic axes

     site n.     atom                  positions (cryst. coord.)
         1           Zn  tau(   1) = (  0.6829843  0.3587276  0.2435126  )
         2           Zn  tau(   2) = (  0.3060995  0.6576332  0.0016089  )
         3           O   tau(   3) = (  0.6789079  0.3373277  0.4336739  )
         4           O   tau(   4) = (  0.3262571  0.6650821  0.1918961  )
         5           Zn  tau(   5) = (  0.6703935  0.3039096  0.7608799  )
         6           Zn  tau(   6) = (  0.3569678  0.6728815  0.5005592  )
         7           O   tau(   7) = (  0.6642798  0.3108931  0.9329849  )
         8           O   tau(   8) = (  0.3580364  0.6787834  0.6960936  )

     number of k points=   112
                       cart. coord. in units 2pi/alat
        k(    1) = (   0.0000000   0.0000000   0.0000000), wk =   0.0092593
        k(    2) = (   0.0000000   0.0000000   0.0526736), wk =   0.0185185
        k(    3) = (   0.0000000   0.0000000   0.1053471), wk =   0.0185185
        k(    4) = (   0.0000000   0.0000000  -0.1580207), wk =   0.0092593
        k(    5) = (   0.0000000   0.1924501   0.0000000), wk =   0.0185185
        k(    6) = (   0.0000000   0.1924501   0.0526736), wk =   0.0185185
        k(    7) = (   0.0000000   0.1924501   0.1053471), wk =   0.0185185
        k(    8) = (   0.0000000   0.1924501  -0.1580207), wk =   0.0185185
        k(    9) = (   0.0000000   0.3849002   0.0000000), wk =   0.0185185
        k(   10) = (   0.0000000   0.3849002   0.0526736), wk =   0.0185185
        k(   11) = (   0.0000000   0.3849002   0.1053471), wk =   0.0185185
        k(   12) = (   0.0000000   0.3849002  -0.1580207), wk =   0.0185185
        k(   13) = (   0.0000000  -0.5773503   0.0000000), wk =   0.0092593
        k(   14) = (   0.0000000  -0.5773503   0.0526736), wk =   0.0185185
        k(   15) = (   0.0000000  -0.5773503   0.1053471), wk =   0.0185185
        k(   16) = (   0.0000000  -0.5773503  -0.1580207), wk =   0.0092593
        k(   17) = (   0.1666667   0.2886751   0.0000000), wk =   0.0185185
        k(   18) = (   0.1666667   0.2886751   0.0526736), wk =   0.0185185
        k(   19) = (   0.1666667   0.2886751   0.1053471), wk =   0.0185185
        k(   20) = (   0.1666667   0.2886751  -0.1580207), wk =   0.0185185
        k(   21) = (   0.1666667   0.4811252   0.0000000), wk =   0.0185185
        k(   22) = (   0.1666667   0.4811252   0.0526736), wk =   0.0185185
        k(   23) = (   0.1666667   0.4811252   0.1053471), wk =   0.0185185
        k(   24) = (   0.1666667   0.4811252  -0.1580207), wk =   0.0185185
        k(   25) = (   0.3333333   0.5773503   0.0000000), wk =   0.0185185
        k(   26) = (   0.3333333   0.5773503   0.0526736), wk =   0.0185185
        k(   27) = (   0.3333333   0.5773503   0.1053471), wk =   0.0185185
        k(   28) = (   0.3333333   0.5773503  -0.1580207), wk =   0.0185185
        k(   29) = (  -0.1666667   0.0962250   0.0000000), wk =   0.0185185
        k(   30) = (   0.1666667   0.0962250   0.0000000), wk =   0.0185185
        k(   31) = (   0.0000000  -0.1924501   0.0526736), wk =   0.0185185
        k(   32) = (  -0.1666667   0.0962250   0.0526736), wk =   0.0185185
        k(   33) = (   0.1666667   0.0962250   0.0526736), wk =   0.0185185
        k(   34) = (  -0.1666667  -0.0962250   0.0526736), wk =   0.0185185
        k(   35) = (   0.1666667  -0.0962250   0.0526736), wk =   0.0185185
        k(   36) = (   0.0000000  -0.1924501   0.1053471), wk =   0.0185185
        k(   37) = (  -0.1666667   0.0962250   0.1053471), wk =   0.0185185
        k(   38) = (   0.1666667   0.0962250   0.1053471), wk =   0.0185185
        k(   39) = (  -0.1666667  -0.0962250   0.1053471), wk =   0.0185185
        k(   40) = (   0.1666667  -0.0962250   0.1053471), wk =   0.0185185
        k(   41) = (  -0.1666667   0.0962250  -0.1580207), wk =   0.0185185
        k(   42) = (   0.1666667   0.0962250  -0.1580207), wk =   0.0185185
        k(   43) = (  -0.3333333   0.1924501   0.0000000), wk =   0.0185185
        k(   44) = (   0.3333333   0.1924501   0.0000000), wk =   0.0185185
        k(   45) = (   0.0000000  -0.3849002   0.0526736), wk =   0.0185185
        k(   46) = (  -0.3333333   0.1924501   0.0526736), wk =   0.0185185
        k(   47) = (   0.3333333   0.1924501   0.0526736), wk =   0.0185185
        k(   48) = (  -0.3333333  -0.1924501   0.0526736), wk =   0.0185185
        k(   49) = (   0.3333333  -0.1924501   0.0526736), wk =   0.0185185
        k(   50) = (   0.0000000  -0.3849002   0.1053471), wk =   0.0185185
        k(   51) = (  -0.3333333   0.1924501   0.1053471), wk =   0.0185185
        k(   52) = (   0.3333333   0.1924501   0.1053471), wk =   0.0185185
        k(   53) = (  -0.3333333  -0.1924501   0.1053471), wk =   0.0185185
        k(   54) = (   0.3333333  -0.1924501   0.1053471), wk =   0.0185185
        k(   55) = (  -0.3333333   0.1924501  -0.1580207), wk =   0.0185185
        k(   56) = (   0.3333333   0.1924501  -0.1580207), wk =   0.0185185
        k(   57) = (   0.5000000  -0.2886751   0.0000000), wk =   0.0092593
        k(   58) = (  -0.5000000  -0.2886751   0.0000000), wk =   0.0092593
        k(   59) = (   0.5000000  -0.2886751   0.0526736), wk =   0.0185185
        k(   60) = (  -0.5000000  -0.2886751   0.0526736), wk =   0.0185185
        k(   61) = (   0.5000000  -0.2886751   0.1053471), wk =   0.0185185
        k(   62) = (  -0.5000000  -0.2886751   0.1053471), wk =   0.0185185
        k(   63) = (   0.5000000  -0.2886751  -0.1580207), wk =   0.0092593
        k(   64) = (  -0.5000000  -0.2886751  -0.1580207), wk =   0.0092593
        k(   65) = (  -0.1666667   0.2886751   0.0000000), wk =   0.0185185
        k(   66) = (   0.3333333  -0.0000000   0.0000000), wk =   0.0185185
        k(   67) = (  -0.1666667  -0.2886751   0.0526736), wk =   0.0185185
        k(   68) = (  -0.1666667   0.2886751  -0.0526736), wk =   0.0185185
        k(   69) = (   0.1666667  -0.2886751  -0.0526736), wk =   0.0185185
        k(   70) = (   0.3333333  -0.0000000   0.0526736), wk =   0.0185185
        k(   71) = (  -0.3333333   0.0000000   0.0526736), wk =   0.0185185
        k(   72) = (  -0.1666667  -0.2886751   0.1053471), wk =   0.0185185
        k(   73) = (  -0.1666667   0.2886751  -0.1053471), wk =   0.0185185
        k(   74) = (   0.1666667  -0.2886751  -0.1053471), wk =   0.0185185
        k(   75) = (   0.3333333  -0.0000000   0.1053471), wk =   0.0185185
        k(   76) = (  -0.3333333   0.0000000   0.1053471), wk =   0.0185185
        k(   77) = (  -0.1666667   0.2886751   0.1580207), wk =   0.0185185
        k(   78) = (   0.3333333  -0.0000000  -0.1580207), wk =   0.0185185
        k(   79) = (  -0.1666667   0.4811252   0.0000000), wk =   0.0185185
        k(   80) = (  -0.3333333   0.3849002   0.0000000), wk =   0.0185185
        k(   81) = (   0.5000000   0.0962250   0.0000000), wk =   0.0185185
        k(   82) = (  -0.3333333  -0.3849002   0.0000000), wk =   0.0185185
        k(   83) = (   0.5000000  -0.0962250   0.0000000), wk =   0.0185185
        k(   84) = (  -0.1666667  -0.4811252   0.0526736), wk =   0.0185185
        k(   85) = (  -0.1666667   0.4811252  -0.0526736), wk =   0.0185185
        k(   86) = (   0.1666667  -0.4811252  -0.0526736), wk =   0.0185185
        k(   87) = (  -0.3333333   0.3849002   0.0526736), wk =   0.0185185
        k(   88) = (   0.5000000   0.0962250   0.0526736), wk =   0.0185185
        k(   89) = (  -0.5000000  -0.0962250   0.0526736), wk =   0.0185185
        k(   90) = (   0.3333333  -0.3849002   0.0526736), wk =   0.0185185
        k(   91) = (  -0.3333333  -0.3849002  -0.0526736), wk =   0.0185185
        k(   92) = (   0.5000000  -0.0962250  -0.0526736), wk =   0.0185185
        k(   93) = (  -0.5000000   0.0962250  -0.0526736), wk =   0.0185185
        k(   94) = (   0.3333333   0.3849002  -0.0526736), wk =   0.0185185
        k(   95) = (  -0.1666667  -0.4811252   0.1053471), wk =   0.0185185
        k(   96) = (  -0.1666667   0.4811252  -0.1053471), wk =   0.0185185
        k(   97) = (   0.1666667  -0.4811252  -0.1053471), wk =   0.0185185
        k(   98) = (  -0.3333333   0.3849002   0.1053471), wk =   0.0185185
        k(   99) = (   0.5000000   0.0962250   0.1053471), wk =   0.0185185
        k(  100) = (  -0.5000000  -0.0962250   0.1053471), wk =   0.0185185
        k(  101) = (   0.3333333  -0.3849002   0.1053471), wk =   0.0185185
        k(  102) = (  -0.3333333  -0.3849002  -0.1053471), wk =   0.0185185
        k(  103) = (   0.5000000  -0.0962250  -0.1053471), wk =   0.0185185
        k(  104) = (  -0.5000000   0.0962250  -0.1053471), wk =   0.0185185
        k(  105) = (   0.3333333   0.3849002  -0.1053471), wk =   0.0185185
        k(  106) = (  -0.1666667   0.4811252   0.1580207), wk =   0.0185185
        k(  107) = (  -0.3333333   0.3849002  -0.1580207), wk =   0.0185185
        k(  108) = (   0.5000000   0.0962250  -0.1580207), wk =   0.0185185
        k(  109) = (  -0.3333333  -0.3849002   0.1580207), wk =   0.0185185
        k(  110) = (   0.5000000  -0.0962250   0.1580207), wk =   0.0185185
        k(  111) = (  -0.3333333  -0.5773503   0.0526736), wk =   0.0185185
        k(  112) = (  -0.3333333  -0.5773503   0.1053471), wk =   0.0185185

                       cryst. coord.
        k(    1) = (   0.0000000   0.0000000   0.0000000), wk =   0.0092593
        k(    2) = (   0.0000000   0.0000000   0.1666667), wk =   0.0185185
        k(    3) = (   0.0000000   0.0000000   0.3333333), wk =   0.0185185
        k(    4) = (   0.0000000   0.0000000  -0.5000000), wk =   0.0092593
        k(    5) = (   0.0000000   0.1666667   0.0000000), wk =   0.0185185
        k(    6) = (   0.0000000   0.1666667   0.1666667), wk =   0.0185185
        k(    7) = (   0.0000000   0.1666667   0.3333333), wk =   0.0185185
        k(    8) = (   0.0000000   0.1666667  -0.5000000), wk =   0.0185185
        k(    9) = (   0.0000000   0.3333333   0.0000000), wk =   0.0185185
        k(   10) = (   0.0000000   0.3333333   0.1666667), wk =   0.0185185
        k(   11) = (   0.0000000   0.3333333   0.3333333), wk =   0.0185185
        k(   12) = (   0.0000000   0.3333333  -0.5000000), wk =   0.0185185
        k(   13) = (   0.0000000  -0.5000000   0.0000000), wk =   0.0092593
        k(   14) = (   0.0000000  -0.5000000   0.1666667), wk =   0.0185185
        k(   15) = (   0.0000000  -0.5000000   0.3333333), wk =   0.0185185
        k(   16) = (   0.0000000  -0.5000000  -0.5000000), wk =   0.0092593
        k(   17) = (   0.1666667   0.1666667   0.0000000), wk =   0.0185185
        k(   18) = (   0.1666667   0.1666667   0.1666667), wk =   0.0185185
        k(   19) = (   0.1666667   0.1666667   0.3333333), wk =   0.0185185
        k(   20) = (   0.1666667   0.1666667  -0.5000000), wk =   0.0185185
        k(   21) = (   0.1666667   0.3333333   0.0000000), wk =   0.0185185
        k(   22) = (   0.1666667   0.3333333   0.1666667), wk =   0.0185185
        k(   23) = (   0.1666667   0.3333333   0.3333333), wk =   0.0185185
        k(   24) = (   0.1666667   0.3333333  -0.5000000), wk =   0.0185185
        k(   25) = (   0.3333333   0.3333333   0.0000000), wk =   0.0185185
        k(   26) = (   0.3333333   0.3333333   0.1666667), wk =   0.0185185
        k(   27) = (   0.3333333   0.3333333   0.3333333), wk =   0.0185185
        k(   28) = (   0.3333333   0.3333333  -0.5000000), wk =   0.0185185
        k(   29) = (  -0.1666667   0.1666667   0.0000000), wk =   0.0185185
        k(   30) = (   0.1666667   0.0000000   0.0000000), wk =   0.0185185
        k(   31) = (   0.0000000  -0.1666667   0.1666667), wk =   0.0185185
        k(   32) = (  -0.1666667   0.1666667   0.1666667), wk =   0.0185185
        k(   33) = (   0.1666667   0.0000000   0.1666667), wk =   0.0185185
        k(   34) = (  -0.1666667   0.0000000   0.1666667), wk =   0.0185185
        k(   35) = (   0.1666667  -0.1666667   0.1666667), wk =   0.0185185
        k(   36) = (   0.0000000  -0.1666667   0.3333333), wk =   0.0185185
        k(   37) = (  -0.1666667   0.1666667   0.3333333), wk =   0.0185185
        k(   38) = (   0.1666667   0.0000000   0.3333333), wk =   0.0185185
        k(   39) = (  -0.1666667   0.0000000   0.3333333), wk =   0.0185185
        k(   40) = (   0.1666667  -0.1666667   0.3333333), wk =   0.0185185
        k(   41) = (  -0.1666667   0.1666667  -0.5000000), wk =   0.0185185
        k(   42) = (   0.1666667   0.0000000  -0.5000000), wk =   0.0185185
        k(   43) = (  -0.3333333   0.3333333   0.0000000), wk =   0.0185185
        k(   44) = (   0.3333333   0.0000000   0.0000000), wk =   0.0185185
        k(   45) = (   0.0000000  -0.3333333   0.1666667), wk =   0.0185185
        k(   46) = (  -0.3333333   0.3333333   0.1666667), wk =   0.0185185
        k(   47) = (   0.3333333   0.0000000   0.1666667), wk =   0.0185185
        k(   48) = (  -0.3333333   0.0000000   0.1666667), wk =   0.0185185
        k(   49) = (   0.3333333  -0.3333333   0.1666667), wk =   0.0185185
        k(   50) = (   0.0000000  -0.3333333   0.3333333), wk =   0.0185185
        k(   51) = (  -0.3333333   0.3333333   0.3333333), wk =   0.0185185
        k(   52) = (   0.3333333   0.0000000   0.3333333), wk =   0.0185185
        k(   53) = (  -0.3333333   0.0000000   0.3333333), wk =   0.0185185
        k(   54) = (   0.3333333  -0.3333333   0.3333333), wk =   0.0185185
        k(   55) = (  -0.3333333   0.3333333  -0.5000000), wk =   0.0185185
        k(   56) = (   0.3333333   0.0000000  -0.5000000), wk =   0.0185185
        k(   57) = (   0.5000000  -0.5000000   0.0000000), wk =   0.0092593
        k(   58) = (  -0.5000000   0.0000000   0.0000000), wk =   0.0092593
        k(   59) = (   0.5000000  -0.5000000   0.1666667), wk =   0.0185185
        k(   60) = (  -0.5000000   0.0000000   0.1666667), wk =   0.0185185
        k(   61) = (   0.5000000  -0.5000000   0.3333333), wk =   0.0185185
        k(   62) = (  -0.5000000   0.0000000   0.3333333), wk =   0.0185185
        k(   63) = (   0.5000000  -0.5000000  -0.5000000), wk =   0.0092593
        k(   64) = (  -0.5000000   0.0000000  -0.5000000), wk =   0.0092593
        k(   65) = (  -0.1666667   0.3333333   0.0000000), wk =   0.0185185
        k(   66) = (   0.3333333  -0.1666667   0.0000000), wk =   0.0185185
        k(   67) = (  -0.1666667  -0.1666667   0.1666667), wk =   0.0185185
        k(   68) = (  -0.1666667   0.3333333  -0.1666667), wk =   0.0185185
        k(   69) = (   0.1666667  -0.3333333  -0.1666667), wk =   0.0185185
        k(   70) = (   0.3333333  -0.1666667   0.1666667), wk =   0.0185185
        k(   71) = (  -0.3333333   0.1666667   0.1666667), wk =   0.0185185
        k(   72) = (  -0.1666667  -0.1666667   0.3333333), wk =   0.0185185
        k(   73) = (  -0.1666667   0.3333333  -0.3333333), wk =   0.0185185
        k(   74) = (   0.1666667  -0.3333333  -0.3333333), wk =   0.0185185
        k(   75) = (   0.3333333  -0.1666667   0.3333333), wk =   0.0185185
        k(   76) = (  -0.3333333   0.1666667   0.3333333), wk =   0.0185185
        k(   77) = (  -0.1666667   0.3333333   0.5000000), wk =   0.0185185
        k(   78) = (   0.3333333  -0.1666667  -0.5000000), wk =   0.0185185
        k(   79) = (  -0.1666667   0.5000000   0.0000000), wk =   0.0185185
        k(   80) = (  -0.3333333   0.5000000   0.0000000), wk =   0.0185185
        k(   81) = (   0.5000000  -0.1666667   0.0000000), wk =   0.0185185
        k(   82) = (  -0.3333333  -0.1666667   0.0000000), wk =   0.0185185
        k(   83) = (   0.5000000  -0.3333333   0.0000000), wk =   0.0185185
        k(   84) = (  -0.1666667  -0.3333333   0.1666667), wk =   0.0185185
        k(   85) = (  -0.1666667   0.5000000  -0.1666667), wk =   0.0185185
        k(   86) = (   0.1666667  -0.5000000  -0.1666667), wk =   0.0185185
        k(   87) = (  -0.3333333   0.5000000   0.1666667), wk =   0.0185185
        k(   88) = (   0.5000000  -0.1666667   0.1666667), wk =   0.0185185
        k(   89) = (  -0.5000000   0.1666667   0.1666667), wk =   0.0185185
        k(   90) = (   0.3333333  -0.5000000   0.1666667), wk =   0.0185185
        k(   91) = (  -0.3333333  -0.1666667  -0.1666667), wk =   0.0185185
        k(   92) = (   0.5000000  -0.3333333  -0.1666667), wk =   0.0185185
        k(   93) = (  -0.5000000   0.3333333  -0.1666667), wk =   0.0185185
        k(   94) = (   0.3333333   0.1666667  -0.1666667), wk =   0.0185185
        k(   95) = (  -0.1666667  -0.3333333   0.3333333), wk =   0.0185185
        k(   96) = (  -0.1666667   0.5000000  -0.3333333), wk =   0.0185185
        k(   97) = (   0.1666667  -0.5000000  -0.3333333), wk =   0.0185185
        k(   98) = (  -0.3333333   0.5000000   0.3333333), wk =   0.0185185
        k(   99) = (   0.5000000  -0.1666667   0.3333333), wk =   0.0185185
        k(  100) = (  -0.5000000   0.1666667   0.3333333), wk =   0.0185185
        k(  101) = (   0.3333333  -0.5000000   0.3333333), wk =   0.0185185
        k(  102) = (  -0.3333333  -0.1666667  -0.3333333), wk =   0.0185185
        k(  103) = (   0.5000000  -0.3333333  -0.3333333), wk =   0.0185185
        k(  104) = (  -0.5000000   0.3333333  -0.3333333), wk =   0.0185185
        k(  105) = (   0.3333333   0.1666667  -0.3333333), wk =   0.0185185
        k(  106) = (  -0.1666667   0.5000000   0.5000000), wk =   0.0185185
        k(  107) = (  -0.3333333   0.5000000  -0.5000000), wk =   0.0185185
        k(  108) = (   0.5000000  -0.1666667  -0.5000000), wk =   0.0185185
        k(  109) = (  -0.3333333  -0.1666667   0.5000000), wk =   0.0185185
        k(  110) = (   0.5000000  -0.3333333   0.5000000), wk =   0.0185185
        k(  111) = (  -0.3333333  -0.3333333   0.1666667), wk =   0.0185185
        k(  112) = (  -0.3333333  -0.3333333   0.3333333), wk =   0.0185185

     Dense  grid:    98343 G-vectors     FFT dimensions: (  45,  45, 135)

     Smooth grid:    34645 G-vectors     FFT dimensions: (  30,  30,  96)

     Dynamical RAM for                 wfc:       0.60 MB

     Dynamical RAM for     wfc (w. buffer):      17.28 MB

     Dynamical RAM for           str. fact:       0.75 MB

     Dynamical RAM for           local pot:       0.00 MB

     Dynamical RAM for          nlocal pot:       1.72 MB

     Dynamical RAM for                qrad:       3.21 MB

     Dynamical RAM for          rho,v,vnew:       2.70 MB

     Dynamical RAM for               rhoin:       0.90 MB

     Dynamical RAM for            rho*nmix:       6.00 MB

     Dynamical RAM for           G-vectors:       1.47 MB

     Dynamical RAM for          h,s,v(r/c):       0.24 MB

     Dynamical RAM for          <psi|beta>:       0.06 MB

     Dynamical RAM for                 psi:       1.19 MB

     Dynamical RAM for                hpsi:       1.19 MB

     Dynamical RAM for                spsi:       1.19 MB

     Dynamical RAM for      wfcinit/wfcrot:       1.78 MB

     Dynamical RAM for           addusdens:      18.10 MB

     Dynamical RAM for          addusforce:      18.58 MB

     Estimated static dynamical RAM per process >      31.79 MB

     Estimated max dynamical RAM per process >      56.38 MB

     Estimated total dynamical RAM >     830.05 MB

     Check: negative core charge=   -0.000002

     Initial potential from superposition of free atoms

     starting charge      71.9851, renormalised to      72.0000
     Starting wfcs are   52 randomized atomic wfcs

     total cpu time spent up to now is        4.7 secs

     Self-consistent Calculation

     iteration #  1     ecut=    50.00 Ry     beta= 0.30
     Davidson diagonalization with overlap

---- Real-time Memory Report at c_bands before calling an iterative solver
            66 MiB given to the printing process from OS
             0 MiB allocation reported by mallinfo(arena+hblkhd)
        111407 MiB available memory on the node where the printing process lives
------------------
     ethr =  1.00E-02,  avg # of iterations =  1.6

     total cpu time spent up to now is       10.1 secs

     total energy              =    -722.87878516 Ry
     estimated scf accuracy    <       1.49251027 Ry

     iteration #  2     ecut=    50.00 Ry     beta= 0.30
     Davidson diagonalization with overlap

---- Real-time Memory Report at c_bands before calling an iterative solver
            84 MiB given to the printing process from OS
             0 MiB allocation reported by mallinfo(arena+hblkhd)
        111082 MiB available memory on the node where the printing process lives
------------------
     ethr =  2.07E-03,  avg # of iterations =  2.0

     total cpu time spent up to now is       16.8 secs

     total energy              =    -723.10868569 Ry
     estimated scf accuracy    <       0.17164795 Ry

     iteration #  3     ecut=    50.00 Ry     beta= 0.30
     Davidson diagonalization with overlap

---- Real-time Memory Report at c_bands before calling an iterative solver
            85 MiB given to the printing process from OS
             0 MiB allocation reported by mallinfo(arena+hblkhd)
        111085 MiB available memory on the node where the printing process lives
------------------
     ethr =  2.38E-04,  avg # of iterations =  6.5

     total cpu time spent up to now is       28.2 secs

     total energy              =    -723.16041470 Ry
     estimated scf accuracy    <       0.15466643 Ry

     iteration #  4     ecut=    50.00 Ry     beta= 0.30
     Davidson diagonalization with overlap

---- Real-time Memory Report at c_bands before calling an iterative solver
            85 MiB given to the printing process from OS
             0 MiB allocation reported by mallinfo(arena+hblkhd)
        111122 MiB available memory on the node where the printing process lives
------------------
     ethr =  2.15E-04,  avg # of iterations =  7.5

     total cpu time spent up to now is       41.0 secs

     total energy              =    -723.25748055 Ry
     estimated scf accuracy    <       0.24275686 Ry

     iteration #  5     ecut=    50.00 Ry     beta= 0.30
     Davidson diagonalization with overlap

---- Real-time Memory Report at c_bands before calling an iterative solver
            86 MiB given to the printing process from OS
             0 MiB allocation reported by mallinfo(arena+hblkhd)
        111698 MiB available memory on the node where the printing process lives
------------------
     ethr =  2.15E-04,  avg # of iterations =  1.0

     total cpu time spent up to now is       46.0 secs

     total energy              =    -723.15173868 Ry
     estimated scf accuracy    <       0.16921408 Ry

     iteration #  6     ecut=    50.00 Ry     beta= 0.30
     Davidson diagonalization with overlap

---- Real-time Memory Report at c_bands before calling an iterative solver
            86 MiB given to the printing process from OS
             0 MiB allocation reported by mallinfo(arena+hblkhd)
        111333 MiB available memory on the node where the printing process lives
------------------
     ethr =  2.15E-04,  avg # of iterations =  5.2

     total cpu time spent up to now is       55.4 secs

     total energy              =    -723.22297283 Ry
     estimated scf accuracy    <       0.09693475 Ry

     iteration #  7     ecut=    50.00 Ry     beta= 0.30
     Davidson diagonalization with overlap

---- Real-time Memory Report at c_bands before calling an iterative solver
            86 MiB given to the printing process from OS
             0 MiB allocation reported by mallinfo(arena+hblkhd)
        111099 MiB available memory on the node where the printing process lives
------------------
     ethr =  1.35E-04,  avg # of iterations =  2.0

     total cpu time spent up to now is       60.8 secs

     total energy              =    -723.22305573 Ry
     estimated scf accuracy    <       0.03732646 Ry

     iteration #  8     ecut=    50.00 Ry     beta= 0.30
     Davidson diagonalization with overlap

---- Real-time Memory Report at c_bands before calling an iterative solver
            86 MiB given to the printing process from OS
             0 MiB allocation reported by mallinfo(arena+hblkhd)
        111105 MiB available memory on the node where the printing process lives
------------------
     ethr =  5.18E-05,  avg # of iterations =  2.2

     total cpu time spent up to now is       66.9 secs

     total energy              =    -723.22661909 Ry
     estimated scf accuracy    <       0.01545642 Ry

     iteration #  9     ecut=    50.00 Ry     beta= 0.30
     Davidson diagonalization with overlap

---- Real-time Memory Report at c_bands before calling an iterative solver
            87 MiB given to the printing process from OS
             0 MiB allocation reported by mallinfo(arena+hblkhd)
        111115 MiB available memory on the node where the printing process lives
------------------
     ethr =  2.15E-05,  avg # of iterations =  2.2

     total cpu time spent up to now is       72.9 secs

     total energy              =    -723.22532421 Ry
     estimated scf accuracy    <       0.01004256 Ry

     iteration # 10     ecut=    50.00 Ry     beta= 0.30
     Davidson diagonalization with overlap

---- Real-time Memory Report at c_bands before calling an iterative solver
            87 MiB given to the printing process from OS
             0 MiB allocation reported by mallinfo(arena+hblkhd)
        111116 MiB available memory on the node where the printing process lives
------------------
     ethr =  1.39E-05,  avg # of iterations =  4.1

     total cpu time spent up to now is       80.4 secs

     total energy              =    -723.22776769 Ry
     estimated scf accuracy    <       0.00048694 Ry

     iteration # 11     ecut=    50.00 Ry     beta= 0.30
     Davidson diagonalization with overlap

---- Real-time Memory Report at c_bands before calling an iterative solver
            87 MiB given to the printing process from OS
             0 MiB allocation reported by mallinfo(arena+hblkhd)
        111117 MiB available memory on the node where the printing process lives
------------------
     ethr =  6.76E-07,  avg # of iterations =  8.5

     total cpu time spent up to now is       95.7 secs

     total energy              =    -723.22870179 Ry
     estimated scf accuracy    <       0.00049086 Ry

     iteration # 12     ecut=    50.00 Ry     beta= 0.30
     Davidson diagonalization with overlap

---- Real-time Memory Report at c_bands before calling an iterative solver
            87 MiB given to the printing process from OS
             0 MiB allocation reported by mallinfo(arena+hblkhd)
        111108 MiB available memory on the node where the printing process lives
------------------
     ethr =  6.76E-07,  avg # of iterations =  1.0

     total cpu time spent up to now is      100.7 secs

     total energy              =    -723.22841073 Ry
     estimated scf accuracy    <       0.00036838 Ry

     iteration # 13     ecut=    50.00 Ry     beta= 0.30
     Davidson diagonalization with overlap

---- Real-time Memory Report at c_bands before calling an iterative solver
            87 MiB given to the printing process from OS
             0 MiB allocation reported by mallinfo(arena+hblkhd)
        111112 MiB available memory on the node where the printing process lives
------------------
     ethr =  5.12E-07,  avg # of iterations =  8.2

     total cpu time spent up to now is      114.4 secs

     total energy              =    -723.22894038 Ry
     estimated scf accuracy    <       0.00128320 Ry

     iteration # 14     ecut=    50.00 Ry     beta= 0.30
     Davidson diagonalization with overlap

---- Real-time Memory Report at c_bands before calling an iterative solver
            87 MiB given to the printing process from OS
             0 MiB allocation reported by mallinfo(arena+hblkhd)
        111127 MiB available memory on the node where the printing process lives
------------------
     ethr =  5.12E-07,  avg # of iterations =  1.0

     total cpu time spent up to now is      119.4 secs

     total energy              =    -723.22841878 Ry
     estimated scf accuracy    <       0.00124259 Ry

     iteration # 15     ecut=    50.00 Ry     beta= 0.30
     Davidson diagonalization with overlap

---- Real-time Memory Report at c_bands before calling an iterative solver
            87 MiB given to the printing process from OS
             0 MiB allocation reported by mallinfo(arena+hblkhd)
        111128 MiB available memory on the node where the printing process lives
------------------
     ethr =  5.12E-07,  avg # of iterations =  4.8

     total cpu time spent up to now is      128.3 secs

     total energy              =    -723.22862065 Ry
     estimated scf accuracy    <       0.00001213 Ry

     iteration # 16     ecut=    50.00 Ry     beta= 0.30
     Davidson diagonalization with overlap

---- Real-time Memory Report at c_bands before calling an iterative solver
            87 MiB given to the printing process from OS
             0 MiB allocation reported by mallinfo(arena+hblkhd)
        111128 MiB available memory on the node where the printing process lives
------------------
     ethr =  1.68E-08,  avg # of iterations =  7.6

     total cpu time spent up to now is      140.7 secs

     total energy              =    -723.22863466 Ry
     estimated scf accuracy    <       0.00000265 Ry

     iteration # 17     ecut=    50.00 Ry     beta= 0.30
     Davidson diagonalization with overlap

---- Real-time Memory Report at c_bands before calling an iterative solver
            87 MiB given to the printing process from OS
             0 MiB allocation reported by mallinfo(arena+hblkhd)
        111127 MiB available memory on the node where the printing process lives
------------------
     ethr =  3.68E-09,  avg # of iterations =  5.5

     total cpu time spent up to now is      149.2 secs

     total energy              =    -723.22863621 Ry
     estimated scf accuracy    <       0.00000165 Ry

     iteration # 18     ecut=    50.00 Ry     beta= 0.30
     Davidson diagonalization with overlap

---- Real-time Memory Report at c_bands before calling an iterative solver
            87 MiB given to the printing process from OS
             0 MiB allocation reported by mallinfo(arena+hblkhd)
        111126 MiB available memory on the node where the printing process lives
------------------
     ethr =  2.30E-09,  avg # of iterations =  4.8

     total cpu time spent up to now is      157.5 secs

     total energy              =    -723.22863638 Ry
     estimated scf accuracy    <       0.00000495 Ry

     iteration # 19     ecut=    50.00 Ry     beta= 0.30
     Davidson diagonalization with overlap

---- Real-time Memory Report at c_bands before calling an iterative solver
            87 MiB given to the printing process from OS
             0 MiB allocation reported by mallinfo(arena+hblkhd)
        111125 MiB available memory on the node where the printing process lives
------------------
     ethr =  2.30E-09,  avg # of iterations =  1.5

     total cpu time spent up to now is      162.9 secs

     total energy              =    -723.22863566 Ry
     estimated scf accuracy    <       0.00000457 Ry

     iteration # 20     ecut=    50.00 Ry     beta= 0.30
     Davidson diagonalization with overlap

---- Real-time Memory Report at c_bands before calling an iterative solver
            87 MiB given to the printing process from OS
             0 MiB allocation reported by mallinfo(arena+hblkhd)
        111125 MiB available memory on the node where the printing process lives
------------------
     ethr =  2.30E-09,  avg # of iterations =  1.8

     total cpu time spent up to now is      168.4 secs

     total energy              =    -723.22863483 Ry
     estimated scf accuracy    <       0.00000296 Ry

     iteration # 21     ecut=    50.00 Ry     beta= 0.30
     Davidson diagonalization with overlap

---- Real-time Memory Report at c_bands before calling an iterative solver
            87 MiB given to the printing process from OS
             0 MiB allocation reported by mallinfo(arena+hblkhd)
        111125 MiB available memory on the node where the printing process lives
------------------
     ethr =  2.30E-09,  avg # of iterations =  3.6

     total cpu time spent up to now is      175.7 secs

     total energy              =    -723.22863474 Ry
     estimated scf accuracy    <       0.00000069 Ry

     iteration # 22     ecut=    50.00 Ry     beta= 0.30
     Davidson diagonalization with overlap

---- Real-time Memory Report at c_bands before calling an iterative solver
            87 MiB given to the printing process from OS
             0 MiB allocation reported by mallinfo(arena+hblkhd)
        111125 MiB available memory on the node where the printing process lives
------------------
     ethr =  9.61E-10,  avg # of iterations =  6.4

     total cpu time spent up to now is      187.3 secs

     total energy              =    -723.22863530 Ry
     estimated scf accuracy    <       0.00000052 Ry

     iteration # 23     ecut=    50.00 Ry     beta= 0.30
     Davidson diagonalization with overlap

---- Real-time Memory Report at c_bands before calling an iterative solver
            87 MiB given to the printing process from OS
             0 MiB allocation reported by mallinfo(arena+hblkhd)
        111125 MiB available memory on the node where the printing process lives
------------------
     ethr =  7.28E-10,  avg # of iterations =  1.1

     total cpu time spent up to now is      192.4 secs

     total energy              =    -723.22863509 Ry
     estimated scf accuracy    <       0.00000037 Ry

     iteration # 24     ecut=    50.00 Ry     beta= 0.30
     Davidson diagonalization with overlap

---- Real-time Memory Report at c_bands before calling an iterative solver
            87 MiB given to the printing process from OS
             0 MiB allocation reported by mallinfo(arena+hblkhd)
        111125 MiB available memory on the node where the printing process lives
------------------
     ethr =  5.16E-10,  avg # of iterations =  4.3

     total cpu time spent up to now is      200.7 secs

     total energy              =    -723.22863525 Ry
     estimated scf accuracy    <       0.00000008 Ry

     iteration # 25     ecut=    50.00 Ry     beta= 0.30
     Davidson diagonalization with overlap

---- Real-time Memory Report at c_bands before calling an iterative solver
            87 MiB given to the printing process from OS
             0 MiB allocation reported by mallinfo(arena+hblkhd)
        111125 MiB available memory on the node where the printing process lives
------------------
     ethr =  1.09E-10,  avg # of iterations =  5.4

     total cpu time spent up to now is      208.2 secs

     total energy              =    -723.22863526 Ry
     estimated scf accuracy    <       0.00000012 Ry

     iteration # 26     ecut=    50.00 Ry     beta= 0.30
     Davidson diagonalization with overlap

---- Real-time Memory Report at c_bands before calling an iterative solver
            87 MiB given to the printing process from OS
             0 MiB allocation reported by mallinfo(arena+hblkhd)
        111125 MiB available memory on the node where the printing process lives
------------------
     ethr =  1.09E-10,  avg # of iterations =  1.0

     total cpu time spent up to now is      213.3 secs

     total energy              =    -723.22863525 Ry
     estimated scf accuracy    <       0.00000011 Ry

     iteration # 27     ecut=    50.00 Ry     beta= 0.30
     Davidson diagonalization with overlap

---- Real-time Memory Report at c_bands before calling an iterative solver
            87 MiB given to the printing process from OS
             0 MiB allocation reported by mallinfo(arena+hblkhd)
        111125 MiB available memory on the node where the printing process lives
------------------
     ethr =  1.09E-10,  avg # of iterations =  1.0

     total cpu time spent up to now is      218.3 secs

     total energy              =    -723.22863520 Ry
     estimated scf accuracy    <       0.00000009 Ry

     iteration # 28     ecut=    50.00 Ry     beta= 0.30
     Davidson diagonalization with overlap

---- Real-time Memory Report at c_bands before calling an iterative solver
            87 MiB given to the printing process from OS
             0 MiB allocation reported by mallinfo(arena+hblkhd)
        111125 MiB available memory on the node where the printing process lives
------------------
     ethr =  1.09E-10,  avg # of iterations =  5.3

     total cpu time spent up to now is      227.1 secs

     total energy              =    -723.22863523 Ry
     estimated scf accuracy    <       0.00000003 Ry

     iteration # 29     ecut=    50.00 Ry     beta= 0.30
     Davidson diagonalization with overlap

---- Real-time Memory Report at c_bands before calling an iterative solver
            87 MiB given to the printing process from OS
             0 MiB allocation reported by mallinfo(arena+hblkhd)
        111125 MiB available memory on the node where the printing process lives
------------------
     ethr =  4.61E-11,  avg # of iterations =  4.7

     total cpu time spent up to now is      234.4 secs

     End of self-consistent calculation

          k = 0.0000 0.0000 0.0000 (  4335 PWs)   bands (ev):

   -12.0101 -11.7449 -11.0594 -10.7757  -0.2344  -0.0690   0.0488   0.0615
     0.1250   0.1903   0.5112   0.6437   0.6879   0.7418   0.8034   0.8300
     0.8925   0.9569   1.1637   1.1694   1.4487   1.4578   1.5000   1.5108
     1.5351   3.2750   3.5334   4.4875   4.6582   4.9052   5.0058   5.3390
     5.4020   5.5839   5.6936   5.7561

     occupation numbers 
     1.0000   1.0000   1.0000   1.0000   1.0000   1.0000   1.0000   1.0000
     1.0000   1.0000   1.0000   1.0000   1.0000   1.0000   1.0000   1.0000
     1.0000   1.0000   1.0000   1.0000   1.0000   1.0000   1.0000   1.0000
     1.0000   1.0000   1.0000   1.0000   1.0000   1.0000   1.0000   1.0000
     1.0000   1.0000   1.0000   1.0000

          k = 0.0000 0.0000 0.0527 (  4330 PWs)   bands (ev):

   -12.0089 -11.7471 -11.0569 -10.7772  -0.2319  -0.0690   0.0489   0.0664
     0.1253   0.1916   0.5125   0.6434   0.6866   0.7368   0.8041   0.8292
     0.8771   0.9004   1.1635   1.1692   1.4517   1.4582   1.5093   1.5253
     1.6381   3.0063   3.7994   4.4903   4.6621   4.8976   4.9942   5.3346
     5.3571   5.4206   5.6896   5.7541

     occupation numbers 
     1.0000   1.0000   1.0000   1.0000   1.0000   1.0000   1.0000   1.0000
     1.0000   1.0000   1.0000   1.0000   1.0000   1.0000   1.0000   1.0000
     1.0000   1.0000   1.0000   1.0000   1.0000   1.0000   1.0000   1.0000
     1.0000   1.0000   1.0000   1.0000   1.0000   1.0000   1.0000   1.0000
     1.0000   1.0000   1.0000   1.0000

          k = 0.0000 0.0000 0.1053 (  4372 PWs)   bands (ev):

   -12.0066 -11.7515 -11.0518 -10.7802  -0.2271  -0.0691   0.0488   0.0766
     0.1260   0.1949   0.5180   0.6390   0.6777   0.7149   0.7933   0.8056
     0.8312   0.8939   1.1632   1.1687   1.4517   1.4583   1.5097   1.5270
     1.9078   2.6487   4.1495   4.4960   4.6701   4.8811   4.9552   5.0122
     5.3689   5.4309   5.6800   5.7500

     occupation numbers 
     1.0000   1.0000   1.0000   1.0000   1.0000   1.0000   1.0000   1.0000
     1.0000   1.0000   1.0000   1.0000   1.0000   1.0000   1.0000   1.0000
     1.0000   1.0000   1.0000   1.0000   1.0000   1.0000   1.0000   1.0000
     1.0000   1.0000   1.0000   1.0000   1.0000   1.0000   1.0000   1.0000
     1.0000   1.0000   1.0000   1.0000

          k = 0.0000 0.0000-0.1580 (  4366 PWs)   bands (ev):

   -12.0054 -11.7537 -11.0492 -10.7818  -0.2245  -0.0690   0.0489   0.0820
     0.1265   0.1971   0.5248   0.6270   0.6656   0.7028   0.7757   0.8062
     0.8304   0.8933   1.1632   1.1686   1.4515   1.4584   1.5100   1.5275
     2.1449   2.3867   4.3899   4.4981   4.6676   4.7482   4.8760   4.9702
     5.3775   5.4394   5.6747   5.7478

     occupation numbers 
     1.0000   1.0000   1.0000   1.0000   1.0000   1.0000   1.0000   1.0000
     1.0000   1.0000   1.0000   1.0000   1.0000   1.0000   1.0000   1.0000
     1.0000   1.0000   1.0000   1.0000   1.0000   1.0000   1.0000   1.0000
     1.0000   1.0000   1.0000   1.0000   1.0000   1.0000   1.0000   1.0000
     1.0000   1.0000   1.0000   1.0000

          k = 0.0000 0.1925 0.0000 (  4339 PWs)   bands (ev):

   -11.9133 -11.6743 -10.9766 -10.7153  -0.2017  -0.1066   0.0782   0.1024
     0.1951   0.2219   0.5487   0.6226   0.7430   0.7655   0.8162   0.8317
     0.9740   1.0172   1.1749   1.2429   1.4250   1.4571   1.4972   1.5101
     1.6279   3.2172   3.3519   3.8301   4.3197   4.3720   4.7057   4.7462
     4.8559   5.1789   5.4299   5.5812

     occupation numbers 
     1.0000   1.0000   1.0000   1.0000   1.0000   1.0000   1.0000   1.0000
     1.0000   1.0000   1.0000   1.0000   1.0000   1.0000   1.0000   1.0000
     1.0000   1.0000   1.0000   1.0000   1.0000   1.0000   1.0000   1.0000
     1.0000   1.0000   1.0000   1.0000   1.0000   1.0000   1.0000   1.0000
     1.0000   1.0000   1.0000   1.0000

          k = 0.0000 0.1925 0.0527 (  4349 PWs)   bands (ev):

   -11.9124 -11.6759 -10.9750 -10.7162  -0.1981  -0.1061   0.0784   0.1088
     0.1956   0.2203   0.5441   0.6284   0.7442   0.7731   0.8174   0.8310
     0.9341   0.9769   1.1746   1.2130   1.4389   1.4580   1.4997   1.5117
     1.7594   2.9828   3.5533   3.8556   4.2454   4.3723   4.6708   4.6952
     4.9672   5.1898   5.4146   5.5772

     occupation numbers 
     1.0000   1.0000   1.0000   1.0000   1.0000   1.0000   1.0000   1.0000
     1.0000   1.0000   1.0000   1.0000   1.0000   1.0000   1.0000   1.0000
     1.0000   1.0000   1.0000   1.0000   1.0000   1.0000   1.0000   1.0000
     1.0000   1.0000   1.0000   1.0000   1.0000   1.0000   1.0000   1.0000
     1.0000   1.0000   1.0000   1.0000

          k = 0.0000 0.1925 0.1053 (  4352 PWs)   bands (ev):

   -11.9107 -11.6789 -10.9718 -10.7181  -0.1922  -0.1021   0.0788   0.1162
     0.1966   0.2256   0.5465   0.6300   0.7406   0.7647   0.8071   0.8252
     0.8471   0.9748   1.1739   1.1932   1.4422   1.4587   1.5039   1.5145
     2.0310   2.6843   3.7164   3.9355   4.1200   4.3834   4.5725   4.6667
     5.1179   5.2123   5.3648   5.5684

     occupation numbers 
     1.0000   1.0000   1.0000   1.0000   1.0000   1.0000   1.0000   1.0000
     1.0000   1.0000   1.0000   1.0000   1.0000   1.0000   1.0000   1.0000
     1.0000   1.0000   1.0000   1.0000   1.0000   1.0000   1.0000   1.0000
     1.0000   1.0000   1.0000   1.0000   1.0000   1.0000   1.0000   1.0000
     1.0000   1.0000   1.0000   1.0000

          k = 0.0000 0.1925-0.1580 (  4340 PWs)   bands (ev):

   -11.9098 -11.6804 -10.9702 -10.7190  -0.1899  -0.0985   0.0790   0.1166
     0.1969   0.2343   0.5602   0.6154   0.7104   0.7502   0.7973   0.8264
     0.8531   0.9735   1.1736   1.1879   1.4417   1.4590   1.5056   1.5166
     2.2676   2.4462   3.7694   3.9571   4.1042   4.3878   4.5174   4.6501
     5.2057   5.2289   5.3076   5.5634

     occupation numbers 
     1.0000   1.0000   1.0000   1.0000   1.0000   1.0000   1.0000   1.0000
     1.0000   1.0000   1.0000   1.0000   1.0000   1.0000   1.0000   1.0000
     1.0000   1.0000   1.0000   1.0000   1.0000   1.0000   1.0000   1.0000
     1.0000   1.0000   1.0000   1.0000   1.0000   1.0000   1.0000   1.0000
     1.0000   1.0000   1.0000   1.0000

          k = 0.0000 0.3849 0.0000 (  4340 PWs)   bands (ev):

   -11.7071 -11.5356 -10.8041 -10.5935  -0.2257  -0.1129   0.1534   0.2348
     0.3373   0.3880   0.5749   0.6568   0.8215   0.8539   0.8731   0.9317
     1.1015   1.1362   1.2347   1.3168   1.3675   1.4992   1.5343   1.5543
     1.9561   2.5220   2.6332   2.7989   3.4625   3.7983   4.2789   4.3112
     4.5208   4.7369   4.9537   5.2277

     occupation numbers 
     1.0000   1.0000   1.0000   1.0000   1.0000   1.0000   1.0000   1.0000
     1.0000   1.0000   1.0000   1.0000   1.0000   1.0000   1.0000   1.0000
     1.0000   1.0000   1.0000   1.0000   1.0000   1.0000   1.0000   1.0000
     1.0000   1.0000   1.0000   1.0000   1.0000   1.0000   1.0000   1.0000
     1.0000   1.0000   1.0000   1.0000

          k = 0.0000 0.3849 0.0527 (  4343 PWs)   bands (ev):

   -11.7068 -11.5360 -10.8039 -10.5936  -0.2234  -0.1104   0.1557   0.2403
     0.3326   0.3867   0.5737   0.6759   0.8170   0.8529   0.8743   0.9316
     1.0388   1.1370   1.2332   1.3028   1.3950   1.4985   1.5297   1.5356
     2.0453   2.4456   2.6560   2.8709   3.4554   3.8126   4.1158   4.2567
     4.6366   4.7644   4.9803   5.2192

     occupation numbers 
     1.0000   1.0000   1.0000   1.0000   1.0000   1.0000   1.0000   1.0000
     1.0000   1.0000   1.0000   1.0000   1.0000   1.0000   1.0000   1.0000
     1.0000   1.0000   1.0000   1.0000   1.0000   1.0000   1.0000   1.0000
     1.0000   1.0000   1.0000   1.0000   1.0000   1.0000   1.0000   1.0000
     1.0000   1.0000   1.0000   1.0000

          k = 0.0000 0.3849 0.1053 (  4342 PWs)   bands (ev):

   -11.7062 -11.5368 -10.8034 -10.5938  -0.2201  -0.1025   0.1578   0.2578
     0.3265   0.3868   0.5706   0.6906   0.7763   0.8546   0.8748   0.9290
     1.0032   1.1398   1.2281   1.2595   1.4373   1.4973   1.5036   1.5357
     2.1763   2.3466   2.7302   2.9619   3.4362   3.8258   3.8795   4.1958
     4.7483   4.8170   5.0236   5.1996

     occupation numbers 
     1.0000   1.0000   1.0000   1.0000   1.0000   1.0000   1.0000   1.0000
     1.0000   1.0000   1.0000   1.0000   1.0000   1.0000   1.0000   1.0000
     1.0000   1.0000   1.0000   1.0000   1.0000   1.0000   1.0000   1.0000
     1.0000   1.0000   1.0000   1.0000   1.0000   1.0000   1.0000   1.0000
     1.0000   1.0000   1.0000   1.0000

          k = 0.0000 0.3849-0.1580 (  4344 PWs)   bands (ev):

   -11.7059 -11.5372 -10.8032 -10.5939  -0.2192  -0.0972   0.1576   0.2706
     0.3259   0.3889   0.5679   0.6659   0.7625   0.8560   0.8741   0.9256
     1.0254   1.1421   1.2190   1.2342   1.4546   1.4926   1.4996   1.5355
     2.2068   2.3287   2.7851   3.0011   3.4136   3.7319   3.8801   4.1621
     4.7912   4.8434   5.0401   5.1883

     occupation numbers 
     1.0000   1.0000   1.0000   1.0000   1.0000   1.0000   1.0000   1.0000
     1.0000   1.0000   1.0000   1.0000   1.0000   1.0000   1.0000   1.0000
     1.0000   1.0000   1.0000   1.0000   1.0000   1.0000   1.0000   1.0000
     1.0000   1.0000   1.0000   1.0000   1.0000   1.0000   1.0000   1.0000
     1.0000   1.0000   1.0000   1.0000

          k = 0.0000-0.5774 0.0000 (  4308 PWs)   bands (ev):

   -11.5935 -11.4713 -10.7136 -10.5326  -0.2101  -0.0947   0.1857   0.3183
     0.4255   0.4995   0.6307   0.7639   0.8378   0.8924   0.9302   1.1001
     1.1071   1.1754   1.2520   1.2975   1.3922   1.5272   1.5951   1.6169
     1.8750   1.9862   2.2165   2.5317   3.1338   3.4939   4.0535   4.2310
     4.5079   4.5140   4.6227   5.0453

     occupation numbers 
     1.0000   1.0000   1.0000   1.0000   1.0000   1.0000   1.0000   1.0000
     1.0000   1.0000   1.0000   1.0000   1.0000   1.0000   1.0000   1.0000
     1.0000   1.0000   1.0000   1.0000   1.0000   1.0000   1.0000   1.0000
     1.0000   1.0000   1.0000   1.0000   1.0000   1.0000   1.0000   1.0000
     1.0000   1.0000   1.0000   1.0000

          k = 0.0000-0.5774 0.0527 (  4332 PWs)   bands (ev):

   -11.5935 -11.4714 -10.7136 -10.5326  -0.2081  -0.0893   0.1864   0.3176
     0.4296   0.4993   0.6223   0.7607   0.8226   0.8898   0.9338   1.1014
     1.1125   1.1795   1.2580   1.2912   1.3881   1.5266   1.5951   1.6170
     1.8743   1.9663   2.2407   2.5127   3.1982   3.5111   4.0132   4.1674
     4.4617   4.5479   4.6906   5.0343

     occupation numbers 
     1.0000   1.0000   1.0000   1.0000   1.0000   1.0000   1.0000   1.0000
     1.0000   1.0000   1.0000   1.0000   1.0000   1.0000   1.0000   1.0000
     1.0000   1.0000   1.0000   1.0000   1.0000   1.0000   1.0000   1.0000
     1.0000   1.0000   1.0000   1.0000   1.0000   1.0000   1.0000   1.0000
     1.0000   1.0000   1.0000   1.0000

          k = 0.0000-0.5774 0.1053 (  4348 PWs)   bands (ev):

   -11.5934 -11.4715 -10.7137 -10.5325  -0.2038  -0.0782   0.1879   0.3162
     0.4408   0.5001   0.5994   0.7492   0.8016   0.8867   0.9397   1.1004
     1.1235   1.1898   1.2693   1.2787   1.3790   1.5254   1.5950   1.6173
     1.8724   1.9353   2.2895   2.4679   3.3622   3.5517   3.9318   3.9810
     4.4727   4.6166   4.7424   5.0090

     occupation numbers 
     1.0000   1.0000   1.0000   1.0000   1.0000   1.0000   1.0000   1.0000
     1.0000   1.0000   1.0000   1.0000   1.0000   1.0000   1.0000   1.0000
     1.0000   1.0000   1.0000   1.0000   1.0000   1.0000   1.0000   1.0000
     1.0000   1.0000   1.0000   1.0000   1.0000   1.0000   1.0000   1.0000
     1.0000   1.0000   1.0000   1.0000

          k = 0.0000-0.5774-0.1580 (  4340 PWs)   bands (ev):

   -11.5933 -11.4715 -10.7137 -10.5325  -0.2015  -0.0725   0.1888   0.3154
     0.4484   0.5024   0.5830   0.7409   0.7961   0.8857   0.9425   1.0997
     1.1280   1.1970   1.2649   1.2817   1.3737   1.5249   1.5950   1.6174
     1.8712   1.9229   2.3207   2.4368   3.4969   3.5757   3.8282   3.8958
     4.4941   4.6499   4.7535   4.9940

     occupation numbers 
     1.0000   1.0000   1.0000   1.0000   1.0000   1.0000   1.0000   1.0000
     1.0000   1.0000   1.0000   1.0000   1.0000   1.0000   1.0000   1.0000
     1.0000   1.0000   1.0000   1.0000   1.0000   1.0000   1.0000   1.0000
     1.0000   1.0000   1.0000   1.0000   1.0000   1.0000   1.0000   1.0000
     1.0000   1.0000   1.0000   1.0000

          k = 0.1667 0.2887 0.0000 (  4317 PWs)   bands (ev):

   -11.7582 -11.5664 -10.8511 -10.6252  -0.1701  -0.1135   0.0884   0.2100
     0.3117   0.4027   0.5831   0.6585   0.7552   0.8144   0.8620   0.8803
     1.0279   1.1092   1.2057   1.3296   1.3698   1.4465   1.5108   1.5560
     1.9081   2.8135   2.8536   3.2686   3.4145   3.9273   4.2177   4.4041
     4.6032   4.6615   5.1305   5.2198

     occupation numbers 
     1.0000   1.0000   1.0000   1.0000   1.0000   1.0000   1.0000   1.0000
     1.0000   1.0000   1.0000   1.0000   1.0000   1.0000   1.0000   1.0000
     1.0000   1.0000   1.0000   1.0000   1.0000   1.0000   1.0000   1.0000
     1.0000   1.0000   1.0000   1.0000   1.0000   1.0000   1.0000   1.0000
     1.0000   1.0000   1.0000   1.0000

          k = 0.1667 0.2887 0.0527 (  4331 PWs)   bands (ev):

   -11.7577 -11.5671 -10.8506 -10.6255  -0.1686  -0.1094   0.0888   0.2195
     0.3091   0.4011   0.5810   0.6570   0.7577   0.8153   0.8539   0.8815
     1.0124   1.0873   1.2102   1.2696   1.4152   1.4489   1.5073   1.5479
     2.0041   2.6891   2.9637   3.2953   3.4045   3.9072   4.1800   4.2590
     4.6839   4.7366   5.1378   5.2180

     occupation numbers 
     1.0000   1.0000   1.0000   1.0000   1.0000   1.0000   1.0000   1.0000
     1.0000   1.0000   1.0000   1.0000   1.0000   1.0000   1.0000   1.0000
     1.0000   1.0000   1.0000   1.0000   1.0000   1.0000   1.0000   1.0000
     1.0000   1.0000   1.0000   1.0000   1.0000   1.0000   1.0000   1.0000
     1.0000   1.0000   1.0000   1.0000

          k = 0.1667 0.2887 0.1053 (  4343 PWs)   bands (ev):

   -11.7569 -11.5684 -10.8496 -10.6260  -0.1643  -0.1030   0.0931   0.2304
     0.3122   0.3970   0.5822   0.6463   0.7700   0.8171   0.8350   0.8783
     0.9582   1.0680   1.2122   1.2315   1.4443   1.4632   1.5006   1.5338
     2.1990   2.5456   3.0602   3.3504   3.3945   3.8396   4.0416   4.1722
     4.7325   4.8744   5.1425   5.2163

     occupation numbers 
     1.0000   1.0000   1.0000   1.0000   1.0000   1.0000   1.0000   1.0000
     1.0000   1.0000   1.0000   1.0000   1.0000   1.0000   1.0000   1.0000
     1.0000   1.0000   1.0000   1.0000   1.0000   1.0000   1.0000   1.0000
     1.0000   1.0000   1.0000   1.0000   1.0000   1.0000   1.0000   1.0000
     1.0000   1.0000   1.0000   1.0000

          k = 0.1667 0.2887-0.1580 (  4328 PWs)   bands (ev):

   -11.7564 -11.5690 -10.8492 -10.6263  -0.1614  -0.1008   0.0972   0.2303
     0.3200   0.3943   0.5844   0.6396   0.7849   0.8038   0.8318   0.8688
     0.9333   1.0641   1.2078   1.2271   1.4492   1.4857   1.4905   1.5251
     2.3641   2.4132   3.0993   3.3604   3.4197   3.7776   3.9787   4.1531
     4.7577   4.9255   5.1437   5.2132

     occupation numbers 
     1.0000   1.0000   1.0000   1.0000   1.0000   1.0000   1.0000   1.0000
     1.0000   1.0000   1.0000   1.0000   1.0000   1.0000   1.0000   1.0000
     1.0000   1.0000   1.0000   1.0000   1.0000   1.0000   1.0000   1.0000
     1.0000   1.0000   1.0000   1.0000   1.0000   1.0000   1.0000   1.0000
     1.0000   1.0000   1.0000   1.0000

          k = 0.1667 0.4811 0.0000 (  4345 PWs)   bands (ev):

   -11.5959 -11.4674 -10.7171 -10.5341  -0.1159   0.0081   0.1192   0.3085
     0.4652   0.5429   0.6304   0.7407   0.8366   0.8900   0.9360   1.0060
     1.1147   1.2042   1.2621   1.3087   1.3787   1.4910   1.5703   1.6433
     2.0040   2.1139   2.4150   2.5980   3.0630   3.2864   3.6450   4.0471
     4.2932   4.5792   4.6741   4.8162

     occupation numbers 
     1.0000   1.0000   1.0000   1.0000   1.0000   1.0000   1.0000   1.0000
     1.0000   1.0000   1.0000   1.0000   1.0000   1.0000   1.0000   1.0000
     1.0000   1.0000   1.0000   1.0000   1.0000   1.0000   1.0000   1.0000
     1.0000   1.0000   1.0000   1.0000   1.0000   1.0000   1.0000   1.0000
     1.0000   1.0000   1.0000   1.0000

          k = 0.1667 0.4811 0.0527 (  4343 PWs)   bands (ev):

   -11.5959 -11.4675 -10.7171 -10.5341  -0.1120   0.0095   0.1223   0.3107
     0.4634   0.5335   0.6455   0.7536   0.8100   0.8854   0.9414   1.0068
     1.0954   1.2003   1.2560   1.3055   1.3914   1.4954   1.5732   1.6392
     2.0199   2.0820   2.4530   2.5879   3.0755   3.3306   3.5939   4.0763
     4.2707   4.5401   4.6799   4.8383

     occupation numbers 
     1.0000   1.0000   1.0000   1.0000   1.0000   1.0000   1.0000   1.0000
     1.0000   1.0000   1.0000   1.0000   1.0000   1.0000   1.0000   1.0000
     1.0000   1.0000   1.0000   1.0000   1.0000   1.0000   1.0000   1.0000
     1.0000   1.0000   1.0000   1.0000   1.0000   1.0000   1.0000   1.0000
     1.0000   1.0000   1.0000   1.0000

          k = 0.1667 0.4811 0.1053 (  4345 PWs)   bands (ev):

   -11.5957 -11.4677 -10.7171 -10.5341  -0.1071   0.0198   0.1255   0.3172
     0.4581   0.5237   0.6582   0.7500   0.7885   0.8824   0.9342   1.0097
     1.0949   1.1922   1.2450   1.2933   1.3960   1.5024   1.5730   1.6501
     2.0173   2.0574   2.4885   2.5958   3.1057   3.3994   3.5527   4.0256
     4.2522   4.5502   4.6700   4.8500

     occupation numbers 
     1.0000   1.0000   1.0000   1.0000   1.0000   1.0000   1.0000   1.0000
     1.0000   1.0000   1.0000   1.0000   1.0000   1.0000   1.0000   1.0000
     1.0000   1.0000   1.0000   1.0000   1.0000   1.0000   1.0000   1.0000
     1.0000   1.0000   1.0000   1.0000   1.0000   1.0000   1.0000   1.0000
     1.0000   1.0000   1.0000   1.0000

          k = 0.1667 0.4811-0.1580 (  4338 PWs)   bands (ev):

   -11.5957 -11.4677 -10.7171 -10.5340  -0.1062   0.0294   0.1249   0.3232
     0.4531   0.5216   0.6560   0.7206   0.8131   0.8755   0.9307   1.0076
     1.1176   1.1784   1.2413   1.2841   1.3922   1.5046   1.5704   1.6644
     1.9892   2.0725   2.4806   2.6214   3.1249   3.3850   3.6187   3.9224
     4.2798   4.5487   4.6885   4.8371

     occupation numbers 
     1.0000   1.0000   1.0000   1.0000   1.0000   1.0000   1.0000   1.0000
     1.0000   1.0000   1.0000   1.0000   1.0000   1.0000   1.0000   1.0000
     1.0000   1.0000   1.0000   1.0000   1.0000   1.0000   1.0000   1.0000
     1.0000   1.0000   1.0000   1.0000   1.0000   1.0000   1.0000   1.0000
     1.0000   1.0000   1.0000   1.0000

          k = 0.3333 0.5774 0.0000 (  4359 PWs)   bands (ev):

   -11.5480 -11.4271 -10.6733 -10.5080  -0.0129   0.0486   0.1949   0.4189
     0.5296   0.5838   0.6922   0.7443   0.8019   0.8921   1.0097   1.1079
     1.1726   1.1954   1.3222   1.3723   1.3943   1.4750   1.5732   1.7229
     1.9721   2.1065   2.3158   2.4195   2.5066   3.0311   3.5025   3.7652
     3.9536   4.3376   4.6226   4.6899

     occupation numbers 
     1.0000   1.0000   1.0000   1.0000   1.0000   1.0000   1.0000   1.0000
     1.0000   1.0000   1.0000   1.0000   1.0000   1.0000   1.0000   1.0000
     1.0000   1.0000   1.0000   1.0000   1.0000   1.0000   1.0000   1.0000
     1.0000   1.0000   1.0000   1.0000   1.0000   1.0000   1.0000   1.0000
     1.0000   1.0000   1.0000   1.0000

          k = 0.3333 0.5774 0.0527 (  4362 PWs)   bands (ev):

   -11.5480 -11.4271 -10.6733 -10.5080  -0.0118   0.0522   0.2031   0.4146
     0.5290   0.5811   0.6818   0.7633   0.8014   0.8825   1.0102   1.0975
     1.1677   1.1823   1.3278   1.3766   1.3966   1.4686   1.5729   1.7229
     1.9821   2.1366   2.3269   2.4073   2.4956   2.9442   3.5821   3.8024
     3.9998   4.3148   4.5819   4.6626

     occupation numbers 
     1.0000   1.0000   1.0000   1.0000   1.0000   1.0000   1.0000   1.0000
     1.0000   1.0000   1.0000   1.0000   1.0000   1.0000   1.0000   1.0000
     1.0000   1.0000   1.0000   1.0000   1.0000   1.0000   1.0000   1.0000
     1.0000   1.0000   1.0000   1.0000   1.0000   1.0000   1.0000   1.0000
     1.0000   1.0000   1.0000   1.0000

          k = 0.3333 0.5774 0.1053 (  4341 PWs)   bands (ev):

   -11.5480 -11.4271 -10.6733 -10.5080  -0.0094   0.0606   0.2189   0.4065
     0.5254   0.5834   0.6587   0.7868   0.8182   0.8664   1.0109   1.0581
     1.1564   1.1693   1.3375   1.3816   1.4069   1.4578   1.5702   1.7222
     1.9950   2.2121   2.3583   2.3867   2.4731   2.7838   3.7165   3.8844
     4.1152   4.2610   4.4798   4.5959

     occupation numbers 
     1.0000   1.0000   1.0000   1.0000   1.0000   1.0000   1.0000   1.0000
     1.0000   1.0000   1.0000   1.0000   1.0000   1.0000   1.0000   1.0000
     1.0000   1.0000   1.0000   1.0000   1.0000   1.0000   1.0000   1.0000
     1.0000   1.0000   1.0000   1.0000   1.0000   1.0000   1.0000   1.0000
     1.0000   1.0000   1.0000   1.0000

          k = 0.3333 0.5774-0.1580 (  4350 PWs)   bands (ev):

   -11.5480 -11.4271 -10.6733 -10.5080  -0.0081   0.0652   0.2263   0.4031
     0.5219   0.5895   0.6446   0.7886   0.8305   0.8723   1.0102   1.0264
     1.1482   1.1694   1.3416   1.3819   1.4156   1.4525   1.5678   1.7216
     1.9999   2.2528   2.3738   2.3978   2.4623   2.6892   3.7824   3.9315
     4.2034   4.2313   4.3959   4.5536

     occupation numbers 
     1.0000   1.0000   1.0000   1.0000   1.0000   1.0000   1.0000   1.0000
     1.0000   1.0000   1.0000   1.0000   1.0000   1.0000   1.0000   1.0000
     1.0000   1.0000   1.0000   1.0000   1.0000   1.0000   1.0000   1.0000
     1.0000   1.0000   1.0000   1.0000   1.0000   1.0000   1.0000   1.0000
     1.0000   1.0000   1.0000   1.0000

          k =-0.1667 0.0962 0.0000 (  4339 PWs)   bands (ev):

   -11.9160 -11.6722 -10.9768 -10.7169  -0.2239  -0.0438   0.0177   0.0934
     0.1832   0.2536   0.5434   0.6270   0.7378   0.7937   0.8190   0.8365
     0.8897   1.0193   1.1781   1.2591   1.4203   1.4529   1.5021   1.5345
     1.6161   3.2314   3.3558   3.9280   4.2439   4.3113   4.7114   4.7671
     4.9440   5.1754   5.4468   5.5639

     occupation numbers 
     1.0000   1.0000   1.0000   1.0000   1.0000   1.0000   1.0000   1.0000
     1.0000   1.0000   1.0000   1.0000   1.0000   1.0000   1.0000   1.0000
     1.0000   1.0000   1.0000   1.0000   1.0000   1.0000   1.0000   1.0000
     1.0000   1.0000   1.0000   1.0000   1.0000   1.0000   1.0000   1.0000
     1.0000   1.0000   1.0000   1.0000

          k = 0.1667 0.0962 0.0000 (  4339 PWs)   bands (ev):

   -11.9123 -11.6715 -10.9782 -10.7167  -0.2162  -0.1044   0.0615   0.1329
     0.1723   0.2831   0.5363   0.6511   0.7039   0.7862   0.8177   0.8394
     0.8954   1.0180   1.1734   1.2671   1.4173   1.4538   1.4996   1.5288
     1.6230   3.2150   3.3450   3.8155   4.2725   4.3628   4.7240   4.7691
     4.9317   5.1450   5.4423   5.5717

     occupation numbers 
     1.0000   1.0000   1.0000   1.0000   1.0000   1.0000   1.0000   1.0000
     1.0000   1.0000   1.0000   1.0000   1.0000   1.0000   1.0000   1.0000
     1.0000   1.0000   1.0000   1.0000   1.0000   1.0000   1.0000   1.0000
     1.0000   1.0000   1.0000   1.0000   1.0000   1.0000   1.0000   1.0000
     1.0000   1.0000   1.0000   1.0000

          k = 0.0000-0.1925 0.0527 (  4349 PWs)   bands (ev):

   -11.9124 -11.6758 -10.9750 -10.7162  -0.1994  -0.1030   0.0787   0.1025
     0.1954   0.2280   0.5531   0.6181   0.7361   0.7553   0.8147   0.8313
     0.9643   0.9815   1.1744   1.2087   1.4346   1.4573   1.5058   1.5160
     1.7457   3.0094   3.5160   3.8337   4.3245   4.3689   4.6330   4.6935
     4.9643   5.1919   5.4146   5.5768

     occupation numbers 
     1.0000   1.0000   1.0000   1.0000   1.0000   1.0000   1.0000   1.0000
     1.0000   1.0000   1.0000   1.0000   1.0000   1.0000   1.0000   1.0000
     1.0000   1.0000   1.0000   1.0000   1.0000   1.0000   1.0000   1.0000
     1.0000   1.0000   1.0000   1.0000   1.0000   1.0000   1.0000   1.0000
     1.0000   1.0000   1.0000   1.0000

          k =-0.1667 0.0962 0.0527 (  4349 PWs)   bands (ev):

   -11.9151 -11.6737 -10.9752 -10.7179  -0.2221  -0.0416   0.0205   0.0998
     0.1808   0.2540   0.5429   0.6138   0.7393   0.7891   0.8224   0.8397
     0.8884   0.9828   1.1765   1.2098   1.4405   1.4538   1.4923   1.5291
     1.7549   3.0095   3.5372   3.9313   4.2511   4.3029   4.6444   4.7336
     5.0281   5.1926   5.4259   5.5576

     occupation numbers 
     1.0000   1.0000   1.0000   1.0000   1.0000   1.0000   1.0000   1.0000
     1.0000   1.0000   1.0000   1.0000   1.0000   1.0000   1.0000   1.0000
     1.0000   1.0000   1.0000   1.0000   1.0000   1.0000   1.0000   1.0000
     1.0000   1.0000   1.0000   1.0000   1.0000   1.0000   1.0000   1.0000
     1.0000   1.0000   1.0000   1.0000

          k = 0.1667 0.0962 0.0527 (  4349 PWs)   bands (ev):

   -11.9114 -11.6731 -10.9766 -10.7176  -0.2138  -0.1017   0.0636   0.1363
     0.1728   0.2839   0.5383   0.6369   0.7024   0.7800   0.8217   0.8408
     0.8932   0.9777   1.1733   1.2209   1.4406   1.4565   1.4995   1.5192
     1.7569   2.9948   3.5257   3.8059   4.2801   4.3624   4.6635   4.7275
     5.0160   5.1592   5.4269   5.5667

     occupation numbers 
     1.0000   1.0000   1.0000   1.0000   1.0000   1.0000   1.0000   1.0000
     1.0000   1.0000   1.0000   1.0000   1.0000   1.0000   1.0000   1.0000
     1.0000   1.0000   1.0000   1.0000   1.0000   1.0000   1.0000   1.0000
     1.0000   1.0000   1.0000   1.0000   1.0000   1.0000   1.0000   1.0000
     1.0000   1.0000   1.0000   1.0000

          k =-0.1667-0.0962 0.0527 (  4349 PWs)   bands (ev):

   -11.9114 -11.6730 -10.9767 -10.7176  -0.2129  -0.1035   0.0646   0.1352
     0.1721   0.2837   0.5331   0.6613   0.7058   0.7759   0.8145   0.8373
     0.8896   0.9661   1.1731   1.2349   1.4241   1.4564   1.5034   1.5323
     1.7496   2.9996   3.5113   3.8575   4.2013   4.3667   4.6900   4.7539
     4.9987   5.1601   5.4260   5.5674

     occupation numbers 
     1.0000   1.0000   1.0000   1.0000   1.0000   1.0000   1.0000   1.0000
     1.0000   1.0000   1.0000   1.0000   1.0000   1.0000   1.0000   1.0000
     1.0000   1.0000   1.0000   1.0000   1.0000   1.0000   1.0000   1.0000
     1.0000   1.0000   1.0000   1.0000   1.0000   1.0000   1.0000   1.0000
     1.0000   1.0000   1.0000   1.0000

          k = 0.1667-0.0962 0.0527 (  4349 PWs)   bands (ev):

   -11.9151 -11.6737 -10.9752 -10.7179  -0.2200  -0.0447   0.0172   0.0948
     0.1910   0.2547   0.5424   0.6396   0.7279   0.7797   0.8190   0.8307
     0.8818   0.9740   1.1782   1.2329   1.4242   1.4564   1.5086   1.5306
     1.7498   3.0010   3.5482   3.9488   4.2160   4.2859   4.6718   4.7531
     5.0079   5.1912   5.4331   5.5582

     occupation numbers 
     1.0000   1.0000   1.0000   1.0000   1.0000   1.0000   1.0000   1.0000
     1.0000   1.0000   1.0000   1.0000   1.0000   1.0000   1.0000   1.0000
     1.0000   1.0000   1.0000   1.0000   1.0000   1.0000   1.0000   1.0000
     1.0000   1.0000   1.0000   1.0000   1.0000   1.0000   1.0000   1.0000
     1.0000   1.0000   1.0000   1.0000

          k = 0.0000-0.1925 0.1053 (  4352 PWs)   bands (ev):

   -11.9107 -11.6788 -10.9719 -10.7181  -0.1936  -0.0990   0.0790   0.1094
     0.1962   0.2347   0.5601   0.6119   0.7169   0.7506   0.8077   0.8288
     0.8879   0.9737   1.1736   1.1906   1.4398   1.4581   1.5061   1.5176
     2.0170   2.7046   3.7011   3.8625   4.2429   4.3771   4.5384   4.6633
     5.1097   5.2163   5.3659   5.5679

     occupation numbers 
     1.0000   1.0000   1.0000   1.0000   1.0000   1.0000   1.0000   1.0000
     1.0000   1.0000   1.0000   1.0000   1.0000   1.0000   1.0000   1.0000
     1.0000   1.0000   1.0000   1.0000   1.0000   1.0000   1.0000   1.0000
     1.0000   1.0000   1.0000   1.0000   1.0000   1.0000   1.0000   1.0000
     1.0000   1.0000   1.0000   1.0000

          k =-0.1667 0.0962 0.1053 (  4352 PWs)   bands (ev):

   -11.9134 -11.6767 -10.9719 -10.7198  -0.2163  -0.0405   0.0223   0.1086
     0.1876   0.2559   0.5475   0.5960   0.7358   0.7674   0.8251   0.8374
     0.8684   0.9277   1.1747   1.1911   1.4399   1.4576   1.4965   1.5281
     2.0246   2.7062   3.7218   3.9476   4.2267   4.2778   4.5554   4.7039
     5.1535   5.2267   5.3696   5.5445

     occupation numbers 
     1.0000   1.0000   1.0000   1.0000   1.0000   1.0000   1.0000   1.0000
     1.0000   1.0000   1.0000   1.0000   1.0000   1.0000   1.0000   1.0000
     1.0000   1.0000   1.0000   1.0000   1.0000   1.0000   1.0000   1.0000
     1.0000   1.0000   1.0000   1.0000   1.0000   1.0000   1.0000   1.0000
     1.0000   1.0000   1.0000   1.0000

          k = 0.1667 0.0962 0.1053 (  4352 PWs)   bands (ev):

   -11.9097 -11.6761 -10.9733 -10.7195  -0.2081  -0.0981   0.0688   0.1433
     0.1735   0.2857   0.5415   0.6195   0.7018   0.7614   0.8214   0.8422
     0.8736   0.9197   1.1730   1.1984   1.4421   1.4592   1.5022   1.5212
     2.0267   2.6963   3.6942   3.8256   4.2216   4.3669   4.5862   4.6962
     5.1400   5.1870   5.3770   5.5570

     occupation numbers 
     1.0000   1.0000   1.0000   1.0000   1.0000   1.0000   1.0000   1.0000
     1.0000   1.0000   1.0000   1.0000   1.0000   1.0000   1.0000   1.0000
     1.0000   1.0000   1.0000   1.0000   1.0000   1.0000   1.0000   1.0000
     1.0000   1.0000   1.0000   1.0000   1.0000   1.0000   1.0000   1.0000
     1.0000   1.0000   1.0000   1.0000

          k =-0.1667-0.0962 0.1053 (  4352 PWs)   bands (ev):

   -11.9097 -11.6761 -10.9734 -10.7195  -0.2072  -0.0999   0.0698   0.1423
     0.1725   0.2853   0.5327   0.6613   0.7024   0.7393   0.8154   0.8373
     0.8718   0.9174   1.1728   1.2063   1.4348   1.4583   1.5037   1.5276
     2.0207   2.7022   3.6578   3.9425   4.0960   4.3751   4.6231   4.7023
     5.1326   5.1886   5.3764   5.5574

     occupation numbers 
     1.0000   1.0000   1.0000   1.0000   1.0000   1.0000   1.0000   1.0000
     1.0000   1.0000   1.0000   1.0000   1.0000   1.0000   1.0000   1.0000
     1.0000   1.0000   1.0000   1.0000   1.0000   1.0000   1.0000   1.0000
     1.0000   1.0000   1.0000   1.0000   1.0000   1.0000   1.0000   1.0000
     1.0000   1.0000   1.0000   1.0000

          k = 0.1667-0.0962 0.1053 (  4352 PWs)   bands (ev):

   -11.9134 -11.6767 -10.9719 -10.7198  -0.2140  -0.0435   0.0190   0.1021
     0.1990   0.2571   0.5446   0.6394   0.6950   0.7591   0.8220   0.8292
     0.8687   0.9316   1.1771   1.2033   1.4324   1.4581   1.5047   1.5283
     2.0264   2.6991   3.7260   3.9953   4.1414   4.2797   4.5898   4.7125
     5.1387   5.2230   5.3824   5.5448

     occupation numbers 
     1.0000   1.0000   1.0000   1.0000   1.0000   1.0000   1.0000   1.0000
     1.0000   1.0000   1.0000   1.0000   1.0000   1.0000   1.0000   1.0000
     1.0000   1.0000   1.0000   1.0000   1.0000   1.0000   1.0000   1.0000
     1.0000   1.0000   1.0000   1.0000   1.0000   1.0000   1.0000   1.0000
     1.0000   1.0000   1.0000   1.0000

          k =-0.1667 0.0962-0.1580 (  4340 PWs)   bands (ev):

   -11.9125 -11.6783 -10.9702 -10.7208  -0.2122  -0.0414   0.0214   0.1092
     0.1985   0.2582   0.5550   0.5941   0.7081   0.7540   0.8248   0.8316
     0.8603   0.9201   1.1756   1.1918   1.4370   1.4586   1.5007   1.5281
     2.2637   2.4591   3.8019   3.9862   4.1467   4.2785   4.5344   4.6924
     5.2269   5.2568   5.3089   5.5374

     occupation numbers 
     1.0000   1.0000   1.0000   1.0000   1.0000   1.0000   1.0000   1.0000
     1.0000   1.0000   1.0000   1.0000   1.0000   1.0000   1.0000   1.0000
     1.0000   1.0000   1.0000   1.0000   1.0000   1.0000   1.0000   1.0000
     1.0000   1.0000   1.0000   1.0000   1.0000   1.0000   1.0000   1.0000
     1.0000   1.0000   1.0000   1.0000

          k = 0.1667 0.0962-0.1580 (  4340 PWs)   bands (ev):

   -11.9088 -11.6777 -10.9718 -10.7205  -0.2048  -0.0973   0.0718   0.1472
     0.1735   0.2867   0.5399   0.6259   0.7000   0.7371   0.8178   0.8410
     0.8600   0.9097   1.1729   1.1965   1.4401   1.4593   1.5031   1.5243
     2.2583   2.4602   3.7250   3.9240   4.1144   4.3750   4.5740   4.6807
     5.1977   5.2283   5.3196   5.5520

     occupation numbers 
     1.0000   1.0000   1.0000   1.0000   1.0000   1.0000   1.0000   1.0000
     1.0000   1.0000   1.0000   1.0000   1.0000   1.0000   1.0000   1.0000
     1.0000   1.0000   1.0000   1.0000   1.0000   1.0000   1.0000   1.0000
     1.0000   1.0000   1.0000   1.0000   1.0000   1.0000   1.0000   1.0000
     1.0000   1.0000   1.0000   1.0000

          k =-0.3333 0.1925 0.0000 (  4340 PWs)   bands (ev):

   -11.7187 -11.5256 -10.8043 -10.5991  -0.2519  -0.0784   0.0782   0.2066
     0.3405   0.4410   0.5794   0.6518   0.7913   0.8451   0.8767   0.9686
     1.0139   1.1033   1.2288   1.3100   1.3830   1.4843   1.5355   1.5836
     2.0334   2.4477   2.6927   2.8951   3.4925   3.7540   4.3045   4.3209
     4.5246   4.7447   5.0219   5.2696

     occupation numbers 
     1.0000   1.0000   1.0000   1.0000   1.0000   1.0000   1.0000   1.0000
     1.0000   1.0000   1.0000   1.0000   1.0000   1.0000   1.0000   1.0000
     1.0000   1.0000   1.0000   1.0000   1.0000   1.0000   1.0000   1.0000
     1.0000   1.0000   1.0000   1.0000   1.0000   1.0000   1.0000   1.0000
     1.0000   1.0000   1.0000   1.0000

          k = 0.3333 0.1925 0.0000 (  4340 PWs)   bands (ev):

   -11.7052 -11.5252 -10.8097 -10.5976  -0.2410  -0.1090   0.1830   0.2682
     0.2957   0.5052   0.5506   0.6611   0.7932   0.8061   0.8857   0.9607
     1.0191   1.1091   1.2139   1.3028   1.3693   1.4894   1.5280   1.5756
     2.0099   2.4513   2.5919   2.8964   3.4982   3.7700   4.2314   4.2702
     4.5228   4.7396   5.0200   5.2753

     occupation numbers 
     1.0000   1.0000   1.0000   1.0000   1.0000   1.0000   1.0000   1.0000
     1.0000   1.0000   1.0000   1.0000   1.0000   1.0000   1.0000   1.0000
     1.0000   1.0000   1.0000   1.0000   1.0000   1.0000   1.0000   1.0000
     1.0000   1.0000   1.0000   1.0000   1.0000   1.0000   1.0000   1.0000
     1.0000   1.0000   1.0000   1.0000

          k = 0.0000-0.3849 0.0527 (  4343 PWs)   bands (ev):

   -11.7068 -11.5360 -10.8039 -10.5936  -0.2248  -0.1074   0.1534   0.2426
     0.3391   0.3896   0.5694   0.6438   0.8081   0.8566   0.8718   0.9303
     1.1282   1.1415   1.2250   1.2427   1.4056   1.4996   1.5325   1.5483
     1.9888   2.5038   2.7073   2.7989   3.4400   3.8063   4.1417   4.2562
     4.6447   4.7654   4.9699   5.2189

     occupation numbers 
     1.0000   1.0000   1.0000   1.0000   1.0000   1.0000   1.0000   1.0000
     1.0000   1.0000   1.0000   1.0000   1.0000   1.0000   1.0000   1.0000
     1.0000   1.0000   1.0000   1.0000   1.0000   1.0000   1.0000   1.0000
     1.0000   1.0000   1.0000   1.0000   1.0000   1.0000   1.0000   1.0000
     1.0000   1.0000   1.0000   1.0000

          k =-0.3333 0.1925 0.0527 (  4343 PWs)   bands (ev):

   -11.7184 -11.5260 -10.8040 -10.5993  -0.2522  -0.0710   0.0787   0.2182
     0.3378   0.4399   0.5688   0.6347   0.7779   0.8475   0.8742   0.9824
     1.0263   1.1359   1.2196   1.2425   1.3991   1.4855   1.5353   1.5775
     2.0571   2.4641   2.7386   2.8893   3.4755   3.7695   4.1388   4.2804
     4.6496   4.7762   5.0411   5.2608

     occupation numbers 
     1.0000   1.0000   1.0000   1.0000   1.0000   1.0000   1.0000   1.0000
     1.0000   1.0000   1.0000   1.0000   1.0000   1.0000   1.0000   1.0000
     1.0000   1.0000   1.0000   1.0000   1.0000   1.0000   1.0000   1.0000
     1.0000   1.0000   1.0000   1.0000   1.0000   1.0000   1.0000   1.0000
     1.0000   1.0000   1.0000   1.0000

          k = 0.3333 0.1925 0.0527 (  4343 PWs)   bands (ev):

   -11.7049 -11.5256 -10.8094 -10.5978  -0.2414  -0.1008   0.1896   0.2682
     0.2988   0.5037   0.5428   0.6430   0.7813   0.8067   0.8836   0.9669
     1.0287   1.1269   1.2123   1.2516   1.3844   1.4910   1.5308   1.5679
     2.0412   2.4225   2.6834   2.8819   3.4747   3.7802   4.1001   4.2420
     4.6103   4.7632   5.0460   5.2692

     occupation numbers 
     1.0000   1.0000   1.0000   1.0000   1.0000   1.0000   1.0000   1.0000
     1.0000   1.0000   1.0000   1.0000   1.0000   1.0000   1.0000   1.0000
     1.0000   1.0000   1.0000   1.0000   1.0000   1.0000   1.0000   1.0000
     1.0000   1.0000   1.0000   1.0000   1.0000   1.0000   1.0000   1.0000
     1.0000   1.0000   1.0000   1.0000

          k =-0.3333-0.1925 0.0527 (  4343 PWs)   bands (ev):

   -11.7049 -11.5256 -10.8094 -10.5977  -0.2379  -0.1078   0.1900   0.2672
     0.2950   0.5022   0.5538   0.6702   0.7858   0.8103   0.8899   0.9456
     1.0080   1.0767   1.2138   1.2833   1.4119   1.4867   1.5184   1.5623
     2.0714   2.4283   2.5925   2.9598   3.4884   3.7782   4.0614   4.2351
     4.6384   4.7657   5.0362   5.2683

     occupation numbers 
     1.0000   1.0000   1.0000   1.0000   1.0000   1.0000   1.0000   1.0000
     1.0000   1.0000   1.0000   1.0000   1.0000   1.0000   1.0000   1.0000
     1.0000   1.0000   1.0000   1.0000   1.0000   1.0000   1.0000   1.0000
     1.0000   1.0000   1.0000   1.0000   1.0000   1.0000   1.0000   1.0000
     1.0000   1.0000   1.0000   1.0000

          k = 0.3333-0.1925 0.0527 (  4343 PWs)   bands (ev):

   -11.7184 -11.5260 -10.8040 -10.5993  -0.2473  -0.0797   0.0783   0.2040
     0.3551   0.4412   0.5788   0.6655   0.7742   0.8464   0.8799   0.9469
     1.0056   1.0754   1.2285   1.3021   1.4145   1.4835   1.5254   1.5680
     2.1154   2.4075   2.6893   2.9630   3.4806   3.7561   4.1175   4.2830
     4.6717   4.7741   5.0321   5.2617

     occupation numbers 
     1.0000   1.0000   1.0000   1.0000   1.0000   1.0000   1.0000   1.0000
     1.0000   1.0000   1.0000   1.0000   1.0000   1.0000   1.0000   1.0000
     1.0000   1.0000   1.0000   1.0000   1.0000   1.0000   1.0000   1.0000
     1.0000   1.0000   1.0000   1.0000   1.0000   1.0000   1.0000   1.0000
     1.0000   1.0000   1.0000   1.0000

          k = 0.0000-0.3849 0.1053 (  4342 PWs)   bands (ev):

   -11.7062 -11.5368 -10.8035 -10.5938  -0.2216  -0.0996   0.1556   0.2595
     0.3350   0.3906   0.5646   0.6423   0.7863   0.8571   0.8724   0.9270
     1.0842   1.1424   1.2046   1.2316   1.4353   1.4991   1.5173   1.5361
     2.0974   2.4242   2.7758   2.9066   3.4065   3.8073   3.9298   4.1926
     4.7584   4.8180   5.0132   5.1993

     occupation numbers 
     1.0000   1.0000   1.0000   1.0000   1.0000   1.0000   1.0000   1.0000
     1.0000   1.0000   1.0000   1.0000   1.0000   1.0000   1.0000   1.0000
     1.0000   1.0000   1.0000   1.0000   1.0000   1.0000   1.0000   1.0000
     1.0000   1.0000   1.0000   1.0000   1.0000   1.0000   1.0000   1.0000
     1.0000   1.0000   1.0000   1.0000

          k =-0.3333 0.1925 0.1053 (  4342 PWs)   bands (ev):

   -11.7178 -11.5269 -10.8034 -10.5996  -0.2479  -0.0649   0.0793   0.2270
     0.3565   0.4384   0.5532   0.6185   0.7571   0.8502   0.8752   0.9833
     1.0345   1.1113   1.1935   1.2291   1.4240   1.4861   1.5253   1.5623
     2.1465   2.4283   2.8179   2.9469   3.4529   3.7909   3.8856   4.2218
     4.7831   4.8321   5.0717   5.2424

     occupation numbers 
     1.0000   1.0000   1.0000   1.0000   1.0000   1.0000   1.0000   1.0000
     1.0000   1.0000   1.0000   1.0000   1.0000   1.0000   1.0000   1.0000
     1.0000   1.0000   1.0000   1.0000   1.0000   1.0000   1.0000   1.0000
     1.0000   1.0000   1.0000   1.0000   1.0000   1.0000   1.0000   1.0000
     1.0000   1.0000   1.0000   1.0000

          k = 0.3333 0.1925 0.1053 (  4342 PWs)   bands (ev):

   -11.7043 -11.5265 -10.8089 -10.5980  -0.2387  -0.0914   0.2055   0.2670
     0.3026   0.4976   0.5400   0.6224   0.7651   0.8116   0.8849   0.9634
     1.0343   1.0950   1.2111   1.2189   1.4178   1.4909   1.5243   1.5509
     2.1285   2.3704   2.7856   2.9365   3.4383   3.7876   3.8817   4.1858
     4.7231   4.8098   5.0870   5.2557

     occupation numbers 
     1.0000   1.0000   1.0000   1.0000   1.0000   1.0000   1.0000   1.0000
     1.0000   1.0000   1.0000   1.0000   1.0000   1.0000   1.0000   1.0000
     1.0000   1.0000   1.0000   1.0000   1.0000   1.0000   1.0000   1.0000
     1.0000   1.0000   1.0000   1.0000   1.0000   1.0000   1.0000   1.0000
     1.0000   1.0000   1.0000   1.0000

          k =-0.3333-0.1925 0.1053 (  4342 PWs)   bands (ev):

   -11.7043 -11.5264 -10.8089 -10.5980  -0.2353  -0.0984   0.2058   0.2657
     0.2974   0.4967   0.5537   0.6563   0.7569   0.8133   0.8924   0.9426
     1.0100   1.0566   1.2124   1.2515   1.4484   1.4811   1.5064   1.5510
     2.1641   2.3584   2.6856   3.0416   3.4576   3.7596   3.8639   4.1804
     4.7413   4.8113   5.0785   5.2542

     occupation numbers 
     1.0000   1.0000   1.0000   1.0000   1.0000   1.0000   1.0000   1.0000
     1.0000   1.0000   1.0000   1.0000   1.0000   1.0000   1.0000   1.0000
     1.0000   1.0000   1.0000   1.0000   1.0000   1.0000   1.0000   1.0000
     1.0000   1.0000   1.0000   1.0000   1.0000   1.0000   1.0000   1.0000
     1.0000   1.0000   1.0000   1.0000

          k = 0.3333-0.1925 0.1053 (  4342 PWs)   bands (ev):

   -11.7178 -11.5269 -10.8034 -10.5996  -0.2430  -0.0737   0.0788   0.2113
     0.3743   0.4405   0.5710   0.6529   0.7335   0.8484   0.8806   0.9561
     1.0061   1.0606   1.2262   1.2639   1.4442   1.4838   1.5085   1.5585
     2.2273   2.3533   2.7460   3.0455   3.4597   3.7410   3.8987   4.2227
     4.7990   4.8298   5.0619   5.2434

     occupation numbers 
     1.0000   1.0000   1.0000   1.0000   1.0000   1.0000   1.0000   1.0000
     1.0000   1.0000   1.0000   1.0000   1.0000   1.0000   1.0000   1.0000
     1.0000   1.0000   1.0000   1.0000   1.0000   1.0000   1.0000   1.0000
     1.0000   1.0000   1.0000   1.0000   1.0000   1.0000   1.0000   1.0000
     1.0000   1.0000   1.0000   1.0000

          k =-0.3333 0.1925-0.1580 (  4344 PWs)   bands (ev):

   -11.7175 -11.5273 -10.8031 -10.5997  -0.2433  -0.0663   0.0793   0.2224
     0.3808   0.4385   0.5551   0.6163   0.7374   0.8500   0.8786   0.9763
     1.0257   1.0602   1.2193   1.2320   1.4445   1.4853   1.5093   1.5569
     2.2356   2.3612   2.8190   3.0462   3.4607   3.6943   3.8405   4.1929
     4.8373   4.8563   5.0822   5.2327

     occupation numbers 
     1.0000   1.0000   1.0000   1.0000   1.0000   1.0000   1.0000   1.0000
     1.0000   1.0000   1.0000   1.0000   1.0000   1.0000   1.0000   1.0000
     1.0000   1.0000   1.0000   1.0000   1.0000   1.0000   1.0000   1.0000
     1.0000   1.0000   1.0000   1.0000   1.0000   1.0000   1.0000   1.0000
     1.0000   1.0000   1.0000   1.0000

          k = 0.3333 0.1925-0.1580 (  4344 PWs)   bands (ev):

   -11.7040 -11.5269 -10.8087 -10.5981  -0.2357  -0.0903   0.2150   0.2654
     0.3020   0.4937   0.5494   0.6218   0.7521   0.8145   0.8892   0.9534
     1.0317   1.0531   1.2114   1.2273   1.4467   1.4857   1.5081   1.5470
     2.2008   2.3210   2.7772   3.0501   3.4312   3.6926   3.8461   4.1548
     4.7699   4.8325   5.1029   5.2478

     occupation numbers 
     1.0000   1.0000   1.0000   1.0000   1.0000   1.0000   1.0000   1.0000
     1.0000   1.0000   1.0000   1.0000   1.0000   1.0000   1.0000   1.0000
     1.0000   1.0000   1.0000   1.0000   1.0000   1.0000   1.0000   1.0000
     1.0000   1.0000   1.0000   1.0000   1.0000   1.0000   1.0000   1.0000
     1.0000   1.0000   1.0000   1.0000

          k = 0.5000-0.2887 0.0000 (  4308 PWs)   bands (ev):

   -11.6142 -11.4527 -10.7132 -10.5409  -0.2533  -0.0668   0.1085   0.2920
     0.4315   0.5343   0.6906   0.7153   0.7969   0.8862   0.9136   1.0313
     1.0706   1.2227   1.2620   1.2810   1.4185   1.5270   1.5870   1.5922
     1.8207   2.1563   2.2578   2.6832   3.0132   3.4739   4.0873   4.2794
     4.4725   4.5317   4.7300   5.1172

     occupation numbers 
     1.0000   1.0000   1.0000   1.0000   1.0000   1.0000   1.0000   1.0000
     1.0000   1.0000   1.0000   1.0000   1.0000   1.0000   1.0000   1.0000
     1.0000   1.0000   1.0000   1.0000   1.0000   1.0000   1.0000   1.0000
     1.0000   1.0000   1.0000   1.0000   1.0000   1.0000   1.0000   1.0000
     1.0000   1.0000   1.0000   1.0000

          k =-0.5000-0.2887 0.0000 (  4308 PWs)   bands (ev):

   -11.5932 -11.4545 -10.7216 -10.5381  -0.2193  -0.0799   0.2494   0.3640
     0.3882   0.5646   0.6404   0.7257   0.8022   0.8520   0.9245   1.0519
     1.0766   1.2038   1.2429   1.2550   1.3459   1.5261   1.5728   1.5946
     1.8133   2.0779   2.2852   2.6680   3.0829   3.4489   3.9844   4.1267
     4.4901   4.5308   4.7619   5.1214

     occupation numbers 
     1.0000   1.0000   1.0000   1.0000   1.0000   1.0000   1.0000   1.0000
     1.0000   1.0000   1.0000   1.0000   1.0000   1.0000   1.0000   1.0000
     1.0000   1.0000   1.0000   1.0000   1.0000   1.0000   1.0000   1.0000
     1.0000   1.0000   1.0000   1.0000   1.0000   1.0000   1.0000   1.0000
     1.0000   1.0000   1.0000   1.0000

          k = 0.5000-0.2887 0.0527 (  4332 PWs)   bands (ev):

   -11.6141 -11.4528 -10.7132 -10.5409  -0.2511  -0.0620   0.1089   0.2905
     0.4382   0.5329   0.6735   0.7077   0.7947   0.8834   0.9223   1.0385
     1.0696   1.2222   1.2638   1.2797   1.4087   1.5266   1.5890   1.5926
     1.8190   2.1346   2.2810   2.6651   3.0849   3.4894   4.0464   4.1565
     4.5041   4.5752   4.7701   5.1082

     occupation numbers 
     1.0000   1.0000   1.0000   1.0000   1.0000   1.0000   1.0000   1.0000
     1.0000   1.0000   1.0000   1.0000   1.0000   1.0000   1.0000   1.0000
     1.0000   1.0000   1.0000   1.0000   1.0000   1.0000   1.0000   1.0000
     1.0000   1.0000   1.0000   1.0000   1.0000   1.0000   1.0000   1.0000
     1.0000   1.0000   1.0000   1.0000

          k =-0.5000-0.2887 0.0527 (  4332 PWs)   bands (ev):

   -11.5931 -11.4546 -10.7216 -10.5381  -0.2172  -0.0737   0.2502   0.3625
     0.3916   0.5583   0.6355   0.7073   0.8015   0.8559   0.9307   1.0518
     1.0819   1.2048   1.2452   1.2529   1.3395   1.5257   1.5740   1.5938
     1.8097   2.0704   2.2977   2.6485   3.1496   3.4646   3.9544   4.0616
     4.4609   4.5623   4.8062   5.1143

     occupation numbers 
     1.0000   1.0000   1.0000   1.0000   1.0000   1.0000   1.0000   1.0000
     1.0000   1.0000   1.0000   1.0000   1.0000   1.0000   1.0000   1.0000
     1.0000   1.0000   1.0000   1.0000   1.0000   1.0000   1.0000   1.0000
     1.0000   1.0000   1.0000   1.0000   1.0000   1.0000   1.0000   1.0000
     1.0000   1.0000   1.0000   1.0000

          k = 0.5000-0.2887 0.1053 (  4348 PWs)   bands (ev):

   -11.6140 -11.4530 -10.7133 -10.5409  -0.2463  -0.0517   0.1097   0.2875
     0.4587   0.5285   0.6235   0.7041   0.7924   0.8800   0.9375   1.0492
     1.0681   1.2197   1.2647   1.2834   1.3889   1.5259   1.5904   1.5953
     1.8159   2.1037   2.3226   2.6243   3.2648   3.5265   3.9172   3.9711
     4.5666   4.6349   4.8217   5.0886

     occupation numbers 
     1.0000   1.0000   1.0000   1.0000   1.0000   1.0000   1.0000   1.0000
     1.0000   1.0000   1.0000   1.0000   1.0000   1.0000   1.0000   1.0000
     1.0000   1.0000   1.0000   1.0000   1.0000   1.0000   1.0000   1.0000
     1.0000   1.0000   1.0000   1.0000   1.0000   1.0000   1.0000   1.0000
     1.0000   1.0000   1.0000   1.0000

          k =-0.5000-0.2887 0.1053 (  4348 PWs)   bands (ev):

   -11.5930 -11.4547 -10.7217 -10.5380  -0.2127  -0.0605   0.2521   0.3592
     0.4015   0.5406   0.6269   0.6747   0.8016   0.8608   0.9471   1.0441
     1.0943   1.2065   1.2444   1.2575   1.3249   1.5249   1.5765   1.5919
     1.8030   2.0574   2.3269   2.6055   3.3206   3.5047   3.8540   3.9123
     4.4591   4.6150   4.8599   5.0996

     occupation numbers 
     1.0000   1.0000   1.0000   1.0000   1.0000   1.0000   1.0000   1.0000
     1.0000   1.0000   1.0000   1.0000   1.0000   1.0000   1.0000   1.0000
     1.0000   1.0000   1.0000   1.0000   1.0000   1.0000   1.0000   1.0000
     1.0000   1.0000   1.0000   1.0000   1.0000   1.0000   1.0000   1.0000
     1.0000   1.0000   1.0000   1.0000

          k = 0.5000-0.2887-0.1580 (  4340 PWs)   bands (ev):

   -11.6139 -11.4531 -10.7133 -10.5409  -0.2438  -0.0463   0.1101   0.2860
     0.4777   0.5227   0.5930   0.7036   0.7918   0.8788   0.9450   1.0521
     1.0686   1.2180   1.2631   1.2893   1.3781   1.5256   1.5905   1.5970
     1.8144   2.0915   2.3448   2.6005   3.4086   3.5574   3.7439   3.9334
     4.5984   4.6610   4.8378   5.0779

     occupation numbers 
     1.0000   1.0000   1.0000   1.0000   1.0000   1.0000   1.0000   1.0000
     1.0000   1.0000   1.0000   1.0000   1.0000   1.0000   1.0000   1.0000
     1.0000   1.0000   1.0000   1.0000   1.0000   1.0000   1.0000   1.0000
     1.0000   1.0000   1.0000   1.0000   1.0000   1.0000   1.0000   1.0000
     1.0000   1.0000   1.0000   1.0000

          k =-0.5000-0.2887-0.1580 (  4340 PWs)   bands (ev):

   -11.5929 -11.4548 -10.7217 -10.5380  -0.2104  -0.0534   0.2530   0.3574
     0.4087   0.5276   0.6234   0.6607   0.8020   0.8624   0.9581   1.0373
     1.1001   1.2073   1.2418   1.2652   1.3151   1.5245   1.5780   1.5907
     1.7998   2.0517   2.3449   2.5809   3.4548   3.5759   3.6692   3.8712
     4.4701   4.6398   4.8771   5.0919

     occupation numbers 
     1.0000   1.0000   1.0000   1.0000   1.0000   1.0000   1.0000   1.0000
     1.0000   1.0000   1.0000   1.0000   1.0000   1.0000   1.0000   1.0000
     1.0000   1.0000   1.0000   1.0000   1.0000   1.0000   1.0000   1.0000
     1.0000   1.0000   1.0000   1.0000   1.0000   1.0000   1.0000   1.0000
     1.0000   1.0000   1.0000   1.0000

          k =-0.1667 0.2887 0.0000 (  4317 PWs)   bands (ev):

   -11.7667 -11.5670 -10.8478 -10.6261  -0.1702  -0.0773   0.0572   0.1611
     0.2628   0.3583   0.5808   0.6571   0.7657   0.8232   0.8713   0.9048
     1.0230   1.1188   1.2022   1.3379   1.3833   1.4556   1.5172   1.5542
     1.9067   2.8624   2.9515   3.3006   3.3867   3.8848   4.2126   4.4167
     4.6097   4.6872   5.1315   5.2149

     occupation numbers 
     1.0000   1.0000   1.0000   1.0000   1.0000   1.0000   1.0000   1.0000
     1.0000   1.0000   1.0000   1.0000   1.0000   1.0000   1.0000   1.0000
     1.0000   1.0000   1.0000   1.0000   1.0000   1.0000   1.0000   1.0000
     1.0000   1.0000   1.0000   1.0000   1.0000   1.0000   1.0000   1.0000
     1.0000   1.0000   1.0000   1.0000

          k = 0.3333-0.0000 0.0000 (  4317 PWs)   bands (ev):

   -11.7651 -11.5605 -10.8514 -10.6288  -0.1990  -0.0829   0.1096   0.1550
     0.2611   0.4344   0.5752   0.6919   0.7454   0.8229   0.8792   0.8889
     0.9422   1.0758   1.2157   1.3387   1.3800   1.4077   1.5137   1.5965
     1.9321   2.7608   2.9406   3.3044   3.4656   3.8851   4.2531   4.4209
     4.6380   4.6634   5.1618   5.1806

     occupation numbers 
     1.0000   1.0000   1.0000   1.0000   1.0000   1.0000   1.0000   1.0000
     1.0000   1.0000   1.0000   1.0000   1.0000   1.0000   1.0000   1.0000
     1.0000   1.0000   1.0000   1.0000   1.0000   1.0000   1.0000   1.0000
     1.0000   1.0000   1.0000   1.0000   1.0000   1.0000   1.0000   1.0000
     1.0000   1.0000   1.0000   1.0000

          k =-0.1667-0.2887 0.0527 (  4331 PWs)   bands (ev):

   -11.7578 -11.5670 -10.8507 -10.6255  -0.1675  -0.1110   0.0923   0.2093
     0.3167   0.4008   0.5817   0.6559   0.7598   0.8189   0.8596   0.8762
     1.0073   1.0831   1.2036   1.2759   1.4183   1.4550   1.5123   1.5418
     1.9893   2.7293   2.9293   3.2847   3.4236   3.9056   4.1664   4.2670
     4.6858   4.7436   5.1353   5.2145

     occupation numbers 
     1.0000   1.0000   1.0000   1.0000   1.0000   1.0000   1.0000   1.0000
     1.0000   1.0000   1.0000   1.0000   1.0000   1.0000   1.0000   1.0000
     1.0000   1.0000   1.0000   1.0000   1.0000   1.0000   1.0000   1.0000
     1.0000   1.0000   1.0000   1.0000   1.0000   1.0000   1.0000   1.0000
     1.0000   1.0000   1.0000   1.0000

          k =-0.1667 0.2887-0.0527 (  4331 PWs)   bands (ev):

   -11.7663 -11.5676 -10.8473 -10.6264  -0.1665  -0.0729   0.0541   0.1577
     0.2744   0.3596   0.5786   0.6604   0.7597   0.8301   0.8625   0.8998
     1.0041   1.0930   1.2072   1.2932   1.4145   1.4672   1.5207   1.5384
     1.9966   2.7773   3.0157   3.3208   3.3998   3.8678   4.1661   4.2650
     4.7096   4.7599   5.1339   5.2080

     occupation numbers 
     1.0000   1.0000   1.0000   1.0000   1.0000   1.0000   1.0000   1.0000
     1.0000   1.0000   1.0000   1.0000   1.0000   1.0000   1.0000   1.0000
     1.0000   1.0000   1.0000   1.0000   1.0000   1.0000   1.0000   1.0000
     1.0000   1.0000   1.0000   1.0000   1.0000   1.0000   1.0000   1.0000
     1.0000   1.0000   1.0000   1.0000

          k = 0.1667-0.2887-0.0527 (  4331 PWs)   bands (ev):

   -11.7662 -11.5676 -10.8473 -10.6264  -0.1674  -0.0763   0.0591   0.1688
     0.2629   0.3565   0.5771   0.6499   0.7686   0.8275   0.8693   0.9038
     1.0107   1.1042   1.2024   1.2802   1.4195   1.4536   1.5094   1.5506
     2.0045   2.7533   3.0394   3.3248   3.4003   3.8582   4.1654   4.2742
     4.7129   4.7427   5.1381   5.2116

     occupation numbers 
     1.0000   1.0000   1.0000   1.0000   1.0000   1.0000   1.0000   1.0000
     1.0000   1.0000   1.0000   1.0000   1.0000   1.0000   1.0000   1.0000
     1.0000   1.0000   1.0000   1.0000   1.0000   1.0000   1.0000   1.0000
     1.0000   1.0000   1.0000   1.0000   1.0000   1.0000   1.0000   1.0000
     1.0000   1.0000   1.0000   1.0000

          k = 0.3333-0.0000 0.0527 (  4331 PWs)   bands (ev):

   -11.7647 -11.5612 -10.8508 -10.6292  -0.1961  -0.0793   0.1064   0.1562
     0.2714   0.4341   0.5732   0.6961   0.7339   0.8206   0.8682   0.8873
     0.9478   1.0439   1.2183   1.2905   1.3973   1.4412   1.5140   1.5779
     2.0244   2.6943   2.9911   3.3121   3.4738   3.8604   4.2248   4.2825
     4.6859   4.7696   5.1563   5.1843

     occupation numbers 
     1.0000   1.0000   1.0000   1.0000   1.0000   1.0000   1.0000   1.0000
     1.0000   1.0000   1.0000   1.0000   1.0000   1.0000   1.0000   1.0000
     1.0000   1.0000   1.0000   1.0000   1.0000   1.0000   1.0000   1.0000
     1.0000   1.0000   1.0000   1.0000   1.0000   1.0000   1.0000   1.0000
     1.0000   1.0000   1.0000   1.0000

          k =-0.3333 0.0000 0.0527 (  4331 PWs)   bands (ev):

   -11.7647 -11.5611 -10.8508 -10.6291  -0.1969  -0.0815   0.1172   0.1576
     0.2606   0.4321   0.5734   0.6786   0.7492   0.8263   0.8775   0.8902
     0.9435   1.0470   1.2127   1.2886   1.3960   1.4350   1.5110   1.5860
     2.0144   2.7169   2.9683   3.3208   3.4850   3.8482   4.2195   4.2905
     4.6891   4.7639   5.1547   5.1864

     occupation numbers 
     1.0000   1.0000   1.0000   1.0000   1.0000   1.0000   1.0000   1.0000
     1.0000   1.0000   1.0000   1.0000   1.0000   1.0000   1.0000   1.0000
     1.0000   1.0000   1.0000   1.0000   1.0000   1.0000   1.0000   1.0000
     1.0000   1.0000   1.0000   1.0000   1.0000   1.0000   1.0000   1.0000
     1.0000   1.0000   1.0000   1.0000

          k =-0.1667-0.2887 0.1053 (  4343 PWs)   bands (ev):

   -11.7569 -11.5683 -10.8497 -10.6260  -0.1631  -0.1047   0.0969   0.2187
     0.3213   0.3968   0.5802   0.6498   0.7694   0.8230   0.8454   0.8659
     0.9524   1.0654   1.2043   1.2406   1.4423   1.4720   1.5080   1.5247
     2.1747   2.5828   3.0376   3.3283   3.4280   3.8412   4.0239   4.1817
     4.7356   4.8781   5.1442   5.2091

     occupation numbers 
     1.0000   1.0000   1.0000   1.0000   1.0000   1.0000   1.0000   1.0000
     1.0000   1.0000   1.0000   1.0000   1.0000   1.0000   1.0000   1.0000
     1.0000   1.0000   1.0000   1.0000   1.0000   1.0000   1.0000   1.0000
     1.0000   1.0000   1.0000   1.0000   1.0000   1.0000   1.0000   1.0000
     1.0000   1.0000   1.0000   1.0000

          k =-0.1667 0.2887-0.1053 (  4343 PWs)   bands (ev):

   -11.7654 -11.5689 -10.8463 -10.6269  -0.1598  -0.0677   0.0530   0.1611
     0.2896   0.3599   0.5754   0.6525   0.7579   0.8250   0.8524   0.8958
     0.9653   1.0754   1.2106   1.2526   1.4323   1.4797   1.5077   1.5326
     2.1943   2.6207   3.1035   3.3627   3.4472   3.8251   3.9734   4.1908
     4.7627   4.8965   5.1384   5.1990

     occupation numbers 
     1.0000   1.0000   1.0000   1.0000   1.0000   1.0000   1.0000   1.0000
     1.0000   1.0000   1.0000   1.0000   1.0000   1.0000   1.0000   1.0000
     1.0000   1.0000   1.0000   1.0000   1.0000   1.0000   1.0000   1.0000
     1.0000   1.0000   1.0000   1.0000   1.0000   1.0000   1.0000   1.0000
     1.0000   1.0000   1.0000   1.0000

          k = 0.1667-0.2887-0.1053 (  4343 PWs)   bands (ev):

   -11.7654 -11.5690 -10.8463 -10.6269  -0.1607  -0.0713   0.0581   0.1724
     0.2788   0.3553   0.5750   0.6383   0.7697   0.8271   0.8624   0.9010
     0.9629   1.0818   1.2084   1.2418   1.4392   1.4656   1.5003   1.5423
     2.2048   2.6008   3.1181   3.3642   3.4574   3.7953   3.9954   4.1868
     4.7640   4.8846   5.1400   5.2059

     occupation numbers 
     1.0000   1.0000   1.0000   1.0000   1.0000   1.0000   1.0000   1.0000
     1.0000   1.0000   1.0000   1.0000   1.0000   1.0000   1.0000   1.0000
     1.0000   1.0000   1.0000   1.0000   1.0000   1.0000   1.0000   1.0000
     1.0000   1.0000   1.0000   1.0000   1.0000   1.0000   1.0000   1.0000
     1.0000   1.0000   1.0000   1.0000

          k = 0.3333-0.0000 0.1053 (  4343 PWs)   bands (ev):

   -11.7638 -11.5625 -10.8497 -10.6298  -0.1909  -0.0744   0.1104   0.1601
     0.2854   0.4317   0.5715   0.6711   0.7382   0.7972   0.8671   0.8967
     0.9524   0.9918   1.2180   1.2518   1.4052   1.4752   1.5096   1.5583
     2.2142   2.5721   3.0543   3.3483   3.4854   3.8080   4.0659   4.2185
     4.7429   4.9017   5.1340   5.1999

     occupation numbers 
     1.0000   1.0000   1.0000   1.0000   1.0000   1.0000   1.0000   1.0000
     1.0000   1.0000   1.0000   1.0000   1.0000   1.0000   1.0000   1.0000
     1.0000   1.0000   1.0000   1.0000   1.0000   1.0000   1.0000   1.0000
     1.0000   1.0000   1.0000   1.0000   1.0000   1.0000   1.0000   1.0000
     1.0000   1.0000   1.0000   1.0000

          k =-0.3333 0.0000 0.1053 (  4343 PWs)   bands (ev):

   -11.7639 -11.5625 -10.8497 -10.6297  -0.1917  -0.0768   0.1205   0.1633
     0.2733   0.4294   0.5707   0.6581   0.7516   0.8085   0.8773   0.8930
     0.9489   0.9905   1.2124   1.2508   1.4059   1.4691   1.5061   1.5665
     2.1970   2.5970   3.0345   3.3606   3.5016   3.7859   4.0721   4.2172
     4.7457   4.8974   5.1337   5.2009

     occupation numbers 
     1.0000   1.0000   1.0000   1.0000   1.0000   1.0000   1.0000   1.0000
     1.0000   1.0000   1.0000   1.0000   1.0000   1.0000   1.0000   1.0000
     1.0000   1.0000   1.0000   1.0000   1.0000   1.0000   1.0000   1.0000
     1.0000   1.0000   1.0000   1.0000   1.0000   1.0000   1.0000   1.0000
     1.0000   1.0000   1.0000   1.0000

          k =-0.1667 0.2887 0.1580 (  4328 PWs)   bands (ev):

   -11.7650 -11.5696 -10.8457 -10.6272  -0.1567  -0.0671   0.0551   0.1682
     0.2944   0.3572   0.5771   0.6345   0.7670   0.8095   0.8605   0.8986
     0.9430   1.0748   1.2125   1.2347   1.4398   1.4842   1.4929   1.5365
     2.3754   2.4600   3.1453   3.3795   3.5109   3.7588   3.8886   4.1687
     4.7892   4.9410   5.1379   5.2004

     occupation numbers 
     1.0000   1.0000   1.0000   1.0000   1.0000   1.0000   1.0000   1.0000
     1.0000   1.0000   1.0000   1.0000   1.0000   1.0000   1.0000   1.0000
     1.0000   1.0000   1.0000   1.0000   1.0000   1.0000   1.0000   1.0000
     1.0000   1.0000   1.0000   1.0000   1.0000   1.0000   1.0000   1.0000
     1.0000   1.0000   1.0000   1.0000

          k = 0.3333-0.0000-0.1580 (  4328 PWs)   bands (ev):

   -11.7634 -11.5632 -10.8492 -10.6300  -0.1887  -0.0733   0.1170   0.1643
     0.2885   0.4293   0.5718   0.6457   0.7540   0.7819   0.8733   0.9066
     0.9488   0.9683   1.2153   1.2398   1.4095   1.4889   1.5001   1.5552
     2.3616   2.4602   3.0755   3.4000   3.4679   3.7826   3.9816   4.2021
     4.7728   4.9490   5.1208   5.2077

     occupation numbers 
     1.0000   1.0000   1.0000   1.0000   1.0000   1.0000   1.0000   1.0000
     1.0000   1.0000   1.0000   1.0000   1.0000   1.0000   1.0000   1.0000
     1.0000   1.0000   1.0000   1.0000   1.0000   1.0000   1.0000   1.0000
     1.0000   1.0000   1.0000   1.0000   1.0000   1.0000   1.0000   1.0000
     1.0000   1.0000   1.0000   1.0000

          k =-0.1667 0.4811 0.0000 (  4345 PWs)   bands (ev):

   -11.6014 -11.4667 -10.7150 -10.5348  -0.1275   0.0037   0.1467   0.2943
     0.4060   0.4791   0.6263   0.7545   0.8571   0.8796   0.9427   1.0170
     1.1298   1.2088   1.2701   1.3387   1.3858   1.4964   1.5759   1.6548
     2.0200   2.1457   2.4147   2.5835   3.0423   3.3170   3.6312   4.0554
     4.3037   4.5858   4.6563   4.8203

     occupation numbers 
     1.0000   1.0000   1.0000   1.0000   1.0000   1.0000   1.0000   1.0000
     1.0000   1.0000   1.0000   1.0000   1.0000   1.0000   1.0000   1.0000
     1.0000   1.0000   1.0000   1.0000   1.0000   1.0000   1.0000   1.0000
     1.0000   1.0000   1.0000   1.0000   1.0000   1.0000   1.0000   1.0000
     1.0000   1.0000   1.0000   1.0000

          k =-0.3333 0.3849 0.0000 (  4345 PWs)   bands (ev):

   -11.6115 -11.4576 -10.7149 -10.5390  -0.1448   0.0138   0.1077   0.2836
     0.3982   0.5188   0.6172   0.7676   0.8268   0.8533   0.9266   1.0307
     1.1520   1.1744   1.2582   1.3356   1.3927   1.4858   1.5860   1.6436
     2.0332   2.2221   2.4261   2.6286   3.0410   3.2797   3.6379   4.0335
     4.3660   4.5519   4.7257   4.8425

     occupation numbers 
     1.0000   1.0000   1.0000   1.0000   1.0000   1.0000   1.0000   1.0000
     1.0000   1.0000   1.0000   1.0000   1.0000   1.0000   1.0000   1.0000
     1.0000   1.0000   1.0000   1.0000   1.0000   1.0000   1.0000   1.0000
     1.0000   1.0000   1.0000   1.0000   1.0000   1.0000   1.0000   1.0000
     1.0000   1.0000   1.0000   1.0000

          k = 0.5000 0.0962 0.0000 (  4345 PWs)   bands (ev):

   -11.6009 -11.4544 -10.7210 -10.5390  -0.1491   0.0149   0.1940   0.2966
     0.4198   0.5683   0.6170   0.7618   0.8328   0.8602   0.9368   1.0349
     1.0754   1.1676   1.2426   1.3038   1.3694   1.4508   1.5722   1.6444
     1.9496   2.2188   2.4491   2.6334   3.0650   3.3227   3.6399   4.0251
     4.2730   4.5487   4.7485   4.8418

     occupation numbers 
     1.0000   1.0000   1.0000   1.0000   1.0000   1.0000   1.0000   1.0000
     1.0000   1.0000   1.0000   1.0000   1.0000   1.0000   1.0000   1.0000
     1.0000   1.0000   1.0000   1.0000   1.0000   1.0000   1.0000   1.0000
     1.0000   1.0000   1.0000   1.0000   1.0000   1.0000   1.0000   1.0000
     1.0000   1.0000   1.0000   1.0000

          k =-0.3333-0.3849 0.0000 (  4345 PWs)   bands (ev):

   -11.5957 -11.4591 -10.7210 -10.5369  -0.1343   0.0170   0.1623   0.3144
     0.4725   0.5837   0.6263   0.7608   0.8133   0.8313   0.9085   1.0215
     1.1307   1.1691   1.2402   1.3096   1.3577   1.4724   1.5731   1.6256
     1.9892   2.1595   2.4292   2.6497   3.0556   3.2908   3.6208   3.9989
     4.2831   4.5545   4.7377   4.8606

     occupation numbers 
     1.0000   1.0000   1.0000   1.0000   1.0000   1.0000   1.0000   1.0000
     1.0000   1.0000   1.0000   1.0000   1.0000   1.0000   1.0000   1.0000
     1.0000   1.0000   1.0000   1.0000   1.0000   1.0000   1.0000   1.0000
     1.0000   1.0000   1.0000   1.0000   1.0000   1.0000   1.0000   1.0000
     1.0000   1.0000   1.0000   1.0000

          k = 0.5000-0.0962 0.0000 (  4345 PWs)   bands (ev):

   -11.6113 -11.4536 -10.7168 -10.5403  -0.1469   0.0041   0.1139   0.3040
     0.3988   0.5579   0.6191   0.7512   0.8410   0.8758   0.9383   1.0423
     1.0747   1.1692   1.2559   1.3178   1.3914   1.4442   1.5796   1.6549
     1.9665   2.2602   2.4376   2.6439   3.0595   3.2951   3.6591   4.0389
     4.3559   4.5535   4.7474   4.8154

     occupation numbers 
     1.0000   1.0000   1.0000   1.0000   1.0000   1.0000   1.0000   1.0000
     1.0000   1.0000   1.0000   1.0000   1.0000   1.0000   1.0000   1.0000
     1.0000   1.0000   1.0000   1.0000   1.0000   1.0000   1.0000   1.0000
     1.0000   1.0000   1.0000   1.0000   1.0000   1.0000   1.0000   1.0000
     1.0000   1.0000   1.0000   1.0000

          k =-0.1667-0.4811 0.0527 (  4343 PWs)   bands (ev):

   -11.5959 -11.4675 -10.7171 -10.5341  -0.1151   0.0173   0.1189   0.3119
     0.4622   0.5412   0.6247   0.7306   0.8522   0.8885   0.9168   1.0086
     1.1368   1.1951   1.2524   1.3002   1.3712   1.4960   1.5682   1.6580
     1.9812   2.1225   2.4093   2.6275   3.0649   3.3351   3.5866   4.1021
     4.2419   4.5365   4.7336   4.7982

     occupation numbers 
     1.0000   1.0000   1.0000   1.0000   1.0000   1.0000   1.0000   1.0000
     1.0000   1.0000   1.0000   1.0000   1.0000   1.0000   1.0000   1.0000
     1.0000   1.0000   1.0000   1.0000   1.0000   1.0000   1.0000   1.0000
     1.0000   1.0000   1.0000   1.0000   1.0000   1.0000   1.0000   1.0000
     1.0000   1.0000   1.0000   1.0000

          k =-0.1667 0.4811-0.0527 (  4343 PWs)   bands (ev):

   -11.6013 -11.4668 -10.7150 -10.5348  -0.1261   0.0108   0.1499   0.2935
     0.4059   0.4784   0.6231   0.7379   0.8498   0.8976   0.9365   1.0141
     1.1435   1.2081   1.2629   1.3232   1.3813   1.5031   1.5723   1.6674
     1.9965   2.1520   2.4141   2.6183   3.0475   3.3527   3.5718   4.1278
     4.2353   4.5473   4.7144   4.8039

     occupation numbers 
     1.0000   1.0000   1.0000   1.0000   1.0000   1.0000   1.0000   1.0000
     1.0000   1.0000   1.0000   1.0000   1.0000   1.0000   1.0000   1.0000
     1.0000   1.0000   1.0000   1.0000   1.0000   1.0000   1.0000   1.0000
     1.0000   1.0000   1.0000   1.0000   1.0000   1.0000   1.0000   1.0000
     1.0000   1.0000   1.0000   1.0000

          k = 0.1667-0.4811-0.0527 (  4343 PWs)   bands (ev):

   -11.6013 -11.4668 -10.7150 -10.5348  -0.1249   0.0068   0.1505   0.2966
     0.4013   0.4783   0.6284   0.7719   0.8294   0.8840   0.9364   1.0174
     1.1160   1.2023   1.2721   1.3311   1.4045   1.4957   1.5762   1.6520
     2.0375   2.1091   2.4546   2.5773   3.0416   3.3755   3.5834   4.0742
     4.2867   4.5324   4.6768   4.8393

     occupation numbers 
     1.0000   1.0000   1.0000   1.0000   1.0000   1.0000   1.0000   1.0000
     1.0000   1.0000   1.0000   1.0000   1.0000   1.0000   1.0000   1.0000
     1.0000   1.0000   1.0000   1.0000   1.0000   1.0000   1.0000   1.0000
     1.0000   1.0000   1.0000   1.0000   1.0000   1.0000   1.0000   1.0000
     1.0000   1.0000   1.0000   1.0000

          k =-0.3333 0.3849 0.0527 (  4343 PWs)   bands (ev):

   -11.6115 -11.4577 -10.7149 -10.5389  -0.1436   0.0180   0.1142   0.2870
     0.3955   0.5160   0.6080   0.7461   0.8194   0.8693   0.9334   1.0385
     1.1490   1.1982   1.2315   1.3357   1.3774   1.4907   1.5818   1.6544
     2.0068   2.2238   2.4463   2.6569   3.0344   3.3209   3.5754   4.1123
     4.2881   4.5110   4.7681   4.8516

     occupation numbers 
     1.0000   1.0000   1.0000   1.0000   1.0000   1.0000   1.0000   1.0000
     1.0000   1.0000   1.0000   1.0000   1.0000   1.0000   1.0000   1.0000
     1.0000   1.0000   1.0000   1.0000   1.0000   1.0000   1.0000   1.0000
     1.0000   1.0000   1.0000   1.0000   1.0000   1.0000   1.0000   1.0000
     1.0000   1.0000   1.0000   1.0000

          k = 0.5000 0.0962 0.0527 (  4343 PWs)   bands (ev):

   -11.6008 -11.4545 -10.7210 -10.5389  -0.1477   0.0237   0.1966   0.2937
     0.4251   0.5599   0.6134   0.7534   0.8114   0.8696   0.9396   1.0385
     1.0843   1.1720   1.2398   1.3090   1.3405   1.4618   1.5692   1.6577
     1.9309   2.2081   2.4674   2.6770   3.0437   3.3473   3.5962   4.0943
     4.2219   4.5108   4.7587   4.8620

     occupation numbers 
     1.0000   1.0000   1.0000   1.0000   1.0000   1.0000   1.0000   1.0000
     1.0000   1.0000   1.0000   1.0000   1.0000   1.0000   1.0000   1.0000
     1.0000   1.0000   1.0000   1.0000   1.0000   1.0000   1.0000   1.0000
     1.0000   1.0000   1.0000   1.0000   1.0000   1.0000   1.0000   1.0000
     1.0000   1.0000   1.0000   1.0000

          k =-0.5000-0.0962 0.0527 (  4343 PWs)   bands (ev):

   -11.6008 -11.4545 -10.7210 -10.5389  -0.1466   0.0183   0.1993   0.2983
     0.4161   0.5602   0.6224   0.7663   0.8186   0.8657   0.9341   1.0359
     1.0668   1.1514   1.2410   1.2949   1.4023   1.4411   1.5745   1.6424
     1.9449   2.2111   2.4634   2.6486   3.0672   3.3696   3.5964   4.0189
     4.2728   4.5321   4.7294   4.8713

     occupation numbers 
     1.0000   1.0000   1.0000   1.0000   1.0000   1.0000   1.0000   1.0000
     1.0000   1.0000   1.0000   1.0000   1.0000   1.0000   1.0000   1.0000
     1.0000   1.0000   1.0000   1.0000   1.0000   1.0000   1.0000   1.0000
     1.0000   1.0000   1.0000   1.0000   1.0000   1.0000   1.0000   1.0000
     1.0000   1.0000   1.0000   1.0000

          k = 0.3333-0.3849 0.0527 (  4343 PWs)   bands (ev):

   -11.6115 -11.4577 -10.7149 -10.5390  -0.1410   0.0184   0.1057   0.2830
     0.4028   0.5168   0.6198   0.7782   0.7985   0.8686   0.9234   1.0187
     1.1472   1.1631   1.2632   1.3127   1.4228   1.4872   1.5836   1.6426
     2.0383   2.1980   2.4455   2.6468   3.0415   3.3344   3.5883   4.0373
     4.3099   4.6099   4.6973   4.8528

     occupation numbers 
     1.0000   1.0000   1.0000   1.0000   1.0000   1.0000   1.0000   1.0000
     1.0000   1.0000   1.0000   1.0000   1.0000   1.0000   1.0000   1.0000
     1.0000   1.0000   1.0000   1.0000   1.0000   1.0000   1.0000   1.0000
     1.0000   1.0000   1.0000   1.0000   1.0000   1.0000   1.0000   1.0000
     1.0000   1.0000   1.0000   1.0000

          k =-0.3333-0.3849-0.0527 (  4343 PWs)   bands (ev):

   -11.5956 -11.4592 -10.7211 -10.5369  -0.1338   0.0276   0.1632   0.3171
     0.4686   0.5836   0.6131   0.7504   0.8144   0.8289   0.9096   1.0342
     1.1320   1.1782   1.2275   1.3096   1.3409   1.4783   1.5724   1.6349
     1.9746   2.1521   2.4436   2.6749   3.0467   3.3413   3.5597   4.0636
     4.2360   4.4954   4.7795   4.8675

     occupation numbers 
     1.0000   1.0000   1.0000   1.0000   1.0000   1.0000   1.0000   1.0000
     1.0000   1.0000   1.0000   1.0000   1.0000   1.0000   1.0000   1.0000
     1.0000   1.0000   1.0000   1.0000   1.0000   1.0000   1.0000   1.0000
     1.0000   1.0000   1.0000   1.0000   1.0000   1.0000   1.0000   1.0000
     1.0000   1.0000   1.0000   1.0000

          k = 0.5000-0.0962-0.0527 (  4343 PWs)   bands (ev):

   -11.6112 -11.4537 -10.7168 -10.5403  -0.1452   0.0065   0.1207   0.3094
     0.3983   0.5454   0.6178   0.7373   0.8311   0.8847   0.9392   1.0470
     1.0824   1.1805   1.2431   1.3254   1.3621   1.4524   1.5763   1.6684
     1.9414   2.2607   2.4538   2.6811   3.0398   3.3351   3.6055   4.1053
     4.2851   4.5334   4.7545   4.8418

     occupation numbers 
     1.0000   1.0000   1.0000   1.0000   1.0000   1.0000   1.0000   1.0000
     1.0000   1.0000   1.0000   1.0000   1.0000   1.0000   1.0000   1.0000
     1.0000   1.0000   1.0000   1.0000   1.0000   1.0000   1.0000   1.0000
     1.0000   1.0000   1.0000   1.0000   1.0000   1.0000   1.0000   1.0000
     1.0000   1.0000   1.0000   1.0000

          k =-0.5000 0.0962-0.0527 (  4343 PWs)   bands (ev):

   -11.6112 -11.4537 -10.7168 -10.5403  -0.1436   0.0093   0.1118   0.3047
     0.4009   0.5588   0.6196   0.7649   0.8046   0.8885   0.9341   1.0441
     1.0725   1.1583   1.2496   1.3014   1.4179   1.4437   1.5801   1.6531
     1.9664   2.2405   2.4609   2.6671   3.0612   3.3296   3.6154   4.0548
     4.3048   4.5675   4.7417   4.8359

     occupation numbers 
     1.0000   1.0000   1.0000   1.0000   1.0000   1.0000   1.0000   1.0000
     1.0000   1.0000   1.0000   1.0000   1.0000   1.0000   1.0000   1.0000
     1.0000   1.0000   1.0000   1.0000   1.0000   1.0000   1.0000   1.0000
     1.0000   1.0000   1.0000   1.0000   1.0000   1.0000   1.0000   1.0000
     1.0000   1.0000   1.0000   1.0000

          k = 0.3333 0.3849-0.0527 (  4343 PWs)   bands (ev):

   -11.5956 -11.4592 -10.7211 -10.5369  -0.1301   0.0180   0.1673   0.3134
     0.4711   0.5736   0.6395   0.7610   0.7962   0.8510   0.9083   1.0015
     1.1319   1.1523   1.2322   1.2921   1.3948   1.4738   1.5715   1.6263
     1.9869   2.1485   2.4431   2.6620   3.0670   3.3321   3.5735   3.9989
     4.2693   4.5712   4.7051   4.8812

     occupation numbers 
     1.0000   1.0000   1.0000   1.0000   1.0000   1.0000   1.0000   1.0000
     1.0000   1.0000   1.0000   1.0000   1.0000   1.0000   1.0000   1.0000
     1.0000   1.0000   1.0000   1.0000   1.0000   1.0000   1.0000   1.0000
     1.0000   1.0000   1.0000   1.0000   1.0000   1.0000   1.0000   1.0000
     1.0000   1.0000   1.0000   1.0000

          k =-0.1667-0.4811 0.1053 (  4345 PWs)   bands (ev):

   -11.5958 -11.4676 -10.7171 -10.5341  -0.1103   0.0283   0.1214   0.3197
     0.4556   0.5296   0.6356   0.7219   0.8505   0.8662   0.9227   1.0079
     1.1482   1.1685   1.2432   1.2878   1.3807   1.5022   1.5683   1.6683
     1.9724   2.1020   2.4408   2.6417   3.0921   3.4222   3.5258   4.0501
     4.2363   4.5283   4.7310   4.8132

     occupation numbers 
     1.0000   1.0000   1.0000   1.0000   1.0000   1.0000   1.0000   1.0000
     1.0000   1.0000   1.0000   1.0000   1.0000   1.0000   1.0000   1.0000
     1.0000   1.0000   1.0000   1.0000   1.0000   1.0000   1.0000   1.0000
     1.0000   1.0000   1.0000   1.0000   1.0000   1.0000   1.0000   1.0000
     1.0000   1.0000   1.0000   1.0000

          k =-0.1667 0.4811-0.1053 (  4345 PWs)   bands (ev):

   -11.6012 -11.4670 -10.7151 -10.5347  -0.1220   0.0210   0.1572   0.2965
     0.3999   0.4780   0.6222   0.7251   0.8341   0.9124   0.9259   1.0085
     1.1487   1.1896   1.2674   1.3005   1.3937   1.5087   1.5690   1.6760
     1.9895   2.1255   2.4515   2.6413   3.0652   3.4142   3.5408   4.0635
     4.2397   4.5364   4.7212   4.8109

     occupation numbers 
     1.0000   1.0000   1.0000   1.0000   1.0000   1.0000   1.0000   1.0000
     1.0000   1.0000   1.0000   1.0000   1.0000   1.0000   1.0000   1.0000
     1.0000   1.0000   1.0000   1.0000   1.0000   1.0000   1.0000   1.0000
     1.0000   1.0000   1.0000   1.0000   1.0000   1.0000   1.0000   1.0000
     1.0000   1.0000   1.0000   1.0000

          k = 0.1667-0.4811-0.1053 (  4345 PWs)   bands (ev):

   -11.6012 -11.4670 -10.7151 -10.5347  -0.1208   0.0171   0.1573   0.2999
     0.3952   0.4771   0.6301   0.7653   0.8014   0.8958   0.9302   1.0135
     1.1177   1.1936   1.2705   1.3132   1.4113   1.5026   1.5720   1.6616
     2.0382   2.0773   2.4946   2.5955   3.0570   3.4502   3.5431   4.0297
     4.2544   4.5525   4.6667   4.8474

     occupation numbers 
     1.0000   1.0000   1.0000   1.0000   1.0000   1.0000   1.0000   1.0000
     1.0000   1.0000   1.0000   1.0000   1.0000   1.0000   1.0000   1.0000
     1.0000   1.0000   1.0000   1.0000   1.0000   1.0000   1.0000   1.0000
     1.0000   1.0000   1.0000   1.0000   1.0000   1.0000   1.0000   1.0000
     1.0000   1.0000   1.0000   1.0000

          k =-0.3333 0.3849 0.1053 (  4345 PWs)   bands (ev):

   -11.6113 -11.4579 -10.7149 -10.5389  -0.1386   0.0265   0.1193   0.2907
     0.3982   0.5116   0.5988   0.7181   0.8150   0.8892   0.9359   1.0350
     1.1422   1.1896   1.2269   1.3061   1.4003   1.4964   1.5759   1.6630
     1.9908   2.2005   2.4888   2.6910   3.0408   3.4038   3.5236   4.0555
     4.2421   4.5460   4.7559   4.8760

     occupation numbers 
     1.0000   1.0000   1.0000   1.0000   1.0000   1.0000   1.0000   1.0000
     1.0000   1.0000   1.0000   1.0000   1.0000   1.0000   1.0000   1.0000
     1.0000   1.0000   1.0000   1.0000   1.0000   1.0000   1.0000   1.0000
     1.0000   1.0000   1.0000   1.0000   1.0000   1.0000   1.0000   1.0000
     1.0000   1.0000   1.0000   1.0000

          k = 0.5000 0.0962 0.1053 (  4345 PWs)   bands (ev):

   -11.6006 -11.4547 -10.7210 -10.5389  -0.1437   0.0364   0.2050   0.2929
     0.4275   0.5463   0.6105   0.7294   0.8048   0.8787   0.9375   1.0411
     1.0874   1.1589   1.2370   1.2816   1.3643   1.4649   1.5679   1.6701
     1.9097   2.1923   2.4988   2.7324   3.0282   3.3874   3.5863   4.0234
     4.2325   4.5099   4.7276   4.9016

     occupation numbers 
     1.0000   1.0000   1.0000   1.0000   1.0000   1.0000   1.0000   1.0000
     1.0000   1.0000   1.0000   1.0000   1.0000   1.0000   1.0000   1.0000
     1.0000   1.0000   1.0000   1.0000   1.0000   1.0000   1.0000   1.0000
     1.0000   1.0000   1.0000   1.0000   1.0000   1.0000   1.0000   1.0000
     1.0000   1.0000   1.0000   1.0000

          k =-0.5000-0.0962 0.1053 (  4345 PWs)   bands (ev):

   -11.6006 -11.4547 -10.7210 -10.5389  -0.1426   0.0308   0.2074   0.2982
     0.4169   0.5480   0.6225   0.7448   0.7971   0.8778   0.9408   1.0319
     1.0733   1.1409   1.2373   1.2827   1.4078   1.4465   1.5729   1.6549
     1.9231   2.1949   2.4982   2.6947   3.0616   3.4035   3.6002   3.9473
     4.2768   4.5261   4.7066   4.9048

     occupation numbers 
     1.0000   1.0000   1.0000   1.0000   1.0000   1.0000   1.0000   1.0000
     1.0000   1.0000   1.0000   1.0000   1.0000   1.0000   1.0000   1.0000
     1.0000   1.0000   1.0000   1.0000   1.0000   1.0000   1.0000   1.0000
     1.0000   1.0000   1.0000   1.0000   1.0000   1.0000   1.0000   1.0000
     1.0000   1.0000   1.0000   1.0000

          k = 0.3333-0.3849 0.1053 (  4345 PWs)   bands (ev):

   -11.6113 -11.4579 -10.7149 -10.5389  -0.1360   0.0275   0.1098   0.2856
     0.4063   0.5138   0.6130   0.7356   0.8007   0.8912   0.9293   1.0113
     1.1316   1.1718   1.2565   1.2929   1.4304   1.4950   1.5763   1.6525
     2.0180   2.1808   2.4858   2.6811   3.0462   3.4263   3.5338   3.9755
     4.2788   4.6191   4.7034   4.8703

     occupation numbers 
     1.0000   1.0000   1.0000   1.0000   1.0000   1.0000   1.0000   1.0000
     1.0000   1.0000   1.0000   1.0000   1.0000   1.0000   1.0000   1.0000
     1.0000   1.0000   1.0000   1.0000   1.0000   1.0000   1.0000   1.0000
     1.0000   1.0000   1.0000   1.0000   1.0000   1.0000   1.0000   1.0000
     1.0000   1.0000   1.0000   1.0000

          k =-0.3333-0.3849-0.1053 (  4345 PWs)   bands (ev):

   -11.5955 -11.4593 -10.7211 -10.5368  -0.1292   0.0398   0.1691   0.3198
     0.4621   0.5691   0.6203   0.7221   0.8119   0.8407   0.9190   1.0281
     1.1362   1.1549   1.2183   1.2807   1.3726   1.4845   1.5703   1.6448
     1.9607   2.1342   2.4734   2.7014   3.0624   3.4210   3.5086   4.0075
     4.2224   4.4990   4.7598   4.8987

     occupation numbers 
     1.0000   1.0000   1.0000   1.0000   1.0000   1.0000   1.0000   1.0000
     1.0000   1.0000   1.0000   1.0000   1.0000   1.0000   1.0000   1.0000
     1.0000   1.0000   1.0000   1.0000   1.0000   1.0000   1.0000   1.0000
     1.0000   1.0000   1.0000   1.0000   1.0000   1.0000   1.0000   1.0000
     1.0000   1.0000   1.0000   1.0000

          k = 0.5000-0.0962-0.1053 (  4345 PWs)   bands (ev):

   -11.6110 -11.4539 -10.7168 -10.5403  -0.1400   0.0137   0.1259   0.3176
     0.4011   0.5332   0.6132   0.7191   0.8148   0.8972   0.9372   1.0495
     1.0905   1.1870   1.2125   1.3000   1.3840   1.4559   1.5738   1.6798
     1.9203   2.2409   2.4935   2.7390   3.0228   3.3971   3.5711   4.0568
     4.2399   4.5657   4.7270   4.8798

     occupation numbers 
     1.0000   1.0000   1.0000   1.0000   1.0000   1.0000   1.0000   1.0000
     1.0000   1.0000   1.0000   1.0000   1.0000   1.0000   1.0000   1.0000
     1.0000   1.0000   1.0000   1.0000   1.0000   1.0000   1.0000   1.0000
     1.0000   1.0000   1.0000   1.0000   1.0000   1.0000   1.0000   1.0000
     1.0000   1.0000   1.0000   1.0000

          k =-0.5000 0.0962-0.1053 (  4345 PWs)   bands (ev):

   -11.6110 -11.4540 -10.7168 -10.5403  -0.1384   0.0170   0.1162   0.3107
     0.4043   0.5491   0.6191   0.7388   0.7883   0.8979   0.9377   1.0467
     1.0809   1.1515   1.2382   1.2861   1.4182   1.4524   1.5768   1.6652
     1.9428   2.2267   2.4988   2.7170   3.0537   3.3805   3.5965   3.9899
     4.2803   4.5800   4.7242   4.8721

     occupation numbers 
     1.0000   1.0000   1.0000   1.0000   1.0000   1.0000   1.0000   1.0000
     1.0000   1.0000   1.0000   1.0000   1.0000   1.0000   1.0000   1.0000
     1.0000   1.0000   1.0000   1.0000   1.0000   1.0000   1.0000   1.0000
     1.0000   1.0000   1.0000   1.0000   1.0000   1.0000   1.0000   1.0000
     1.0000   1.0000   1.0000   1.0000

          k = 0.3333 0.3849-0.1053 (  4345 PWs)   bands (ev):

   -11.5955 -11.4593 -10.7211 -10.5368  -0.1254   0.0294   0.1744   0.3145
     0.4658   0.5646   0.6428   0.7326   0.7934   0.8589   0.9251   0.9865
     1.1232   1.1536   1.2183   1.2792   1.4059   1.4816   1.5692   1.6367
     1.9721   2.1308   2.4744   2.6863   3.0881   3.3806   3.5603   3.9309
     4.2663   4.5545   4.7056   4.9033

     occupation numbers 
     1.0000   1.0000   1.0000   1.0000   1.0000   1.0000   1.0000   1.0000
     1.0000   1.0000   1.0000   1.0000   1.0000   1.0000   1.0000   1.0000
     1.0000   1.0000   1.0000   1.0000   1.0000   1.0000   1.0000   1.0000
     1.0000   1.0000   1.0000   1.0000   1.0000   1.0000   1.0000   1.0000
     1.0000   1.0000   1.0000   1.0000

          k =-0.1667 0.4811 0.1580 (  4338 PWs)   bands (ev):

   -11.6011 -11.4670 -10.7151 -10.5347  -0.1193   0.0243   0.1608   0.3009
     0.3938   0.4774   0.6284   0.7282   0.8166   0.9064   0.9286   1.0074
     1.1355   1.1842   1.2732   1.2956   1.4062   1.5089   1.5685   1.6729
     2.0090   2.0920   2.4913   2.6253   3.0784   3.3972   3.6398   3.9244
     4.2842   4.5559   4.6825   4.8324

     occupation numbers 
     1.0000   1.0000   1.0000   1.0000   1.0000   1.0000   1.0000   1.0000
     1.0000   1.0000   1.0000   1.0000   1.0000   1.0000   1.0000   1.0000
     1.0000   1.0000   1.0000   1.0000   1.0000   1.0000   1.0000   1.0000
     1.0000   1.0000   1.0000   1.0000   1.0000   1.0000   1.0000   1.0000
     1.0000   1.0000   1.0000   1.0000

          k =-0.3333 0.3849-0.1580 (  4338 PWs)   bands (ev):

   -11.6112 -11.4580 -10.7149 -10.5389  -0.1347   0.0313   0.1169   0.2899
     0.4047   0.5118   0.6010   0.7065   0.8108   0.9006   0.9351   1.0193
     1.1291   1.1783   1.2446   1.2884   1.4209   1.4989   1.5730   1.6621
     1.9969   2.1813   2.5095   2.6956   3.0555   3.3936   3.6202   3.8836
     4.2941   4.5867   4.7301   4.8796

     occupation numbers 
     1.0000   1.0000   1.0000   1.0000   1.0000   1.0000   1.0000   1.0000
     1.0000   1.0000   1.0000   1.0000   1.0000   1.0000   1.0000   1.0000
     1.0000   1.0000   1.0000   1.0000   1.0000   1.0000   1.0000   1.0000
     1.0000   1.0000   1.0000   1.0000   1.0000   1.0000   1.0000   1.0000
     1.0000   1.0000   1.0000   1.0000

          k = 0.5000 0.0962-0.1580 (  4338 PWs)   bands (ev):

   -11.6005 -11.4548 -10.7211 -10.5388  -0.1411   0.0401   0.2105   0.2958
     0.4230   0.5422   0.6150   0.7170   0.8023   0.8837   0.9402   1.0348
     1.0839   1.1435   1.2373   1.2712   1.3920   1.4584   1.5695   1.6692
     1.9065   2.1864   2.5158   2.7328   3.0480   3.3738   3.7003   3.8467
     4.2873   4.5268   4.7000   4.9153

     occupation numbers 
     1.0000   1.0000   1.0000   1.0000   1.0000   1.0000   1.0000   1.0000
     1.0000   1.0000   1.0000   1.0000   1.0000   1.0000   1.0000   1.0000
     1.0000   1.0000   1.0000   1.0000   1.0000   1.0000   1.0000   1.0000
     1.0000   1.0000   1.0000   1.0000   1.0000   1.0000   1.0000   1.0000
     1.0000   1.0000   1.0000   1.0000

          k =-0.3333-0.3849 0.1580 (  4338 PWs)   bands (ev):

   -11.5954 -11.4594 -10.7211 -10.5368  -0.1250   0.0405   0.1755   0.3184
     0.4608   0.5616   0.6378   0.7045   0.8046   0.8527   0.9350   0.9988
     1.1228   1.1534   1.2149   1.2722   1.3966   1.4861   1.5688   1.6459
     1.9603   2.1238   2.4907   2.6997   3.0972   3.3632   3.6479   3.8364
     4.2742   4.5288   4.7261   4.9100

     occupation numbers 
     1.0000   1.0000   1.0000   1.0000   1.0000   1.0000   1.0000   1.0000
     1.0000   1.0000   1.0000   1.0000   1.0000   1.0000   1.0000   1.0000
     1.0000   1.0000   1.0000   1.0000   1.0000   1.0000   1.0000   1.0000
     1.0000   1.0000   1.0000   1.0000   1.0000   1.0000   1.0000   1.0000
     1.0000   1.0000   1.0000   1.0000

          k = 0.5000-0.0962 0.1580 (  4338 PWs)   bands (ev):

   -11.6109 -11.4540 -10.7168 -10.5403  -0.1366   0.0189   0.1236   0.3182
     0.4055   0.5359   0.6138   0.7097   0.8026   0.9016   0.9391   1.0478
     1.0918   1.1603   1.2224   1.2837   1.4080   1.4549   1.5739   1.6784
     1.9217   2.2264   2.5158   2.7500   3.0383   3.3784   3.6650   3.8915
     4.2946   4.5845   4.7127   4.8878

     occupation numbers 
     1.0000   1.0000   1.0000   1.0000   1.0000   1.0000   1.0000   1.0000
     1.0000   1.0000   1.0000   1.0000   1.0000   1.0000   1.0000   1.0000
     1.0000   1.0000   1.0000   1.0000   1.0000   1.0000   1.0000   1.0000
     1.0000   1.0000   1.0000   1.0000   1.0000   1.0000   1.0000   1.0000
     1.0000   1.0000   1.0000   1.0000

          k =-0.3333-0.5774 0.0527 (  4362 PWs)   bands (ev):

   -11.5480 -11.4271 -10.6733 -10.5080  -0.0115   0.0527   0.2012   0.4150
     0.5269   0.5855   0.6810   0.7636   0.8050   0.8773   1.0105   1.0986
     1.1660   1.1827   1.3223   1.3788   1.3996   1.4716   1.5705   1.7223
     1.9792   2.1433   2.3230   2.4113   2.4942   2.9414   3.5824   3.8032
     3.9982   4.3160   4.5862   4.6586

     occupation numbers 
     1.0000   1.0000   1.0000   1.0000   1.0000   1.0000   1.0000   1.0000
     1.0000   1.0000   1.0000   1.0000   1.0000   1.0000   1.0000   1.0000
     1.0000   1.0000   1.0000   1.0000   1.0000   1.0000   1.0000   1.0000
     1.0000   1.0000   1.0000   1.0000   1.0000   1.0000   1.0000   1.0000
     1.0000   1.0000   1.0000   1.0000

          k =-0.3333-0.5774 0.1053 (  4341 PWs)   bands (ev):

   -11.5480 -11.4271 -10.6733 -10.5080  -0.0091   0.0611   0.2168   0.4073
     0.5230   0.5884   0.6577   0.7884   0.8244   0.8566   1.0117   1.0597
     1.1498   1.1740   1.3322   1.3825   1.4117   1.4601   1.5678   1.7219
     1.9932   2.2172   2.3553   2.3918   2.4706   2.7810   3.7161   3.8856
     4.1115   4.2631   4.4862   4.5909

     occupation numbers 
     1.0000   1.0000   1.0000   1.0000   1.0000   1.0000   1.0000   1.0000
     1.0000   1.0000   1.0000   1.0000   1.0000   1.0000   1.0000   1.0000
     1.0000   1.0000   1.0000   1.0000   1.0000   1.0000   1.0000   1.0000
     1.0000   1.0000   1.0000   1.0000   1.0000   1.0000   1.0000   1.0000
     1.0000   1.0000   1.0000   1.0000

     highest occupied level (ev):     5.7561

!    total energy              =    -723.22863523 Ry
     estimated scf accuracy    <          4.2E-09 Ry

     The total energy is the sum of the following terms:
     one-electron contribution =    -334.15153455 Ry
     hartree contribution      =     245.95462865 Ry
     xc contribution           =    -218.73394153 Ry
     ewald contribution        =    -416.29778780 Ry

     convergence has been achieved in  29 iterations

     Forces acting on atoms (cartesian axes, Ry/au):

     atom    1 type  1   force =    -0.00883789   -0.01421784    0.02724556
     atom    2 type  1   force =     0.01132877   -0.00084094   -0.00755798
     atom    3 type  2   force =     0.00265941    0.00125537    0.01228805
     atom    4 type  2   force =     0.00975168    0.01168433   -0.02794806
     atom    5 type  1   force =     0.00001854    0.02081210   -0.08150491
     atom    6 type  1   force =    -0.00417041   -0.00029309    0.00406359
     atom    7 type  2   force =    -0.00978931    0.00530917    0.09050708
     atom    8 type  2   force =    -0.00096078   -0.02370908   -0.01709333
     The non-local contrib.  to forces
     atom    1 type  1   force =    -0.05691625   -0.07502489   -0.15589652
     atom    2 type  1   force =     0.09185406   -0.03465563   -0.04027608
     atom    3 type  2   force =    -0.04944499    0.01035432    0.00782459
     atom    4 type  2   force =    -0.04797022   -0.10186530   -0.21483802
     atom    5 type  1   force =     0.01151001    0.14892963   -0.16726046
     atom    6 type  1   force =    -0.03786398   -0.00790710    0.00899023
     atom    7 type  2   force =     0.12121235   -0.02166946   -0.04442220
     atom    8 type  2   force =    -0.00676077    0.13043911   -0.02315037
     The ionic contribution  to forces
     atom    1 type  1   force =    -0.46072489   -0.60008254    2.32067892
     atom    2 type  1   force =     0.74421733   -0.24265571    0.69826509
     atom    3 type  2   force =     0.31358052   -0.09359889    1.16163384
     atom    4 type  2   force =     0.49809510    0.72166779    1.51281111
     atom    5 type  1   force =     0.05033499    1.12051703   -6.52542944
     atom    6 type  1   force =    -0.27498573   -0.09352407    1.20447238
     atom    7 type  2   force =    -0.86722083    0.29542579    2.10515012
     atom    8 type  2   force =    -0.00329650   -1.10774941   -2.47758202
     The local contribution  to forces
     atom    1 type  1   force =     0.50451909    0.65457278   -2.14334727
     atom    2 type  1   force =    -0.81770287    0.27411161   -0.66883057
     atom    3 type  2   force =    -0.26190889    0.08458842   -1.15693374
     atom    4 type  2   force =    -0.44072393   -0.60897385   -1.32802496
     atom    5 type  1   force =    -0.06110013   -1.23717233    6.59098213
     atom    6 type  1   force =     0.30590618    0.10055188   -1.20804281
     atom    7 type  2   force =     0.73724423   -0.26858660   -1.96999604
     atom    8 type  2   force =     0.00901825    0.95463034    2.48322613
     The core correction contribution to forces
     atom    1 type  1   force =     0.00428901    0.00632299    0.00582206
     atom    2 type  1   force =    -0.00704367    0.00236514    0.00321212
     atom    3 type  2   force =     0.00043163   -0.00008898   -0.00019759
     atom    4 type  2   force =     0.00035076    0.00085635    0.00211606
     atom    5 type  1   force =    -0.00072905   -0.01147520    0.02020741
     atom    6 type  1   force =     0.00277345    0.00058663   -0.00127169
     atom    7 type  2   force =    -0.00102574    0.00013928   -0.00028765
     atom    8 type  2   force =     0.00007863   -0.00102569    0.00040836
     The Hubbard contrib.    to forces
     atom    1 type  1   force =     0.00000000    0.00000000    0.00000000
     atom    2 type  1   force =     0.00000000    0.00000000    0.00000000
     atom    3 type  2   force =     0.00000000    0.00000000    0.00000000
     atom    4 type  2   force =     0.00000000    0.00000000    0.00000000
     atom    5 type  1   force =     0.00000000    0.00000000    0.00000000
     atom    6 type  1   force =     0.00000000    0.00000000    0.00000000
     atom    7 type  2   force =     0.00000000    0.00000000    0.00000000
     atom    8 type  2   force =     0.00000000    0.00000000    0.00000000
     The SCF correction term to forces
     atom    1 type  1   force =    -0.00000514   -0.00000614   -0.00001520
     atom    2 type  1   force =     0.00000361   -0.00000632    0.00006790
     atom    3 type  2   force =     0.00000086    0.00000055   -0.00004263
     atom    4 type  2   force =    -0.00000033   -0.00000062   -0.00001582
     atom    5 type  1   force =     0.00000242    0.00001300   -0.00000813
     atom    6 type  1   force =    -0.00000063   -0.00000040   -0.00008809
     atom    7 type  2   force =     0.00000038    0.00000020    0.00005928
     atom    8 type  2   force =    -0.00000068   -0.00000339    0.00000100

     Total force =     0.136609     Total SCF correction =     0.000136

     init_run     :      4.15s CPU      4.34s WALL (       1 calls)
     electrons    :    219.13s CPU    229.69s WALL (       1 calls)
     forces       :      1.16s CPU      1.19s WALL (       1 calls)

     Called by init_run:
     wfcinit      :      2.60s CPU      2.75s WALL (       1 calls)
     wfcinit:atom :      0.04s CPU      0.04s WALL (      28 calls)
     wfcinit:wfcr :      2.35s CPU      2.50s WALL (      28 calls)
     potinit      :      0.70s CPU      0.72s WALL (       1 calls)
     hinit0       :      0.74s CPU      0.76s WALL (       1 calls)

     Called by electrons:
     c_bands      :    190.59s CPU    199.51s WALL (      29 calls)
     sum_band     :     24.47s CPU     25.95s WALL (      29 calls)
     v_of_rho     :      2.14s CPU      2.24s WALL (      30 calls)
     v_h          :      0.11s CPU      0.12s WALL (      30 calls)
     v_xc         :      2.09s CPU      2.19s WALL (      31 calls)
     newd         :      1.53s CPU      1.57s WALL (      30 calls)
     mix_rho      :      0.29s CPU      0.31s WALL (      29 calls)

     Called by c_bands:
     init_us_2    :      1.97s CPU      2.00s WALL (    1680 calls)
     init_us_2:cp :      1.97s CPU      1.99s WALL (    1680 calls)
     cegterg      :    170.12s CPU    178.96s WALL (     812 calls)

     Called by sum_band:
     sum_band:wei :      0.00s CPU      0.01s WALL (      29 calls)
     sum_band:loo :     22.34s CPU     23.72s WALL (      29 calls)
     sum_band:buf :      0.15s CPU      0.16s WALL (     812 calls)
     sum_band:ini :      0.92s CPU      0.93s WALL (     812 calls)
     sum_band:cal :      2.48s CPU      2.56s WALL (     812 calls)
     sum_band:bec :      0.06s CPU      0.06s WALL (     812 calls)
     addusdens    :      1.67s CPU      1.72s WALL (      29 calls)
                                        0.00s GPU  (      29 calls)
     addusd:skk   :      0.01s CPU      0.01s WALL (      58 calls)
                                        0.00s GPU  (      58 calls)

     Called by *egterg:
     cdiaghg      :     14.96s CPU     15.00s WALL (    4143 calls)
     cegterg:over :      7.56s CPU      7.84s WALL (    3331 calls)
     cegterg:upda :      4.85s CPU      4.88s WALL (    3331 calls)
     cegterg:last :      9.47s CPU      9.48s WALL (    2072 calls)
     h_psi        :    122.79s CPU    131.33s WALL (    4171 calls)
     s_psi        :      8.57s CPU      8.61s WALL (    4171 calls)
     g_psi        :      0.70s CPU      0.70s WALL (    3331 calls)

     Called by h_psi:
     h_psi:calbec :      8.25s CPU      8.66s WALL (    4171 calls)
     vloc_psi     :    105.24s CPU    113.31s WALL (    4171 calls)
     add_vuspsi   :      8.83s CPU      8.88s WALL (    4171 calls)

     General routines
     calbec       :     11.03s CPU     11.54s WALL (    5095 calls)
     fft          :      1.22s CPU      1.35s WALL (     399 calls)
     ffts         :      0.24s CPU      0.24s WALL (      59 calls)
     fftw         :    105.26s CPU    113.49s WALL (  207034 calls)
     interpolate  :      0.29s CPU      0.31s WALL (      30 calls)

     Parallel routines

     PWSCF        :   3m44.94s CPU   3m55.74s WALL


   This run was terminated on:  14:27:38  24Sep2025            

=------------------------------------------------------------------------------=
   JOB DONE.
=------------------------------------------------------------------------------=
Note: The following floating-point exceptions are signalling: IEEE_INVALID_FLAG
Note: The following floating-point exceptions are signalling: IEEE_INVALID_FLAG
Note: The following floating-point exceptions are signalling: IEEE_INVALID_FLAG
Note: The following floating-point exceptions are signalling: IEEE_INVALID_FLAG
