
     Program PWSCF v.7.5 starts on 25Nov2025 at 17:23:38 

     This program is part of the open-source Quantum ESPRESSO suite
     for quantum simulation of materials; please cite
         "P. Giannozzi et al., J. Phys.:Condens. Matter 21 395502 (2009);
         "P. Giannozzi et al., J. Phys.:Condens. Matter 29 465901 (2017);
         "P. Giannozzi et al., J. Chem. Phys. 152 154105 (2020);
          URL http://www.quantum-espresso.org", 
     in publications or presentations arising from this work. More details at
     http://www.quantum-espresso.org/quote

     Parallel version (MPI), running on    16 processors

     MPI processes distributed on     1 nodes
     59233 MiB available memory on the printing compute node when the environment starts
 
     Waiting for input...
     Reading input from standard input

     Current dimensions of program PWSCF are:
     Max number of different atomic species (ntypx) = 10
     Max number of k-points (npk) =  40000
     Max angular momentum in pseudopotentials (lmaxx) =  4
 
     R & G space division:  proc/nbgrp/npool/nimage =      16
     Subspace diagonalization in iterative solution of the eigenvalue problem:
     a serial algorithm will be used

 
     Parallelization info
     --------------------
     sticks:   dense  smooth     PW     G-vecs:    dense   smooth      PW
     Min          64      64     18                 2700     2700     418
     Max          65      65     19                 2707     2707     423
     Sum        1039    1039    301                43281    43281    6741
 
     Using Slab Decomposition
 


     bravais-lattice index     =            4
     lattice parameter (alat)  =       6.1227  a.u.
     unit-cell volume          =     320.2489 (a.u.)^3
     number of atoms/cell      =            4
     number of atomic types    =            2
     number of electrons       =        52.00
     number of Kohn-Sham states=           36
     kinetic-energy cutoff     =     100.0000  Ry
     charge density cutoff     =     400.0000  Ry
     scf convergence threshold =      1.0E-08
     mixing beta               =       0.3000
     number of iterations used =            8  plain     mixing
     Exchange-correlation= SLA  PW   NOGX NOGC
                           (   1   4   0   0   0   0   0)

     celldm(1)=   6.122712  celldm(2)=   0.000000  celldm(3)=   1.611111
     celldm(4)=   0.000000  celldm(5)=   0.000000  celldm(6)=   0.000000

     crystal axes: (cart. coord. in units of alat)
               a(1) = (   1.000000   0.000000   0.000000 )  
               a(2) = (  -0.500000   0.866025   0.000000 )  
               a(3) = (   0.000000   0.000000   1.611111 )  

     reciprocal axes: (cart. coord. in units 2 pi/alat)
               b(1) = (  1.000000  0.577350  0.000000 )  
               b(2) = (  0.000000  1.154701  0.000000 )  
               b(3) = (  0.000000  0.000000  0.620690 )  


     PseudoPot. # 1 for Zn read from file:
     ../Zn_pseudo-dojo_NC_SR_LDA.upf
     MD5 check sum: 492e12d15cacde48a98384ec5dd6fb31
     Pseudo is Norm-conserving + core correction, Zval = 20.0
     Generated using ONCVPSP code by D. R. Hamann
     Using radial grid of 1296 points,  6 beta functions with: 
                l(1) =   0
                l(2) =   0
                l(3) =   1
                l(4) =   1
                l(5) =   2
                l(6) =   2

     PseudoPot. # 2 for O  read from file:
     ../O_pseudo-dojo_NC_SR_LDA.upf
     MD5 check sum: 86ed389b6a5065e60c3f64c68a612de9
     Pseudo is Norm-conserving + core correction, Zval =  6.0
     Generated using ONCVPSP code by D. R. Hamann
     Using radial grid of  926 points,  5 beta functions with: 
                l(1) =   0
                l(2) =   0
                l(3) =   1
                l(4) =   1
                l(5) =   2

     atomic species   valence    mass     pseudopotential
     Zn               20.00    65.38000     Zn( 1.00)
     O                 6.00    15.99900     O ( 1.00)

     12 Sym. Ops. (no inversion) found ( 6 have fractional translation)



   Cartesian axes

     site n.     atom                  positions (alat units)
         1        Zn     tau(   1) = (   0.5000000   0.2886751   0.8065088  )
         2        Zn     tau(   2) = (  -0.0000000   0.5773503   0.0009533  )
         3        O      tau(   3) = (   0.5000000   0.2886751   1.4173239  )
         4        O      tau(   4) = (  -0.0000000   0.5773503   0.6117684  )

     number of k points=    21
                       cart. coord. in units 2pi/alat
        k(    1) = (   0.0000000   0.0000000   0.0000000), wk =   0.0138889
        k(    2) = (   0.0000000   0.0000000   0.1551724), wk =   0.0277778
        k(    3) = (   0.0000000   0.0000000  -0.3103448), wk =   0.0138889
        k(    4) = (   0.0000000   0.1924501   0.0000000), wk =   0.0833333
        k(    5) = (   0.0000000   0.1924501   0.1551724), wk =   0.1666667
        k(    6) = (   0.0000000   0.1924501  -0.3103448), wk =   0.0833333
        k(    7) = (   0.0000000   0.3849002   0.0000000), wk =   0.0833333
        k(    8) = (   0.0000000   0.3849002   0.1551724), wk =   0.1666667
        k(    9) = (   0.0000000   0.3849002  -0.3103448), wk =   0.0833333
        k(   10) = (   0.0000000  -0.5773503   0.0000000), wk =   0.0416667
        k(   11) = (   0.0000000  -0.5773503   0.1551724), wk =   0.0833333
        k(   12) = (   0.0000000  -0.5773503  -0.3103448), wk =   0.0416667
        k(   13) = (   0.1666667   0.2886751   0.0000000), wk =   0.0833333
        k(   14) = (   0.1666667   0.2886751   0.1551724), wk =   0.1666667
        k(   15) = (   0.1666667   0.2886751  -0.3103448), wk =   0.0833333
        k(   16) = (   0.1666667   0.4811252   0.0000000), wk =   0.1666667
        k(   17) = (   0.1666667   0.4811252   0.1551724), wk =   0.3333333
        k(   18) = (   0.1666667   0.4811252  -0.3103448), wk =   0.1666667
        k(   19) = (   0.3333333   0.5773503   0.0000000), wk =   0.0277778
        k(   20) = (   0.3333333   0.5773503   0.1551724), wk =   0.0555556
        k(   21) = (   0.3333333   0.5773503  -0.3103448), wk =   0.0277778

     Dense  grid:    43281 G-vectors     FFT dimensions: (  40,  40,  64)

     Estimated max dynamical RAM per process >      10.28 MB

     Estimated total dynamical RAM >     164.42 MB

     Initial potential from superposition of free atoms

     starting charge      51.9998, renormalised to      52.0000
     Starting wfcs are   28 randomized atomic wfcs +    8 random wfcs

     total cpu time spent up to now is        0.6 secs

     Self-consistent Calculation

     iteration #  1     ecut=   100.00 Ry     beta= 0.30
     Davidson diagonalization with overlap
     ethr =  1.00E-02,  avg # of iterations =  4.3

     total cpu time spent up to now is        2.3 secs

     total energy              =    -901.71025431 Ry
     estimated scf accuracy    <       0.77873808 Ry

     iteration #  2     ecut=   100.00 Ry     beta= 0.30
     Davidson diagonalization with overlap
     ethr =  1.50E-03,  avg # of iterations =  2.0

     total cpu time spent up to now is        3.5 secs

     total energy              =    -901.83503837 Ry
     estimated scf accuracy    <       0.02579720 Ry

     iteration #  3     ecut=   100.00 Ry     beta= 0.30
     Davidson diagonalization with overlap
     ethr =  4.96E-05,  avg # of iterations =  2.4

     total cpu time spent up to now is        4.7 secs

     total energy              =    -901.83179215 Ry
     estimated scf accuracy    <       0.01040318 Ry

     iteration #  4     ecut=   100.00 Ry     beta= 0.30
     Davidson diagonalization with overlap
     ethr =  2.00E-05,  avg # of iterations =  2.0

     total cpu time spent up to now is        5.9 secs

     total energy              =    -901.83237053 Ry
     estimated scf accuracy    <       0.00026126 Ry

     iteration #  5     ecut=   100.00 Ry     beta= 0.30
     Davidson diagonalization with overlap
     ethr =  5.02E-07,  avg # of iterations =  3.3

     total cpu time spent up to now is        7.2 secs

     total energy              =    -901.83235349 Ry
     estimated scf accuracy    <       0.00009722 Ry

     iteration #  6     ecut=   100.00 Ry     beta= 0.30
     Davidson diagonalization with overlap
     ethr =  1.87E-07,  avg # of iterations =  2.0

     total cpu time spent up to now is        8.5 secs

     total energy              =    -901.83236480 Ry
     estimated scf accuracy    <       0.00000769 Ry

     iteration #  7     ecut=   100.00 Ry     beta= 0.30
     Davidson diagonalization with overlap
     ethr =  1.48E-08,  avg # of iterations =  2.0

     total cpu time spent up to now is        9.7 secs

     total energy              =    -901.83236644 Ry
     estimated scf accuracy    <       0.00000126 Ry

     iteration #  8     ecut=   100.00 Ry     beta= 0.30
     Davidson diagonalization with overlap
     ethr =  2.42E-09,  avg # of iterations =  1.7

     total cpu time spent up to now is       10.8 secs

     total energy              =    -901.83236646 Ry
     estimated scf accuracy    <       0.00000015 Ry

     iteration #  9     ecut=   100.00 Ry     beta= 0.30
     Davidson diagonalization with overlap
     ethr =  2.90E-10,  avg # of iterations =  2.0

     total cpu time spent up to now is       12.0 secs

     End of self-consistent calculation

          k = 0.0000 0.0000 0.0000 (  5383 PWs)   bands (ev):

  -113.3325-113.3323 -67.9784 -67.9751 -67.9742 -67.9742 -67.9737 -67.9737
    -8.4408  -7.6666   3.5187   3.5187   3.5625   3.6264   3.7099   3.7099
     4.6695   4.6695   4.8830   4.8830   5.1776   8.5099   8.5099   9.2273
     9.3113   9.3113  10.1006  14.4678  17.4129  22.0790  22.0790  23.1630
    23.3410  23.3410  25.7150  27.3953

          k = 0.0000 0.0000 0.1552 (  5425 PWs)   bands (ev):

  -113.3324-113.3323 -67.9779 -67.9756 -67.9742 -67.9742 -67.9737 -67.9737
    -8.3333  -7.7861   3.4107   3.4599   3.5343   3.5343   3.6684   3.6684
     4.7114   4.7114   4.8636   4.8636   5.8300   8.2664   8.6293   8.6293
     9.1964   9.1964  11.2301  13.9677  17.8751  21.4549  22.1041  22.1041
    22.9500  22.9500  26.3396  28.0264

          k = 0.0000 0.0000-0.3103 (  5408 PWs)   bands (ev):

  -113.3324-113.3324 -67.9768 -67.9768 -67.9739 -67.9739 -67.9739 -67.9739
    -8.0656  -8.0656   3.3169   3.3169   3.5888   3.5888   3.5888   3.5888
     4.7984   4.7984   4.7984   4.7984   7.0336   7.0336   8.9151   8.9151
     8.9151   8.9151  12.7387  12.7387  19.2499  19.2499  22.3665  22.3665
    22.3665  22.3665  27.3909  27.3909

          k = 0.0000 0.1925 0.0000 (  5409 PWs)   bands (ev):

  -113.3324-113.3323 -67.9782 -67.9753 -67.9748 -67.9744 -67.9742 -67.9738
    -8.2843  -7.5992   3.3721   3.5999   3.6245   3.7026   3.8319   3.8643
     4.6089   4.6679   4.8949   5.0098   5.1478   7.5767   8.1567   8.1876
     9.0389   9.1193  11.5701  15.4802  17.3942  20.0065  21.7499  22.3263
    23.2436  23.5302  24.5189  26.5558

          k = 0.0000 0.1925 0.1552 (  5410 PWs)   bands (ev):

  -113.3324-113.3323 -67.9778 -67.9758 -67.9747 -67.9743 -67.9742 -67.9739
    -8.1873  -7.7027   3.3062   3.4217   3.6220   3.6483   3.7609   3.7845
     4.6749   4.7081   4.8691   4.9058   5.9023   7.6509   7.9200   8.3021
     8.8446   8.9821  12.1548  14.8157  17.8812  20.0957  21.2978  21.9098
    22.3474  23.1177  25.4796  27.5191

          k = 0.0000 0.1925-0.3103 (  5400 PWs)   bands (ev):

  -113.3324-113.3324 -67.9768 -67.9768 -67.9744 -67.9744 -67.9741 -67.9741
    -7.9483  -7.9483   3.2370   3.2370   3.6755   3.6755   3.6910   3.6910
     4.7955   4.7955   4.8010   4.8010   6.9732   6.9732   8.2891   8.2891
     8.6461   8.6461  13.4677  13.4677  19.0930  19.0930  21.1110  21.1110
    22.5766  22.5766  26.9412  26.9412

          k = 0.0000 0.3849 0.0000 (  5417 PWs)   bands (ev):

  -113.3324-113.3322 -67.9776 -67.9758 -67.9757 -67.9754 -67.9748 -67.9740
    -7.9309  -7.4862   3.2224   3.5749   3.7294   3.9338   4.1269   4.2533
     4.5829   4.7449   4.9155   5.0878   5.3696   6.0904   7.0048   7.4328
     8.4783   8.7005  13.5440  16.7480  17.1398  18.0147  20.2103  21.6345
    22.5976  23.2717  24.9519  27.4497

          k = 0.0000 0.3849 0.1552 (  5413 PWs)   bands (ev):

  -113.3323-113.3323 -67.9775 -67.9763 -67.9756 -67.9751 -67.9747 -67.9741
    -7.8639  -7.5488   3.1585   3.3739   3.7751   3.8871   4.0338   4.0537
     4.6710   4.7671   4.8852   4.9921   5.8105   6.3668   7.0227   7.6338
     8.4712   8.5247  13.7150  15.7886  17.7140  18.1212  20.1489  21.7036
    22.6379  23.1192  24.0773  27.4923

          k = 0.0000 0.3849-0.3103 (  5396 PWs)   bands (ev):

  -113.3323-113.3323 -67.9770 -67.9770 -67.9752 -67.9752 -67.9744 -67.9744
    -7.7041  -7.7041   3.1348   3.1348   3.8990   3.8990   3.9009   3.9009
     4.8228   4.8228   4.8416   4.8416   6.1997   6.1997   7.9001   7.9001
     8.0909   8.0909  14.5248  14.5248  18.1211  18.1211  20.6242  20.6242
    22.8253  22.8253  25.4831  25.4831

          k = 0.0000-0.5774 0.0000 (  5402 PWs)   bands (ev):

  -113.3323-113.3322 -67.9771 -67.9764 -67.9761 -67.9759 -67.9749 -67.9741
    -7.7056  -7.4682   3.2971   3.5054   3.7706   4.1655   4.1697   4.3094
     4.7074   4.8434   4.9310   5.0150   5.5119   5.7166   6.4418   7.0314
     8.0020   8.4720  15.0407  16.0730  16.7813  17.7180  19.7844  21.5855
    22.3862  23.4168  25.0241  27.7560

          k = 0.0000-0.5774 0.1552 (  5416 PWs)   bands (ev):

  -113.3323-113.3323 -67.9774 -67.9768 -67.9759 -67.9755 -67.9748 -67.9743
    -7.6660  -7.4977   3.2026   3.3085   3.8325   4.1018   4.1201   4.2102
     4.8328   4.8492   4.9032   5.0124   5.4368   5.6102   7.0402   7.2709
     8.1598   8.2776  14.7345  15.7174  17.1916  17.7924  19.7074  21.7424
    22.5238  23.2522  23.8911  27.6130

          k = 0.0000-0.5774-0.3103 (  5428 PWs)   bands (ev):

  -113.3323-113.3323 -67.9773 -67.9773 -67.9755 -67.9755 -67.9745 -67.9745
    -7.5769  -7.5769   3.1221   3.1221   4.0026   4.0026   4.0745   4.0745
     4.8680   4.8680   4.9672   4.9672   5.4659   5.4659   7.7943   7.7943
     7.9279   7.9279  14.9400  14.9400  17.6429  17.6429  20.4744  20.4744
    22.8746  22.8746  25.3070  25.3070

          k = 0.1667 0.2887 0.0000 (  5422 PWs)   bands (ev):

  -113.3324-113.3323 -67.9777 -67.9756 -67.9754 -67.9752 -67.9746 -67.9741
    -8.0277  -7.5094   3.3320   3.5307   3.7391   3.7937   4.0610   4.1848
     4.5561   4.6902   4.9082   5.0929   5.3063   6.7310   6.9892   7.5861
     8.6491   8.6824  13.1183  16.6369  17.5116  18.6087  20.3306  21.6059
    21.7471  24.4241  24.6037  25.7842

          k = 0.1667 0.2887 0.1552 (  5404 PWs)   bands (ev):

  -113.3324-113.3323 -67.9775 -67.9761 -67.9752 -67.9750 -67.9745 -67.9742
    -7.9513  -7.5843   3.2551   3.3955   3.7238   3.7507   3.9431   3.9987
     4.6498   4.7457   4.8804   4.9795   5.9547   6.9168   7.0520   7.6232
     8.4639   8.6148  13.4268  15.7842  17.8960  18.7222  20.6464  20.8773
    21.6717  23.8794  25.1619  26.3636

          k = 0.1667 0.2887-0.3103 (  5384 PWs)   bands (ev):

  -113.3323-113.3323 -67.9769 -67.9769 -67.9750 -67.9750 -67.9744 -67.9744
    -7.7670  -7.7670   3.1970   3.1970   3.7409   3.7409   3.8929   3.8929
     4.8037   4.8037   4.8389   4.8389   6.5613   6.5613   7.8932   7.8932
     8.0910   8.0910  14.4290  14.4290  18.5494  18.5494  20.3345  20.3345
    22.6380  22.6380  26.6413  26.6413

          k = 0.1667 0.4811 0.0000 (  5409 PWs)   bands (ev):

  -113.3323-113.3322 -67.9771 -67.9761 -67.9760 -67.9758 -67.9751 -67.9745
    -7.7146  -7.4635   3.3963   3.6480   3.7903   4.0065   4.2757   4.3479
     4.6455   4.7186   4.9455   5.1551   5.3556   5.9913   6.4053   6.7308
     7.9762   8.1717  15.1005  16.8333  17.2024  17.7829  19.9738  21.0148
    21.2008  23.2178  24.8733  27.9503

          k = 0.1667 0.4811 0.1552 (  5405 PWs)   bands (ev):

  -113.3323-113.3323 -67.9773 -67.9766 -67.9758 -67.9754 -67.9750 -67.9745
    -7.6732  -7.4952   3.3226   3.4722   3.7714   3.9665   4.1533   4.1974
     4.6988   4.8120   4.9446   5.1307   5.4538   5.9733   6.6593   7.1723
     7.8618   8.2151  15.0852  16.3379  17.5078  17.8918  19.4223  20.3949
    21.9575  23.7025  25.0512  27.2207

          k = 0.1667 0.4811-0.3103 (  5412 PWs)   bands (ev):

  -113.3323-113.3323 -67.9772 -67.9772 -67.9754 -67.9754 -67.9747 -67.9747
    -7.5794  -7.5794   3.2605   3.2605   3.8720   3.8720   4.0811   4.0811
     4.8044   4.8044   5.0091   5.0091   5.7227   5.7227   7.2605   7.2605
     8.0171   8.0171  15.4982  15.4982  17.8381  17.8381  19.4580  19.4580
    23.3862  23.3862  25.7077  25.7077

          k = 0.3333 0.5774 0.0000 (  5388 PWs)   bands (ev):

  -113.3323-113.3323 -67.9766 -67.9766 -67.9759 -67.9756 -67.9756 -67.9750
    -7.5296  -7.5296   3.4717   3.8777   3.8777   4.2467   4.5041   4.5041
     4.5944   4.7319   4.7854   4.7854   5.4918   5.7283   5.7283   7.3650
     7.3650   7.5603  16.8494  16.9351  16.9351  17.3453  19.9682  19.9682
    22.2506  22.9909  22.9909  30.3867

          k = 0.3333 0.5774 0.1552 (  5391 PWs)   bands (ev):

  -113.3323-113.3323 -67.9769 -67.9769 -67.9757 -67.9753 -67.9753 -67.9751
    -7.5236  -7.5236   3.5364   3.6849   3.6849   4.0316   4.3393   4.3393
     4.6283   4.7158   5.0481   5.0481   5.6286   5.6286   5.8532   7.2652
     7.7210   7.7210  16.9829  17.0212  17.0212  17.3144  18.9444  18.9444
    22.9011  24.1270  24.1270  27.7530

          k = 0.3333 0.5774-0.3103 (  5448 PWs)   bands (ev):

  -113.3323-113.3323 -67.9771 -67.9771 -67.9754 -67.9754 -67.9751 -67.9751
    -7.5176  -7.5176   3.5064   3.5064   3.7307   3.7307   4.2860   4.2860
     4.6753   4.6753   5.2183   5.2183   5.5245   5.5245   6.5771   6.5771
     8.0595   8.0595  17.1968  17.1968  17.2287  17.2287  18.0486  18.0486
    24.8243  24.8243  25.1582  25.1582

     highest occupied, lowest unoccupied level (ev):     9.3113   10.1006

!    total energy              =    -901.83236648 Ry
     estimated scf accuracy    <          9.6E-09 Ry

     The total energy is the sum of the following terms:
     one-electron contribution =    -613.59887579 Ry
     hartree contribution      =     324.90773259 Ry
     xc contribution           =    -105.18484293 Ry
     ewald contribution        =    -507.95638035 Ry

     convergence has been achieved in   9 iterations

     Forces acting on atoms (cartesian axes, Ry/au):

     atom    1 type  1   force =     0.00000000   -0.00000000   -0.00037292
     atom    2 type  1   force =     0.00000000    0.00000000   -0.00037292
     atom    3 type  2   force =     0.00000000    0.00000000    0.00037292
     atom    4 type  2   force =     0.00000000    0.00000000    0.00037292

     Total force =     0.000746     Total SCF correction =     0.000051
     Message from routine punch:
     Nothing written, as per user request (disk_io='none')
 
     init_run     :      0.42s CPU      0.47s WALL (       1 calls)
     electrons    :     11.09s CPU     11.45s WALL (       1 calls)
     forces       :      0.07s CPU      0.07s WALL (       1 calls)

     Called by init_run:
     wfcinit      :      0.35s CPU      0.38s WALL (       1 calls)
     potinit      :      0.01s CPU      0.01s WALL (       1 calls)
     hinit0       :      0.03s CPU      0.04s WALL (       1 calls)

     Called by electrons:
     c_bands      :      9.76s CPU     10.08s WALL (       9 calls)
     sum_band     :      1.31s CPU      1.35s WALL (       9 calls)
     v_of_rho     :      0.02s CPU      0.02s WALL (      10 calls)
     mix_rho      :      0.01s CPU      0.01s WALL (       9 calls)

     Called by c_bands:
     init_us_2    :      0.11s CPU      0.12s WALL (     420 calls)
     cegterg      :      9.16s CPU      9.46s WALL (     189 calls)

     Called by *egterg:
     cdiaghg      :      1.80s CPU      1.80s WALL (     646 calls)
     h_psi        :      6.22s CPU      6.51s WALL (     667 calls)
     g_psi        :      0.02s CPU      0.02s WALL (     457 calls)

     Called by h_psi:
     h_psi:calbec :      0.33s CPU      0.34s WALL (     667 calls)
     vloc_psi     :      5.42s CPU      5.68s WALL (     667 calls)
                                        0.00s GPU  (     667 calls)
     add_vuspsi   :      0.41s CPU      0.42s WALL (     667 calls)

     General routines
     calbec       :      0.38s CPU      0.40s WALL (     751 calls)
     fft          :      0.01s CPU      0.02s WALL (      33 calls)
     ffts         :      0.00s CPU      0.00s WALL (       9 calls)
     fftw         :      6.10s CPU      6.37s WALL (   38724 calls)
 
     Parallel routines
 
     PWSCF        :     11.71s CPU     12.13s WALL

 
   This run was terminated on:  17:23:50  25Nov2025            

=------------------------------------------------------------------------------=
   JOB DONE.
=------------------------------------------------------------------------------=
