
     Program PWSCF v.7.2 starts on 28Sep2025 at  4:56:20 

     This program is part of the open-source Quantum ESPRESSO suite
     for quantum simulation of materials; please cite
         "P. Giannozzi et al., J. Phys.:Condens. Matter 21 395502 (2009);
         "P. Giannozzi et al., J. Phys.:Condens. Matter 29 465901 (2017);
         "P. Giannozzi et al., J. Chem. Phys. 152 154105 (2020);
          URL http://www.quantum-espresso.org", 
     in publications or presentations arising from this work. More details at
     http://www.quantum-espresso.org/quote

     Parallel version (MPI), running on    32 processors

     MPI processes distributed on     1 nodes
     112433 MiB available memory on the printing compute node when the environment starts

     Reading input from /home/jvc/QEspresso7.2/ZnO_database/scripts/random_1x3x1.in/ZnO-3.27-1.78-131-0.12-3.in
Warning: card &CELL ignored
Warning: card / ignored
Warning: card &FCP ignored
Warning: card / ignored
Warning: card &RISM ignored
Warning: card / ignored

     Current dimensions of program PWSCF are:
     Max number of different atomic species (ntypx) = 10
     Max number of k-points (npk) =  40000
     Max angular momentum in pseudopotentials (lmaxx) =  4
     file Zn.upf: wavefunction(s)  3D renormalized

     K-points division:     npool     =       8
     R & G space division:  proc/nbgrp/npool/nimage =       4
     Subspace diagonalization in iterative solution of the eigenvalue problem:
     a serial algorithm will be used


     Parallelization info
     --------------------
     sticks:   dense  smooth     PW     G-vecs:    dense   smooth      PW
     Min         788     393    119                36754    13019    2138
     Max         789     394    120                36755    13022    2139
     Sum        3153    1573    477               147017    52081    8555

     Using Slab Decomposition



     bravais-lattice index     =            0
     lattice parameter (alat)  =       6.1788  a.u.
     unit-cell volume          =    1088.3321 (a.u.)^3
     number of atoms/cell      =           12
     number of atomic types    =            2
     number of electrons       =       108.00
     number of Kohn-Sham states=           54
     kinetic-energy cutoff     =      50.0000  Ry
     charge density cutoff     =     400.0000  Ry
     scf convergence threshold =      1.0E-08
     mixing beta               =       0.3000
     number of iterations used =            8  plain     mixing
     Exchange-correlation= PBE
                           (   1   4   3   4   0   0   0)

     celldm(1)=   6.178821  celldm(2)=   0.000000  celldm(3)=   0.000000
     celldm(4)=   0.000000  celldm(5)=   0.000000  celldm(6)=   0.000000

     crystal axes: (cart. coord. in units of alat)
               a(1) = (   1.000000   0.000000   0.000000 )  
               a(2) = (  -1.500000   2.598076   0.000000 )  
               a(3) = (   0.000000   0.000000   1.775794 )  

     reciprocal axes: (cart. coord. in units 2 pi/alat)
               b(1) = (  1.000000  0.577350 -0.000000 )  
               b(2) = (  0.000000  0.384900  0.000000 )  
               b(3) = (  0.000000 -0.000000  0.563128 )  


     PseudoPot. # 1 for Zn read from file:
     /home/jvc/QEspresso7.2/ZnO_database/pseudos/Zn.upf
     MD5 check sum: 7f56cabf9682ed8c977c2f7d0c5985c5
     Pseudo is Ultrasoft + core correction, Zval = 12.0
     Generated using &quot;atomic&quot; code by A. Dal Corso  v.6.2.2
     Using radial grid of 1201 points,  6 beta functions with: 
                l(1) =   0
                l(2) =   0
                l(3) =   1
                l(4) =   1
                l(5) =   2
                l(6) =   2
     Q(r) pseudized with 0 coefficients 


     PseudoPot. # 2 for O  read from file:
     /home/jvc/QEspresso7.2/ZnO_database/pseudos/O.upf
     MD5 check sum: 91400c9766925bcf19f520983a725ff0
     Pseudo is Ultrasoft + core correction, Zval =  6.0
     Generated using &quot;atomic&quot; code by A. Dal Corso  v.6.3MaX
     Using radial grid of 1095 points,  4 beta functions with: 
                l(1) =   0
                l(2) =   0
                l(3) =   1
                l(4) =   1
     Q(r) pseudized with 0 coefficients 


     atomic species   valence    mass     pseudopotential
        Zn            12.00    65.38000     Zn( 1.00)
        O              6.00    15.99900     O ( 1.00)

     No symmetry found


                                    s                        frac. trans.

      isym =  1     identity                                     

 cryst.   s( 1) = (     1          0          0      )
                  (     0          1          0      )
                  (     0          0          1      )

 cart.    s( 1) = (  1.0000000  0.0000000  0.0000000 )
                  (  0.0000000  1.0000000  0.0000000 )
                  (  0.0000000  0.0000000  1.0000000 )


   Cartesian axes

     site n.     atom                  positions (alat units)
         1           Zn  tau(   1) = (   0.5133961   0.3259491   0.9023358  )
         2           Zn  tau(   2) = (   0.0023565   0.5707506  -0.0064720  )
         3           O   tau(   3) = (   0.4166997   0.2995517   1.5274538  )
         4           O   tau(   4) = (   0.0544385   0.5985828   0.7166950  )
         5           Zn  tau(   5) = (  -0.0072915   1.1373716   0.9036614  )
         6           Zn  tau(   6) = (  -0.5218323   1.3903653   0.0237486  )
         7           O   tau(   7) = (   0.0622921   1.2129931   1.4858049  )
         8           O   tau(   8) = (  -0.4339267   1.4555539   0.7241522  )
         9           Zn  tau(   9) = (  -0.4341908   2.0083381   0.8696832  )
        10           Zn  tau(  10) = (  -0.8932478   2.3155550   0.0204916  )
        11           O   tau(  11) = (  -0.4496163   2.0353531   1.5657400  )
        12           O   tau(  12) = (  -1.0242239   2.3144594   0.6921215  )

   Crystallographic axes

     site n.     atom                  positions (cryst. coord.)
         1           Zn  tau(   1) = (  0.7015829  0.1254579  0.5081308  )
         2           Zn  tau(   2) = (  0.3318795  0.2196820 -0.0036446  )
         3           O   tau(   3) = (  0.5896459  0.1152975  0.8601525  )
         4           O   tau(   4) = (  0.4000305  0.2303946  0.4035912  )
         5           Zn  tau(   5) = (  0.6493703  0.4377745  0.5088773  )
         6           Zn  tau(   6) = (  0.2808955  0.5351519  0.0133735  )
         7           O   tau(   7) = (  0.7626141  0.4668813  0.8366988  )
         8           O   tau(   8) = (  0.4064377  0.5602429  0.4077906  )
         9           Zn  tau(   9) = (  0.7253237  0.7730097  0.4897433  )
        10           Zn  tau(  10) = (  0.4436385  0.8912575  0.0115394  )
        11           O   tau(  11) = (  0.7254954  0.7834078  0.8817125  )
        12           O   tau(  12) = (  0.3120299  0.8908358  0.3897532  )

     number of k points=   112
                       cart. coord. in units 2pi/alat
        k(    1) = (   0.0000000   0.0000000   0.0000000), wk =   0.0092593
        k(    2) = (   0.0000000   0.0000000   0.0938547), wk =   0.0185185
        k(    3) = (   0.0000000   0.0000000   0.1877094), wk =   0.0185185
        k(    4) = (   0.0000000   0.0000000  -0.2815642), wk =   0.0092593
        k(    5) = (   0.0000000   0.0641500   0.0000000), wk =   0.0185185
        k(    6) = (   0.0000000   0.0641500   0.0938547), wk =   0.0185185
        k(    7) = (   0.0000000   0.0641500   0.1877094), wk =   0.0185185
        k(    8) = (   0.0000000   0.0641500  -0.2815642), wk =   0.0185185
        k(    9) = (   0.0000000   0.1283001   0.0000000), wk =   0.0185185
        k(   10) = (   0.0000000   0.1283001   0.0938547), wk =   0.0185185
        k(   11) = (   0.0000000   0.1283001   0.1877094), wk =   0.0185185
        k(   12) = (   0.0000000   0.1283001  -0.2815642), wk =   0.0185185
        k(   13) = (   0.0000000  -0.1924501   0.0000000), wk =   0.0092593
        k(   14) = (   0.0000000  -0.1924501   0.0938547), wk =   0.0185185
        k(   15) = (   0.0000000  -0.1924501   0.1877094), wk =   0.0185185
        k(   16) = (   0.0000000  -0.1924501  -0.2815642), wk =   0.0092593
        k(   17) = (   0.1666667   0.0962250   0.0000000), wk =   0.0185185
        k(   18) = (   0.1666667   0.0962250   0.0938547), wk =   0.0185185
        k(   19) = (   0.1666667   0.0962250   0.1877094), wk =   0.0185185
        k(   20) = (   0.1666667   0.0962250  -0.2815642), wk =   0.0185185
        k(   21) = (   0.1666667   0.1603751   0.0000000), wk =   0.0185185
        k(   22) = (   0.1666667   0.1603751   0.0938547), wk =   0.0185185
        k(   23) = (   0.1666667   0.1603751   0.1877094), wk =   0.0185185
        k(   24) = (   0.1666667   0.1603751  -0.2815642), wk =   0.0185185
        k(   25) = (   0.1666667  -0.0320750   0.0000000), wk =   0.0185185
        k(   26) = (   0.1666667  -0.0320750   0.0938547), wk =   0.0185185
        k(   27) = (   0.1666667  -0.0320750   0.1877094), wk =   0.0185185
        k(   28) = (   0.1666667  -0.0320750  -0.2815642), wk =   0.0185185
        k(   29) = (   0.3333333   0.1924501   0.0000000), wk =   0.0185185
        k(   30) = (   0.3333333   0.1924501   0.0938547), wk =   0.0185185
        k(   31) = (   0.3333333   0.1924501   0.1877094), wk =   0.0185185
        k(   32) = (   0.3333333   0.1924501  -0.2815642), wk =   0.0185185
        k(   33) = (   0.3333333   0.2566001   0.0000000), wk =   0.0185185
        k(   34) = (   0.3333333   0.2566001   0.0938547), wk =   0.0185185
        k(   35) = (   0.3333333   0.2566001   0.1877094), wk =   0.0185185
        k(   36) = (   0.3333333   0.2566001  -0.2815642), wk =   0.0185185
        k(   37) = (   0.3333333   0.3207501   0.0000000), wk =   0.0185185
        k(   38) = (   0.3333333   0.3207501   0.0938547), wk =   0.0185185
        k(   39) = (   0.3333333   0.3207501   0.1877094), wk =   0.0185185
        k(   40) = (   0.3333333   0.3207501  -0.2815642), wk =   0.0185185
        k(   41) = (   0.3333333  -0.0000000   0.0000000), wk =   0.0185185
        k(   42) = (   0.3333333  -0.0000000   0.0938547), wk =   0.0185185
        k(   43) = (   0.3333333  -0.0000000   0.1877094), wk =   0.0185185
        k(   44) = (   0.3333333  -0.0000000  -0.2815642), wk =   0.0185185
        k(   45) = (  -0.5000000  -0.2886751   0.0000000), wk =   0.0092593
        k(   46) = (  -0.5000000  -0.2886751   0.0938547), wk =   0.0185185
        k(   47) = (  -0.5000000  -0.2886751   0.1877094), wk =   0.0185185
        k(   48) = (  -0.5000000  -0.2886751  -0.2815642), wk =   0.0092593
        k(   49) = (  -0.5000000  -0.2245251   0.0000000), wk =   0.0185185
        k(   50) = (  -0.5000000  -0.2245251   0.0938547), wk =   0.0185185
        k(   51) = (  -0.5000000  -0.2245251   0.1877094), wk =   0.0185185
        k(   52) = (  -0.5000000  -0.2245251  -0.2815642), wk =   0.0185185
        k(   53) = (   0.0000000  -0.0641500   0.0938547), wk =   0.0185185
        k(   54) = (   0.0000000  -0.0641500   0.1877094), wk =   0.0185185
        k(   55) = (   0.0000000  -0.1283001   0.0938547), wk =   0.0185185
        k(   56) = (   0.0000000  -0.1283001   0.1877094), wk =   0.0185185
        k(   57) = (  -0.1666667   0.0962250   0.0000000), wk =   0.0185185
        k(   58) = (  -0.1666667  -0.0962250   0.0938547), wk =   0.0185185
        k(   59) = (  -0.1666667   0.0962250  -0.0938547), wk =   0.0185185
        k(   60) = (   0.1666667  -0.0962250  -0.0938547), wk =   0.0185185
        k(   61) = (  -0.1666667  -0.0962250   0.1877094), wk =   0.0185185
        k(   62) = (  -0.1666667   0.0962250  -0.1877094), wk =   0.0185185
        k(   63) = (   0.1666667  -0.0962250  -0.1877094), wk =   0.0185185
        k(   64) = (  -0.1666667   0.0962250   0.2815642), wk =   0.0185185
        k(   65) = (  -0.1666667   0.1603751   0.0000000), wk =   0.0185185
        k(   66) = (  -0.1666667  -0.1603751   0.0938547), wk =   0.0185185
        k(   67) = (  -0.1666667   0.1603751  -0.0938547), wk =   0.0185185
        k(   68) = (   0.1666667  -0.1603751  -0.0938547), wk =   0.0185185
        k(   69) = (  -0.1666667  -0.1603751   0.1877094), wk =   0.0185185
        k(   70) = (  -0.1666667   0.1603751  -0.1877094), wk =   0.0185185
        k(   71) = (   0.1666667  -0.1603751  -0.1877094), wk =   0.0185185
        k(   72) = (  -0.1666667   0.1603751   0.2815642), wk =   0.0185185
        k(   73) = (  -0.1666667  -0.0320750   0.0000000), wk =   0.0185185
        k(   74) = (  -0.1666667   0.0320750   0.0938547), wk =   0.0185185
        k(   75) = (  -0.1666667  -0.0320750  -0.0938547), wk =   0.0185185
        k(   76) = (   0.1666667   0.0320750  -0.0938547), wk =   0.0185185
        k(   77) = (  -0.1666667   0.0320750   0.1877094), wk =   0.0185185
        k(   78) = (  -0.1666667  -0.0320750  -0.1877094), wk =   0.0185185
        k(   79) = (   0.1666667   0.0320750  -0.1877094), wk =   0.0185185
        k(   80) = (  -0.1666667  -0.0320750   0.2815642), wk =   0.0185185
        k(   81) = (  -0.3333333  -0.1924501   0.0938547), wk =   0.0185185
        k(   82) = (  -0.3333333  -0.1924501   0.1877094), wk =   0.0185185
        k(   83) = (  -0.3333333   0.2566001   0.0000000), wk =   0.0185185
        k(   84) = (  -0.3333333  -0.2566001   0.0938547), wk =   0.0185185
        k(   85) = (  -0.3333333   0.2566001  -0.0938547), wk =   0.0185185
        k(   86) = (   0.3333333  -0.2566001  -0.0938547), wk =   0.0185185
        k(   87) = (  -0.3333333  -0.2566001   0.1877094), wk =   0.0185185
        k(   88) = (  -0.3333333   0.2566001  -0.1877094), wk =   0.0185185
        k(   89) = (   0.3333333  -0.2566001  -0.1877094), wk =   0.0185185
        k(   90) = (  -0.3333333   0.2566001   0.2815642), wk =   0.0185185
        k(   91) = (  -0.3333333   0.3207501   0.0000000), wk =   0.0185185
        k(   92) = (  -0.3333333  -0.3207501   0.0938547), wk =   0.0185185
        k(   93) = (  -0.3333333   0.3207501  -0.0938547), wk =   0.0185185
        k(   94) = (   0.3333333  -0.3207501  -0.0938547), wk =   0.0185185
        k(   95) = (  -0.3333333  -0.3207501   0.1877094), wk =   0.0185185
        k(   96) = (  -0.3333333   0.3207501  -0.1877094), wk =   0.0185185
        k(   97) = (   0.3333333  -0.3207501  -0.1877094), wk =   0.0185185
        k(   98) = (  -0.3333333   0.3207501   0.2815642), wk =   0.0185185
        k(   99) = (  -0.3333333   0.0000000   0.0938547), wk =   0.0185185
        k(  100) = (  -0.3333333   0.0000000   0.1877094), wk =   0.0185185
        k(  101) = (   0.5000000  -0.2886751   0.0000000), wk =   0.0092593
        k(  102) = (   0.5000000  -0.2886751  -0.0938547), wk =   0.0185185
        k(  103) = (   0.5000000  -0.2886751  -0.1877094), wk =   0.0185185
        k(  104) = (   0.5000000  -0.2886751   0.2815642), wk =   0.0092593
        k(  105) = (   0.5000000  -0.2245251   0.0000000), wk =   0.0185185
        k(  106) = (   0.5000000   0.2245251   0.0938547), wk =   0.0185185
        k(  107) = (   0.5000000  -0.2245251  -0.0938547), wk =   0.0185185
        k(  108) = (  -0.5000000   0.2245251  -0.0938547), wk =   0.0185185
        k(  109) = (   0.5000000   0.2245251   0.1877094), wk =   0.0185185
        k(  110) = (   0.5000000  -0.2245251  -0.1877094), wk =   0.0185185
        k(  111) = (  -0.5000000   0.2245251  -0.1877094), wk =   0.0185185
        k(  112) = (   0.5000000  -0.2245251   0.2815642), wk =   0.0185185

                       cryst. coord.
        k(    1) = (   0.0000000   0.0000000   0.0000000), wk =   0.0092593
        k(    2) = (   0.0000000   0.0000000   0.1666667), wk =   0.0185185
        k(    3) = (   0.0000000   0.0000000   0.3333333), wk =   0.0185185
        k(    4) = (   0.0000000   0.0000000  -0.5000000), wk =   0.0092593
        k(    5) = (   0.0000000   0.1666667   0.0000000), wk =   0.0185185
        k(    6) = (   0.0000000   0.1666667   0.1666667), wk =   0.0185185
        k(    7) = (   0.0000000   0.1666667   0.3333333), wk =   0.0185185
        k(    8) = (   0.0000000   0.1666667  -0.5000000), wk =   0.0185185
        k(    9) = (   0.0000000   0.3333333   0.0000000), wk =   0.0185185
        k(   10) = (   0.0000000   0.3333333   0.1666667), wk =   0.0185185
        k(   11) = (   0.0000000   0.3333333   0.3333333), wk =   0.0185185
        k(   12) = (   0.0000000   0.3333333  -0.5000000), wk =   0.0185185
        k(   13) = (   0.0000000  -0.5000000   0.0000000), wk =   0.0092593
        k(   14) = (   0.0000000  -0.5000000   0.1666667), wk =   0.0185185
        k(   15) = (   0.0000000  -0.5000000   0.3333333), wk =   0.0185185
        k(   16) = (   0.0000000  -0.5000000  -0.5000000), wk =   0.0092593
        k(   17) = (   0.1666667  -0.0000000   0.0000000), wk =   0.0185185
        k(   18) = (   0.1666667  -0.0000000   0.1666667), wk =   0.0185185
        k(   19) = (   0.1666667  -0.0000000   0.3333333), wk =   0.0185185
        k(   20) = (   0.1666667  -0.0000000  -0.5000000), wk =   0.0185185
        k(   21) = (   0.1666667   0.1666667   0.0000000), wk =   0.0185185
        k(   22) = (   0.1666667   0.1666667   0.1666667), wk =   0.0185185
        k(   23) = (   0.1666667   0.1666667   0.3333333), wk =   0.0185185
        k(   24) = (   0.1666667   0.1666667  -0.5000000), wk =   0.0185185
        k(   25) = (   0.1666667  -0.3333333   0.0000000), wk =   0.0185185
        k(   26) = (   0.1666667  -0.3333333   0.1666667), wk =   0.0185185
        k(   27) = (   0.1666667  -0.3333333   0.3333333), wk =   0.0185185
        k(   28) = (   0.1666667  -0.3333333  -0.5000000), wk =   0.0185185
        k(   29) = (   0.3333333  -0.0000000   0.0000000), wk =   0.0185185
        k(   30) = (   0.3333333  -0.0000000   0.1666667), wk =   0.0185185
        k(   31) = (   0.3333333  -0.0000000   0.3333333), wk =   0.0185185
        k(   32) = (   0.3333333  -0.0000000  -0.5000000), wk =   0.0185185
        k(   33) = (   0.3333333   0.1666667   0.0000000), wk =   0.0185185
        k(   34) = (   0.3333333   0.1666667   0.1666667), wk =   0.0185185
        k(   35) = (   0.3333333   0.1666667   0.3333333), wk =   0.0185185
        k(   36) = (   0.3333333   0.1666667  -0.5000000), wk =   0.0185185
        k(   37) = (   0.3333333   0.3333333   0.0000000), wk =   0.0185185
        k(   38) = (   0.3333333   0.3333333   0.1666667), wk =   0.0185185
        k(   39) = (   0.3333333   0.3333333   0.3333333), wk =   0.0185185
        k(   40) = (   0.3333333   0.3333333  -0.5000000), wk =   0.0185185
        k(   41) = (   0.3333333  -0.5000000   0.0000000), wk =   0.0185185
        k(   42) = (   0.3333333  -0.5000000   0.1666667), wk =   0.0185185
        k(   43) = (   0.3333333  -0.5000000   0.3333333), wk =   0.0185185
        k(   44) = (   0.3333333  -0.5000000  -0.5000000), wk =   0.0185185
        k(   45) = (  -0.5000000   0.0000000   0.0000000), wk =   0.0092593
        k(   46) = (  -0.5000000   0.0000000   0.1666667), wk =   0.0185185
        k(   47) = (  -0.5000000   0.0000000   0.3333333), wk =   0.0185185
        k(   48) = (  -0.5000000   0.0000000  -0.5000000), wk =   0.0092593
        k(   49) = (  -0.5000000   0.1666667   0.0000000), wk =   0.0185185
        k(   50) = (  -0.5000000   0.1666667   0.1666667), wk =   0.0185185
        k(   51) = (  -0.5000000   0.1666667   0.3333333), wk =   0.0185185
        k(   52) = (  -0.5000000   0.1666667  -0.5000000), wk =   0.0185185
        k(   53) = (   0.0000000  -0.1666667   0.1666667), wk =   0.0185185
        k(   54) = (   0.0000000  -0.1666667   0.3333333), wk =   0.0185185
        k(   55) = (   0.0000000  -0.3333333   0.1666667), wk =   0.0185185
        k(   56) = (   0.0000000  -0.3333333   0.3333333), wk =   0.0185185
        k(   57) = (  -0.1666667   0.5000000   0.0000000), wk =   0.0185185
        k(   58) = (  -0.1666667   0.0000000   0.1666667), wk =   0.0185185
        k(   59) = (  -0.1666667   0.5000000  -0.1666667), wk =   0.0185185
        k(   60) = (   0.1666667  -0.5000000  -0.1666667), wk =   0.0185185
        k(   61) = (  -0.1666667   0.0000000   0.3333333), wk =   0.0185185
        k(   62) = (  -0.1666667   0.5000000  -0.3333333), wk =   0.0185185
        k(   63) = (   0.1666667  -0.5000000  -0.3333333), wk =   0.0185185
        k(   64) = (  -0.1666667   0.5000000   0.5000000), wk =   0.0185185
        k(   65) = (  -0.1666667   0.6666667   0.0000000), wk =   0.0185185
        k(   66) = (  -0.1666667  -0.1666667   0.1666667), wk =   0.0185185
        k(   67) = (  -0.1666667   0.6666667  -0.1666667), wk =   0.0185185
        k(   68) = (   0.1666667  -0.6666667  -0.1666667), wk =   0.0185185
        k(   69) = (  -0.1666667  -0.1666667   0.3333333), wk =   0.0185185
        k(   70) = (  -0.1666667   0.6666667  -0.3333333), wk =   0.0185185
        k(   71) = (   0.1666667  -0.6666667  -0.3333333), wk =   0.0185185
        k(   72) = (  -0.1666667   0.6666667   0.5000000), wk =   0.0185185
        k(   73) = (  -0.1666667   0.1666667   0.0000000), wk =   0.0185185
        k(   74) = (  -0.1666667   0.3333333   0.1666667), wk =   0.0185185
        k(   75) = (  -0.1666667   0.1666667  -0.1666667), wk =   0.0185185
        k(   76) = (   0.1666667  -0.1666667  -0.1666667), wk =   0.0185185
        k(   77) = (  -0.1666667   0.3333333   0.3333333), wk =   0.0185185
        k(   78) = (  -0.1666667   0.1666667  -0.3333333), wk =   0.0185185
        k(   79) = (   0.1666667  -0.1666667  -0.3333333), wk =   0.0185185
        k(   80) = (  -0.1666667   0.1666667   0.5000000), wk =   0.0185185
        k(   81) = (  -0.3333333   0.0000000   0.1666667), wk =   0.0185185
        k(   82) = (  -0.3333333   0.0000000   0.3333333), wk =   0.0185185
        k(   83) = (  -0.3333333   1.1666667   0.0000000), wk =   0.0185185
        k(   84) = (  -0.3333333  -0.1666667   0.1666667), wk =   0.0185185
        k(   85) = (  -0.3333333   1.1666667  -0.1666667), wk =   0.0185185
        k(   86) = (   0.3333333  -1.1666667  -0.1666667), wk =   0.0185185
        k(   87) = (  -0.3333333  -0.1666667   0.3333333), wk =   0.0185185
        k(   88) = (  -0.3333333   1.1666667  -0.3333333), wk =   0.0185185
        k(   89) = (   0.3333333  -1.1666667  -0.3333333), wk =   0.0185185
        k(   90) = (  -0.3333333   1.1666667   0.5000000), wk =   0.0185185
        k(   91) = (  -0.3333333   1.3333333   0.0000000), wk =   0.0185185
        k(   92) = (  -0.3333333  -0.3333333   0.1666667), wk =   0.0185185
        k(   93) = (  -0.3333333   1.3333333  -0.1666667), wk =   0.0185185
        k(   94) = (   0.3333333  -1.3333333  -0.1666667), wk =   0.0185185
        k(   95) = (  -0.3333333  -0.3333333   0.3333333), wk =   0.0185185
        k(   96) = (  -0.3333333   1.3333333  -0.3333333), wk =   0.0185185
        k(   97) = (   0.3333333  -1.3333333  -0.3333333), wk =   0.0185185
        k(   98) = (  -0.3333333   1.3333333   0.5000000), wk =   0.0185185
        k(   99) = (  -0.3333333   0.5000000   0.1666667), wk =   0.0185185
        k(  100) = (  -0.3333333   0.5000000   0.3333333), wk =   0.0185185
        k(  101) = (   0.5000000  -1.5000000   0.0000000), wk =   0.0092593
        k(  102) = (   0.5000000  -1.5000000  -0.1666667), wk =   0.0185185
        k(  103) = (   0.5000000  -1.5000000  -0.3333333), wk =   0.0185185
        k(  104) = (   0.5000000  -1.5000000   0.5000000), wk =   0.0092593
        k(  105) = (   0.5000000  -1.3333333   0.0000000), wk =   0.0185185
        k(  106) = (   0.5000000  -0.1666667   0.1666667), wk =   0.0185185
        k(  107) = (   0.5000000  -1.3333333  -0.1666667), wk =   0.0185185
        k(  108) = (  -0.5000000   1.3333333  -0.1666667), wk =   0.0185185
        k(  109) = (   0.5000000  -0.1666667   0.3333333), wk =   0.0185185
        k(  110) = (   0.5000000  -1.3333333  -0.3333333), wk =   0.0185185
        k(  111) = (  -0.5000000   1.3333333  -0.3333333), wk =   0.0185185
        k(  112) = (   0.5000000  -1.3333333   0.5000000), wk =   0.0185185

     Dense  grid:   147017 G-vectors     FFT dimensions: (  40, 120,  72)

     Smooth grid:    52081 G-vectors     FFT dimensions: (  27,  90,  50)

     Dynamical RAM for                 wfc:       1.34 MB

     Dynamical RAM for     wfc (w. buffer):      20.07 MB

     Dynamical RAM for           str. fact:       1.12 MB

     Dynamical RAM for           local pot:       0.00 MB

     Dynamical RAM for          nlocal pot:       3.87 MB

     Dynamical RAM for                qrad:       3.21 MB

     Dynamical RAM for          rho,v,vnew:       3.66 MB

     Dynamical RAM for               rhoin:       1.22 MB

     Dynamical RAM for            rho*nmix:       8.97 MB

     Dynamical RAM for           G-vectors:       2.20 MB

     Dynamical RAM for          h,s,v(r/c):       0.53 MB

     Dynamical RAM for          <psi|beta>:       0.13 MB

     Dynamical RAM for                 psi:       2.68 MB

     Dynamical RAM for                hpsi:       2.68 MB

     Dynamical RAM for                spsi:       2.68 MB

     Dynamical RAM for      wfcinit/wfcrot:       4.01 MB

     Dynamical RAM for           addusdens:      13.95 MB

     Dynamical RAM for          addusforce:      14.46 MB

     Estimated static dynamical RAM per process >      40.33 MB

     Estimated max dynamical RAM per process >      63.77 MB

     Estimated total dynamical RAM >       1.75 GB

     Check: negative core charge=   -0.000002

     Initial potential from superposition of free atoms

     starting charge     107.9776, renormalised to     108.0000
     Starting wfcs are   78 randomized atomic wfcs

     total cpu time spent up to now is        7.0 secs

     Self-consistent Calculation

     iteration #  1     ecut=    50.00 Ry     beta= 0.30
     Davidson diagonalization with overlap

---- Real-time Memory Report at c_bands before calling an iterative solver
            76 MiB given to the printing process from OS
             0 MiB allocation reported by mallinfo(arena+hblkhd)
        110647 MiB available memory on the node where the printing process lives
------------------
     ethr =  1.00E-02,  avg # of iterations =  2.0

     total cpu time spent up to now is       14.1 secs

     total energy              =   -1084.07965758 Ry
     estimated scf accuracy    <       2.48831507 Ry

     iteration #  2     ecut=    50.00 Ry     beta= 0.30
     Davidson diagonalization with overlap

---- Real-time Memory Report at c_bands before calling an iterative solver
            90 MiB given to the printing process from OS
             0 MiB allocation reported by mallinfo(arena+hblkhd)
        110294 MiB available memory on the node where the printing process lives
------------------
     ethr =  2.30E-03,  avg # of iterations =  2.0

     total cpu time spent up to now is       22.7 secs

     total energy              =   -1084.42383337 Ry
     estimated scf accuracy    <       0.30008344 Ry

     iteration #  3     ecut=    50.00 Ry     beta= 0.30
     Davidson diagonalization with overlap

---- Real-time Memory Report at c_bands before calling an iterative solver
            91 MiB given to the printing process from OS
             0 MiB allocation reported by mallinfo(arena+hblkhd)
        110320 MiB available memory on the node where the printing process lives
------------------
     ethr =  2.78E-04,  avg # of iterations =  7.0

     total cpu time spent up to now is       39.5 secs

     total energy              =   -1084.56030414 Ry
     estimated scf accuracy    <       0.37439537 Ry

     iteration #  4     ecut=    50.00 Ry     beta= 0.30
     Davidson diagonalization with overlap

---- Real-time Memory Report at c_bands before calling an iterative solver
            91 MiB given to the printing process from OS
             0 MiB allocation reported by mallinfo(arena+hblkhd)
        110323 MiB available memory on the node where the printing process lives
------------------
     ethr =  2.78E-04,  avg # of iterations =  5.2

     total cpu time spent up to now is       50.1 secs

     total energy              =   -1084.68807045 Ry
     estimated scf accuracy    <       0.04158676 Ry

     iteration #  5     ecut=    50.00 Ry     beta= 0.30
     Davidson diagonalization with overlap

---- Real-time Memory Report at c_bands before calling an iterative solver
            91 MiB given to the printing process from OS
             0 MiB allocation reported by mallinfo(arena+hblkhd)
        110312 MiB available memory on the node where the printing process lives
------------------
     ethr =  3.85E-05,  avg # of iterations =  7.7

     total cpu time spent up to now is       67.8 secs

     total energy              =   -1084.67245790 Ry
     estimated scf accuracy    <       0.26625086 Ry

     iteration #  6     ecut=    50.00 Ry     beta= 0.30
     Davidson diagonalization with overlap

---- Real-time Memory Report at c_bands before calling an iterative solver
            92 MiB given to the printing process from OS
             0 MiB allocation reported by mallinfo(arena+hblkhd)
        110309 MiB available memory on the node where the printing process lives
------------------
     ethr =  3.85E-05,  avg # of iterations =  2.1

     total cpu time spent up to now is       75.7 secs

     total energy              =   -1084.58616279 Ry
     estimated scf accuracy    <       0.15030489 Ry

     iteration #  7     ecut=    50.00 Ry     beta= 0.30
     Davidson diagonalization with overlap

---- Real-time Memory Report at c_bands before calling an iterative solver
            92 MiB given to the printing process from OS
             0 MiB allocation reported by mallinfo(arena+hblkhd)
        110316 MiB available memory on the node where the printing process lives
------------------
     c_bands:  3 eigenvalues not converged
     c_bands:  2 eigenvalues not converged
     ethr =  3.85E-05,  avg # of iterations =  9.5

     total cpu time spent up to now is       97.2 secs

     total energy              =   -1084.66060443 Ry
     estimated scf accuracy    <       0.13609054 Ry

     iteration #  8     ecut=    50.00 Ry     beta= 0.30
     Davidson diagonalization with overlap

---- Real-time Memory Report at c_bands before calling an iterative solver
            93 MiB given to the printing process from OS
             0 MiB allocation reported by mallinfo(arena+hblkhd)
        110310 MiB available memory on the node where the printing process lives
------------------
     ethr =  3.85E-05,  avg # of iterations =  2.0

     total cpu time spent up to now is      105.0 secs

     total energy              =   -1084.63720862 Ry
     estimated scf accuracy    <       0.06570541 Ry

     iteration #  9     ecut=    50.00 Ry     beta= 0.30
     Davidson diagonalization with overlap

---- Real-time Memory Report at c_bands before calling an iterative solver
            93 MiB given to the printing process from OS
             0 MiB allocation reported by mallinfo(arena+hblkhd)
        110311 MiB available memory on the node where the printing process lives
------------------
     ethr =  3.85E-05,  avg # of iterations =  6.0

     total cpu time spent up to now is      118.8 secs

     total energy              =   -1084.66474905 Ry
     estimated scf accuracy    <       0.00625765 Ry

     iteration # 10     ecut=    50.00 Ry     beta= 0.30
     Davidson diagonalization with overlap

---- Real-time Memory Report at c_bands before calling an iterative solver
            94 MiB given to the printing process from OS
             0 MiB allocation reported by mallinfo(arena+hblkhd)
        110311 MiB available memory on the node where the printing process lives
------------------
     ethr =  5.79E-06,  avg # of iterations =  3.3

     total cpu time spent up to now is      128.1 secs

     total energy              =   -1084.66425730 Ry
     estimated scf accuracy    <       0.00612962 Ry

     iteration # 11     ecut=    50.00 Ry     beta= 0.30
     Davidson diagonalization with overlap

---- Real-time Memory Report at c_bands before calling an iterative solver
            94 MiB given to the printing process from OS
             0 MiB allocation reported by mallinfo(arena+hblkhd)
        110311 MiB available memory on the node where the printing process lives
------------------
     ethr =  5.68E-06,  avg # of iterations =  1.1

     total cpu time spent up to now is      134.8 secs

     total energy              =   -1084.66333212 Ry
     estimated scf accuracy    <       0.00387586 Ry

     iteration # 12     ecut=    50.00 Ry     beta= 0.30
     Davidson diagonalization with overlap

---- Real-time Memory Report at c_bands before calling an iterative solver
            94 MiB given to the printing process from OS
             0 MiB allocation reported by mallinfo(arena+hblkhd)
        110311 MiB available memory on the node where the printing process lives
------------------
     ethr =  3.59E-06,  avg # of iterations =  2.0

     total cpu time spent up to now is      142.5 secs

     total energy              =   -1084.66361695 Ry
     estimated scf accuracy    <       0.00104487 Ry

     iteration # 13     ecut=    50.00 Ry     beta= 0.30
     Davidson diagonalization with overlap

---- Real-time Memory Report at c_bands before calling an iterative solver
            94 MiB given to the printing process from OS
             0 MiB allocation reported by mallinfo(arena+hblkhd)
        110311 MiB available memory on the node where the printing process lives
------------------
     ethr =  9.67E-07,  avg # of iterations =  3.2

     total cpu time spent up to now is      151.3 secs

     total energy              =   -1084.66366142 Ry
     estimated scf accuracy    <       0.00054315 Ry

     iteration # 14     ecut=    50.00 Ry     beta= 0.30
     Davidson diagonalization with overlap

---- Real-time Memory Report at c_bands before calling an iterative solver
            94 MiB given to the printing process from OS
             0 MiB allocation reported by mallinfo(arena+hblkhd)
        110311 MiB available memory on the node where the printing process lives
------------------
     c_bands:  3 eigenvalues not converged
     ethr =  5.03E-07,  avg # of iterations =  5.6

     total cpu time spent up to now is      162.2 secs

     total energy              =   -1084.66387491 Ry
     estimated scf accuracy    <       0.00006629 Ry

     iteration # 15     ecut=    50.00 Ry     beta= 0.30
     Davidson diagonalization with overlap

---- Real-time Memory Report at c_bands before calling an iterative solver
            94 MiB given to the printing process from OS
             0 MiB allocation reported by mallinfo(arena+hblkhd)
        110311 MiB available memory on the node where the printing process lives
------------------
     ethr =  6.14E-08,  avg # of iterations =  5.5

     total cpu time spent up to now is      176.3 secs

     total energy              =   -1084.66390533 Ry
     estimated scf accuracy    <       0.00002079 Ry

     iteration # 16     ecut=    50.00 Ry     beta= 0.30
     Davidson diagonalization with overlap

---- Real-time Memory Report at c_bands before calling an iterative solver
            94 MiB given to the printing process from OS
             0 MiB allocation reported by mallinfo(arena+hblkhd)
        110310 MiB available memory on the node where the printing process lives
------------------
     ethr =  1.92E-08,  avg # of iterations =  3.8

     total cpu time spent up to now is      186.3 secs

     total energy              =   -1084.66390453 Ry
     estimated scf accuracy    <       0.00001698 Ry

     iteration # 17     ecut=    50.00 Ry     beta= 0.30
     Davidson diagonalization with overlap

---- Real-time Memory Report at c_bands before calling an iterative solver
            94 MiB given to the printing process from OS
             0 MiB allocation reported by mallinfo(arena+hblkhd)
        110311 MiB available memory on the node where the printing process lives
------------------
     ethr =  1.57E-08,  avg # of iterations =  2.5

     total cpu time spent up to now is      194.7 secs

     total energy              =   -1084.66390309 Ry
     estimated scf accuracy    <       0.00000687 Ry

     iteration # 18     ecut=    50.00 Ry     beta= 0.30
     Davidson diagonalization with overlap

---- Real-time Memory Report at c_bands before calling an iterative solver
            94 MiB given to the printing process from OS
             0 MiB allocation reported by mallinfo(arena+hblkhd)
        110303 MiB available memory on the node where the printing process lives
------------------
     c_bands:  2 eigenvalues not converged
     ethr =  6.36E-09,  avg # of iterations =  7.9

     total cpu time spent up to now is      209.8 secs

     total energy              =   -1084.66390720 Ry
     estimated scf accuracy    <       0.00001168 Ry

     iteration # 19     ecut=    50.00 Ry     beta= 0.30
     Davidson diagonalization with overlap

---- Real-time Memory Report at c_bands before calling an iterative solver
            94 MiB given to the printing process from OS
             0 MiB allocation reported by mallinfo(arena+hblkhd)
        110296 MiB available memory on the node where the printing process lives
------------------
     ethr =  6.36E-09,  avg # of iterations =  2.1

     total cpu time spent up to now is      217.6 secs

     total energy              =   -1084.66390691 Ry
     estimated scf accuracy    <       0.00000867 Ry

     iteration # 20     ecut=    50.00 Ry     beta= 0.30
     Davidson diagonalization with overlap

---- Real-time Memory Report at c_bands before calling an iterative solver
            94 MiB given to the printing process from OS
             0 MiB allocation reported by mallinfo(arena+hblkhd)
        110291 MiB available memory on the node where the printing process lives
------------------
     ethr =  6.36E-09,  avg # of iterations =  5.8

     total cpu time spent up to now is      231.6 secs

     total energy              =   -1084.66390803 Ry
     estimated scf accuracy    <       0.00001940 Ry

     iteration # 21     ecut=    50.00 Ry     beta= 0.30
     Davidson diagonalization with overlap

---- Real-time Memory Report at c_bands before calling an iterative solver
            94 MiB given to the printing process from OS
             0 MiB allocation reported by mallinfo(arena+hblkhd)
        110283 MiB available memory on the node where the printing process lives
------------------
     ethr =  6.36E-09,  avg # of iterations =  1.4

     total cpu time spent up to now is      238.6 secs

     total energy              =   -1084.66390115 Ry
     estimated scf accuracy    <       0.00001264 Ry

     iteration # 22     ecut=    50.00 Ry     beta= 0.30
     Davidson diagonalization with overlap

---- Real-time Memory Report at c_bands before calling an iterative solver
            94 MiB given to the printing process from OS
             0 MiB allocation reported by mallinfo(arena+hblkhd)
        110269 MiB available memory on the node where the printing process lives
------------------
     c_bands:  3 eigenvalues not converged
     c_bands:  1 eigenvalues not converged
     ethr =  6.36E-09,  avg # of iterations =  7.5

     total cpu time spent up to now is      255.6 secs

     total energy              =   -1084.66391139 Ry
     estimated scf accuracy    <       0.00000924 Ry

     iteration # 23     ecut=    50.00 Ry     beta= 0.30
     Davidson diagonalization with overlap

---- Real-time Memory Report at c_bands before calling an iterative solver
            94 MiB given to the printing process from OS
             0 MiB allocation reported by mallinfo(arena+hblkhd)
        110266 MiB available memory on the node where the printing process lives
------------------
     ethr =  6.36E-09,  avg # of iterations =  5.6

     total cpu time spent up to now is      266.9 secs

     total energy              =   -1084.66390173 Ry
     estimated scf accuracy    <       0.00002987 Ry

     iteration # 24     ecut=    50.00 Ry     beta= 0.30
     Davidson diagonalization with overlap

---- Real-time Memory Report at c_bands before calling an iterative solver
            94 MiB given to the printing process from OS
             0 MiB allocation reported by mallinfo(arena+hblkhd)
        110274 MiB available memory on the node where the printing process lives
------------------
     ethr =  6.36E-09,  avg # of iterations =  5.2

     total cpu time spent up to now is      279.7 secs

     total energy              =   -1084.66390646 Ry
     estimated scf accuracy    <       0.00000075 Ry

     iteration # 25     ecut=    50.00 Ry     beta= 0.30
     Davidson diagonalization with overlap

---- Real-time Memory Report at c_bands before calling an iterative solver
            94 MiB given to the printing process from OS
             0 MiB allocation reported by mallinfo(arena+hblkhd)
        110268 MiB available memory on the node where the printing process lives
------------------
     ethr =  6.95E-10,  avg # of iterations =  7.2

     total cpu time spent up to now is      293.1 secs

     total energy              =   -1084.66390658 Ry
     estimated scf accuracy    <       0.00000041 Ry

     iteration # 26     ecut=    50.00 Ry     beta= 0.30
     Davidson diagonalization with overlap

---- Real-time Memory Report at c_bands before calling an iterative solver
            94 MiB given to the printing process from OS
             0 MiB allocation reported by mallinfo(arena+hblkhd)
        110277 MiB available memory on the node where the printing process lives
------------------
     ethr =  3.83E-10,  avg # of iterations =  4.8

     total cpu time spent up to now is      302.9 secs

     total energy              =   -1084.66390664 Ry
     estimated scf accuracy    <       0.00000005 Ry

     iteration # 27     ecut=    50.00 Ry     beta= 0.30
     Davidson diagonalization with overlap

---- Real-time Memory Report at c_bands before calling an iterative solver
            94 MiB given to the printing process from OS
             0 MiB allocation reported by mallinfo(arena+hblkhd)
        110278 MiB available memory on the node where the printing process lives
------------------
     c_bands:  2 eigenvalues not converged
     c_bands:  1 eigenvalues not converged
     ethr =  4.57E-11,  avg # of iterations = 10.0

     total cpu time spent up to now is      327.0 secs

     total energy              =   -1084.66390665 Ry
     estimated scf accuracy    <       0.00000046 Ry

     iteration # 28     ecut=    50.00 Ry     beta= 0.30
     Davidson diagonalization with overlap

---- Real-time Memory Report at c_bands before calling an iterative solver
            94 MiB given to the printing process from OS
             0 MiB allocation reported by mallinfo(arena+hblkhd)
        110279 MiB available memory on the node where the printing process lives
------------------
     ethr =  4.57E-11,  avg # of iterations =  6.5

     total cpu time spent up to now is      341.4 secs

     total energy              =   -1084.66390666 Ry
     estimated scf accuracy    <       0.00000006 Ry

     iteration # 29     ecut=    50.00 Ry     beta= 0.30
     Davidson diagonalization with overlap

---- Real-time Memory Report at c_bands before calling an iterative solver
            94 MiB given to the printing process from OS
             0 MiB allocation reported by mallinfo(arena+hblkhd)
        110279 MiB available memory on the node where the printing process lives
------------------
     ethr =  4.57E-11,  avg # of iterations =  6.2

     total cpu time spent up to now is      354.6 secs

     total energy              =   -1084.66390669 Ry
     estimated scf accuracy    <       0.00000001 Ry

     iteration # 30     ecut=    50.00 Ry     beta= 0.30
     Davidson diagonalization with overlap

---- Real-time Memory Report at c_bands before calling an iterative solver
            94 MiB given to the printing process from OS
             0 MiB allocation reported by mallinfo(arena+hblkhd)
        110279 MiB available memory on the node where the printing process lives
------------------
     ethr =  1.09E-11,  avg # of iterations =  3.1

     total cpu time spent up to now is      363.0 secs

     End of self-consistent calculation

          k = 0.0000 0.0000 0.0000 (  6511 PWs)   bands (ev):

   -12.1128 -11.6881 -11.6075 -11.3241 -10.9860 -10.3656  -0.5501  -0.4891
    -0.3121  -0.2478  -0.0862  -0.0632   0.0786   0.1633   0.2036   0.2912
     0.3469   0.4080   0.5101   0.5490   0.5601   0.6320   0.7594   0.8152
     0.8340   0.8804   0.9432   1.0770   1.0954   1.1739   1.2996   1.3176
     1.3498   1.3996   1.5300   1.5844   1.7127   2.1557   2.4532   2.5949
     2.9078   3.4642   3.5707   4.1418   4.4344   4.6803   4.8336   5.0630
     5.0773   5.2222   5.4973   5.6872   5.7634   5.8987

     occupation numbers 
     1.0000   1.0000   1.0000   1.0000   1.0000   1.0000   1.0000   1.0000
     1.0000   1.0000   1.0000   1.0000   1.0000   1.0000   1.0000   1.0000
     1.0000   1.0000   1.0000   1.0000   1.0000   1.0000   1.0000   1.0000
     1.0000   1.0000   1.0000   1.0000   1.0000   1.0000   1.0000   1.0000
     1.0000   1.0000   1.0000   1.0000   1.0000   1.0000   1.0000   1.0000
     1.0000   1.0000   1.0000   1.0000   1.0000   1.0000   1.0000   1.0000
     1.0000   1.0000   1.0000   1.0000   1.0000   1.0000

          k = 0.0000 0.0000 0.0939 (  6467 PWs)   bands (ev):

   -12.0950 -11.6860 -11.6124 -11.3371 -10.9831 -10.3738  -0.5595  -0.5089
    -0.3300  -0.2341  -0.1017  -0.0735   0.0791   0.1277   0.2090   0.2560
     0.3145   0.4004   0.5098   0.5442   0.5576   0.6386   0.7411   0.8064
     0.8507   0.8877   0.9368   1.0260   1.1292   1.1633   1.2800   1.3263
     1.3418   1.4110   1.5304   1.5781   1.8320   2.2845   2.5017   2.6176
     3.0991   3.4631   3.5464   4.1804   4.4424   4.5598   4.7727   4.9140
     5.0294   5.1680   5.3405   5.5986   5.7557   5.8727

     occupation numbers 
     1.0000   1.0000   1.0000   1.0000   1.0000   1.0000   1.0000   1.0000
     1.0000   1.0000   1.0000   1.0000   1.0000   1.0000   1.0000   1.0000
     1.0000   1.0000   1.0000   1.0000   1.0000   1.0000   1.0000   1.0000
     1.0000   1.0000   1.0000   1.0000   1.0000   1.0000   1.0000   1.0000
     1.0000   1.0000   1.0000   1.0000   1.0000   1.0000   1.0000   1.0000
     1.0000   1.0000   1.0000   1.0000   1.0000   1.0000   1.0000   1.0000
     1.0000   1.0000   1.0000   1.0000   1.0000   1.0000

          k = 0.0000 0.0000 0.1877 (  6479 PWs)   bands (ev):

   -12.0540 -11.7030 -11.6020 -11.3681 -10.9762 -10.3908  -0.5833  -0.5443
    -0.3551  -0.2196  -0.1331  -0.0955   0.0372   0.0989   0.1829   0.2362
     0.2865   0.3903   0.5057   0.5277   0.5470   0.6552   0.7198   0.8154
     0.8493   0.8781   0.9158   0.9699   1.1434   1.1781   1.2664   1.3249
     1.3365   1.3723   1.5166   1.5691   2.1889   2.4820   2.5987   2.7437
     3.2301   3.5841   3.7132   4.0116   4.2681   4.4771   4.6544   4.7472
     4.8909   5.0573   5.3445   5.6002   5.7255   5.8219

     occupation numbers 
     1.0000   1.0000   1.0000   1.0000   1.0000   1.0000   1.0000   1.0000
     1.0000   1.0000   1.0000   1.0000   1.0000   1.0000   1.0000   1.0000
     1.0000   1.0000   1.0000   1.0000   1.0000   1.0000   1.0000   1.0000
     1.0000   1.0000   1.0000   1.0000   1.0000   1.0000   1.0000   1.0000
     1.0000   1.0000   1.0000   1.0000   1.0000   1.0000   1.0000   1.0000
     1.0000   1.0000   1.0000   1.0000   1.0000   1.0000   1.0000   1.0000
     1.0000   1.0000   1.0000   1.0000   1.0000   1.0000

          k = 0.0000 0.0000-0.2816 (  6492 PWs)   bands (ev):

   -12.0296 -11.7216 -11.5870 -11.3875 -10.9721 -10.3995  -0.5975  -0.5599
    -0.3661  -0.2166  -0.1476  -0.1055   0.0034   0.1014   0.1668   0.2321
     0.2791   0.3857   0.5055   0.5169   0.5415   0.6662   0.7105   0.8231
     0.8583   0.8592   0.9069   0.9418   1.1409   1.1950   1.2767   1.3206
     1.3262   1.3445   1.5119   1.5654   2.4195   2.4842   2.6885   2.9802
     3.1799   3.4073   3.8381   4.1038   4.2689   4.4303   4.5349   4.6938
     4.7661   4.9750   5.3723   5.6071   5.7118   5.7900

     occupation numbers 
     1.0000   1.0000   1.0000   1.0000   1.0000   1.0000   1.0000   1.0000
     1.0000   1.0000   1.0000   1.0000   1.0000   1.0000   1.0000   1.0000
     1.0000   1.0000   1.0000   1.0000   1.0000   1.0000   1.0000   1.0000
     1.0000   1.0000   1.0000   1.0000   1.0000   1.0000   1.0000   1.0000
     1.0000   1.0000   1.0000   1.0000   1.0000   1.0000   1.0000   1.0000
     1.0000   1.0000   1.0000   1.0000   1.0000   1.0000   1.0000   1.0000
     1.0000   1.0000   1.0000   1.0000   1.0000   1.0000

          k = 0.0000 0.0642 0.0000 (  6472 PWs)   bands (ev):

   -12.1092 -11.6919 -11.6113 -11.3229 -10.9837 -10.3651  -0.5477  -0.4884
    -0.3111  -0.2437  -0.0877  -0.0620   0.0795   0.1637   0.2067   0.2923
     0.3400   0.4002   0.5044   0.5374   0.5737   0.6362   0.7492   0.8213
     0.8459   0.8972   0.9433   1.0624   1.1191   1.1783   1.3037   1.3196
     1.3532   1.3993   1.5338   1.5804   1.6854   2.1278   2.2728   2.5695
     3.1591   3.3635   3.8046   4.1117   4.4538   4.6315   4.8234   5.0173
     5.1181   5.1719   5.3859   5.5507   5.7031   5.8842

     occupation numbers 
     1.0000   1.0000   1.0000   1.0000   1.0000   1.0000   1.0000   1.0000
     1.0000   1.0000   1.0000   1.0000   1.0000   1.0000   1.0000   1.0000
     1.0000   1.0000   1.0000   1.0000   1.0000   1.0000   1.0000   1.0000
     1.0000   1.0000   1.0000   1.0000   1.0000   1.0000   1.0000   1.0000
     1.0000   1.0000   1.0000   1.0000   1.0000   1.0000   1.0000   1.0000
     1.0000   1.0000   1.0000   1.0000   1.0000   1.0000   1.0000   1.0000
     1.0000   1.0000   1.0000   1.0000   1.0000   1.0000

          k = 0.0000 0.0642 0.0939 (  6463 PWs)   bands (ev):

   -12.0915 -11.6885 -11.6160 -11.3380 -10.9800 -10.3733  -0.5550  -0.5110
    -0.3291  -0.2303  -0.1062  -0.0694   0.0753   0.1285   0.2084   0.2639
     0.3089   0.3956   0.5045   0.5380   0.5542   0.6464   0.7500   0.8109
     0.8389   0.9179   0.9425   0.9958   1.1545   1.1628   1.2954   1.3242
     1.3474   1.4161   1.5325   1.5733   1.8115   2.2224   2.3348   2.6218
     3.2864   3.4823   3.7000   4.1552   4.4248   4.5354   4.7528   4.8913
     5.0595   5.1245   5.3195   5.5757   5.6588   5.8582

     occupation numbers 
     1.0000   1.0000   1.0000   1.0000   1.0000   1.0000   1.0000   1.0000
     1.0000   1.0000   1.0000   1.0000   1.0000   1.0000   1.0000   1.0000
     1.0000   1.0000   1.0000   1.0000   1.0000   1.0000   1.0000   1.0000
     1.0000   1.0000   1.0000   1.0000   1.0000   1.0000   1.0000   1.0000
     1.0000   1.0000   1.0000   1.0000   1.0000   1.0000   1.0000   1.0000
     1.0000   1.0000   1.0000   1.0000   1.0000   1.0000   1.0000   1.0000
     1.0000   1.0000   1.0000   1.0000   1.0000   1.0000

          k = 0.0000 0.0642 0.1877 (  6471 PWs)   bands (ev):

   -12.0512 -11.7017 -11.6067 -11.3716 -10.9725 -10.3901  -0.5787  -0.5474
    -0.3535  -0.2188  -0.1369  -0.0902   0.0339   0.0994   0.1840   0.2405
     0.2824   0.3868   0.4976   0.5248   0.5511   0.6582   0.7092   0.8223
     0.8491   0.9065   0.9175   0.9592   1.1482   1.1912   1.2706   1.3221
     1.3368   1.3899   1.5161   1.5673   2.1962   2.2359   2.6569   2.7240
     3.3929   3.6005   3.7850   4.0152   4.2600   4.4689   4.6638   4.7620
     4.8864   5.0615   5.2983   5.5479   5.6706   5.7973

     occupation numbers 
     1.0000   1.0000   1.0000   1.0000   1.0000   1.0000   1.0000   1.0000
     1.0000   1.0000   1.0000   1.0000   1.0000   1.0000   1.0000   1.0000
     1.0000   1.0000   1.0000   1.0000   1.0000   1.0000   1.0000   1.0000
     1.0000   1.0000   1.0000   1.0000   1.0000   1.0000   1.0000   1.0000
     1.0000   1.0000   1.0000   1.0000   1.0000   1.0000   1.0000   1.0000
     1.0000   1.0000   1.0000   1.0000   1.0000   1.0000   1.0000   1.0000
     1.0000   1.0000   1.0000   1.0000   1.0000   1.0000

          k = 0.0000 0.0642-0.2816 (  6482 PWs)   bands (ev):

   -12.0272 -11.7187 -11.5923 -11.3916 -10.9688 -10.3986  -0.5970  -0.5593
    -0.3650  -0.2166  -0.1481  -0.1024   0.0038   0.1003   0.1692   0.2284
     0.2786   0.3829   0.5008   0.5183   0.5481   0.6537   0.6856   0.8352
     0.8582   0.8734   0.9136   0.9733   1.1455   1.1963   1.2781   1.3154
     1.3329   1.3578   1.5103   1.5644   2.1899   2.5177   2.7161   2.9897
     3.2681   3.4202   3.8976   4.1272   4.2913   4.3998   4.5371   4.7102
     4.7805   5.0048   5.3214   5.5434   5.6957   5.7346

     occupation numbers 
     1.0000   1.0000   1.0000   1.0000   1.0000   1.0000   1.0000   1.0000
     1.0000   1.0000   1.0000   1.0000   1.0000   1.0000   1.0000   1.0000
     1.0000   1.0000   1.0000   1.0000   1.0000   1.0000   1.0000   1.0000
     1.0000   1.0000   1.0000   1.0000   1.0000   1.0000   1.0000   1.0000
     1.0000   1.0000   1.0000   1.0000   1.0000   1.0000   1.0000   1.0000
     1.0000   1.0000   1.0000   1.0000   1.0000   1.0000   1.0000   1.0000
     1.0000   1.0000   1.0000   1.0000   1.0000   1.0000

          k = 0.0000 0.1283 0.0000 (  6492 PWs)   bands (ev):

   -12.1015 -11.7012 -11.6170 -11.3209 -10.9789 -10.3641  -0.5433  -0.4871
    -0.3093  -0.2354  -0.0921  -0.0589   0.0806   0.1644   0.2127   0.2847
     0.3355   0.3881   0.4951   0.5215   0.5850   0.6468   0.7294   0.8306
     0.8739   0.9239   0.9473   1.0454   1.1693   1.1877   1.3120   1.3252
     1.3609   1.4027   1.5218   1.5590   1.6405   1.9926   2.1290   2.5759
     3.2119   3.6857   4.0218   4.1559   4.4268   4.5832   4.7907   4.8320
     4.9495   5.1863   5.2844   5.4611   5.7024   5.8727

     occupation numbers 
     1.0000   1.0000   1.0000   1.0000   1.0000   1.0000   1.0000   1.0000
     1.0000   1.0000   1.0000   1.0000   1.0000   1.0000   1.0000   1.0000
     1.0000   1.0000   1.0000   1.0000   1.0000   1.0000   1.0000   1.0000
     1.0000   1.0000   1.0000   1.0000   1.0000   1.0000   1.0000   1.0000
     1.0000   1.0000   1.0000   1.0000   1.0000   1.0000   1.0000   1.0000
     1.0000   1.0000   1.0000   1.0000   1.0000   1.0000   1.0000   1.0000
     1.0000   1.0000   1.0000   1.0000   1.0000   1.0000

          k = 0.0000 0.1283 0.0939 (  6479 PWs)   bands (ev):

   -12.0844 -11.6924 -11.6254 -11.3379 -10.9747 -10.3722  -0.5499  -0.5117
    -0.3262  -0.2240  -0.1104  -0.0653   0.0765   0.1329   0.2023   0.2723
     0.2962   0.3844   0.5001   0.5196   0.5685   0.6482   0.7220   0.8325
     0.8489   0.9288   0.9700   0.9989   1.1671   1.1954   1.3019   1.3252
     1.3499   1.4323   1.5282   1.5557   1.7894   1.9841   2.3067   2.5731
     3.3405   3.8256   3.9473   4.1398   4.3099   4.5019   4.7199   4.8365
     4.9818   5.1187   5.2822   5.4715   5.5881   5.8430

     occupation numbers 
     1.0000   1.0000   1.0000   1.0000   1.0000   1.0000   1.0000   1.0000
     1.0000   1.0000   1.0000   1.0000   1.0000   1.0000   1.0000   1.0000
     1.0000   1.0000   1.0000   1.0000   1.0000   1.0000   1.0000   1.0000
     1.0000   1.0000   1.0000   1.0000   1.0000   1.0000   1.0000   1.0000
     1.0000   1.0000   1.0000   1.0000   1.0000   1.0000   1.0000   1.0000
     1.0000   1.0000   1.0000   1.0000   1.0000   1.0000   1.0000   1.0000
     1.0000   1.0000   1.0000   1.0000   1.0000   1.0000

          k = 0.0000 0.1283 0.1877 (  6464 PWs)   bands (ev):

   -12.0454 -11.6965 -11.6204 -11.3763 -10.9664 -10.3885  -0.5752  -0.5482
    -0.3507  -0.2164  -0.1392  -0.0846   0.0357   0.0993   0.1820   0.2410
     0.2767   0.3815   0.4945   0.5151   0.5581   0.6522   0.6727   0.8362
     0.8601   0.9116   0.9354   1.0121   1.1564   1.2143   1.2672   1.3203
     1.3383   1.4294   1.5125   1.5573   1.9575   2.2116   2.5466   2.7713
     3.5187   3.7475   3.8922   4.0809   4.2675   4.4463   4.6546   4.7985
     4.8822   5.0709   5.2041   5.3864   5.5914   5.7692

     occupation numbers 
     1.0000   1.0000   1.0000   1.0000   1.0000   1.0000   1.0000   1.0000
     1.0000   1.0000   1.0000   1.0000   1.0000   1.0000   1.0000   1.0000
     1.0000   1.0000   1.0000   1.0000   1.0000   1.0000   1.0000   1.0000
     1.0000   1.0000   1.0000   1.0000   1.0000   1.0000   1.0000   1.0000
     1.0000   1.0000   1.0000   1.0000   1.0000   1.0000   1.0000   1.0000
     1.0000   1.0000   1.0000   1.0000   1.0000   1.0000   1.0000   1.0000
     1.0000   1.0000   1.0000   1.0000   1.0000   1.0000

          k = 0.0000 0.1283-0.2816 (  6462 PWs)   bands (ev):

   -12.0224 -11.7121 -11.6035 -11.3997 -10.9622 -10.3969  -0.5960  -0.5580
    -0.3628  -0.2162  -0.1491  -0.0958   0.0047   0.0967   0.1772   0.2197
     0.2779   0.3801   0.4988   0.5109   0.5489   0.6301   0.6683   0.8490
     0.8679   0.8836   0.9244   1.0402   1.1543   1.1991   1.2761   1.3191
     1.3353   1.4084   1.5059   1.5557   1.9425   2.3851   2.7544   3.0828
     3.3279   3.4541   4.0280   4.1821   4.2961   4.4347   4.5540   4.7395
     4.8132   5.0588   5.1889   5.3432   5.6582   5.6788

     occupation numbers 
     1.0000   1.0000   1.0000   1.0000   1.0000   1.0000   1.0000   1.0000
     1.0000   1.0000   1.0000   1.0000   1.0000   1.0000   1.0000   1.0000
     1.0000   1.0000   1.0000   1.0000   1.0000   1.0000   1.0000   1.0000
     1.0000   1.0000   1.0000   1.0000   1.0000   1.0000   1.0000   1.0000
     1.0000   1.0000   1.0000   1.0000   1.0000   1.0000   1.0000   1.0000
     1.0000   1.0000   1.0000   1.0000   1.0000   1.0000   1.0000   1.0000
     1.0000   1.0000   1.0000   1.0000   1.0000   1.0000

          k = 0.0000-0.1925 0.0000 (  6502 PWs)   bands (ev):

   -12.0975 -11.7066 -11.6191 -11.3202 -10.9765 -10.3636  -0.5412  -0.4865
    -0.3084  -0.2310  -0.0948  -0.0569   0.0811   0.1647   0.2181   0.2716
     0.3418   0.3825   0.4909   0.5135   0.5870   0.6549   0.7183   0.8360
     0.8878   0.9297   0.9545   1.0392   1.1860   1.2167   1.3157   1.3317
     1.3642   1.4202   1.4640   1.5611   1.6173   1.9044   2.1174   2.5631
     3.2245   3.9398   4.0372   4.3041   4.3953   4.5656   4.6133   4.7807
     4.8184   5.1802   5.3406   5.4019   5.7026   5.8670

     occupation numbers 
     1.0000   1.0000   1.0000   1.0000   1.0000   1.0000   1.0000   1.0000
     1.0000   1.0000   1.0000   1.0000   1.0000   1.0000   1.0000   1.0000
     1.0000   1.0000   1.0000   1.0000   1.0000   1.0000   1.0000   1.0000
     1.0000   1.0000   1.0000   1.0000   1.0000   1.0000   1.0000   1.0000
     1.0000   1.0000   1.0000   1.0000   1.0000   1.0000   1.0000   1.0000
     1.0000   1.0000   1.0000   1.0000   1.0000   1.0000   1.0000   1.0000
     1.0000   1.0000   1.0000   1.0000   1.0000   1.0000

          k = 0.0000-0.1925 0.0939 (  6470 PWs)   bands (ev):

   -12.0807 -11.6937 -11.6313 -11.3370 -10.9725 -10.3715  -0.5498  -0.5096
    -0.3243  -0.2216  -0.1105  -0.0649   0.0809   0.1386   0.2005   0.2625
     0.2941   0.3797   0.4983   0.5105   0.5786   0.6533   0.6961   0.8375
     0.8686   0.9217   0.9676   1.0337   1.1713   1.2379   1.2890   1.3300
     1.3464   1.4498   1.4793   1.5541   1.7961   1.8934   2.3022   2.5288
     3.3881   3.9193   4.0530   4.2252   4.3319   4.4653   4.6829   4.7861
     4.8323   5.1378   5.3345   5.3673   5.5839   5.8366

     occupation numbers 
     1.0000   1.0000   1.0000   1.0000   1.0000   1.0000   1.0000   1.0000
     1.0000   1.0000   1.0000   1.0000   1.0000   1.0000   1.0000   1.0000
     1.0000   1.0000   1.0000   1.0000   1.0000   1.0000   1.0000   1.0000
     1.0000   1.0000   1.0000   1.0000   1.0000   1.0000   1.0000   1.0000
     1.0000   1.0000   1.0000   1.0000   1.0000   1.0000   1.0000   1.0000
     1.0000   1.0000   1.0000   1.0000   1.0000   1.0000   1.0000   1.0000
     1.0000   1.0000   1.0000   1.0000   1.0000   1.0000

          k = 0.0000-0.1925 0.1877 (  6466 PWs)   bands (ev):

   -12.0425 -11.6916 -11.6302 -11.3776 -10.9638 -10.3877  -0.5771  -0.5450
    -0.3496  -0.2147  -0.1378  -0.0846   0.0410   0.0983   0.1845   0.2302
     0.2768   0.3803   0.4940   0.5116   0.5569   0.6433   0.6611   0.8428
     0.8694   0.9060   0.9432   1.0554   1.1616   1.2298   1.2629   1.3233
     1.3391   1.4699   1.4930   1.5383   1.8487   2.2116   2.4876   2.7983
     3.5440   3.7919   3.9222   4.1414   4.3603   4.4438   4.6371   4.7822
     4.9112   5.0193   5.1725   5.2961   5.5613   5.7573

     occupation numbers 
     1.0000   1.0000   1.0000   1.0000   1.0000   1.0000   1.0000   1.0000
     1.0000   1.0000   1.0000   1.0000   1.0000   1.0000   1.0000   1.0000
     1.0000   1.0000   1.0000   1.0000   1.0000   1.0000   1.0000   1.0000
     1.0000   1.0000   1.0000   1.0000   1.0000   1.0000   1.0000   1.0000
     1.0000   1.0000   1.0000   1.0000   1.0000   1.0000   1.0000   1.0000
     1.0000   1.0000   1.0000   1.0000   1.0000   1.0000   1.0000   1.0000
     1.0000   1.0000   1.0000   1.0000   1.0000   1.0000

          k = 0.0000-0.1925-0.2816 (  6476 PWs)   bands (ev):

   -12.0199 -11.7085 -11.6095 -11.4037 -10.9591 -10.3960  -0.5956  -0.5574
    -0.3618  -0.2161  -0.1497  -0.0924   0.0052   0.0941   0.1832   0.2140
     0.2773   0.3801   0.4945   0.5082   0.5442   0.6242   0.6636   0.8511
     0.8729   0.8883   0.9345   1.0714   1.1585   1.2007   1.2727   1.3229
     1.3360   1.4778   1.4923   1.5319   1.8285   2.3202   2.7638   3.1264
     3.3351   3.4751   4.0808   4.2262   4.2668   4.5140   4.5726   4.7860
     4.8562   5.0248   5.0861   5.2346   5.6362   5.6648

     occupation numbers 
     1.0000   1.0000   1.0000   1.0000   1.0000   1.0000   1.0000   1.0000
     1.0000   1.0000   1.0000   1.0000   1.0000   1.0000   1.0000   1.0000
     1.0000   1.0000   1.0000   1.0000   1.0000   1.0000   1.0000   1.0000
     1.0000   1.0000   1.0000   1.0000   1.0000   1.0000   1.0000   1.0000
     1.0000   1.0000   1.0000   1.0000   1.0000   1.0000   1.0000   1.0000
     1.0000   1.0000   1.0000   1.0000   1.0000   1.0000   1.0000   1.0000
     1.0000   1.0000   1.0000   1.0000   1.0000   1.0000

          k = 0.1667 0.0962 0.0000 (  6487 PWs)   bands (ev):

   -12.0291 -11.6332 -11.5699 -11.2925 -10.9369 -10.3250  -0.5306  -0.4193
    -0.2489  -0.1394  -0.0827  -0.0185   0.0705   0.1624   0.2337   0.3133
     0.3679   0.4237   0.5010   0.5623   0.6390   0.6870   0.7564   0.8111
     0.8487   0.9367   1.0023   1.0971   1.1190   1.2341   1.2663   1.3293
     1.3715   1.3938   1.5400   1.6171   1.7032   2.1540   2.2666   2.6839
     3.1853   3.3071   3.5118   3.6730   4.0604   4.2750   4.4600   4.5999
     4.7140   4.9683   5.1625   5.3135   5.5807   5.6020

     occupation numbers 
     1.0000   1.0000   1.0000   1.0000   1.0000   1.0000   1.0000   1.0000
     1.0000   1.0000   1.0000   1.0000   1.0000   1.0000   1.0000   1.0000
     1.0000   1.0000   1.0000   1.0000   1.0000   1.0000   1.0000   1.0000
     1.0000   1.0000   1.0000   1.0000   1.0000   1.0000   1.0000   1.0000
     1.0000   1.0000   1.0000   1.0000   1.0000   1.0000   1.0000   1.0000
     1.0000   1.0000   1.0000   1.0000   1.0000   1.0000   1.0000   1.0000
     1.0000   1.0000   1.0000   1.0000   1.0000   1.0000

          k = 0.1667 0.0962 0.0939 (  6497 PWs)   bands (ev):

   -12.0133 -11.6292 -11.5716 -11.3098 -10.9347 -10.3303  -0.5302  -0.4473
    -0.2825  -0.1372  -0.0972  -0.0341   0.0723   0.1529   0.2489   0.2865
     0.3203   0.4276   0.5176   0.5641   0.6128   0.6597   0.7676   0.8049
     0.8374   0.9181   0.9747   1.0589   1.1643   1.2183   1.2776   1.3260
     1.3745   1.4225   1.5566   1.5966   1.8460   2.1923   2.4144   2.6636
     3.2328   3.3951   3.4796   3.7185   4.1053   4.2108   4.3961   4.6057
     4.6472   4.9433   5.1147   5.2949   5.5145   5.5969

     occupation numbers 
     1.0000   1.0000   1.0000   1.0000   1.0000   1.0000   1.0000   1.0000
     1.0000   1.0000   1.0000   1.0000   1.0000   1.0000   1.0000   1.0000
     1.0000   1.0000   1.0000   1.0000   1.0000   1.0000   1.0000   1.0000
     1.0000   1.0000   1.0000   1.0000   1.0000   1.0000   1.0000   1.0000
     1.0000   1.0000   1.0000   1.0000   1.0000   1.0000   1.0000   1.0000
     1.0000   1.0000   1.0000   1.0000   1.0000   1.0000   1.0000   1.0000
     1.0000   1.0000   1.0000   1.0000   1.0000   1.0000

          k = 0.1667 0.0962 0.1877 (  6497 PWs)   bands (ev):

   -11.9790 -11.6437 -11.5576 -11.3403 -10.9287 -10.3431  -0.5443  -0.4824
    -0.3195  -0.1625  -0.0982  -0.0445   0.0466   0.0943   0.2089   0.2430
     0.3090   0.4292   0.5196   0.5721   0.5814   0.6499   0.7562   0.7976
     0.8261   0.9262   0.9617   1.0282   1.1718   1.2178   1.2672   1.3242
     1.3526   1.4193   1.5301   1.5867   2.1476   2.2599   2.6194   2.8364
     3.2571   3.4734   3.5861   3.7487   4.1135   4.1744   4.3065   4.5264
     4.6495   4.9213   5.0545   5.2246   5.3557   5.5387

     occupation numbers 
     1.0000   1.0000   1.0000   1.0000   1.0000   1.0000   1.0000   1.0000
     1.0000   1.0000   1.0000   1.0000   1.0000   1.0000   1.0000   1.0000
     1.0000   1.0000   1.0000   1.0000   1.0000   1.0000   1.0000   1.0000
     1.0000   1.0000   1.0000   1.0000   1.0000   1.0000   1.0000   1.0000
     1.0000   1.0000   1.0000   1.0000   1.0000   1.0000   1.0000   1.0000
     1.0000   1.0000   1.0000   1.0000   1.0000   1.0000   1.0000   1.0000
     1.0000   1.0000   1.0000   1.0000   1.0000   1.0000

          k = 0.1667 0.0962-0.2816 (  6492 PWs)   bands (ev):

   -11.9599 -11.6586 -11.5472 -11.3526 -10.9250 -10.3508  -0.5480  -0.5051
    -0.3209  -0.1731  -0.1158  -0.0375   0.0095   0.0824   0.1750   0.2284
     0.3026   0.4186   0.5300   0.5676   0.5818   0.6462   0.7501   0.8048
     0.8178   0.9348   0.9728   1.0157   1.1584   1.2191   1.2617   1.3226
     1.3458   1.4030   1.5071   1.5889   2.1294   2.5000   2.6729   3.0461
     3.1368   3.3545   3.7315   3.9320   4.0915   4.1926   4.3190   4.4325
     4.7154   4.7389   5.0860   5.1754   5.2873   5.4814

     occupation numbers 
     1.0000   1.0000   1.0000   1.0000   1.0000   1.0000   1.0000   1.0000
     1.0000   1.0000   1.0000   1.0000   1.0000   1.0000   1.0000   1.0000
     1.0000   1.0000   1.0000   1.0000   1.0000   1.0000   1.0000   1.0000
     1.0000   1.0000   1.0000   1.0000   1.0000   1.0000   1.0000   1.0000
     1.0000   1.0000   1.0000   1.0000   1.0000   1.0000   1.0000   1.0000
     1.0000   1.0000   1.0000   1.0000   1.0000   1.0000   1.0000   1.0000
     1.0000   1.0000   1.0000   1.0000   1.0000   1.0000

          k = 0.1667 0.1604 0.0000 (  6481 PWs)   bands (ev):

   -12.0238 -11.6380 -11.5754 -11.2909 -10.9339 -10.3245  -0.5303  -0.4201
    -0.2493  -0.1359  -0.0851  -0.0235   0.0779   0.1597   0.2329   0.3230
     0.3546   0.4146   0.5082   0.5677   0.6200   0.7017   0.7774   0.8049
     0.8681   0.9658   1.0052   1.0898   1.1504   1.2477   1.2798   1.3295
     1.3846   1.4056   1.5202   1.5741   1.6883   2.0199   2.1897   2.6373
     3.1251   3.4898   3.6597   3.9110   4.0033   4.1446   4.3676   4.5458
     4.7624   4.8906   5.1943   5.3965   5.4992   5.5916

     occupation numbers 
     1.0000   1.0000   1.0000   1.0000   1.0000   1.0000   1.0000   1.0000
     1.0000   1.0000   1.0000   1.0000   1.0000   1.0000   1.0000   1.0000
     1.0000   1.0000   1.0000   1.0000   1.0000   1.0000   1.0000   1.0000
     1.0000   1.0000   1.0000   1.0000   1.0000   1.0000   1.0000   1.0000
     1.0000   1.0000   1.0000   1.0000   1.0000   1.0000   1.0000   1.0000
     1.0000   1.0000   1.0000   1.0000   1.0000   1.0000   1.0000   1.0000
     1.0000   1.0000   1.0000   1.0000   1.0000   1.0000

          k = 0.1667 0.1604 0.0939 (  6490 PWs)   bands (ev):

   -12.0085 -11.6283 -11.5817 -11.3091 -10.9315 -10.3296  -0.5290  -0.4489
    -0.2819  -0.1340  -0.1023  -0.0374   0.0778   0.1499   0.2498   0.2874
     0.3274   0.4053   0.5276   0.5646   0.6015   0.6800   0.7621   0.7988
     0.8613   0.9533   0.9865   1.0566   1.1748   1.2362   1.2779   1.3342
     1.3824   1.4211   1.5443   1.5870   1.8562   2.0085   2.3872   2.5943
     3.1775   3.5463   3.6272   3.8757   4.0589   4.1533   4.3213   4.5477
     4.7291   4.8734   5.1331   5.3665   5.4928   5.5284

     occupation numbers 
     1.0000   1.0000   1.0000   1.0000   1.0000   1.0000   1.0000   1.0000
     1.0000   1.0000   1.0000   1.0000   1.0000   1.0000   1.0000   1.0000
     1.0000   1.0000   1.0000   1.0000   1.0000   1.0000   1.0000   1.0000
     1.0000   1.0000   1.0000   1.0000   1.0000   1.0000   1.0000   1.0000
     1.0000   1.0000   1.0000   1.0000   1.0000   1.0000   1.0000   1.0000
     1.0000   1.0000   1.0000   1.0000   1.0000   1.0000   1.0000   1.0000
     1.0000   1.0000   1.0000   1.0000   1.0000   1.0000

          k = 0.1667 0.1604 0.1877 (  6480 PWs)   bands (ev):

   -11.9753 -11.6384 -11.5688 -11.3427 -10.9251 -10.3422  -0.5441  -0.4828
    -0.3188  -0.1623  -0.1025  -0.0437   0.0408   0.1012   0.2017   0.2516
     0.3173   0.4063   0.5251   0.5626   0.5861   0.6600   0.7406   0.7960
     0.8558   0.9611   0.9791   1.0356   1.1733   1.2309   1.2570   1.3306
     1.3690   1.4230   1.5267   1.5956   1.9614   2.2652   2.5441   2.8479
     3.2873   3.5043   3.5933   3.8773   4.0677   4.1932   4.3180   4.5586
     4.6407   4.9185   5.0924   5.2071   5.3708   5.4357

     occupation numbers 
     1.0000   1.0000   1.0000   1.0000   1.0000   1.0000   1.0000   1.0000
     1.0000   1.0000   1.0000   1.0000   1.0000   1.0000   1.0000   1.0000
     1.0000   1.0000   1.0000   1.0000   1.0000   1.0000   1.0000   1.0000
     1.0000   1.0000   1.0000   1.0000   1.0000   1.0000   1.0000   1.0000
     1.0000   1.0000   1.0000   1.0000   1.0000   1.0000   1.0000   1.0000
     1.0000   1.0000   1.0000   1.0000   1.0000   1.0000   1.0000   1.0000
     1.0000   1.0000   1.0000   1.0000   1.0000   1.0000

          k = 0.1667 0.1604-0.2816 (  6488 PWs)   bands (ev):

   -11.9567 -11.6536 -11.5554 -11.3575 -10.9211 -10.3497  -0.5513  -0.5015
    -0.3211  -0.1727  -0.1208  -0.0308   0.0039   0.0780   0.1710   0.2397
     0.3127   0.3968   0.5294   0.5660   0.5817   0.6551   0.7327   0.8035
     0.8483   0.9569   0.9937   1.0382   1.1587   1.2163   1.2623   1.3190
     1.3821   1.4136   1.4963   1.6022   1.9324   2.4132   2.7166   3.0551
     3.1926   3.3922   3.6692   3.9859   4.1029   4.1970   4.3467   4.4834
     4.6977   4.7929   5.0912   5.1882   5.2650   5.3763

     occupation numbers 
     1.0000   1.0000   1.0000   1.0000   1.0000   1.0000   1.0000   1.0000
     1.0000   1.0000   1.0000   1.0000   1.0000   1.0000   1.0000   1.0000
     1.0000   1.0000   1.0000   1.0000   1.0000   1.0000   1.0000   1.0000
     1.0000   1.0000   1.0000   1.0000   1.0000   1.0000   1.0000   1.0000
     1.0000   1.0000   1.0000   1.0000   1.0000   1.0000   1.0000   1.0000
     1.0000   1.0000   1.0000   1.0000   1.0000   1.0000   1.0000   1.0000
     1.0000   1.0000   1.0000   1.0000   1.0000   1.0000

          k = 0.1667-0.0321 0.0000 (  6500 PWs)   bands (ev):

   -12.0337 -11.6302 -11.5635 -11.2945 -10.9394 -10.3256  -0.5285  -0.4221
    -0.2509  -0.1548  -0.0770  -0.0215   0.0815   0.2014   0.2332   0.3036
     0.3805   0.4030   0.4967   0.5620   0.5985   0.6747   0.7533   0.8108
     0.8450   0.9147   1.0182   1.0987   1.1205   1.2196   1.2653   1.3093
     1.3866   1.4054   1.5438   1.5992   1.7269   2.2188   2.4655   2.6817
     3.1087   3.2471   3.3541   3.7011   3.9543   4.3436   4.4291   4.6988
     4.7704   4.9987   5.1016   5.2941   5.5714   5.6686

     occupation numbers 
     1.0000   1.0000   1.0000   1.0000   1.0000   1.0000   1.0000   1.0000
     1.0000   1.0000   1.0000   1.0000   1.0000   1.0000   1.0000   1.0000
     1.0000   1.0000   1.0000   1.0000   1.0000   1.0000   1.0000   1.0000
     1.0000   1.0000   1.0000   1.0000   1.0000   1.0000   1.0000   1.0000
     1.0000   1.0000   1.0000   1.0000   1.0000   1.0000   1.0000   1.0000
     1.0000   1.0000   1.0000   1.0000   1.0000   1.0000   1.0000   1.0000
     1.0000   1.0000   1.0000   1.0000   1.0000   1.0000

          k = 0.1667-0.0321 0.0939 (  6494 PWs)   bands (ev):

   -12.0176 -11.6278 -11.5654 -11.3092 -10.9381 -10.3308  -0.5314  -0.4460
    -0.2888  -0.1374  -0.0998  -0.0365   0.0854   0.1556   0.2601   0.3018
     0.3200   0.4002   0.5133   0.5599   0.5985   0.6481   0.7473   0.8077
     0.8505   0.9195   0.9882   1.0626   1.1650   1.2082   1.2707   1.3047
     1.3749   1.4293   1.5393   1.5918   1.8544   2.3034   2.5132   2.7525
     3.1044   3.3218   3.4214   3.6993   3.9733   4.2812   4.3859   4.6242
     4.7615   4.9069   5.1150   5.3049   5.5184   5.6384

     occupation numbers 
     1.0000   1.0000   1.0000   1.0000   1.0000   1.0000   1.0000   1.0000
     1.0000   1.0000   1.0000   1.0000   1.0000   1.0000   1.0000   1.0000
     1.0000   1.0000   1.0000   1.0000   1.0000   1.0000   1.0000   1.0000
     1.0000   1.0000   1.0000   1.0000   1.0000   1.0000   1.0000   1.0000
     1.0000   1.0000   1.0000   1.0000   1.0000   1.0000   1.0000   1.0000
     1.0000   1.0000   1.0000   1.0000   1.0000   1.0000   1.0000   1.0000
     1.0000   1.0000   1.0000   1.0000   1.0000   1.0000

          k = 0.1667-0.0321 0.1877 (  6494 PWs)   bands (ev):

   -11.9825 -11.6459 -11.5514 -11.3362 -10.9328 -10.3439  -0.5493  -0.4763
    -0.3278  -0.1530  -0.1052  -0.0521   0.0530   0.0946   0.2159   0.2605
     0.3202   0.4041   0.5156   0.5507   0.5958   0.6131   0.7582   0.8185
     0.8336   0.9299   0.9758   1.0243   1.1807   1.1940   1.2705   1.3003
     1.3561   1.4114   1.5207   1.5654   2.1366   2.4775   2.6722   2.7599
     3.1620   3.4386   3.6869   3.8045   3.9329   4.2122   4.2877   4.4500
     4.7181   4.8917   4.9814   5.2831   5.4076   5.5845

     occupation numbers 
     1.0000   1.0000   1.0000   1.0000   1.0000   1.0000   1.0000   1.0000
     1.0000   1.0000   1.0000   1.0000   1.0000   1.0000   1.0000   1.0000
     1.0000   1.0000   1.0000   1.0000   1.0000   1.0000   1.0000   1.0000
     1.0000   1.0000   1.0000   1.0000   1.0000   1.0000   1.0000   1.0000
     1.0000   1.0000   1.0000   1.0000   1.0000   1.0000   1.0000   1.0000
     1.0000   1.0000   1.0000   1.0000   1.0000   1.0000   1.0000   1.0000
     1.0000   1.0000   1.0000   1.0000   1.0000   1.0000

          k = 0.1667-0.0321-0.2816 (  6500 PWs)   bands (ev):

   -11.9627 -11.6627 -11.5404 -11.3480 -10.9287 -10.3517  -0.5530  -0.4989
    -0.3296  -0.1649  -0.1229  -0.0443   0.0082   0.1052   0.1680   0.2392
     0.3161   0.4044   0.5190   0.5554   0.5851   0.6140   0.7634   0.8093
     0.8418   0.9284   0.9851   0.9987   1.1711   1.2018   1.2508   1.3000
     1.3383   1.4081   1.5113   1.5575   2.2860   2.5688   2.6309   2.9203
     3.1904   3.3517   3.7782   3.9343   4.0834   4.2525   4.2821   4.4021
     4.5793   4.7357   4.9822   5.2030   5.3613   5.5712

     occupation numbers 
     1.0000   1.0000   1.0000   1.0000   1.0000   1.0000   1.0000   1.0000
     1.0000   1.0000   1.0000   1.0000   1.0000   1.0000   1.0000   1.0000
     1.0000   1.0000   1.0000   1.0000   1.0000   1.0000   1.0000   1.0000
     1.0000   1.0000   1.0000   1.0000   1.0000   1.0000   1.0000   1.0000
     1.0000   1.0000   1.0000   1.0000   1.0000   1.0000   1.0000   1.0000
     1.0000   1.0000   1.0000   1.0000   1.0000   1.0000   1.0000   1.0000
     1.0000   1.0000   1.0000   1.0000   1.0000   1.0000

          k = 0.3333 0.1925 0.0000 (  6525 PWs)   bands (ev):

   -11.8637 -11.5029 -11.4798 -11.2435 -10.8433 -10.2443  -0.5166  -0.3417
    -0.1975  -0.0540  -0.0180   0.0326   0.0993   0.2206   0.3485   0.4228
     0.4369   0.4782   0.6020   0.6257   0.6745   0.7443   0.8032   0.8634
     0.9152   1.0257   1.0801   1.1406   1.1892   1.2532   1.3072   1.3599
     1.3795   1.4803   1.5645   1.6298   1.8772   2.1043   2.2543   2.4212
     2.6263   2.8654   2.9569   3.4403   3.4990   3.9306   4.0120   4.1599
     4.2441   4.5656   4.8164   5.1763   5.2283   5.3683

     occupation numbers 
     1.0000   1.0000   1.0000   1.0000   1.0000   1.0000   1.0000   1.0000
     1.0000   1.0000   1.0000   1.0000   1.0000   1.0000   1.0000   1.0000
     1.0000   1.0000   1.0000   1.0000   1.0000   1.0000   1.0000   1.0000
     1.0000   1.0000   1.0000   1.0000   1.0000   1.0000   1.0000   1.0000
     1.0000   1.0000   1.0000   1.0000   1.0000   1.0000   1.0000   1.0000
     1.0000   1.0000   1.0000   1.0000   1.0000   1.0000   1.0000   1.0000
     1.0000   1.0000   1.0000   1.0000   1.0000   1.0000

          k = 0.3333 0.1925 0.0939 (  6493 PWs)   bands (ev):

   -11.8537 -11.5086 -11.4701 -11.2554 -10.8434 -10.2455  -0.5055  -0.3619
    -0.2322  -0.0807  -0.0365   0.0295   0.1022   0.2057   0.3337   0.3829
     0.4435   0.4929   0.6059   0.6406   0.6744   0.7266   0.7645   0.8603
     0.9022   1.0007   1.0442   1.1468   1.1991   1.2460   1.3198   1.3542
     1.3874   1.4755   1.5716   1.6366   1.9480   2.1279   2.3241   2.4638
     2.6175   2.9053   3.0087   3.3855   3.5417   3.9272   4.0447   4.1986
     4.3149   4.5861   4.7646   5.1319   5.2235   5.3871

     occupation numbers 
     1.0000   1.0000   1.0000   1.0000   1.0000   1.0000   1.0000   1.0000
     1.0000   1.0000   1.0000   1.0000   1.0000   1.0000   1.0000   1.0000
     1.0000   1.0000   1.0000   1.0000   1.0000   1.0000   1.0000   1.0000
     1.0000   1.0000   1.0000   1.0000   1.0000   1.0000   1.0000   1.0000
     1.0000   1.0000   1.0000   1.0000   1.0000   1.0000   1.0000   1.0000
     1.0000   1.0000   1.0000   1.0000   1.0000   1.0000   1.0000   1.0000
     1.0000   1.0000   1.0000   1.0000   1.0000   1.0000

          k = 0.3333 0.1925 0.1877 (  6490 PWs)   bands (ev):

   -11.8334 -11.5256 -11.4542 -11.2689 -10.8420 -10.2505  -0.4914  -0.3994
    -0.2681  -0.1519  -0.0690   0.0576   0.1000   0.1604   0.2941   0.3212
     0.4033   0.4860   0.5980   0.6302   0.6745   0.7148   0.7682   0.8640
     0.9161   0.9920   1.0316   1.1507   1.1901   1.2296   1.2967   1.3374
     1.3875   1.4434   1.5343   1.6652   2.0129   2.1228   2.4196   2.5614
     2.7596   2.9439   3.1335   3.3723   3.7137   3.8474   4.1463   4.3606
     4.4433   4.5205   4.7992   5.0325   5.1432   5.2999

     occupation numbers 
     1.0000   1.0000   1.0000   1.0000   1.0000   1.0000   1.0000   1.0000
     1.0000   1.0000   1.0000   1.0000   1.0000   1.0000   1.0000   1.0000
     1.0000   1.0000   1.0000   1.0000   1.0000   1.0000   1.0000   1.0000
     1.0000   1.0000   1.0000   1.0000   1.0000   1.0000   1.0000   1.0000
     1.0000   1.0000   1.0000   1.0000   1.0000   1.0000   1.0000   1.0000
     1.0000   1.0000   1.0000   1.0000   1.0000   1.0000   1.0000   1.0000
     1.0000   1.0000   1.0000   1.0000   1.0000   1.0000

          k = 0.3333 0.1925-0.2816 (  6498 PWs)   bands (ev):

   -11.8230 -11.5355 -11.4509 -11.2691 -10.8406 -10.2542  -0.4804  -0.4230
    -0.2781  -0.1912  -0.0816   0.0746   0.1212   0.1281   0.2351   0.2994
     0.3896   0.4701   0.5923   0.6326   0.6829   0.7117   0.7855   0.8430
     0.9280   1.0013   1.0607   1.1298   1.1842   1.2323   1.2684   1.3169
     1.3705   1.4448   1.5032   1.6787   1.9701   2.2126   2.4141   2.5712
     2.8928   2.9658   3.1438   3.4270   3.8324   3.8826   4.1841   4.3658
     4.5611   4.5753   4.8506   4.9527   5.0225   5.1810

     occupation numbers 
     1.0000   1.0000   1.0000   1.0000   1.0000   1.0000   1.0000   1.0000
     1.0000   1.0000   1.0000   1.0000   1.0000   1.0000   1.0000   1.0000
     1.0000   1.0000   1.0000   1.0000   1.0000   1.0000   1.0000   1.0000
     1.0000   1.0000   1.0000   1.0000   1.0000   1.0000   1.0000   1.0000
     1.0000   1.0000   1.0000   1.0000   1.0000   1.0000   1.0000   1.0000
     1.0000   1.0000   1.0000   1.0000   1.0000   1.0000   1.0000   1.0000
     1.0000   1.0000   1.0000   1.0000   1.0000   1.0000

          k = 0.3333 0.2566 0.0000 (  6518 PWs)   bands (ev):

   -11.8644 -11.5056 -11.4754 -11.2442 -10.8435 -10.2443  -0.5158  -0.3386
    -0.1974  -0.0508  -0.0220   0.0405   0.1159   0.2147   0.3491   0.4030
     0.4294   0.4846   0.6042   0.6247   0.6634   0.7420   0.7677   0.8751
     0.9225   1.0351   1.1016   1.1400   1.1831   1.2339   1.2982   1.3435
     1.3809   1.4744   1.5779   1.6145   1.8764   2.0803   2.3194   2.4247
     2.6388   2.8944   3.0311   3.3554   3.5984   3.8336   4.0650   4.1271
     4.2363   4.5927   4.7970   5.1031   5.2592   5.3351

     occupation numbers 
     1.0000   1.0000   1.0000   1.0000   1.0000   1.0000   1.0000   1.0000
     1.0000   1.0000   1.0000   1.0000   1.0000   1.0000   1.0000   1.0000
     1.0000   1.0000   1.0000   1.0000   1.0000   1.0000   1.0000   1.0000
     1.0000   1.0000   1.0000   1.0000   1.0000   1.0000   1.0000   1.0000
     1.0000   1.0000   1.0000   1.0000   1.0000   1.0000   1.0000   1.0000
     1.0000   1.0000   1.0000   1.0000   1.0000   1.0000   1.0000   1.0000
     1.0000   1.0000   1.0000   1.0000   1.0000   1.0000

          k = 0.3333 0.2566 0.0939 (  6503 PWs)   bands (ev):

   -11.8544 -11.5099 -11.4675 -11.2555 -10.8437 -10.2456  -0.5048  -0.3581
    -0.2342  -0.0813  -0.0356   0.0390   0.1121   0.2012   0.3302   0.3818
     0.4303   0.4874   0.6138   0.6219   0.6739   0.7123   0.7548   0.8804
     0.8968   1.0191   1.0475   1.1581   1.2003   1.2408   1.3100   1.3458
     1.3812   1.4747   1.5555   1.6387   1.9233   2.1369   2.3468   2.4450
     2.6438   2.9119   3.0903   3.3874   3.5909   3.8951   4.0647   4.1788
     4.2590   4.6321   4.7277   5.0845   5.2216   5.3648

     occupation numbers 
     1.0000   1.0000   1.0000   1.0000   1.0000   1.0000   1.0000   1.0000
     1.0000   1.0000   1.0000   1.0000   1.0000   1.0000   1.0000   1.0000
     1.0000   1.0000   1.0000   1.0000   1.0000   1.0000   1.0000   1.0000
     1.0000   1.0000   1.0000   1.0000   1.0000   1.0000   1.0000   1.0000
     1.0000   1.0000   1.0000   1.0000   1.0000   1.0000   1.0000   1.0000
     1.0000   1.0000   1.0000   1.0000   1.0000   1.0000   1.0000   1.0000
     1.0000   1.0000   1.0000   1.0000   1.0000   1.0000

          k = 0.3333 0.2566 0.1877 (  6501 PWs)   bands (ev):

   -11.8340 -11.5264 -11.4529 -11.2684 -10.8424 -10.2506  -0.4915  -0.3958
    -0.2725  -0.1434  -0.0689   0.0543   0.1089   0.1605   0.2873   0.3171
     0.4216   0.4571   0.5969   0.6136   0.6660   0.7181   0.7749   0.8776
     0.9276   0.9801   1.0395   1.1499   1.2001   1.2351   1.2977   1.3325
     1.3877   1.4275   1.5324   1.6535   1.9721   2.1784   2.3297   2.5823
     2.7529   3.0070   3.1848   3.4244   3.7418   3.9028   4.1629   4.2772
     4.3929   4.5113   4.8142   4.9732   5.1280   5.2844

     occupation numbers 
     1.0000   1.0000   1.0000   1.0000   1.0000   1.0000   1.0000   1.0000
     1.0000   1.0000   1.0000   1.0000   1.0000   1.0000   1.0000   1.0000
     1.0000   1.0000   1.0000   1.0000   1.0000   1.0000   1.0000   1.0000
     1.0000   1.0000   1.0000   1.0000   1.0000   1.0000   1.0000   1.0000
     1.0000   1.0000   1.0000   1.0000   1.0000   1.0000   1.0000   1.0000
     1.0000   1.0000   1.0000   1.0000   1.0000   1.0000   1.0000   1.0000
     1.0000   1.0000   1.0000   1.0000   1.0000   1.0000

          k = 0.3333 0.2566-0.2816 (  6506 PWs)   bands (ev):

   -11.8235 -11.5365 -11.4495 -11.2686 -10.8409 -10.2543  -0.4811  -0.4207
    -0.2835  -0.1740  -0.0864   0.0777   0.1026   0.1416   0.2362   0.2929
     0.4157   0.4394   0.5919   0.6152   0.6723   0.7173   0.7893   0.8669
     0.9331   0.9815   1.0737   1.1295   1.1855   1.2410   1.2648   1.3101
     1.3537   1.4474   1.5120   1.6636   1.9691   2.2176   2.3208   2.5827
     2.9181   3.0475   3.1656   3.4929   3.8647   3.9043   4.2040   4.3463
     4.5133   4.5490   4.7952   4.9348   4.9941   5.1715

     occupation numbers 
     1.0000   1.0000   1.0000   1.0000   1.0000   1.0000   1.0000   1.0000
     1.0000   1.0000   1.0000   1.0000   1.0000   1.0000   1.0000   1.0000
     1.0000   1.0000   1.0000   1.0000   1.0000   1.0000   1.0000   1.0000
     1.0000   1.0000   1.0000   1.0000   1.0000   1.0000   1.0000   1.0000
     1.0000   1.0000   1.0000   1.0000   1.0000   1.0000   1.0000   1.0000
     1.0000   1.0000   1.0000   1.0000   1.0000   1.0000   1.0000   1.0000
     1.0000   1.0000   1.0000   1.0000   1.0000   1.0000

          k = 0.3333 0.3208 0.0000 (  6510 PWs)   bands (ev):

   -11.8665 -11.5091 -11.4674 -11.2456 -10.8443 -10.2445  -0.5114  -0.3349
    -0.1938  -0.0433  -0.0132   0.0446   0.1257   0.2053   0.3501   0.3812
     0.4284   0.4891   0.5778   0.6191   0.6641   0.7341   0.7519   0.8532
     0.9433   1.0068   1.0828   1.1451   1.1744   1.2303   1.3214   1.3532
     1.3909   1.4434   1.5690   1.6236   1.8547   2.0885   2.3384   2.4800
     2.6991   3.0343   3.1096   3.3291   3.5868   3.6844   3.9282   4.1980
     4.3842   4.6025   4.7120   4.9541   5.2720   5.3324

     occupation numbers 
     1.0000   1.0000   1.0000   1.0000   1.0000   1.0000   1.0000   1.0000
     1.0000   1.0000   1.0000   1.0000   1.0000   1.0000   1.0000   1.0000
     1.0000   1.0000   1.0000   1.0000   1.0000   1.0000   1.0000   1.0000
     1.0000   1.0000   1.0000   1.0000   1.0000   1.0000   1.0000   1.0000
     1.0000   1.0000   1.0000   1.0000   1.0000   1.0000   1.0000   1.0000
     1.0000   1.0000   1.0000   1.0000   1.0000   1.0000   1.0000   1.0000
     1.0000   1.0000   1.0000   1.0000   1.0000   1.0000

          k = 0.3333 0.3208 0.0939 (  6511 PWs)   bands (ev):

   -11.8562 -11.5133 -11.4605 -11.2562 -10.8447 -10.2458  -0.5017  -0.3549
    -0.2325  -0.0701  -0.0287   0.0398   0.1150   0.2012   0.3299   0.3809
     0.4126   0.4882   0.5779   0.6079   0.6781   0.7063   0.7634   0.8553
     0.9087   1.0031   1.0520   1.1518   1.2034   1.2480   1.3178   1.3540
     1.3860   1.4540   1.5335   1.6374   1.8812   2.1649   2.3679   2.4596
     2.6651   3.0371   3.2149   3.4152   3.6114   3.7550   3.9785   4.1900
     4.3428   4.6145   4.6839   4.9401   5.2263   5.3643

     occupation numbers 
     1.0000   1.0000   1.0000   1.0000   1.0000   1.0000   1.0000   1.0000
     1.0000   1.0000   1.0000   1.0000   1.0000   1.0000   1.0000   1.0000
     1.0000   1.0000   1.0000   1.0000   1.0000   1.0000   1.0000   1.0000
     1.0000   1.0000   1.0000   1.0000   1.0000   1.0000   1.0000   1.0000
     1.0000   1.0000   1.0000   1.0000   1.0000   1.0000   1.0000   1.0000
     1.0000   1.0000   1.0000   1.0000   1.0000   1.0000   1.0000   1.0000
     1.0000   1.0000   1.0000   1.0000   1.0000   1.0000

          k = 0.3333 0.3208 0.1877 (  6514 PWs)   bands (ev):

   -11.8354 -11.5290 -11.4483 -11.2676 -10.8435 -10.2508  -0.4902  -0.3927
    -0.2732  -0.1287  -0.0629   0.0389   0.1100   0.1711   0.2879   0.3238
     0.4082   0.4550   0.5635   0.5963   0.6669   0.7256   0.7813   0.8778
     0.9105   0.9671   1.0475   1.1474   1.2062   1.2561   1.3040   1.3469
     1.3840   1.4067   1.5230   1.6164   1.9596   2.1869   2.3436   2.5546
     2.7236   3.1489   3.2906   3.5320   3.7947   3.9813   4.0407   4.2002
     4.3481   4.4654   4.7698   4.8772   5.1244   5.2820

     occupation numbers 
     1.0000   1.0000   1.0000   1.0000   1.0000   1.0000   1.0000   1.0000
     1.0000   1.0000   1.0000   1.0000   1.0000   1.0000   1.0000   1.0000
     1.0000   1.0000   1.0000   1.0000   1.0000   1.0000   1.0000   1.0000
     1.0000   1.0000   1.0000   1.0000   1.0000   1.0000   1.0000   1.0000
     1.0000   1.0000   1.0000   1.0000   1.0000   1.0000   1.0000   1.0000
     1.0000   1.0000   1.0000   1.0000   1.0000   1.0000   1.0000   1.0000
     1.0000   1.0000   1.0000   1.0000   1.0000   1.0000

          k = 0.3333 0.3208-0.2816 (  6506 PWs)   bands (ev):

   -11.8247 -11.5390 -11.4458 -11.2673 -10.8420 -10.2545  -0.4793  -0.4193
    -0.2844  -0.1588  -0.0817   0.0645   0.0911   0.1527   0.2503   0.2929
     0.4079   0.4453   0.5613   0.5944   0.6663   0.7231   0.7925   0.8714
     0.9269   0.9628   1.0796   1.1262   1.2002   1.2589   1.2639   1.3107
     1.3527   1.4491   1.5085   1.6057   2.0086   2.2188   2.2705   2.5409
     2.9270   3.1349   3.3170   3.6203   3.8991   3.9632   4.1636   4.2677
     4.4022   4.5181   4.7072   4.8935   4.9869   5.1618

     occupation numbers 
     1.0000   1.0000   1.0000   1.0000   1.0000   1.0000   1.0000   1.0000
     1.0000   1.0000   1.0000   1.0000   1.0000   1.0000   1.0000   1.0000
     1.0000   1.0000   1.0000   1.0000   1.0000   1.0000   1.0000   1.0000
     1.0000   1.0000   1.0000   1.0000   1.0000   1.0000   1.0000   1.0000
     1.0000   1.0000   1.0000   1.0000   1.0000   1.0000   1.0000   1.0000
     1.0000   1.0000   1.0000   1.0000   1.0000   1.0000   1.0000   1.0000
     1.0000   1.0000   1.0000   1.0000   1.0000   1.0000

          k = 0.3333-0.0000 0.0000 (  6499 PWs)   bands (ev):

   -11.8677 -11.5103 -11.4635 -11.2463 -10.8450 -10.2446  -0.5078  -0.3342
    -0.1903  -0.0366  -0.0023   0.0415   0.1094   0.2117   0.3520   0.3781
     0.4366   0.4774   0.5666   0.6051   0.6857   0.7141   0.7690   0.8204
     0.9422   0.9923   1.0707   1.1404   1.1780   1.2339   1.3402   1.3679
     1.4058   1.4189   1.5609   1.6368   1.8300   2.0975   2.3396   2.5270
     2.7603   3.0424   3.2179   3.3099   3.5121   3.6837   3.7754   4.2918
     4.4937   4.5853   4.6668   4.8240   5.2760   5.3535

     occupation numbers 
     1.0000   1.0000   1.0000   1.0000   1.0000   1.0000   1.0000   1.0000
     1.0000   1.0000   1.0000   1.0000   1.0000   1.0000   1.0000   1.0000
     1.0000   1.0000   1.0000   1.0000   1.0000   1.0000   1.0000   1.0000
     1.0000   1.0000   1.0000   1.0000   1.0000   1.0000   1.0000   1.0000
     1.0000   1.0000   1.0000   1.0000   1.0000   1.0000   1.0000   1.0000
     1.0000   1.0000   1.0000   1.0000   1.0000   1.0000   1.0000   1.0000
     1.0000   1.0000   1.0000   1.0000   1.0000   1.0000

          k = 0.3333-0.0000 0.0939 (  6520 PWs)   bands (ev):

   -11.8573 -11.5152 -11.4562 -11.2567 -10.8453 -10.2459  -0.4991  -0.3555
    -0.2290  -0.0574  -0.0210   0.0296   0.1039   0.2115   0.3383   0.3646
     0.4216   0.4806   0.5656   0.5986   0.6768   0.7082   0.7785   0.8237
     0.9208   0.9863   1.0333   1.1511   1.2030   1.2521   1.3328   1.3719
     1.3970   1.4264   1.5318   1.6315   1.8678   2.1684   2.3622   2.5068
     2.6933   3.0845   3.3440   3.4215   3.5904   3.6512   3.8583   4.2644
     4.4233   4.5623   4.6685   4.8409   5.2354   5.3756

     occupation numbers 
     1.0000   1.0000   1.0000   1.0000   1.0000   1.0000   1.0000   1.0000
     1.0000   1.0000   1.0000   1.0000   1.0000   1.0000   1.0000   1.0000
     1.0000   1.0000   1.0000   1.0000   1.0000   1.0000   1.0000   1.0000
     1.0000   1.0000   1.0000   1.0000   1.0000   1.0000   1.0000   1.0000
     1.0000   1.0000   1.0000   1.0000   1.0000   1.0000   1.0000   1.0000
     1.0000   1.0000   1.0000   1.0000   1.0000   1.0000   1.0000   1.0000
     1.0000   1.0000   1.0000   1.0000   1.0000   1.0000

          k = 0.3333-0.0000 0.1877 (  6512 PWs)   bands (ev):

   -11.8362 -11.5307 -11.4451 -11.2673 -10.8442 -10.2510  -0.4887  -0.3931
    -0.2703  -0.1211  -0.0567   0.0269   0.1034   0.1819   0.2923   0.3344
     0.3844   0.4701   0.5566   0.5851   0.6593   0.7288   0.7792   0.8636
     0.9058   0.9583   1.0401   1.1503   1.2114   1.2670   1.3086   1.3576
     1.3732   1.4077   1.5204   1.5916   1.9877   2.1397   2.4195   2.5342
     2.7114   3.1593   3.4559   3.6027   3.7868   3.8292   4.0536   4.1739
     4.3655   4.4393   4.6924   4.8638   5.1322   5.2903

     occupation numbers 
     1.0000   1.0000   1.0000   1.0000   1.0000   1.0000   1.0000   1.0000
     1.0000   1.0000   1.0000   1.0000   1.0000   1.0000   1.0000   1.0000
     1.0000   1.0000   1.0000   1.0000   1.0000   1.0000   1.0000   1.0000
     1.0000   1.0000   1.0000   1.0000   1.0000   1.0000   1.0000   1.0000
     1.0000   1.0000   1.0000   1.0000   1.0000   1.0000   1.0000   1.0000
     1.0000   1.0000   1.0000   1.0000   1.0000   1.0000   1.0000   1.0000
     1.0000   1.0000   1.0000   1.0000   1.0000   1.0000

          k = 0.3333-0.0000-0.2816 (  6516 PWs)   bands (ev):

   -11.8254 -11.5404 -11.4435 -11.2664 -10.8428 -10.2547  -0.4766  -0.4204
    -0.2814  -0.1605  -0.0719   0.0503   0.0947   0.1534   0.2609   0.2986
     0.3852   0.4726   0.5511   0.5792   0.6548   0.7237   0.7853   0.8680
     0.9198   0.9524   1.0771   1.1332   1.2096   1.2656   1.2680   1.3151
     1.3666   1.4411   1.5054   1.5681   2.0599   2.1529   2.3270   2.5282
     2.8937   3.1463   3.5246   3.6551   3.8256   4.0012   4.1163   4.2265
     4.3251   4.5019   4.7158   4.8625   4.9921   5.1630

     occupation numbers 
     1.0000   1.0000   1.0000   1.0000   1.0000   1.0000   1.0000   1.0000
     1.0000   1.0000   1.0000   1.0000   1.0000   1.0000   1.0000   1.0000
     1.0000   1.0000   1.0000   1.0000   1.0000   1.0000   1.0000   1.0000
     1.0000   1.0000   1.0000   1.0000   1.0000   1.0000   1.0000   1.0000
     1.0000   1.0000   1.0000   1.0000   1.0000   1.0000   1.0000   1.0000
     1.0000   1.0000   1.0000   1.0000   1.0000   1.0000   1.0000   1.0000
     1.0000   1.0000   1.0000   1.0000   1.0000   1.0000

          k =-0.5000-0.2887 0.0000 (  6526 PWs)   bands (ev):

   -11.7774 -11.4560 -11.3993 -11.2329 -10.7959 -10.2033  -0.4549  -0.2856
    -0.1992  -0.0317   0.0041   0.0389   0.1457   0.1766   0.3851   0.4540
     0.4966   0.5597   0.6018   0.6575   0.6982   0.7596   0.8303   0.8952
     0.9250   1.0259   1.1100   1.1220   1.2346   1.2909   1.3293   1.3915
     1.4097   1.4938   1.5305   1.6342   1.8899   1.9811   2.1473   2.3341
     2.6580   2.7398   3.0145   3.1349   3.3477   3.7093   3.9656   4.0853
     4.1982   4.2622   4.5975   4.9186   5.0120   5.1419

     occupation numbers 
     1.0000   1.0000   1.0000   1.0000   1.0000   1.0000   1.0000   1.0000
     1.0000   1.0000   1.0000   1.0000   1.0000   1.0000   1.0000   1.0000
     1.0000   1.0000   1.0000   1.0000   1.0000   1.0000   1.0000   1.0000
     1.0000   1.0000   1.0000   1.0000   1.0000   1.0000   1.0000   1.0000
     1.0000   1.0000   1.0000   1.0000   1.0000   1.0000   1.0000   1.0000
     1.0000   1.0000   1.0000   1.0000   1.0000   1.0000   1.0000   1.0000
     1.0000   1.0000   1.0000   1.0000   1.0000   1.0000

          k =-0.5000-0.2887 0.0939 (  6516 PWs)   bands (ev):

   -11.7717 -11.4597 -11.3993 -11.2313 -10.7966 -10.2038  -0.4516  -0.2947
    -0.2241  -0.0689   0.0029   0.0356   0.1263   0.1752   0.3544   0.4414
     0.4876   0.5371   0.6229   0.6408   0.6922   0.7681   0.8290   0.9118
     0.9547   1.0191   1.0953   1.1224   1.2315   1.2738   1.3342   1.3578
     1.4060   1.4841   1.5271   1.6245   1.8875   1.9715   2.1478   2.3035
     2.6207   2.8224   3.0372   3.2036   3.4577   3.7959   4.0080   4.1041
     4.2560   4.3359   4.6085   4.8994   4.9716   5.1430

     occupation numbers 
     1.0000   1.0000   1.0000   1.0000   1.0000   1.0000   1.0000   1.0000
     1.0000   1.0000   1.0000   1.0000   1.0000   1.0000   1.0000   1.0000
     1.0000   1.0000   1.0000   1.0000   1.0000   1.0000   1.0000   1.0000
     1.0000   1.0000   1.0000   1.0000   1.0000   1.0000   1.0000   1.0000
     1.0000   1.0000   1.0000   1.0000   1.0000   1.0000   1.0000   1.0000
     1.0000   1.0000   1.0000   1.0000   1.0000   1.0000   1.0000   1.0000
     1.0000   1.0000   1.0000   1.0000   1.0000   1.0000

          k =-0.5000-0.2887 0.1877 (  6496 PWs)   bands (ev):

   -11.7597 -11.4682 -11.3988 -11.2280 -10.7980 -10.2047  -0.4342  -0.3292
    -0.2612  -0.1479  -0.0515   0.0508   0.1135   0.1983   0.2841   0.4299
     0.4688   0.5054   0.6121   0.6508   0.6816   0.7738   0.8508   0.9194
     0.9565   1.0063   1.1034   1.1333   1.1996   1.2603   1.2869   1.3622
     1.3992   1.4744   1.5114   1.6046   1.8932   1.9842   2.1118   2.2383
     2.5999   2.8181   3.1530   3.4443   3.6791   3.9547   4.0551   4.2215
     4.3240   4.5101   4.5901   4.8066   4.8901   5.1507

     occupation numbers 
     1.0000   1.0000   1.0000   1.0000   1.0000   1.0000   1.0000   1.0000
     1.0000   1.0000   1.0000   1.0000   1.0000   1.0000   1.0000   1.0000
     1.0000   1.0000   1.0000   1.0000   1.0000   1.0000   1.0000   1.0000
     1.0000   1.0000   1.0000   1.0000   1.0000   1.0000   1.0000   1.0000
     1.0000   1.0000   1.0000   1.0000   1.0000   1.0000   1.0000   1.0000
     1.0000   1.0000   1.0000   1.0000   1.0000   1.0000   1.0000   1.0000
     1.0000   1.0000   1.0000   1.0000   1.0000   1.0000

          k =-0.5000-0.2887-0.2816 (  6524 PWs)   bands (ev):

   -11.7534 -11.4728 -11.3984 -11.2263 -10.7988 -10.2052  -0.3955  -0.3809
    -0.2798  -0.1767  -0.0916   0.0617   0.1185   0.2123   0.2486   0.4167
     0.4700   0.4882   0.6045   0.6545   0.6762   0.7720   0.8632   0.9260
     0.9430   1.0036   1.1264   1.1308   1.1618   1.2488   1.2831   1.3632
     1.4002   1.4742   1.5008   1.5958   1.9125   2.0018   2.0554   2.2155
     2.6220   2.7579   3.2563   3.5457   3.8313   4.0273   4.1015   4.2793
     4.3439   4.5123   4.6740   4.7289   4.8358   5.1370

     occupation numbers 
     1.0000   1.0000   1.0000   1.0000   1.0000   1.0000   1.0000   1.0000
     1.0000   1.0000   1.0000   1.0000   1.0000   1.0000   1.0000   1.0000
     1.0000   1.0000   1.0000   1.0000   1.0000   1.0000   1.0000   1.0000
     1.0000   1.0000   1.0000   1.0000   1.0000   1.0000   1.0000   1.0000
     1.0000   1.0000   1.0000   1.0000   1.0000   1.0000   1.0000   1.0000
     1.0000   1.0000   1.0000   1.0000   1.0000   1.0000   1.0000   1.0000
     1.0000   1.0000   1.0000   1.0000   1.0000   1.0000

          k =-0.5000-0.2245 0.0000 (  6530 PWs)   bands (ev):

   -11.7775 -11.4559 -11.3993 -11.2329 -10.7960 -10.2033  -0.4541  -0.2870
    -0.1990  -0.0311   0.0044   0.0437   0.1200   0.1961   0.3899   0.4518
     0.5022   0.5565   0.6080   0.6433   0.6969   0.7698   0.8183   0.8812
     0.9541   1.0285   1.0856   1.1305   1.2157   1.3097   1.3311   1.3956
     1.4041   1.4904   1.5325   1.6299   1.9098   1.9888   2.1406   2.3459
     2.6168   2.7915   2.9649   3.1690   3.3406   3.6948   3.9082   4.0471
     4.2678   4.3083   4.5923   4.8962   4.9976   5.1692

     occupation numbers 
     1.0000   1.0000   1.0000   1.0000   1.0000   1.0000   1.0000   1.0000
     1.0000   1.0000   1.0000   1.0000   1.0000   1.0000   1.0000   1.0000
     1.0000   1.0000   1.0000   1.0000   1.0000   1.0000   1.0000   1.0000
     1.0000   1.0000   1.0000   1.0000   1.0000   1.0000   1.0000   1.0000
     1.0000   1.0000   1.0000   1.0000   1.0000   1.0000   1.0000   1.0000
     1.0000   1.0000   1.0000   1.0000   1.0000   1.0000   1.0000   1.0000
     1.0000   1.0000   1.0000   1.0000   1.0000   1.0000

          k =-0.5000-0.2245 0.0939 (  6519 PWs)   bands (ev):

   -11.7718 -11.4596 -11.3994 -11.2311 -10.7967 -10.2038  -0.4510  -0.2963
    -0.2252  -0.0661  -0.0073   0.0509   0.1035   0.1940   0.3618   0.4398
     0.4921   0.5244   0.6106   0.6420   0.6933   0.7750   0.8252   0.9059
     0.9686   1.0336   1.0839   1.1322   1.2293   1.2666   1.3344   1.3625
     1.4042   1.4966   1.5082   1.6200   1.8906   1.9600   2.1456   2.3509
     2.5663   2.8538   3.0125   3.2294   3.4721   3.7844   3.9713   4.0769
     4.2793   4.3619   4.5971   4.9077   4.9523   5.1668

     occupation numbers 
     1.0000   1.0000   1.0000   1.0000   1.0000   1.0000   1.0000   1.0000
     1.0000   1.0000   1.0000   1.0000   1.0000   1.0000   1.0000   1.0000
     1.0000   1.0000   1.0000   1.0000   1.0000   1.0000   1.0000   1.0000
     1.0000   1.0000   1.0000   1.0000   1.0000   1.0000   1.0000   1.0000
     1.0000   1.0000   1.0000   1.0000   1.0000   1.0000   1.0000   1.0000
     1.0000   1.0000   1.0000   1.0000   1.0000   1.0000   1.0000   1.0000
     1.0000   1.0000   1.0000   1.0000   1.0000   1.0000

          k =-0.5000-0.2245 0.1877 (  6507 PWs)   bands (ev):

   -11.7598 -11.4681 -11.3989 -11.2277 -10.7982 -10.2047  -0.4336  -0.3310
    -0.2634  -0.1464  -0.0562   0.0609   0.1009   0.2076   0.2985   0.4145
     0.4683   0.5040   0.5985   0.6631   0.6853   0.7748   0.8543   0.9064
     0.9479   1.0290   1.0870   1.1610   1.1948   1.2599   1.3133   1.3469
     1.3976   1.4695   1.4979   1.6011   1.8597   1.9749   2.1511   2.2757
     2.5473   2.8373   3.1471   3.4553   3.7293   3.9312   4.0324   4.1571
     4.3504   4.5126   4.5865   4.8177   4.8948   5.1665

     occupation numbers 
     1.0000   1.0000   1.0000   1.0000   1.0000   1.0000   1.0000   1.0000
     1.0000   1.0000   1.0000   1.0000   1.0000   1.0000   1.0000   1.0000
     1.0000   1.0000   1.0000   1.0000   1.0000   1.0000   1.0000   1.0000
     1.0000   1.0000   1.0000   1.0000   1.0000   1.0000   1.0000   1.0000
     1.0000   1.0000   1.0000   1.0000   1.0000   1.0000   1.0000   1.0000
     1.0000   1.0000   1.0000   1.0000   1.0000   1.0000   1.0000   1.0000
     1.0000   1.0000   1.0000   1.0000   1.0000   1.0000

          k =-0.5000-0.2245-0.2816 (  6496 PWs)   bands (ev):

   -11.7535 -11.4729 -11.3982 -11.2262 -10.7989 -10.2052  -0.3947  -0.3833
    -0.2771  -0.1825  -0.0898   0.0626   0.1251   0.2036   0.2556   0.4096
     0.4757   0.4974   0.5925   0.6564   0.6782   0.7666   0.8784   0.9030
     0.9593   0.9993   1.1063   1.1310   1.1776   1.2697   1.2813   1.3627
     1.4036   1.4680   1.4957   1.5867   1.8818   1.9920   2.1031   2.2303
     2.5980   2.7683   3.2697   3.5508   3.8152   4.0027   4.0938   4.2246
     4.3943   4.5222   4.6764   4.7251   4.8490   5.1474

     occupation numbers 
     1.0000   1.0000   1.0000   1.0000   1.0000   1.0000   1.0000   1.0000
     1.0000   1.0000   1.0000   1.0000   1.0000   1.0000   1.0000   1.0000
     1.0000   1.0000   1.0000   1.0000   1.0000   1.0000   1.0000   1.0000
     1.0000   1.0000   1.0000   1.0000   1.0000   1.0000   1.0000   1.0000
     1.0000   1.0000   1.0000   1.0000   1.0000   1.0000   1.0000   1.0000
     1.0000   1.0000   1.0000   1.0000   1.0000   1.0000   1.0000   1.0000
     1.0000   1.0000   1.0000   1.0000   1.0000   1.0000

          k = 0.0000-0.0642 0.0939 (  6463 PWs)   bands (ev):

   -12.0916 -11.6858 -11.6199 -11.3360 -10.9809 -10.3731  -0.5590  -0.5073
    -0.3280  -0.2322  -0.1013  -0.0735   0.0841   0.1329   0.2076   0.2507
     0.3072   0.3918   0.5088   0.5395   0.5732   0.6320   0.7140   0.8205
     0.8713   0.8877   0.9352   1.0548   1.1276   1.1812   1.2685   1.3256
     1.3437   1.4104   1.5290   1.5767   1.8313   2.1895   2.3516   2.7006
     3.1992   3.3757   3.8122   4.1492   4.4549   4.5345   4.7518   4.8846
     5.0436   5.1986   5.2641   5.5520   5.6837   5.8595

     occupation numbers 
     1.0000   1.0000   1.0000   1.0000   1.0000   1.0000   1.0000   1.0000
     1.0000   1.0000   1.0000   1.0000   1.0000   1.0000   1.0000   1.0000
     1.0000   1.0000   1.0000   1.0000   1.0000   1.0000   1.0000   1.0000
     1.0000   1.0000   1.0000   1.0000   1.0000   1.0000   1.0000   1.0000
     1.0000   1.0000   1.0000   1.0000   1.0000   1.0000   1.0000   1.0000
     1.0000   1.0000   1.0000   1.0000   1.0000   1.0000   1.0000   1.0000
     1.0000   1.0000   1.0000   1.0000   1.0000   1.0000

          k = 0.0000-0.0642 0.1877 (  6471 PWs)   bands (ev):

   -12.0513 -11.6993 -11.6106 -11.3693 -10.9735 -10.3899  -0.5844  -0.5419
    -0.3540  -0.2181  -0.1317  -0.0955   0.0426   0.0993   0.1830   0.2265
     0.2862   0.3861   0.5077   0.5292   0.5539   0.6364   0.6904   0.8376
     0.8593   0.8723   0.9191   1.0193   1.1467   1.1833   1.2641   1.3236
     1.3377   1.3772   1.5148   1.5681   2.0945   2.3781   2.5951   2.8123
     3.2160   3.6968   3.7991   4.0408   4.2306   4.4553   4.6407   4.7787
     4.9069   5.0866   5.2845   5.5572   5.6660   5.7909

     occupation numbers 
     1.0000   1.0000   1.0000   1.0000   1.0000   1.0000   1.0000   1.0000
     1.0000   1.0000   1.0000   1.0000   1.0000   1.0000   1.0000   1.0000
     1.0000   1.0000   1.0000   1.0000   1.0000   1.0000   1.0000   1.0000
     1.0000   1.0000   1.0000   1.0000   1.0000   1.0000   1.0000   1.0000
     1.0000   1.0000   1.0000   1.0000   1.0000   1.0000   1.0000   1.0000
     1.0000   1.0000   1.0000   1.0000   1.0000   1.0000   1.0000   1.0000
     1.0000   1.0000   1.0000   1.0000   1.0000   1.0000

          k = 0.0000-0.1283 0.0939 (  6479 PWs)   bands (ev):

   -12.0845 -11.6894 -11.6294 -11.3360 -10.9756 -10.3720  -0.5545  -0.5074
    -0.3251  -0.2260  -0.1060  -0.0691   0.0845   0.1395   0.2044   0.2532
     0.2953   0.3824   0.5017   0.5227   0.5789   0.6467   0.6947   0.8321
     0.8765   0.9134   0.9450   1.0498   1.1583   1.2200   1.2707   1.3257
     1.3476   1.4163   1.5143   1.5641   1.8143   1.9906   2.3002   2.5911
     3.3697   3.5960   4.0636   4.1542   4.4122   4.5034   4.7131   4.8094
     4.9532   5.1444   5.2834   5.4321   5.6125   5.8435

     occupation numbers 
     1.0000   1.0000   1.0000   1.0000   1.0000   1.0000   1.0000   1.0000
     1.0000   1.0000   1.0000   1.0000   1.0000   1.0000   1.0000   1.0000
     1.0000   1.0000   1.0000   1.0000   1.0000   1.0000   1.0000   1.0000
     1.0000   1.0000   1.0000   1.0000   1.0000   1.0000   1.0000   1.0000
     1.0000   1.0000   1.0000   1.0000   1.0000   1.0000   1.0000   1.0000
     1.0000   1.0000   1.0000   1.0000   1.0000   1.0000   1.0000   1.0000
     1.0000   1.0000   1.0000   1.0000   1.0000   1.0000

          k = 0.0000-0.1283 0.1877 (  6464 PWs)   bands (ev):

   -12.0455 -11.6933 -11.6249 -11.3741 -10.9673 -10.3884  -0.5815  -0.5420
    -0.3512  -0.2157  -0.1340  -0.0902   0.0447   0.0989   0.1880   0.2191
     0.2815   0.3814   0.5012   0.5230   0.5517   0.6340   0.6705   0.8447
     0.8707   0.8924   0.9281   1.0548   1.1567   1.2091   1.2688   1.3243
     1.3375   1.4102   1.5089   1.5568   1.9305   2.2691   2.5033   2.8313
     3.3995   3.7601   3.9228   4.1737   4.2082   4.4344   4.6358   4.7971
     4.9409   5.0878   5.1623   5.3960   5.5880   5.7653

     occupation numbers 
     1.0000   1.0000   1.0000   1.0000   1.0000   1.0000   1.0000   1.0000
     1.0000   1.0000   1.0000   1.0000   1.0000   1.0000   1.0000   1.0000
     1.0000   1.0000   1.0000   1.0000   1.0000   1.0000   1.0000   1.0000
     1.0000   1.0000   1.0000   1.0000   1.0000   1.0000   1.0000   1.0000
     1.0000   1.0000   1.0000   1.0000   1.0000   1.0000   1.0000   1.0000
     1.0000   1.0000   1.0000   1.0000   1.0000   1.0000   1.0000   1.0000
     1.0000   1.0000   1.0000   1.0000   1.0000   1.0000

          k =-0.1667 0.0962 0.0000 (  6487 PWs)   bands (ev):

   -12.0286 -11.6339 -11.5701 -11.2927 -10.9364 -10.3250  -0.5283  -0.4230
    -0.2516  -0.1527  -0.0779  -0.0247   0.0897   0.1877   0.2334   0.3192
     0.3637   0.4010   0.5023   0.5700   0.5821   0.6898   0.7683   0.8253
     0.8600   0.9226   1.0210   1.0913   1.1469   1.2265   1.2699   1.3073
     1.3996   1.4223   1.5270   1.5953   1.6980   2.1094   2.2876   2.6397
     3.1551   3.4032   3.5726   3.6668   4.0169   4.2853   4.3776   4.6259
     4.7368   5.0028   5.1661   5.2510   5.5592   5.6552

     occupation numbers 
     1.0000   1.0000   1.0000   1.0000   1.0000   1.0000   1.0000   1.0000
     1.0000   1.0000   1.0000   1.0000   1.0000   1.0000   1.0000   1.0000
     1.0000   1.0000   1.0000   1.0000   1.0000   1.0000   1.0000   1.0000
     1.0000   1.0000   1.0000   1.0000   1.0000   1.0000   1.0000   1.0000
     1.0000   1.0000   1.0000   1.0000   1.0000   1.0000   1.0000   1.0000
     1.0000   1.0000   1.0000   1.0000   1.0000   1.0000   1.0000   1.0000
     1.0000   1.0000   1.0000   1.0000   1.0000   1.0000

          k =-0.1667-0.0962 0.0939 (  6497 PWs)   bands (ev):

   -12.0145 -11.6307 -11.5764 -11.3005 -10.9338 -10.3324  -0.5398  -0.4345
    -0.2441  -0.1449  -0.0935  -0.0214   0.0624   0.1177   0.1977   0.2876
     0.3218   0.4109   0.5267   0.5592   0.6197   0.6858   0.7572   0.8204
     0.8624   0.9508   1.0015   1.0703   1.1249   1.2099   1.2346   1.3169
     1.3522   1.4264   1.5210   1.6173   1.8782   2.1341   2.3694   2.7492
     3.2910   3.3792   3.5367   3.6992   4.0248   4.2409   4.4415   4.5741
     4.7732   4.9720   5.1005   5.2227   5.5344   5.5509

     occupation numbers 
     1.0000   1.0000   1.0000   1.0000   1.0000   1.0000   1.0000   1.0000
     1.0000   1.0000   1.0000   1.0000   1.0000   1.0000   1.0000   1.0000
     1.0000   1.0000   1.0000   1.0000   1.0000   1.0000   1.0000   1.0000
     1.0000   1.0000   1.0000   1.0000   1.0000   1.0000   1.0000   1.0000
     1.0000   1.0000   1.0000   1.0000   1.0000   1.0000   1.0000   1.0000
     1.0000   1.0000   1.0000   1.0000   1.0000   1.0000   1.0000   1.0000
     1.0000   1.0000   1.0000   1.0000   1.0000   1.0000

          k =-0.1667 0.0962-0.0939 (  6497 PWs)   bands (ev):

   -12.0130 -11.6262 -11.5762 -11.3083 -10.9349 -10.3302  -0.5303  -0.4476
    -0.2885  -0.1348  -0.1037  -0.0394   0.0936   0.1466   0.2568   0.3031
     0.3417   0.3726   0.5209   0.5586   0.5920   0.6693   0.7325   0.8173
     0.8847   0.9340   0.9865   1.0678   1.1774   1.2273   1.2672   1.2979
     1.3874   1.4366   1.5228   1.5887   1.8538   2.1413   2.4362   2.6408
     3.2195   3.4350   3.5462   3.7128   3.9898   4.2612   4.3865   4.5692
     4.7347   4.9051   5.1682   5.2751   5.4956   5.6177

     occupation numbers 
     1.0000   1.0000   1.0000   1.0000   1.0000   1.0000   1.0000   1.0000
     1.0000   1.0000   1.0000   1.0000   1.0000   1.0000   1.0000   1.0000
     1.0000   1.0000   1.0000   1.0000   1.0000   1.0000   1.0000   1.0000
     1.0000   1.0000   1.0000   1.0000   1.0000   1.0000   1.0000   1.0000
     1.0000   1.0000   1.0000   1.0000   1.0000   1.0000   1.0000   1.0000
     1.0000   1.0000   1.0000   1.0000   1.0000   1.0000   1.0000   1.0000
     1.0000   1.0000   1.0000   1.0000   1.0000   1.0000

          k = 0.1667-0.0962-0.0939 (  6497 PWs)   bands (ev):

   -12.0140 -11.6339 -11.5731 -11.3022 -10.9325 -10.3325  -0.5374  -0.4383
    -0.2458  -0.1611  -0.0889  -0.0252   0.0766   0.1470   0.1857   0.2984
     0.3364   0.3800   0.5170   0.5684   0.5828   0.6785   0.7784   0.8311
     0.8835   0.9382   1.0169   1.0265   1.1435   1.2202   1.2696   1.3088
     1.3558   1.4284   1.5384   1.5779   1.8526   2.1367   2.3957   2.6579
     3.2138   3.4594   3.6542   3.7779   4.0485   4.2060   4.3729   4.5195
     4.7865   4.9822   5.0726   5.2197   5.4298   5.6596

     occupation numbers 
     1.0000   1.0000   1.0000   1.0000   1.0000   1.0000   1.0000   1.0000
     1.0000   1.0000   1.0000   1.0000   1.0000   1.0000   1.0000   1.0000
     1.0000   1.0000   1.0000   1.0000   1.0000   1.0000   1.0000   1.0000
     1.0000   1.0000   1.0000   1.0000   1.0000   1.0000   1.0000   1.0000
     1.0000   1.0000   1.0000   1.0000   1.0000   1.0000   1.0000   1.0000
     1.0000   1.0000   1.0000   1.0000   1.0000   1.0000   1.0000   1.0000
     1.0000   1.0000   1.0000   1.0000   1.0000   1.0000

          k =-0.1667-0.0962 0.1877 (  6497 PWs)   bands (ev):

   -11.9805 -11.6431 -11.5665 -11.3290 -10.9278 -10.3453  -0.5447  -0.4835
    -0.2754  -0.1518  -0.1353  -0.0294   0.0283   0.0935   0.1705   0.2357
     0.3071   0.4088   0.5419   0.5604   0.5915   0.6601   0.7557   0.8229
     0.8348   0.9372   0.9851   1.0275   1.1544   1.2196   1.2337   1.3206
     1.3430   1.4132   1.5051   1.6022   2.0914   2.3269   2.5771   2.8035
     3.2393   3.5360   3.6780   3.8574   3.9962   4.2239   4.3014   4.5298
     4.7314   4.8581   5.0677   5.1381   5.4150   5.4961

     occupation numbers 
     1.0000   1.0000   1.0000   1.0000   1.0000   1.0000   1.0000   1.0000
     1.0000   1.0000   1.0000   1.0000   1.0000   1.0000   1.0000   1.0000
     1.0000   1.0000   1.0000   1.0000   1.0000   1.0000   1.0000   1.0000
     1.0000   1.0000   1.0000   1.0000   1.0000   1.0000   1.0000   1.0000
     1.0000   1.0000   1.0000   1.0000   1.0000   1.0000   1.0000   1.0000
     1.0000   1.0000   1.0000   1.0000   1.0000   1.0000   1.0000   1.0000
     1.0000   1.0000   1.0000   1.0000   1.0000   1.0000

          k =-0.1667 0.0962-0.1877 (  6497 PWs)   bands (ev):

   -11.9788 -11.6410 -11.5621 -11.3386 -10.9291 -10.3429  -0.5492  -0.4767
    -0.3273  -0.1517  -0.1101  -0.0524   0.0494   0.0999   0.2085   0.2654
     0.3385   0.3771   0.5186   0.5434   0.5895   0.6379   0.7388   0.8205
     0.8690   0.9485   0.9870   1.0391   1.1812   1.2083   1.2598   1.3059
     1.3609   1.4288   1.5155   1.5625   2.0218   2.3701   2.5960   2.8047
     3.2532   3.4729   3.6847   3.7923   4.0086   4.2036   4.3414   4.4623
     4.7420   4.8237   5.0511   5.2498   5.3618   5.5518

     occupation numbers 
     1.0000   1.0000   1.0000   1.0000   1.0000   1.0000   1.0000   1.0000
     1.0000   1.0000   1.0000   1.0000   1.0000   1.0000   1.0000   1.0000
     1.0000   1.0000   1.0000   1.0000   1.0000   1.0000   1.0000   1.0000
     1.0000   1.0000   1.0000   1.0000   1.0000   1.0000   1.0000   1.0000
     1.0000   1.0000   1.0000   1.0000   1.0000   1.0000   1.0000   1.0000
     1.0000   1.0000   1.0000   1.0000   1.0000   1.0000   1.0000   1.0000
     1.0000   1.0000   1.0000   1.0000   1.0000   1.0000

          k = 0.1667-0.0962-0.1877 (  6497 PWs)   bands (ev):

   -11.9800 -11.6451 -11.5638 -11.3310 -10.9267 -10.3453  -0.5457  -0.4824
    -0.2827  -0.1572  -0.1340  -0.0356   0.0368   0.1143   0.1558   0.2514
     0.3277   0.3806   0.5221   0.5610   0.5844   0.6508   0.7650   0.8162
     0.8898   0.9306   0.9856   1.0283   1.1610   1.2104   1.2411   1.3139
     1.3337   1.4379   1.5210   1.5658   2.0768   2.2793   2.5681   2.8159
     3.2198   3.5480   3.7474   3.8501   4.1286   4.2153   4.3238   4.4628
     4.7276   4.7998   4.9603   5.2134   5.3032   5.6039

     occupation numbers 
     1.0000   1.0000   1.0000   1.0000   1.0000   1.0000   1.0000   1.0000
     1.0000   1.0000   1.0000   1.0000   1.0000   1.0000   1.0000   1.0000
     1.0000   1.0000   1.0000   1.0000   1.0000   1.0000   1.0000   1.0000
     1.0000   1.0000   1.0000   1.0000   1.0000   1.0000   1.0000   1.0000
     1.0000   1.0000   1.0000   1.0000   1.0000   1.0000   1.0000   1.0000
     1.0000   1.0000   1.0000   1.0000   1.0000   1.0000   1.0000   1.0000
     1.0000   1.0000   1.0000   1.0000   1.0000   1.0000

          k =-0.1667 0.0962 0.2816 (  6492 PWs)   bands (ev):

   -11.9596 -11.6582 -11.5481 -11.3529 -10.9247 -10.3507  -0.5556  -0.4960
    -0.3298  -0.1630  -0.1289  -0.0407   0.0059   0.1005   0.1639   0.2490
     0.3310   0.3797   0.5173   0.5505   0.5829   0.6327   0.7503   0.8207
     0.8536   0.9611   0.9811   1.0299   1.1748   1.2003   1.2479   1.2994
     1.3502   1.4322   1.5040   1.5575   2.0661   2.4862   2.6977   2.9391
     3.2782   3.3810   3.6943   3.9380   4.1278   4.2233   4.3531   4.4797
     4.6112   4.7673   4.9536   5.1238   5.3606   5.5278

     occupation numbers 
     1.0000   1.0000   1.0000   1.0000   1.0000   1.0000   1.0000   1.0000
     1.0000   1.0000   1.0000   1.0000   1.0000   1.0000   1.0000   1.0000
     1.0000   1.0000   1.0000   1.0000   1.0000   1.0000   1.0000   1.0000
     1.0000   1.0000   1.0000   1.0000   1.0000   1.0000   1.0000   1.0000
     1.0000   1.0000   1.0000   1.0000   1.0000   1.0000   1.0000   1.0000
     1.0000   1.0000   1.0000   1.0000   1.0000   1.0000   1.0000   1.0000
     1.0000   1.0000   1.0000   1.0000   1.0000   1.0000

          k =-0.1667 0.1604 0.0000 (  6481 PWs)   bands (ev):

   -12.0236 -11.6384 -11.5754 -11.2910 -10.9336 -10.3245  -0.5292  -0.4220
    -0.2506  -0.1430  -0.0826  -0.0262   0.0886   0.1699   0.2309   0.3293
     0.3522   0.4040   0.5075   0.5724   0.5944   0.7021   0.7812   0.8148
     0.8737   0.9476   1.0210   1.0867   1.1749   1.2439   1.2753   1.3185
     1.3948   1.4474   1.4714   1.5867   1.6741   2.0138   2.1953   2.6082
     3.1272   3.5321   3.7019   3.8642   3.9909   4.1827   4.3339   4.5532
     4.6861   4.9890   5.1890   5.3261   5.5341   5.6026

     occupation numbers 
     1.0000   1.0000   1.0000   1.0000   1.0000   1.0000   1.0000   1.0000
     1.0000   1.0000   1.0000   1.0000   1.0000   1.0000   1.0000   1.0000
     1.0000   1.0000   1.0000   1.0000   1.0000   1.0000   1.0000   1.0000
     1.0000   1.0000   1.0000   1.0000   1.0000   1.0000   1.0000   1.0000
     1.0000   1.0000   1.0000   1.0000   1.0000   1.0000   1.0000   1.0000
     1.0000   1.0000   1.0000   1.0000   1.0000   1.0000   1.0000   1.0000
     1.0000   1.0000   1.0000   1.0000   1.0000   1.0000

          k =-0.1667-0.1604 0.0939 (  6490 PWs)   bands (ev):

   -12.0096 -11.6321 -11.5839 -11.3005 -10.9303 -10.3317  -0.5407  -0.4340
    -0.2455  -0.1432  -0.0919  -0.0241   0.0618   0.1178   0.1955   0.2915
     0.3270   0.3932   0.5366   0.5635   0.6039   0.6919   0.7786   0.8174
     0.8940   0.9431   1.0138   1.0666   1.1543   1.2267   1.2680   1.3234
     1.3609   1.4116   1.4853   1.6097   1.8564   1.9984   2.3386   2.6445
     3.2604   3.5324   3.7397   3.8564   3.9548   4.1585   4.3659   4.5141
     4.8209   4.9575   5.0990   5.2978   5.4110   5.5614

     occupation numbers 
     1.0000   1.0000   1.0000   1.0000   1.0000   1.0000   1.0000   1.0000
     1.0000   1.0000   1.0000   1.0000   1.0000   1.0000   1.0000   1.0000
     1.0000   1.0000   1.0000   1.0000   1.0000   1.0000   1.0000   1.0000
     1.0000   1.0000   1.0000   1.0000   1.0000   1.0000   1.0000   1.0000
     1.0000   1.0000   1.0000   1.0000   1.0000   1.0000   1.0000   1.0000
     1.0000   1.0000   1.0000   1.0000   1.0000   1.0000   1.0000   1.0000
     1.0000   1.0000   1.0000   1.0000   1.0000   1.0000

          k =-0.1667 0.1604-0.0939 (  6490 PWs)   bands (ev):

   -12.0083 -11.6265 -11.5843 -11.3084 -10.9316 -10.3295  -0.5290  -0.4491
    -0.2850  -0.1314  -0.1070  -0.0397   0.0891   0.1458   0.2519   0.2957
     0.3428   0.3754   0.5317   0.5615   0.5932   0.6832   0.7373   0.8130
     0.8837   0.9550   0.9902   1.0665   1.1900   1.2430   1.2676   1.3224
     1.3798   1.4359   1.5152   1.5830   1.8632   2.0022   2.3885   2.5683
     3.1973   3.5624   3.6842   3.8103   4.0050   4.1819   4.3569   4.5276
     4.7211   4.8959   5.1582   5.3388   5.4679   5.5616

     occupation numbers 
     1.0000   1.0000   1.0000   1.0000   1.0000   1.0000   1.0000   1.0000
     1.0000   1.0000   1.0000   1.0000   1.0000   1.0000   1.0000   1.0000
     1.0000   1.0000   1.0000   1.0000   1.0000   1.0000   1.0000   1.0000
     1.0000   1.0000   1.0000   1.0000   1.0000   1.0000   1.0000   1.0000
     1.0000   1.0000   1.0000   1.0000   1.0000   1.0000   1.0000   1.0000
     1.0000   1.0000   1.0000   1.0000   1.0000   1.0000   1.0000   1.0000
     1.0000   1.0000   1.0000   1.0000   1.0000   1.0000

          k = 0.1667-0.1604-0.0939 (  6490 PWs)   bands (ev):

   -12.0094 -11.6340 -11.5820 -11.3013 -10.9297 -10.3318  -0.5396  -0.4359
    -0.2464  -0.1510  -0.0902  -0.0269   0.0709   0.1313   0.1885   0.2967
     0.3368   0.3773   0.5288   0.5697   0.5860   0.6935   0.7883   0.8190
     0.9030   0.9377   1.0235   1.0487   1.1589   1.2310   1.2820   1.3179
     1.3667   1.4313   1.4717   1.5928   1.8342   2.0138   2.3524   2.6034
     3.2359   3.5671   3.7319   3.9808   4.0243   4.0925   4.2998   4.4798
     4.7624   5.0387   5.1091   5.2410   5.3839   5.6056

     occupation numbers 
     1.0000   1.0000   1.0000   1.0000   1.0000   1.0000   1.0000   1.0000
     1.0000   1.0000   1.0000   1.0000   1.0000   1.0000   1.0000   1.0000
     1.0000   1.0000   1.0000   1.0000   1.0000   1.0000   1.0000   1.0000
     1.0000   1.0000   1.0000   1.0000   1.0000   1.0000   1.0000   1.0000
     1.0000   1.0000   1.0000   1.0000   1.0000   1.0000   1.0000   1.0000
     1.0000   1.0000   1.0000   1.0000   1.0000   1.0000   1.0000   1.0000
     1.0000   1.0000   1.0000   1.0000   1.0000   1.0000

          k =-0.1667-0.1604 0.1877 (  6480 PWs)   bands (ev):

   -11.9765 -11.6387 -11.5763 -11.3320 -10.9239 -10.3444  -0.5477  -0.4804
    -0.2766  -0.1502  -0.1374  -0.0271   0.0277   0.0856   0.1674   0.2440
     0.3191   0.3888   0.5437   0.5663   0.5832   0.6698   0.7478   0.8161
     0.8711   0.9415   1.0027   1.0469   1.1589   1.2159   1.2632   1.3247
     1.3748   1.4001   1.4837   1.6097   1.9415   2.2678   2.5337   2.8072
     3.3153   3.5289   3.7452   3.9087   4.0452   4.1611   4.3381   4.4911
     4.7929   4.8939   5.0545   5.1226   5.3453   5.4596

     occupation numbers 
     1.0000   1.0000   1.0000   1.0000   1.0000   1.0000   1.0000   1.0000
     1.0000   1.0000   1.0000   1.0000   1.0000   1.0000   1.0000   1.0000
     1.0000   1.0000   1.0000   1.0000   1.0000   1.0000   1.0000   1.0000
     1.0000   1.0000   1.0000   1.0000   1.0000   1.0000   1.0000   1.0000
     1.0000   1.0000   1.0000   1.0000   1.0000   1.0000   1.0000   1.0000
     1.0000   1.0000   1.0000   1.0000   1.0000   1.0000   1.0000   1.0000
     1.0000   1.0000   1.0000   1.0000   1.0000   1.0000

          k =-0.1667 0.1604-0.1877 (  6480 PWs)   bands (ev):

   -11.9752 -11.6367 -11.5714 -11.3418 -10.9253 -10.3421  -0.5467  -0.4798
    -0.3228  -0.1566  -0.1087  -0.0479   0.0430   0.1032   0.2028   0.2624
     0.3309   0.3811   0.5233   0.5521   0.5894   0.6586   0.7230   0.8108
     0.8755   0.9702   0.9897   1.0465   1.1806   1.2337   1.2468   1.3262
     1.3664   1.4314   1.5183   1.5751   1.9278   2.2944   2.5239   2.8394
     3.3075   3.4858   3.6504   3.8429   4.1123   4.1508   4.3473   4.5034
     4.7118   4.8461   5.1531   5.1887   5.3231   5.4774

     occupation numbers 
     1.0000   1.0000   1.0000   1.0000   1.0000   1.0000   1.0000   1.0000
     1.0000   1.0000   1.0000   1.0000   1.0000   1.0000   1.0000   1.0000
     1.0000   1.0000   1.0000   1.0000   1.0000   1.0000   1.0000   1.0000
     1.0000   1.0000   1.0000   1.0000   1.0000   1.0000   1.0000   1.0000
     1.0000   1.0000   1.0000   1.0000   1.0000   1.0000   1.0000   1.0000
     1.0000   1.0000   1.0000   1.0000   1.0000   1.0000   1.0000   1.0000
     1.0000   1.0000   1.0000   1.0000   1.0000   1.0000

          k = 0.1667-0.1604-0.1877 (  6480 PWs)   bands (ev):

   -11.9763 -11.6400 -11.5747 -11.3330 -10.9233 -10.3444  -0.5481  -0.4799
    -0.2803  -0.1487  -0.1410  -0.0318   0.0330   0.0967   0.1604   0.2520
     0.3300   0.3738   0.5329   0.5640   0.5817   0.6750   0.7417   0.8151
     0.8910   0.9469   1.0072   1.0473   1.1602   1.2118   1.2614   1.3195
     1.3535   1.4472   1.4777   1.5910   1.9291   2.2563   2.5289   2.8080
     3.2910   3.5694   3.7169   3.9609   4.1018   4.1721   4.3508   4.4430
     4.7430   4.9123   4.9833   5.1967   5.2464   5.5310

     occupation numbers 
     1.0000   1.0000   1.0000   1.0000   1.0000   1.0000   1.0000   1.0000
     1.0000   1.0000   1.0000   1.0000   1.0000   1.0000   1.0000   1.0000
     1.0000   1.0000   1.0000   1.0000   1.0000   1.0000   1.0000   1.0000
     1.0000   1.0000   1.0000   1.0000   1.0000   1.0000   1.0000   1.0000
     1.0000   1.0000   1.0000   1.0000   1.0000   1.0000   1.0000   1.0000
     1.0000   1.0000   1.0000   1.0000   1.0000   1.0000   1.0000   1.0000
     1.0000   1.0000   1.0000   1.0000   1.0000   1.0000

          k =-0.1667 0.1604 0.2816 (  6488 PWs)   bands (ev):

   -11.9565 -11.6534 -11.5559 -11.3576 -10.9209 -10.3497  -0.5549  -0.4972
    -0.3256  -0.1668  -0.1282  -0.0334   0.0025   0.0880   0.1662   0.2505
     0.3261   0.3770   0.5226   0.5567   0.5833   0.6568   0.7225   0.8110
     0.8648   0.9729   0.9977   1.0498   1.1646   1.2104   1.2535   1.3105
     1.3702   1.4493   1.4860   1.5818   1.9098   2.4013   2.7244   3.0035
     3.2671   3.4007   3.6579   3.9686   4.1217   4.2182   4.3737   4.5165
     4.6402   4.8049   5.0299   5.1145   5.3112   5.4276

     occupation numbers 
     1.0000   1.0000   1.0000   1.0000   1.0000   1.0000   1.0000   1.0000
     1.0000   1.0000   1.0000   1.0000   1.0000   1.0000   1.0000   1.0000
     1.0000   1.0000   1.0000   1.0000   1.0000   1.0000   1.0000   1.0000
     1.0000   1.0000   1.0000   1.0000   1.0000   1.0000   1.0000   1.0000
     1.0000   1.0000   1.0000   1.0000   1.0000   1.0000   1.0000   1.0000
     1.0000   1.0000   1.0000   1.0000   1.0000   1.0000   1.0000   1.0000
     1.0000   1.0000   1.0000   1.0000   1.0000   1.0000

          k =-0.1667-0.0321 0.0000 (  6500 PWs)   bands (ev):

   -12.0339 -11.6299 -11.5633 -11.2944 -10.9397 -10.3256  -0.5297  -0.4203
    -0.2495  -0.1485  -0.0793  -0.0184   0.0731   0.1852   0.2309   0.3049
     0.3833   0.4149   0.4944   0.5595   0.6355   0.6657   0.7474   0.8066
     0.8364   0.9159   1.0117   1.1028   1.1111   1.2221   1.2615   1.3197
     1.3675   1.4006   1.5432   1.6117   1.7279   2.2449   2.4646   2.6983
     3.0843   3.2376   3.3619   3.6407   4.0018   4.3462   4.4733   4.6553
     4.7461   5.0153   5.1084   5.3071   5.5828   5.6445

     occupation numbers 
     1.0000   1.0000   1.0000   1.0000   1.0000   1.0000   1.0000   1.0000
     1.0000   1.0000   1.0000   1.0000   1.0000   1.0000   1.0000   1.0000
     1.0000   1.0000   1.0000   1.0000   1.0000   1.0000   1.0000   1.0000
     1.0000   1.0000   1.0000   1.0000   1.0000   1.0000   1.0000   1.0000
     1.0000   1.0000   1.0000   1.0000   1.0000   1.0000   1.0000   1.0000
     1.0000   1.0000   1.0000   1.0000   1.0000   1.0000   1.0000   1.0000
     1.0000   1.0000   1.0000   1.0000   1.0000   1.0000

          k =-0.1667 0.0321 0.0939 (  6494 PWs)   bands (ev):

   -12.0188 -11.6329 -11.5652 -11.3025 -10.9360 -10.3331  -0.5364  -0.4388
    -0.2443  -0.1626  -0.0909  -0.0233   0.0751   0.1488   0.1941   0.2916
     0.3265   0.3993   0.5146   0.5586   0.6029   0.6579   0.7515   0.8222
     0.8782   0.9390   1.0075   1.0288   1.1312   1.2134   1.2460   1.3101
     1.3485   1.4267   1.5515   1.5819   1.8748   2.2659   2.5401   2.6781
     3.1813   3.3056   3.5189   3.7250   3.9847   4.2624   4.4769   4.5960
     4.7533   4.9325   5.0522   5.2611   5.4769   5.6675

     occupation numbers 
     1.0000   1.0000   1.0000   1.0000   1.0000   1.0000   1.0000   1.0000
     1.0000   1.0000   1.0000   1.0000   1.0000   1.0000   1.0000   1.0000
     1.0000   1.0000   1.0000   1.0000   1.0000   1.0000   1.0000   1.0000
     1.0000   1.0000   1.0000   1.0000   1.0000   1.0000   1.0000   1.0000
     1.0000   1.0000   1.0000   1.0000   1.0000   1.0000   1.0000   1.0000
     1.0000   1.0000   1.0000   1.0000   1.0000   1.0000   1.0000   1.0000
     1.0000   1.0000   1.0000   1.0000   1.0000   1.0000

          k =-0.1667-0.0321-0.0939 (  6494 PWs)   bands (ev):

   -12.0178 -11.6291 -11.5633 -11.3099 -10.9380 -10.3309  -0.5313  -0.4458
    -0.2859  -0.1379  -0.0973  -0.0337   0.0755   0.1582   0.2521   0.2931
     0.3168   0.4241   0.5136   0.5622   0.6214   0.6318   0.7617   0.8053
     0.8273   0.9052   0.9834   1.0598   1.1645   1.2038   1.2736   1.3194
     1.3639   1.4265   1.5525   1.5919   1.8529   2.3705   2.4795   2.7157
     3.1813   3.2986   3.3762   3.6610   4.0320   4.2707   4.4049   4.6186
     4.7118   4.9508   5.0961   5.2967   5.5205   5.6366

     occupation numbers 
     1.0000   1.0000   1.0000   1.0000   1.0000   1.0000   1.0000   1.0000
     1.0000   1.0000   1.0000   1.0000   1.0000   1.0000   1.0000   1.0000
     1.0000   1.0000   1.0000   1.0000   1.0000   1.0000   1.0000   1.0000
     1.0000   1.0000   1.0000   1.0000   1.0000   1.0000   1.0000   1.0000
     1.0000   1.0000   1.0000   1.0000   1.0000   1.0000   1.0000   1.0000
     1.0000   1.0000   1.0000   1.0000   1.0000   1.0000   1.0000   1.0000
     1.0000   1.0000   1.0000   1.0000   1.0000   1.0000

          k = 0.1667 0.0321-0.0939 (  6494 PWs)   bands (ev):

   -12.0190 -11.6315 -11.5666 -11.3016 -10.9366 -10.3330  -0.5376  -0.4370
    -0.2434  -0.1540  -0.0938  -0.0224   0.0700   0.1344   0.1975   0.2859
     0.3226   0.4138   0.5176   0.5552   0.6268   0.6612   0.7368   0.8157
     0.8666   0.9471   1.0027   1.0476   1.1220   1.2051   1.2307   1.3142
     1.3484   1.4277   1.5380   1.6025   1.8830   2.2744   2.5018   2.7661
     3.1622   3.3250   3.4318   3.6855   4.0171   4.2597   4.5414   4.5568
     4.7516   4.9178   5.1066   5.2410   5.5242   5.6217

     occupation numbers 
     1.0000   1.0000   1.0000   1.0000   1.0000   1.0000   1.0000   1.0000
     1.0000   1.0000   1.0000   1.0000   1.0000   1.0000   1.0000   1.0000
     1.0000   1.0000   1.0000   1.0000   1.0000   1.0000   1.0000   1.0000
     1.0000   1.0000   1.0000   1.0000   1.0000   1.0000   1.0000   1.0000
     1.0000   1.0000   1.0000   1.0000   1.0000   1.0000   1.0000   1.0000
     1.0000   1.0000   1.0000   1.0000   1.0000   1.0000   1.0000   1.0000
     1.0000   1.0000   1.0000   1.0000   1.0000   1.0000

          k =-0.1667 0.0321 0.1877 (  6494 PWs)   bands (ev):

   -11.9838 -11.6485 -11.5550 -11.3281 -10.9306 -10.3462  -0.5426  -0.4855
    -0.2815  -0.1582  -0.1330  -0.0364   0.0358   0.1237   0.1600   0.2437
     0.3120   0.4019   0.5244   0.5587   0.5928   0.6298   0.7597   0.8147
     0.8773   0.9172   0.9830   1.0078   1.1620   1.2012   1.2299   1.3170
     1.3270   1.4244   1.5280   1.5634   2.2231   2.3535   2.6459   2.7668
     3.1375   3.5084   3.7383   3.8292   4.0436   4.2071   4.3684   4.4891
     4.6321   4.7712   4.9989   5.2811   5.3311   5.6237

     occupation numbers 
     1.0000   1.0000   1.0000   1.0000   1.0000   1.0000   1.0000   1.0000
     1.0000   1.0000   1.0000   1.0000   1.0000   1.0000   1.0000   1.0000
     1.0000   1.0000   1.0000   1.0000   1.0000   1.0000   1.0000   1.0000
     1.0000   1.0000   1.0000   1.0000   1.0000   1.0000   1.0000   1.0000
     1.0000   1.0000   1.0000   1.0000   1.0000   1.0000   1.0000   1.0000
     1.0000   1.0000   1.0000   1.0000   1.0000   1.0000   1.0000   1.0000
     1.0000   1.0000   1.0000   1.0000   1.0000   1.0000

          k =-0.1667-0.0321-0.1877 (  6494 PWs)   bands (ev):

   -11.9826 -11.6470 -11.5494 -11.3371 -10.9326 -10.3440  -0.5470  -0.4790
    -0.3241  -0.1580  -0.0995  -0.0483   0.0524   0.0910   0.2184   0.2475
     0.3068   0.4284   0.5166   0.5646   0.5924   0.6237   0.7521   0.8028
     0.8313   0.9087   0.9650   1.0224   1.1765   1.2025   1.2720   1.3116
     1.3474   1.4111   1.5269   1.5727   2.2052   2.4230   2.6284   2.8249
     3.1803   3.4463   3.6050   3.7423   4.0380   4.1713   4.3187   4.4486
     4.6913   4.9183   5.0009   5.2694   5.3897   5.5876

     occupation numbers 
     1.0000   1.0000   1.0000   1.0000   1.0000   1.0000   1.0000   1.0000
     1.0000   1.0000   1.0000   1.0000   1.0000   1.0000   1.0000   1.0000
     1.0000   1.0000   1.0000   1.0000   1.0000   1.0000   1.0000   1.0000
     1.0000   1.0000   1.0000   1.0000   1.0000   1.0000   1.0000   1.0000
     1.0000   1.0000   1.0000   1.0000   1.0000   1.0000   1.0000   1.0000
     1.0000   1.0000   1.0000   1.0000   1.0000   1.0000   1.0000   1.0000
     1.0000   1.0000   1.0000   1.0000   1.0000   1.0000

          k = 0.1667 0.0321-0.1877 (  6494 PWs)   bands (ev):

   -11.9840 -11.6476 -11.5561 -11.3270 -10.9312 -10.3462  -0.5420  -0.4862
    -0.2779  -0.1524  -0.1369  -0.0343   0.0321   0.1143   0.1674   0.2359
     0.3020   0.4153   0.5355   0.5550   0.5978   0.6412   0.7435   0.8091
     0.8597   0.9310   0.9838   1.0023   1.1573   1.2031   1.2272   1.3178
     1.3335   1.4163   1.5186   1.5811   2.2096   2.4198   2.6510   2.7394
     3.1363   3.5189   3.6719   3.8492   4.0136   4.1999   4.3352   4.5340
     4.6323   4.7892   5.0513   5.2340   5.3912   5.5834

     occupation numbers 
     1.0000   1.0000   1.0000   1.0000   1.0000   1.0000   1.0000   1.0000
     1.0000   1.0000   1.0000   1.0000   1.0000   1.0000   1.0000   1.0000
     1.0000   1.0000   1.0000   1.0000   1.0000   1.0000   1.0000   1.0000
     1.0000   1.0000   1.0000   1.0000   1.0000   1.0000   1.0000   1.0000
     1.0000   1.0000   1.0000   1.0000   1.0000   1.0000   1.0000   1.0000
     1.0000   1.0000   1.0000   1.0000   1.0000   1.0000   1.0000   1.0000
     1.0000   1.0000   1.0000   1.0000   1.0000   1.0000

          k =-0.1667-0.0321 0.2816 (  6500 PWs)   bands (ev):

   -11.9629 -11.6629 -11.5400 -11.3479 -10.9289 -10.3518  -0.5490  -0.5036
    -0.3252  -0.1690  -0.1173  -0.0433   0.0098   0.0972   0.1743   0.2292
     0.3017   0.4229   0.5259   0.5619   0.5860   0.6280   0.7438   0.7955
     0.8442   0.9175   0.9705   1.0001   1.1626   1.2132   1.2560   1.3140
     1.3301   1.3995   1.5116   1.5700   2.3631   2.5019   2.6439   2.9844
     3.1194   3.3324   3.8209   3.9017   4.0529   4.2176   4.3102   4.3828
     4.6109   4.7338   5.0401   5.2264   5.3222   5.5556

     occupation numbers 
     1.0000   1.0000   1.0000   1.0000   1.0000   1.0000   1.0000   1.0000
     1.0000   1.0000   1.0000   1.0000   1.0000   1.0000   1.0000   1.0000
     1.0000   1.0000   1.0000   1.0000   1.0000   1.0000   1.0000   1.0000
     1.0000   1.0000   1.0000   1.0000   1.0000   1.0000   1.0000   1.0000
     1.0000   1.0000   1.0000   1.0000   1.0000   1.0000   1.0000   1.0000
     1.0000   1.0000   1.0000   1.0000   1.0000   1.0000   1.0000   1.0000
     1.0000   1.0000   1.0000   1.0000   1.0000   1.0000

          k =-0.3333-0.1925 0.0939 (  6493 PWs)   bands (ev):

   -11.8549 -11.5109 -11.4770 -11.2434 -10.8419 -10.2479  -0.5226  -0.3432
    -0.2039  -0.0898  -0.0157   0.0291   0.0995   0.1965   0.3170   0.3666
     0.3964   0.4551   0.5961   0.6381   0.6694   0.7478   0.8358   0.8578
     0.9784   1.0318   1.0633   1.1217   1.2065   1.2422   1.2885   1.3131
     1.3516   1.4563   1.5069   1.6614   1.9597   2.0934   2.2741   2.4598
     2.7769   2.9004   3.0318   3.4050   3.5266   3.9177   4.0344   4.2362
     4.3436   4.6210   4.8114   5.0933   5.2288   5.2851

     occupation numbers 
     1.0000   1.0000   1.0000   1.0000   1.0000   1.0000   1.0000   1.0000
     1.0000   1.0000   1.0000   1.0000   1.0000   1.0000   1.0000   1.0000
     1.0000   1.0000   1.0000   1.0000   1.0000   1.0000   1.0000   1.0000
     1.0000   1.0000   1.0000   1.0000   1.0000   1.0000   1.0000   1.0000
     1.0000   1.0000   1.0000   1.0000   1.0000   1.0000   1.0000   1.0000
     1.0000   1.0000   1.0000   1.0000   1.0000   1.0000   1.0000   1.0000
     1.0000   1.0000   1.0000   1.0000   1.0000   1.0000

          k =-0.3333-0.1925 0.1877 (  6490 PWs)   bands (ev):

   -11.8348 -11.5266 -11.4637 -11.2554 -10.8406 -10.2529  -0.5102  -0.3770
    -0.2420  -0.1705  -0.0488   0.0490   0.1032   0.1720   0.2376   0.3189
     0.3891   0.4573   0.5906   0.6443   0.6768   0.7312   0.8118   0.8464
     0.9505   1.0175   1.0734   1.1238   1.1835   1.2328   1.2722   1.3075
     1.3534   1.4375   1.4956   1.6760   1.9872   2.1924   2.3288   2.5157
     2.9013   2.9803   3.1054   3.4480   3.7005   3.7580   4.1478   4.4510
     4.4901   4.6635   4.7695   4.9582   5.1044   5.2151

     occupation numbers 
     1.0000   1.0000   1.0000   1.0000   1.0000   1.0000   1.0000   1.0000
     1.0000   1.0000   1.0000   1.0000   1.0000   1.0000   1.0000   1.0000
     1.0000   1.0000   1.0000   1.0000   1.0000   1.0000   1.0000   1.0000
     1.0000   1.0000   1.0000   1.0000   1.0000   1.0000   1.0000   1.0000
     1.0000   1.0000   1.0000   1.0000   1.0000   1.0000   1.0000   1.0000
     1.0000   1.0000   1.0000   1.0000   1.0000   1.0000   1.0000   1.0000
     1.0000   1.0000   1.0000   1.0000   1.0000   1.0000

          k =-0.3333 0.2566 0.0000 (  6518 PWs)   bands (ev):

   -11.8649 -11.5054 -11.4746 -11.2442 -10.8440 -10.2443  -0.5130  -0.3412
    -0.1942  -0.0505   0.0001   0.0229   0.0907   0.2172   0.3497   0.4335
     0.4429   0.4667   0.5761   0.6176   0.6865   0.7505   0.8059   0.8521
     0.9170   0.9862   1.0535   1.1424   1.1912   1.2490   1.3344   1.3635
     1.4024   1.4569   1.5746   1.6252   1.8563   2.1197   2.2837   2.4379
     2.6939   2.8432   3.0485   3.3539   3.5242   3.7949   4.0738   4.1603
     4.3284   4.5337   4.7789   5.0663   5.2636   5.3942

     occupation numbers 
     1.0000   1.0000   1.0000   1.0000   1.0000   1.0000   1.0000   1.0000
     1.0000   1.0000   1.0000   1.0000   1.0000   1.0000   1.0000   1.0000
     1.0000   1.0000   1.0000   1.0000   1.0000   1.0000   1.0000   1.0000
     1.0000   1.0000   1.0000   1.0000   1.0000   1.0000   1.0000   1.0000
     1.0000   1.0000   1.0000   1.0000   1.0000   1.0000   1.0000   1.0000
     1.0000   1.0000   1.0000   1.0000   1.0000   1.0000   1.0000   1.0000
     1.0000   1.0000   1.0000   1.0000   1.0000   1.0000

          k =-0.3333-0.2566 0.0939 (  6503 PWs)   bands (ev):

   -11.8556 -11.5137 -11.4725 -11.2442 -10.8420 -10.2480  -0.5221  -0.3415
    -0.2030  -0.0772  -0.0193   0.0306   0.1032   0.1969   0.3195   0.3595
     0.3985   0.4433   0.5952   0.6178   0.6744   0.7418   0.8213   0.8715
     0.9757   1.0378   1.0769   1.1232   1.1944   1.2096   1.2794   1.3206
     1.3563   1.4377   1.5464   1.6375   1.9575   2.0696   2.2832   2.5282
     2.7572   2.9687   3.0733   3.3352   3.5991   3.8866   4.1090   4.1580
     4.3320   4.6178   4.8343   5.0126   5.2076   5.2781

     occupation numbers 
     1.0000   1.0000   1.0000   1.0000   1.0000   1.0000   1.0000   1.0000
     1.0000   1.0000   1.0000   1.0000   1.0000   1.0000   1.0000   1.0000
     1.0000   1.0000   1.0000   1.0000   1.0000   1.0000   1.0000   1.0000
     1.0000   1.0000   1.0000   1.0000   1.0000   1.0000   1.0000   1.0000
     1.0000   1.0000   1.0000   1.0000   1.0000   1.0000   1.0000   1.0000
     1.0000   1.0000   1.0000   1.0000   1.0000   1.0000   1.0000   1.0000
     1.0000   1.0000   1.0000   1.0000   1.0000   1.0000

          k =-0.3333 0.2566-0.0939 (  6503 PWs)   bands (ev):

   -11.8548 -11.5112 -11.4651 -11.2558 -10.8440 -10.2456  -0.5029  -0.3627
    -0.2286  -0.0683  -0.0306   0.0180   0.0975   0.2088   0.3384   0.3850
     0.4322   0.5063   0.5815   0.6277   0.6683   0.7292   0.7953   0.8390
     0.9069   0.9665   1.0283   1.1450   1.1963   1.2573   1.3388   1.3599
     1.3942   1.4583   1.5788   1.6222   1.8996   2.1947   2.3520   2.4180
     2.7109   2.9077   3.0724   3.3435   3.5757   3.8693   4.0134   4.1772
     4.4061   4.5321   4.7534   5.0156   5.2692   5.3977

     occupation numbers 
     1.0000   1.0000   1.0000   1.0000   1.0000   1.0000   1.0000   1.0000
     1.0000   1.0000   1.0000   1.0000   1.0000   1.0000   1.0000   1.0000
     1.0000   1.0000   1.0000   1.0000   1.0000   1.0000   1.0000   1.0000
     1.0000   1.0000   1.0000   1.0000   1.0000   1.0000   1.0000   1.0000
     1.0000   1.0000   1.0000   1.0000   1.0000   1.0000   1.0000   1.0000
     1.0000   1.0000   1.0000   1.0000   1.0000   1.0000   1.0000   1.0000
     1.0000   1.0000   1.0000   1.0000   1.0000   1.0000

          k = 0.3333-0.2566-0.0939 (  6503 PWs)   bands (ev):

   -11.8562 -11.5125 -11.4732 -11.2436 -10.8427 -10.2480  -0.5188  -0.3414
    -0.2002  -0.0984  -0.0013   0.0348   0.0940   0.1838   0.3121   0.3733
     0.4008   0.4604   0.5712   0.6346   0.6831   0.7544   0.8191   0.8554
     0.9477   1.0143   1.0633   1.1083   1.2143   1.2393   1.2801   1.3354
     1.3885   1.4501   1.5087   1.6458   1.9725   2.0854   2.3223   2.4529
     2.7994   2.8687   3.1244   3.4136   3.5060   3.9059   4.0047   4.2226
     4.3801   4.6113   4.7603   5.0374   5.2141   5.3269

     occupation numbers 
     1.0000   1.0000   1.0000   1.0000   1.0000   1.0000   1.0000   1.0000
     1.0000   1.0000   1.0000   1.0000   1.0000   1.0000   1.0000   1.0000
     1.0000   1.0000   1.0000   1.0000   1.0000   1.0000   1.0000   1.0000
     1.0000   1.0000   1.0000   1.0000   1.0000   1.0000   1.0000   1.0000
     1.0000   1.0000   1.0000   1.0000   1.0000   1.0000   1.0000   1.0000
     1.0000   1.0000   1.0000   1.0000   1.0000   1.0000   1.0000   1.0000
     1.0000   1.0000   1.0000   1.0000   1.0000   1.0000

          k =-0.3333-0.2566 0.1877 (  6501 PWs)   bands (ev):

   -11.8353 -11.5284 -11.4609 -11.2557 -10.8407 -10.2530  -0.5101  -0.3763
    -0.2445  -0.1526  -0.0550   0.0498   0.1013   0.1707   0.2406   0.3169
     0.4065   0.4317   0.5951   0.6158   0.6770   0.7324   0.8142   0.8638
     0.9505   1.0017   1.0887   1.1214   1.1913   1.2101   1.2693   1.3010
     1.3438   1.4370   1.5253   1.6568   1.9965   2.1496   2.2894   2.5800
     2.9013   3.0600   3.1238   3.4452   3.7006   3.8197   4.1875   4.3703
     4.4968   4.6482   4.7726   4.9060   5.0395   5.2218

     occupation numbers 
     1.0000   1.0000   1.0000   1.0000   1.0000   1.0000   1.0000   1.0000
     1.0000   1.0000   1.0000   1.0000   1.0000   1.0000   1.0000   1.0000
     1.0000   1.0000   1.0000   1.0000   1.0000   1.0000   1.0000   1.0000
     1.0000   1.0000   1.0000   1.0000   1.0000   1.0000   1.0000   1.0000
     1.0000   1.0000   1.0000   1.0000   1.0000   1.0000   1.0000   1.0000
     1.0000   1.0000   1.0000   1.0000   1.0000   1.0000   1.0000   1.0000
     1.0000   1.0000   1.0000   1.0000   1.0000   1.0000

          k =-0.3333 0.2566-0.1877 (  6501 PWs)   bands (ev):

   -11.8343 -11.5275 -11.4508 -11.2686 -10.8427 -10.2506  -0.4899  -0.4000
    -0.2646  -0.1472  -0.0623   0.0464   0.0942   0.1706   0.3072   0.3214
     0.3821   0.5126   0.5669   0.6354   0.6572   0.7163   0.7791   0.8567
     0.9084   0.9760   1.0179   1.1480   1.1937   1.2468   1.3017   1.3455
     1.3821   1.4479   1.5362   1.6283   2.0072   2.1560   2.4158   2.5755
     2.7894   2.9189   3.2073   3.4236   3.7485   3.8445   4.0726   4.2968
     4.4783   4.5316   4.7257   4.9717   5.1826   5.3053

     occupation numbers 
     1.0000   1.0000   1.0000   1.0000   1.0000   1.0000   1.0000   1.0000
     1.0000   1.0000   1.0000   1.0000   1.0000   1.0000   1.0000   1.0000
     1.0000   1.0000   1.0000   1.0000   1.0000   1.0000   1.0000   1.0000
     1.0000   1.0000   1.0000   1.0000   1.0000   1.0000   1.0000   1.0000
     1.0000   1.0000   1.0000   1.0000   1.0000   1.0000   1.0000   1.0000
     1.0000   1.0000   1.0000   1.0000   1.0000   1.0000   1.0000   1.0000
     1.0000   1.0000   1.0000   1.0000   1.0000   1.0000

          k = 0.3333-0.2566-0.1877 (  6501 PWs)   bands (ev):

   -11.8358 -11.5280 -11.4609 -11.2550 -10.8413 -10.2530  -0.5068  -0.3763
    -0.2368  -0.1798  -0.0362   0.0494   0.1068   0.1535   0.2444   0.3211
     0.3847   0.4738   0.5670   0.6488   0.6742   0.7210   0.7903   0.8660
     0.9433   0.9875   1.0679   1.1290   1.1839   1.2368   1.2792   1.3348
     1.3724   1.4342   1.4763   1.6443   2.0022   2.2190   2.3707   2.4781
     2.8323   3.0133   3.1853   3.5160   3.6936   3.8172   4.0659   4.3800
     4.4857   4.6798   4.7409   4.9292   5.0921   5.2340

     occupation numbers 
     1.0000   1.0000   1.0000   1.0000   1.0000   1.0000   1.0000   1.0000
     1.0000   1.0000   1.0000   1.0000   1.0000   1.0000   1.0000   1.0000
     1.0000   1.0000   1.0000   1.0000   1.0000   1.0000   1.0000   1.0000
     1.0000   1.0000   1.0000   1.0000   1.0000   1.0000   1.0000   1.0000
     1.0000   1.0000   1.0000   1.0000   1.0000   1.0000   1.0000   1.0000
     1.0000   1.0000   1.0000   1.0000   1.0000   1.0000   1.0000   1.0000
     1.0000   1.0000   1.0000   1.0000   1.0000   1.0000

          k =-0.3333 0.2566 0.2816 (  6506 PWs)   bands (ev):

   -11.8238 -11.5370 -11.4485 -11.2683 -10.8413 -10.2544  -0.4777  -0.4240
    -0.2742  -0.1940  -0.0720   0.0683   0.1039   0.1419   0.2479   0.2996
     0.3752   0.4951   0.5654   0.6424   0.6579   0.7074   0.7824   0.8572
     0.9240   0.9709   1.0695   1.1087   1.2089   1.2301   1.2817   1.3298
     1.3798   1.4441   1.4875   1.6343   2.0135   2.2227   2.3780   2.6228
     2.8030   2.9937   3.2748   3.4882   3.8082   3.8954   4.1338   4.3264
     4.5380   4.5916   4.7901   4.9274   5.0309   5.1948

     occupation numbers 
     1.0000   1.0000   1.0000   1.0000   1.0000   1.0000   1.0000   1.0000
     1.0000   1.0000   1.0000   1.0000   1.0000   1.0000   1.0000   1.0000
     1.0000   1.0000   1.0000   1.0000   1.0000   1.0000   1.0000   1.0000
     1.0000   1.0000   1.0000   1.0000   1.0000   1.0000   1.0000   1.0000
     1.0000   1.0000   1.0000   1.0000   1.0000   1.0000   1.0000   1.0000
     1.0000   1.0000   1.0000   1.0000   1.0000   1.0000   1.0000   1.0000
     1.0000   1.0000   1.0000   1.0000   1.0000   1.0000

          k =-0.3333 0.3208 0.0000 (  6510 PWs)   bands (ev):

   -11.8670 -11.5089 -11.4667 -11.2455 -10.8448 -10.2445  -0.5085  -0.3374
    -0.1906  -0.0411   0.0091   0.0251   0.0945   0.2140   0.3522   0.4102
     0.4449   0.4621   0.5645   0.6044   0.6961   0.7315   0.7951   0.8139
     0.9243   0.9893   1.0534   1.1399   1.1874   1.2403   1.3447   1.3664
     1.4078   1.4325   1.5724   1.6299   1.8306   2.1068   2.3350   2.4995
     2.7616   2.9408   3.1552   3.2828   3.5342   3.7105   3.9005   4.2477
     4.4620   4.5271   4.7235   4.8937   5.2826   5.3802

     occupation numbers 
     1.0000   1.0000   1.0000   1.0000   1.0000   1.0000   1.0000   1.0000
     1.0000   1.0000   1.0000   1.0000   1.0000   1.0000   1.0000   1.0000
     1.0000   1.0000   1.0000   1.0000   1.0000   1.0000   1.0000   1.0000
     1.0000   1.0000   1.0000   1.0000   1.0000   1.0000   1.0000   1.0000
     1.0000   1.0000   1.0000   1.0000   1.0000   1.0000   1.0000   1.0000
     1.0000   1.0000   1.0000   1.0000   1.0000   1.0000   1.0000   1.0000
     1.0000   1.0000   1.0000   1.0000   1.0000   1.0000

          k =-0.3333-0.3208 0.0939 (  6511 PWs)   bands (ev):

   -11.8575 -11.5169 -11.4653 -11.2452 -10.8429 -10.2482  -0.5179  -0.3381
    -0.1984  -0.0730  -0.0036   0.0308   0.1046   0.1844   0.3207   0.3546
     0.4009   0.4431   0.5607   0.6128   0.6818   0.7361   0.8082   0.8569
     0.9663   1.0087   1.0609   1.1339   1.1844   1.2149   1.2893   1.3345
     1.3745   1.4204   1.5724   1.6074   1.9707   2.0372   2.3331   2.5343
     2.7952   3.1045   3.1230   3.3531   3.6005   3.8259   3.9927   4.1939
     4.4252   4.5967   4.7705   4.8783   5.2086   5.2722

     occupation numbers 
     1.0000   1.0000   1.0000   1.0000   1.0000   1.0000   1.0000   1.0000
     1.0000   1.0000   1.0000   1.0000   1.0000   1.0000   1.0000   1.0000
     1.0000   1.0000   1.0000   1.0000   1.0000   1.0000   1.0000   1.0000
     1.0000   1.0000   1.0000   1.0000   1.0000   1.0000   1.0000   1.0000
     1.0000   1.0000   1.0000   1.0000   1.0000   1.0000   1.0000   1.0000
     1.0000   1.0000   1.0000   1.0000   1.0000   1.0000   1.0000   1.0000
     1.0000   1.0000   1.0000   1.0000   1.0000   1.0000

          k =-0.3333 0.3208-0.0939 (  6511 PWs)   bands (ev):

   -11.8566 -11.5143 -11.4584 -11.2565 -10.8450 -10.2458  -0.4997  -0.3594
    -0.2270  -0.0557  -0.0218   0.0160   0.0980   0.2130   0.3444   0.3693
     0.4270   0.4902   0.5732   0.6044   0.6675   0.7201   0.7970   0.8206
     0.9202   0.9654   1.0187   1.1504   1.1982   1.2573   1.3481   1.3692
     1.3921   1.4339   1.5608   1.6180   1.8734   2.1838   2.3750   2.4577
     2.7581   2.9807   3.2239   3.3574   3.5984   3.7815   3.9038   4.1904
     4.4581   4.5591   4.6805   4.8839   5.2662   5.3870

     occupation numbers 
     1.0000   1.0000   1.0000   1.0000   1.0000   1.0000   1.0000   1.0000
     1.0000   1.0000   1.0000   1.0000   1.0000   1.0000   1.0000   1.0000
     1.0000   1.0000   1.0000   1.0000   1.0000   1.0000   1.0000   1.0000
     1.0000   1.0000   1.0000   1.0000   1.0000   1.0000   1.0000   1.0000
     1.0000   1.0000   1.0000   1.0000   1.0000   1.0000   1.0000   1.0000
     1.0000   1.0000   1.0000   1.0000   1.0000   1.0000   1.0000   1.0000
     1.0000   1.0000   1.0000   1.0000   1.0000   1.0000

          k = 0.3333-0.3208-0.0939 (  6511 PWs)   bands (ev):

   -11.8581 -11.5159 -11.4657 -11.2446 -10.8435 -10.2482  -0.5146  -0.3378
    -0.1948  -0.0953   0.0106   0.0421   0.0896   0.1757   0.3085   0.3791
     0.3987   0.4515   0.5665   0.6050   0.7006   0.7467   0.7890   0.8356
     0.9357   1.0014   1.0747   1.1112   1.2189   1.2325   1.2684   1.3492
     1.3846   1.4470   1.5441   1.6160   1.9605   2.0621   2.3781   2.5036
     2.8097   2.9242   3.2785   3.3913   3.5120   3.8061   4.0120   4.2014
     4.4201   4.5999   4.7381   4.8818   5.2166   5.3187

     occupation numbers 
     1.0000   1.0000   1.0000   1.0000   1.0000   1.0000   1.0000   1.0000
     1.0000   1.0000   1.0000   1.0000   1.0000   1.0000   1.0000   1.0000
     1.0000   1.0000   1.0000   1.0000   1.0000   1.0000   1.0000   1.0000
     1.0000   1.0000   1.0000   1.0000   1.0000   1.0000   1.0000   1.0000
     1.0000   1.0000   1.0000   1.0000   1.0000   1.0000   1.0000   1.0000
     1.0000   1.0000   1.0000   1.0000   1.0000   1.0000   1.0000   1.0000
     1.0000   1.0000   1.0000   1.0000   1.0000   1.0000

          k =-0.3333-0.3208 0.1877 (  6514 PWs)   bands (ev):

   -11.8368 -11.5312 -11.4556 -11.2554 -10.8417 -10.2532  -0.5067  -0.3750
    -0.2423  -0.1426  -0.0481   0.0494   0.0980   0.1564   0.2540   0.3190
     0.4020   0.4360   0.5634   0.5998   0.6777   0.7306   0.8100   0.8612
     0.9518   0.9705   1.0731   1.1445   1.1881   1.2235   1.2713   1.2996
     1.3540   1.4383   1.5396   1.6073   2.0138   2.1404   2.2914   2.5533
     2.9202   3.1299   3.2554   3.4855   3.7347   3.9117   4.1125   4.2973
     4.5091   4.5561   4.7498   4.8058   5.0370   5.2081

     occupation numbers 
     1.0000   1.0000   1.0000   1.0000   1.0000   1.0000   1.0000   1.0000
     1.0000   1.0000   1.0000   1.0000   1.0000   1.0000   1.0000   1.0000
     1.0000   1.0000   1.0000   1.0000   1.0000   1.0000   1.0000   1.0000
     1.0000   1.0000   1.0000   1.0000   1.0000   1.0000   1.0000   1.0000
     1.0000   1.0000   1.0000   1.0000   1.0000   1.0000   1.0000   1.0000
     1.0000   1.0000   1.0000   1.0000   1.0000   1.0000   1.0000   1.0000
     1.0000   1.0000   1.0000   1.0000   1.0000   1.0000

          k =-0.3333 0.3208-0.1877 (  6514 PWs)   bands (ev):

   -11.8357 -11.5300 -11.4464 -11.2678 -10.8438 -10.2509  -0.4885  -0.3969
    -0.2662  -0.1316  -0.0556   0.0313   0.0964   0.1819   0.3023   0.3272
     0.3766   0.4982   0.5612   0.6015   0.6509   0.7231   0.7798   0.8564
     0.9223   0.9445   1.0243   1.1499   1.2060   1.2633   1.3093   1.3488
     1.3746   1.4304   1.5383   1.5865   2.0069   2.1454   2.4056   2.5869
     2.7307   3.0475   3.3788   3.5245   3.7876   3.8535   4.0346   4.1606
     4.4439   4.5315   4.6466   4.9013   5.1678   5.2989

     occupation numbers 
     1.0000   1.0000   1.0000   1.0000   1.0000   1.0000   1.0000   1.0000
     1.0000   1.0000   1.0000   1.0000   1.0000   1.0000   1.0000   1.0000
     1.0000   1.0000   1.0000   1.0000   1.0000   1.0000   1.0000   1.0000
     1.0000   1.0000   1.0000   1.0000   1.0000   1.0000   1.0000   1.0000
     1.0000   1.0000   1.0000   1.0000   1.0000   1.0000   1.0000   1.0000
     1.0000   1.0000   1.0000   1.0000   1.0000   1.0000   1.0000   1.0000
     1.0000   1.0000   1.0000   1.0000   1.0000   1.0000

          k = 0.3333-0.3208-0.1877 (  6514 PWs)   bands (ev):

   -11.8372 -11.5309 -11.4556 -11.2547 -10.8423 -10.2533  -0.5034  -0.3748
    -0.2346  -0.1715  -0.0291   0.0489   0.1116   0.1357   0.2519   0.3248
     0.3852   0.4723   0.5597   0.6101   0.6672   0.7218   0.7854   0.8689
     0.9352   0.9656   1.0648   1.1544   1.1882   1.2390   1.2717   1.3335
     1.3664   1.4452   1.4974   1.5986   2.0062   2.1873   2.3710   2.5266
     2.8092   3.0635   3.3523   3.5859   3.6713   3.9241   4.0370   4.2389
     4.4468   4.6387   4.7317   4.8592   5.0585   5.2253

     occupation numbers 
     1.0000   1.0000   1.0000   1.0000   1.0000   1.0000   1.0000   1.0000
     1.0000   1.0000   1.0000   1.0000   1.0000   1.0000   1.0000   1.0000
     1.0000   1.0000   1.0000   1.0000   1.0000   1.0000   1.0000   1.0000
     1.0000   1.0000   1.0000   1.0000   1.0000   1.0000   1.0000   1.0000
     1.0000   1.0000   1.0000   1.0000   1.0000   1.0000   1.0000   1.0000
     1.0000   1.0000   1.0000   1.0000   1.0000   1.0000   1.0000   1.0000
     1.0000   1.0000   1.0000   1.0000   1.0000   1.0000

          k =-0.3333 0.3208 0.2816 (  6506 PWs)   bands (ev):

   -11.8250 -11.5395 -11.4448 -11.2669 -10.8424 -10.2546  -0.4758  -0.4228
    -0.2768  -0.1784  -0.0668   0.0565   0.0962   0.1503   0.2587   0.2983
     0.3757   0.4956   0.5518   0.6046   0.6457   0.7151   0.7790   0.8785
     0.9210   0.9414   1.0752   1.1186   1.2124   1.2472   1.2876   1.3297
     1.3724   1.4355   1.4963   1.5839   2.0561   2.1816   2.3378   2.6026
     2.8133   3.0853   3.4819   3.6169   3.7513   3.9575   4.0790   4.2718
     4.4511   4.5350   4.7396   4.8794   5.0113   5.1831

     occupation numbers 
     1.0000   1.0000   1.0000   1.0000   1.0000   1.0000   1.0000   1.0000
     1.0000   1.0000   1.0000   1.0000   1.0000   1.0000   1.0000   1.0000
     1.0000   1.0000   1.0000   1.0000   1.0000   1.0000   1.0000   1.0000
     1.0000   1.0000   1.0000   1.0000   1.0000   1.0000   1.0000   1.0000
     1.0000   1.0000   1.0000   1.0000   1.0000   1.0000   1.0000   1.0000
     1.0000   1.0000   1.0000   1.0000   1.0000   1.0000   1.0000   1.0000
     1.0000   1.0000   1.0000   1.0000   1.0000   1.0000

          k =-0.3333 0.0000 0.0939 (  6520 PWs)   bands (ev):

   -11.8587 -11.5178 -11.4622 -11.2454 -10.8436 -10.2483  -0.5141  -0.3363
    -0.1939  -0.0819   0.0142   0.0319   0.0973   0.1772   0.3129   0.3671
     0.3973   0.4468   0.5638   0.5930   0.6969   0.7304   0.7939   0.8310
     0.9456   0.9961   1.0735   1.1293   1.1992   1.2202   1.2858   1.3496
     1.3743   1.4324   1.5648   1.6053   1.9580   2.0434   2.3752   2.5309
     2.8046   3.0408   3.3271   3.3885   3.5283   3.7705   3.9018   4.2921
     4.4372   4.6033   4.7041   4.8084   5.2159   5.2846

     occupation numbers 
     1.0000   1.0000   1.0000   1.0000   1.0000   1.0000   1.0000   1.0000
     1.0000   1.0000   1.0000   1.0000   1.0000   1.0000   1.0000   1.0000
     1.0000   1.0000   1.0000   1.0000   1.0000   1.0000   1.0000   1.0000
     1.0000   1.0000   1.0000   1.0000   1.0000   1.0000   1.0000   1.0000
     1.0000   1.0000   1.0000   1.0000   1.0000   1.0000   1.0000   1.0000
     1.0000   1.0000   1.0000   1.0000   1.0000   1.0000   1.0000   1.0000
     1.0000   1.0000   1.0000   1.0000   1.0000   1.0000

          k =-0.3333 0.0000 0.1877 (  6512 PWs)   bands (ev):

   -11.8377 -11.5323 -11.4531 -11.2550 -10.8425 -10.2534  -0.5033  -0.3742
    -0.2376  -0.1523  -0.0349   0.0475   0.1029   0.1422   0.2592   0.3246
     0.3864   0.4596   0.5621   0.5787   0.6719   0.7284   0.7962   0.8518
     0.9462   0.9604   1.0656   1.1700   1.1865   1.2413   1.2558   1.3157
     1.3639   1.4434   1.5340   1.5757   2.0103   2.1525   2.3420   2.5268
     2.8726   3.1231   3.4489   3.5064   3.7251   3.9116   4.0768   4.2856
     4.3772   4.5740   4.7264   4.8123   5.0468   5.2019

     occupation numbers 
     1.0000   1.0000   1.0000   1.0000   1.0000   1.0000   1.0000   1.0000
     1.0000   1.0000   1.0000   1.0000   1.0000   1.0000   1.0000   1.0000
     1.0000   1.0000   1.0000   1.0000   1.0000   1.0000   1.0000   1.0000
     1.0000   1.0000   1.0000   1.0000   1.0000   1.0000   1.0000   1.0000
     1.0000   1.0000   1.0000   1.0000   1.0000   1.0000   1.0000   1.0000
     1.0000   1.0000   1.0000   1.0000   1.0000   1.0000   1.0000   1.0000
     1.0000   1.0000   1.0000   1.0000   1.0000   1.0000

          k = 0.5000-0.2887 0.0000 (  6526 PWs)   bands (ev):

   -11.7779 -11.4556 -11.3990 -11.2327 -10.7964 -10.2033  -0.4513  -0.2907
    -0.1983  -0.0286   0.0003   0.0620   0.0762   0.2262   0.4057   0.4478
     0.5109   0.5426   0.5952   0.6533   0.6813   0.7689   0.8258   0.8703
     0.9773   1.0297   1.0781   1.1156   1.1801   1.3223   1.3770   1.3838
     1.4101   1.4486   1.5466   1.6252   1.9796   2.0130   2.1306   2.3635
     2.5147   2.7947   3.0169   3.2152   3.3815   3.5843   3.7373   4.0255
     4.3691   4.4796   4.6404   4.6818   4.9998   5.2555

     occupation numbers 
     1.0000   1.0000   1.0000   1.0000   1.0000   1.0000   1.0000   1.0000
     1.0000   1.0000   1.0000   1.0000   1.0000   1.0000   1.0000   1.0000
     1.0000   1.0000   1.0000   1.0000   1.0000   1.0000   1.0000   1.0000
     1.0000   1.0000   1.0000   1.0000   1.0000   1.0000   1.0000   1.0000
     1.0000   1.0000   1.0000   1.0000   1.0000   1.0000   1.0000   1.0000
     1.0000   1.0000   1.0000   1.0000   1.0000   1.0000   1.0000   1.0000
     1.0000   1.0000   1.0000   1.0000   1.0000   1.0000

          k = 0.5000-0.2887-0.0939 (  6516 PWs)   bands (ev):

   -11.7722 -11.4596 -11.3988 -11.2309 -10.7971 -10.2038  -0.4490  -0.2997
    -0.2224  -0.0698  -0.0097   0.0626   0.0844   0.2012   0.3710   0.4245
     0.5075   0.5420   0.5886   0.6477   0.7134   0.7634   0.8404   0.8791
     0.9562   1.0285   1.0751   1.1198   1.1874   1.3145   1.3607   1.3885
     1.4026   1.4403   1.5318   1.6059   1.9421   1.9925   2.1533   2.3200
     2.5432   2.8199   3.0350   3.3509   3.4621   3.6692   3.8099   4.0544
     4.3884   4.5052   4.6054   4.7177   5.0114   5.2323

     occupation numbers 
     1.0000   1.0000   1.0000   1.0000   1.0000   1.0000   1.0000   1.0000
     1.0000   1.0000   1.0000   1.0000   1.0000   1.0000   1.0000   1.0000
     1.0000   1.0000   1.0000   1.0000   1.0000   1.0000   1.0000   1.0000
     1.0000   1.0000   1.0000   1.0000   1.0000   1.0000   1.0000   1.0000
     1.0000   1.0000   1.0000   1.0000   1.0000   1.0000   1.0000   1.0000
     1.0000   1.0000   1.0000   1.0000   1.0000   1.0000   1.0000   1.0000
     1.0000   1.0000   1.0000   1.0000   1.0000   1.0000

          k = 0.5000-0.2887-0.1877 (  6496 PWs)   bands (ev):

   -11.7601 -11.4684 -11.3981 -11.2275 -10.7986 -10.2047  -0.4341  -0.3342
    -0.2555  -0.1630  -0.0493   0.0626   0.1212   0.1791   0.3046   0.3976
     0.5087   0.5183   0.5759   0.6685   0.7063   0.7430   0.8446   0.9239
     0.9439   1.0315   1.0527   1.1352   1.1959   1.2871   1.3328   1.3769
     1.4022   1.4571   1.4940   1.5675   1.8720   1.9652   2.2048   2.2995
     2.5113   2.7724   3.2358   3.5615   3.6416   3.8767   3.9515   4.0831
     4.3939   4.5210   4.6459   4.7330   4.9916   5.1944

     occupation numbers 
     1.0000   1.0000   1.0000   1.0000   1.0000   1.0000   1.0000   1.0000
     1.0000   1.0000   1.0000   1.0000   1.0000   1.0000   1.0000   1.0000
     1.0000   1.0000   1.0000   1.0000   1.0000   1.0000   1.0000   1.0000
     1.0000   1.0000   1.0000   1.0000   1.0000   1.0000   1.0000   1.0000
     1.0000   1.0000   1.0000   1.0000   1.0000   1.0000   1.0000   1.0000
     1.0000   1.0000   1.0000   1.0000   1.0000   1.0000   1.0000   1.0000
     1.0000   1.0000   1.0000   1.0000   1.0000   1.0000

          k = 0.5000-0.2887 0.2816 (  6524 PWs)   bands (ev):

   -11.7538 -11.4732 -11.3976 -11.2258 -10.7993 -10.2052  -0.3931  -0.3902
    -0.2693  -0.2018  -0.0805   0.0685   0.1524   0.1687   0.2690   0.3831
     0.5031   0.5224   0.5710   0.6615   0.6794   0.7483   0.8503   0.9335
     0.9637   1.0042   1.0797   1.1288   1.1752   1.2889   1.3180   1.3724
     1.4093   1.4564   1.4914   1.5404   1.8447   1.9479   2.2540   2.2958
     2.4613   2.7366   3.4447   3.5774   3.7369   3.9382   4.0435   4.1195
     4.3981   4.5207   4.6569   4.7979   4.9227   5.1693

     occupation numbers 
     1.0000   1.0000   1.0000   1.0000   1.0000   1.0000   1.0000   1.0000
     1.0000   1.0000   1.0000   1.0000   1.0000   1.0000   1.0000   1.0000
     1.0000   1.0000   1.0000   1.0000   1.0000   1.0000   1.0000   1.0000
     1.0000   1.0000   1.0000   1.0000   1.0000   1.0000   1.0000   1.0000
     1.0000   1.0000   1.0000   1.0000   1.0000   1.0000   1.0000   1.0000
     1.0000   1.0000   1.0000   1.0000   1.0000   1.0000   1.0000   1.0000
     1.0000   1.0000   1.0000   1.0000   1.0000   1.0000

          k = 0.5000-0.2245 0.0000 (  6530 PWs)   bands (ev):

   -11.7778 -11.4557 -11.3991 -11.2327 -10.7962 -10.2033  -0.4523  -0.2895
    -0.1985  -0.0296   0.0025   0.0547   0.0896   0.2171   0.3993   0.4501
     0.5092   0.5478   0.6018   0.6455   0.6877   0.7777   0.8066   0.8806
     0.9723   1.0412   1.0612   1.1263   1.1903   1.3204   1.3586   1.3864
     1.4069   1.4700   1.5404   1.6258   1.9563   2.0028   2.1310   2.3614
     2.5552   2.8031   2.9774   3.2080   3.3435   3.6556   3.7797   4.0259
     4.3470   4.4161   4.5927   4.7930   4.9970   5.2264

     occupation numbers 
     1.0000   1.0000   1.0000   1.0000   1.0000   1.0000   1.0000   1.0000
     1.0000   1.0000   1.0000   1.0000   1.0000   1.0000   1.0000   1.0000
     1.0000   1.0000   1.0000   1.0000   1.0000   1.0000   1.0000   1.0000
     1.0000   1.0000   1.0000   1.0000   1.0000   1.0000   1.0000   1.0000
     1.0000   1.0000   1.0000   1.0000   1.0000   1.0000   1.0000   1.0000
     1.0000   1.0000   1.0000   1.0000   1.0000   1.0000   1.0000   1.0000
     1.0000   1.0000   1.0000   1.0000   1.0000   1.0000

          k = 0.5000 0.2245 0.0939 (  6519 PWs)   bands (ev):

   -11.7718 -11.4598 -11.3989 -11.2313 -10.7967 -10.2038  -0.4509  -0.2958
    -0.2220  -0.0699   0.0044   0.0355   0.1209   0.1727   0.3553   0.4393
     0.4942   0.5512   0.6066   0.6581   0.6986   0.7537   0.8338   0.9025
     0.9546   1.0112   1.0657   1.1332   1.2108   1.3046   1.3442   1.3635
     1.4064   1.4652   1.5375   1.6175   1.9136   1.9879   2.1473   2.2828
     2.6757   2.7575   3.0364   3.2334   3.4471   3.7553   3.9603   4.0721
     4.3125   4.4041   4.6060   4.8606   4.9785   5.1590

     occupation numbers 
     1.0000   1.0000   1.0000   1.0000   1.0000   1.0000   1.0000   1.0000
     1.0000   1.0000   1.0000   1.0000   1.0000   1.0000   1.0000   1.0000
     1.0000   1.0000   1.0000   1.0000   1.0000   1.0000   1.0000   1.0000
     1.0000   1.0000   1.0000   1.0000   1.0000   1.0000   1.0000   1.0000
     1.0000   1.0000   1.0000   1.0000   1.0000   1.0000   1.0000   1.0000
     1.0000   1.0000   1.0000   1.0000   1.0000   1.0000   1.0000   1.0000
     1.0000   1.0000   1.0000   1.0000   1.0000   1.0000

          k = 0.5000-0.2245-0.0939 (  6519 PWs)   bands (ev):

   -11.7720 -11.4595 -11.3992 -11.2309 -10.7970 -10.2038  -0.4497  -0.2989
    -0.2244  -0.0666  -0.0116   0.0675   0.0821   0.2022   0.3692   0.4320
     0.5028   0.5265   0.5937   0.6427   0.7055   0.7731   0.8293   0.9042
     0.9583   1.0349   1.0696   1.1345   1.1992   1.3017   1.3446   1.3827
     1.3976   1.4675   1.5165   1.6110   1.9266   1.9572   2.1478   2.3651
     2.5502   2.8060   3.0358   3.2959   3.4695   3.7454   3.8556   4.0532
     4.3518   4.4394   4.5781   4.8212   4.9901   5.2095

     occupation numbers 
     1.0000   1.0000   1.0000   1.0000   1.0000   1.0000   1.0000   1.0000
     1.0000   1.0000   1.0000   1.0000   1.0000   1.0000   1.0000   1.0000
     1.0000   1.0000   1.0000   1.0000   1.0000   1.0000   1.0000   1.0000
     1.0000   1.0000   1.0000   1.0000   1.0000   1.0000   1.0000   1.0000
     1.0000   1.0000   1.0000   1.0000   1.0000   1.0000   1.0000   1.0000
     1.0000   1.0000   1.0000   1.0000   1.0000   1.0000   1.0000   1.0000
     1.0000   1.0000   1.0000   1.0000   1.0000   1.0000

          k =-0.5000 0.2245-0.0939 (  6519 PWs)   bands (ev):

   -11.7721 -11.4597 -11.3987 -11.2312 -10.7970 -10.2038  -0.4496  -0.2982
    -0.2210  -0.0705  -0.0031   0.0476   0.0993   0.1893   0.3630   0.4327
     0.5024   0.5548   0.5912   0.6634   0.7065   0.7518   0.8279   0.8907
     0.9559   1.0315   1.0521   1.1254   1.1946   1.3166   1.3523   1.3791
     1.4072   1.4480   1.5390   1.6082   1.9367   2.0084   2.1474   2.2878
     2.5921   2.8159   3.0239   3.2973   3.4558   3.6941   3.8581   4.0519
     4.3809   4.4821   4.6303   4.7359   5.0052   5.2054

     occupation numbers 
     1.0000   1.0000   1.0000   1.0000   1.0000   1.0000   1.0000   1.0000
     1.0000   1.0000   1.0000   1.0000   1.0000   1.0000   1.0000   1.0000
     1.0000   1.0000   1.0000   1.0000   1.0000   1.0000   1.0000   1.0000
     1.0000   1.0000   1.0000   1.0000   1.0000   1.0000   1.0000   1.0000
     1.0000   1.0000   1.0000   1.0000   1.0000   1.0000   1.0000   1.0000
     1.0000   1.0000   1.0000   1.0000   1.0000   1.0000   1.0000   1.0000
     1.0000   1.0000   1.0000   1.0000   1.0000   1.0000

          k = 0.5000 0.2245 0.1877 (  6507 PWs)   bands (ev):

   -11.7598 -11.4683 -11.3984 -11.2280 -10.7982 -10.2047  -0.4347  -0.3303
    -0.2556  -0.1553  -0.0494   0.0492   0.1308   0.1746   0.2847   0.4305
     0.4799   0.5224   0.5968   0.6516   0.6855   0.7624   0.8567   0.9305
     0.9589   0.9868   1.0687   1.1405   1.2142   1.2582   1.2914   1.3729
     1.4091   1.4615   1.5180   1.5925   1.9094   2.0049   2.0794   2.2498
     2.6454   2.7614   3.1867   3.4468   3.6434   3.9204   4.0429   4.1858
     4.3792   4.5323   4.6174   4.7644   4.9100   5.1576

     occupation numbers 
     1.0000   1.0000   1.0000   1.0000   1.0000   1.0000   1.0000   1.0000
     1.0000   1.0000   1.0000   1.0000   1.0000   1.0000   1.0000   1.0000
     1.0000   1.0000   1.0000   1.0000   1.0000   1.0000   1.0000   1.0000
     1.0000   1.0000   1.0000   1.0000   1.0000   1.0000   1.0000   1.0000
     1.0000   1.0000   1.0000   1.0000   1.0000   1.0000   1.0000   1.0000
     1.0000   1.0000   1.0000   1.0000   1.0000   1.0000   1.0000   1.0000
     1.0000   1.0000   1.0000   1.0000   1.0000   1.0000

          k = 0.5000-0.2245-0.1877 (  6507 PWs)   bands (ev):

   -11.7600 -11.4682 -11.3985 -11.2275 -10.7985 -10.2047  -0.4336  -0.3337
    -0.2609  -0.1536  -0.0540   0.0653   0.1052   0.1974   0.3094   0.3982
     0.4869   0.5115   0.5823   0.6622   0.7036   0.7640   0.8497   0.9175
     0.9359   1.0334   1.0655   1.1548   1.1926   1.2908   1.3208   1.3699
     1.4022   1.4510   1.4832   1.5846   1.8565   1.9607   2.1792   2.3359
     2.4988   2.8029   3.1803   3.5112   3.7302   3.8820   4.0260   4.0554
     4.3771   4.4966   4.6306   4.7774   4.9559   5.1861

     occupation numbers 
     1.0000   1.0000   1.0000   1.0000   1.0000   1.0000   1.0000   1.0000
     1.0000   1.0000   1.0000   1.0000   1.0000   1.0000   1.0000   1.0000
     1.0000   1.0000   1.0000   1.0000   1.0000   1.0000   1.0000   1.0000
     1.0000   1.0000   1.0000   1.0000   1.0000   1.0000   1.0000   1.0000
     1.0000   1.0000   1.0000   1.0000   1.0000   1.0000   1.0000   1.0000
     1.0000   1.0000   1.0000   1.0000   1.0000   1.0000   1.0000   1.0000
     1.0000   1.0000   1.0000   1.0000   1.0000   1.0000

          k =-0.5000 0.2245-0.1877 (  6507 PWs)   bands (ev):

   -11.7600 -11.4684 -11.3980 -11.2278 -10.7984 -10.2047  -0.4347  -0.3325
    -0.2522  -0.1638  -0.0485   0.0550   0.1389   0.1621   0.2939   0.4146
     0.4967   0.5349   0.5766   0.6672   0.6885   0.7489   0.8466   0.9309
     0.9541   1.0127   1.0470   1.1354   1.2115   1.2590   1.3232   1.3778
     1.4105   1.4500   1.5184   1.5714   1.8887   1.9960   2.1398   2.2703
     2.5821   2.7649   3.2376   3.4886   3.6245   3.8849   3.9919   4.1121
     4.4277   4.5713   4.6186   4.7055   4.9671   5.1802

     occupation numbers 
     1.0000   1.0000   1.0000   1.0000   1.0000   1.0000   1.0000   1.0000
     1.0000   1.0000   1.0000   1.0000   1.0000   1.0000   1.0000   1.0000
     1.0000   1.0000   1.0000   1.0000   1.0000   1.0000   1.0000   1.0000
     1.0000   1.0000   1.0000   1.0000   1.0000   1.0000   1.0000   1.0000
     1.0000   1.0000   1.0000   1.0000   1.0000   1.0000   1.0000   1.0000
     1.0000   1.0000   1.0000   1.0000   1.0000   1.0000   1.0000   1.0000
     1.0000   1.0000   1.0000   1.0000   1.0000   1.0000

          k = 0.5000-0.2245 0.2816 (  6496 PWs)   bands (ev):

   -11.7536 -11.4731 -11.3978 -11.2259 -10.7992 -10.2052  -0.3934  -0.3881
    -0.2718  -0.1952  -0.0840   0.0655   0.1405   0.1839   0.2656   0.3924
     0.4929   0.5148   0.5754   0.6584   0.6807   0.7570   0.8598   0.9199
     0.9732   0.9924   1.0887   1.1313   1.1758   1.2821   1.3106   1.3689
     1.4064   1.4571   1.4889   1.5614   1.8522   1.9627   2.1974   2.2668
     2.5233   2.7579   3.3486   3.5890   3.7524   3.9758   4.0689   4.1378
     4.4203   4.5224   4.6546   4.7705   4.8949   5.1632

     occupation numbers 
     1.0000   1.0000   1.0000   1.0000   1.0000   1.0000   1.0000   1.0000
     1.0000   1.0000   1.0000   1.0000   1.0000   1.0000   1.0000   1.0000
     1.0000   1.0000   1.0000   1.0000   1.0000   1.0000   1.0000   1.0000
     1.0000   1.0000   1.0000   1.0000   1.0000   1.0000   1.0000   1.0000
     1.0000   1.0000   1.0000   1.0000   1.0000   1.0000   1.0000   1.0000
     1.0000   1.0000   1.0000   1.0000   1.0000   1.0000   1.0000   1.0000
     1.0000   1.0000   1.0000   1.0000   1.0000   1.0000

     highest occupied level (ev):     5.8987

!    total energy              =   -1084.66390668 Ry
     estimated scf accuracy    <          8.7E-09 Ry

     The total energy is the sum of the following terms:
     one-electron contribution =    -506.38614889 Ry
     hartree contribution      =     371.23540783 Ry
     xc contribution           =    -328.14732615 Ry
     ewald contribution        =    -621.36583947 Ry

     convergence has been achieved in  30 iterations

     Forces acting on atoms (cartesian axes, Ry/au):

     atom    1 type  1   force =     0.04223130   -0.06135474    0.01254907
     atom    2 type  1   force =    -0.06150889    0.03972434    0.01900295
     atom    3 type  2   force =     0.10455438   -0.02450993    0.00718632
     atom    4 type  2   force =    -0.06375974   -0.01566913   -0.06614862
     atom    5 type  1   force =     0.05061078    0.02788851    0.00879663
     atom    6 type  1   force =     0.08084208    0.07611827    0.02419600
     atom    7 type  2   force =    -0.07886190   -0.06418081    0.05126517
     atom    8 type  2   force =    -0.06820507   -0.02714479   -0.07770014
     atom    9 type  1   force =    -0.08412438   -0.00473699    0.06050998
     atom   10 type  1   force =    -0.06017508   -0.00731006    0.00035744
     atom   11 type  2   force =     0.02569281   -0.01903891    0.00962914
     atom   12 type  2   force =     0.11270370    0.08021423   -0.04964393
     The non-local contrib.  to forces
     atom    1 type  1   force =     0.30776986   -0.04993207    0.11569381
     atom    2 type  1   force =    -0.44470247    0.29151914    0.41258800
     atom    3 type  2   force =    -0.00159175    0.35180156    0.30247352
     atom    4 type  2   force =    -0.00664093    0.09794796    0.23835721
     atom    5 type  1   force =     0.18872870   -0.04170842    0.02725029
     atom    6 type  1   force =     0.32483002   -0.02308251    0.48613709
     atom    7 type  2   force =     0.19900681   -0.20391540    0.37283125
     atom    8 type  2   force =     0.22359310    0.02299768    0.02333301
     atom    9 type  1   force =    -0.41309994   -0.00187817    0.26420624
     atom   10 type  1   force =    -0.16705335    0.34500711    0.29768693
     atom   11 type  2   force =    -0.34622764    0.24665360    0.37103351
     atom   12 type  2   force =    -0.17285451   -0.07023495    0.11156218
     The ionic contribution  to forces
     atom    1 type  1   force =     2.63081165   -4.89478706   -0.81114434
     atom    2 type  1   force =    -3.28085014    0.80496218    5.09349220
     atom    3 type  2   force =     1.67543828   -3.07628594   -0.50702717
     atom    4 type  2   force =    -1.07118102   -1.76834268   -4.80038945
     atom    5 type  1   force =     1.39731797    1.89098483   -1.73667392
     atom    6 type  1   force =     2.61672554    2.88975472    4.91721918
     atom    7 type  2   force =    -2.20511037    0.87790966    0.30985544
     atom    8 type  2   force =    -2.27110983    0.47022646   -3.38842794
     atom    9 type  1   force =    -3.39801255    1.96532891    2.71670976
     atom   10 type  1   force =    -0.93114428    0.36992662    1.97400323
     atom   11 type  2   force =     2.14542896   -1.48349116   -1.82236647
     atom   12 type  2   force =     2.69168579    1.95381346   -1.94525052
     The local contribution  to forces
     atom    1 type  1   force =    -2.87381502    4.87291458    0.71607306
     atom    2 type  1   force =     3.63289968   -1.03628067   -5.46071541
     atom    3 type  2   force =    -1.56855009    2.70300787    0.21452656
     atom    4 type  2   force =     1.01352778    1.65549306    4.49738450
     atom    5 type  1   force =    -1.51829159   -1.81912794    1.72006440
     atom    6 type  1   force =    -2.83453679   -2.78525369   -5.34771295
     atom    7 type  2   force =     1.92850265   -0.74052119   -0.62768768
     atom    8 type  2   force =     1.98087881   -0.52036245    3.28687355
     atom    9 type  1   force =     3.69279510   -1.96592802   -2.89692263
     atom   10 type  1   force =     1.02528445   -0.70323838   -2.25335800
     atom   11 type  2   force =    -1.77651064    1.21992867    1.46435304
     atom   12 type  2   force =    -2.40692536   -1.80334395    1.78464597
     The core correction contribution to forces
     atom    1 type  1   force =    -0.02252056    0.01049438   -0.00809474
     atom    2 type  1   force =     0.03112168   -0.02045752   -0.02631495
     atom    3 type  2   force =    -0.00073789   -0.00299953   -0.00275825
     atom    4 type  2   force =     0.00053158   -0.00077110   -0.00153362
     atom    5 type  1   force =    -0.01713486   -0.00239441   -0.00193381
     atom    6 type  1   force =    -0.02614077   -0.00540624   -0.03133514
     atom    7 type  2   force =    -0.00126110    0.00228930   -0.00368620
     atom    8 type  2   force =    -0.00156824   -0.00005052    0.00047343
     atom    9 type  1   force =     0.03416403   -0.00219989   -0.02350720
     atom   10 type  1   force =     0.01273669   -0.01888499   -0.01793697
     atom   11 type  2   force =     0.00299975   -0.00209983   -0.00336503
     atom   12 type  2   force =     0.00080429    0.00002531   -0.00062652
     The Hubbard contrib.    to forces
     atom    1 type  1   force =     0.00000000    0.00000000    0.00000000
     atom    2 type  1   force =     0.00000000    0.00000000    0.00000000
     atom    3 type  2   force =     0.00000000    0.00000000    0.00000000
     atom    4 type  2   force =     0.00000000    0.00000000    0.00000000
     atom    5 type  1   force =     0.00000000    0.00000000    0.00000000
     atom    6 type  1   force =     0.00000000    0.00000000    0.00000000
     atom    7 type  2   force =     0.00000000    0.00000000    0.00000000
     atom    8 type  2   force =     0.00000000    0.00000000    0.00000000
     atom    9 type  1   force =     0.00000000    0.00000000    0.00000000
     atom   10 type  1   force =     0.00000000    0.00000000    0.00000000
     atom   11 type  2   force =     0.00000000    0.00000000    0.00000000
     atom   12 type  2   force =     0.00000000    0.00000000    0.00000000
     The SCF correction term to forces
     atom    1 type  1   force =    -0.00001486   -0.00004504    0.00001713
     atom    2 type  1   force =     0.00002212   -0.00001926   -0.00005105
     atom    3 type  2   force =    -0.00000440   -0.00003437   -0.00003250
     atom    4 type  2   force =     0.00000262    0.00000314    0.00002857
     atom    5 type  1   force =    -0.00000968    0.00013398    0.00008550
     atom    6 type  1   force =    -0.00003615    0.00010551   -0.00011634
     atom    7 type  2   force =    -0.00000012    0.00005635   -0.00005181
     atom    8 type  2   force =     0.00000086    0.00004355    0.00004365
     atom    9 type  1   force =     0.00002874   -0.00006030    0.00001964
     atom   10 type  1   force =     0.00000119   -0.00012090   -0.00004191
     atom   11 type  2   force =     0.00000214   -0.00003067   -0.00003007
     atom   12 type  2   force =    -0.00000675   -0.00004612    0.00002080

     Total force =     0.331020     Total SCF correction =     0.000309

     init_run     :      6.37s CPU      6.58s WALL (       1 calls)
     electrons    :    343.74s CPU    356.04s WALL (       1 calls)
     forces       :      2.18s CPU      2.20s WALL (       1 calls)

     Called by init_run:
     wfcinit      :      3.37s CPU      3.53s WALL (       1 calls)
     wfcinit:atom :      0.05s CPU      0.05s WALL (      14 calls)
     wfcinit:wfcr :      3.10s CPU      3.24s WALL (      14 calls)
     potinit      :      0.94s CPU      0.97s WALL (       1 calls)
     hinit0       :      1.83s CPU      1.84s WALL (       1 calls)

     Called by electrons:
     c_bands      :    306.26s CPU    316.47s WALL (      30 calls)
     sum_band     :     31.75s CPU     33.58s WALL (      30 calls)
     v_of_rho     :      3.41s CPU      3.60s WALL (      31 calls)
     v_h          :      0.20s CPU      0.22s WALL (      31 calls)
     v_xc         :      3.30s CPU      3.48s WALL (      32 calls)
     newd         :      1.71s CPU      1.75s WALL (      31 calls)
     mix_rho      :      0.44s CPU      0.46s WALL (      30 calls)

     Called by c_bands:
     init_us_2    :      2.25s CPU      2.27s WALL (     868 calls)
     init_us_2:cp :      2.24s CPU      2.27s WALL (     868 calls)
     cegterg      :    275.95s CPU    286.09s WALL (     420 calls)

     Called by sum_band:
     sum_band:wei :      0.01s CPU      0.01s WALL (      30 calls)
     sum_band:loo :     29.15s CPU     30.80s WALL (      30 calls)
     sum_band:buf :      0.26s CPU      0.29s WALL (     420 calls)
     sum_band:ini :      1.02s CPU      1.03s WALL (     420 calls)
     sum_band:cal :      4.01s CPU      4.11s WALL (     420 calls)
     sum_band:bec :      0.07s CPU      0.07s WALL (     420 calls)
     addusdens    :      1.67s CPU      1.75s WALL (      30 calls)
                                        0.00s GPU  (      30 calls)
     addusd:skk   :      0.01s CPU      0.01s WALL (      60 calls)
                                        0.00s GPU  (      60 calls)

     Called by *egterg:
     cdiaghg      :     25.27s CPU     25.31s WALL (    2972 calls)
     cegterg:over :     14.30s CPU     14.59s WALL (    2552 calls)
     cegterg:upda :     10.03s CPU     10.06s WALL (    2552 calls)
     cegterg:last :     20.86s CPU     20.89s WALL (    1311 calls)
     h_psi        :    185.62s CPU    195.39s WALL (    2986 calls)
     s_psi        :     16.86s CPU     16.89s WALL (    2986 calls)
     g_psi        :      0.98s CPU      0.98s WALL (    2552 calls)

     Called by h_psi:
     h_psi:calbec :     14.99s CPU     15.40s WALL (    2986 calls)
     vloc_psi     :    152.51s CPU    161.81s WALL (    2986 calls)
     add_vuspsi   :     17.40s CPU     17.44s WALL (    2986 calls)

     General routines
     calbec       :     19.53s CPU     20.05s WALL (    3462 calls)
     fft          :      2.09s CPU      2.34s WALL (     412 calls)
     ffts         :      0.24s CPU      0.26s WALL (      61 calls)
     fftw         :    152.57s CPU    162.01s WALL (  178778 calls)
     interpolate  :      0.32s CPU      0.34s WALL (      31 calls)

     Parallel routines

     PWSCF        :   5m52.85s CPU   6m 5.39s WALL


   This run was terminated on:   5: 2:25  28Sep2025            

=------------------------------------------------------------------------------=
   JOB DONE.
=------------------------------------------------------------------------------=
Note: The following floating-point exceptions are signalling: IEEE_INVALID_FLAG
Note: The following floating-point exceptions are signalling: IEEE_INVALID_FLAG
Note: The following floating-point exceptions are signalling: IEEE_INVALID_FLAG
Note: The following floating-point exceptions are signalling: IEEE_INVALID_FLAG
Note: The following floating-point exceptions are signalling: IEEE_INVALID_FLAG
Note: The following floating-point exceptions are signalling: IEEE_INVALID_FLAG
Note: The following floating-point exceptions are signalling: IEEE_INVALID_FLAG
Note: The following floating-point exceptions are signalling: IEEE_INVALID_FLAG
