
     Program PWSCF v.7.2 starts on 26Sep2025 at 10:34:16 

     This program is part of the open-source Quantum ESPRESSO suite
     for quantum simulation of materials; please cite
         "P. Giannozzi et al., J. Phys.:Condens. Matter 21 395502 (2009);
         "P. Giannozzi et al., J. Phys.:Condens. Matter 29 465901 (2017);
         "P. Giannozzi et al., J. Chem. Phys. 152 154105 (2020);
          URL http://www.quantum-espresso.org", 
     in publications or presentations arising from this work. More details at
     http://www.quantum-espresso.org/quote

     Parallel version (MPI), running on    32 processors

     MPI processes distributed on     1 nodes
     111316 MiB available memory on the printing compute node when the environment starts

     Reading input from /home/jvc/QEspresso7.2/ZnO_database/scripts/random_1x3x1.in/ZnO-2.94-1.55-131-0.12-3.in
Warning: card &CELL ignored
Warning: card / ignored
Warning: card &FCP ignored
Warning: card / ignored
Warning: card &RISM ignored
Warning: card / ignored

     Current dimensions of program PWSCF are:
     Max number of different atomic species (ntypx) = 10
     Max number of k-points (npk) =  40000
     Max angular momentum in pseudopotentials (lmaxx) =  4
     file Zn.upf: wavefunction(s)  3D renormalized

     K-points division:     npool     =       4
     R & G space division:  proc/nbgrp/npool/nimage =       8
     Subspace diagonalization in iterative solution of the eigenvalue problem:
     a serial algorithm will be used


     Parallelization info
     --------------------
     sticks:   dense  smooth     PW     G-vecs:    dense   smooth      PW
     Min         318     160     47                11698     4135     691
     Max         320     162     48                11699     4137     694
     Sum        2551    1289    381                93589    33087    5545

     Using Slab Decomposition



     bravais-lattice index     =            0
     lattice parameter (alat)  =       5.5609  a.u.
     unit-cell volume          =     692.4167 (a.u.)^3
     number of atoms/cell      =           12
     number of atomic types    =            2
     number of electrons       =       108.00
     number of Kohn-Sham states=           54
     kinetic-energy cutoff     =      50.0000  Ry
     charge density cutoff     =     400.0000  Ry
     scf convergence threshold =      1.0E-08
     mixing beta               =       0.3000
     number of iterations used =            8  plain     mixing
     Exchange-correlation= PBE
                           (   1   4   3   4   0   0   0)

     celldm(1)=   5.560939  celldm(2)=   0.000000  celldm(3)=   0.000000
     celldm(4)=   0.000000  celldm(5)=   0.000000  celldm(6)=   0.000000

     crystal axes: (cart. coord. in units of alat)
               a(1) = (   1.000000   0.000000   0.000000 )  
               a(2) = (  -1.500000   2.598076   0.000000 )  
               a(3) = (   0.000000   0.000000   1.549784 )  

     reciprocal axes: (cart. coord. in units 2 pi/alat)
               b(1) = (  1.000000  0.577350 -0.000000 )  
               b(2) = (  0.000000  0.384900  0.000000 )  
               b(3) = (  0.000000 -0.000000  0.645251 )  


     PseudoPot. # 1 for Zn read from file:
     /home/jvc/QEspresso7.2/ZnO_database/pseudos/Zn.upf
     MD5 check sum: 7f56cabf9682ed8c977c2f7d0c5985c5
     Pseudo is Ultrasoft + core correction, Zval = 12.0
     Generated using &quot;atomic&quot; code by A. Dal Corso  v.6.2.2
     Using radial grid of 1201 points,  6 beta functions with: 
                l(1) =   0
                l(2) =   0
                l(3) =   1
                l(4) =   1
                l(5) =   2
                l(6) =   2
     Q(r) pseudized with 0 coefficients 


     PseudoPot. # 2 for O  read from file:
     /home/jvc/QEspresso7.2/ZnO_database/pseudos/O.upf
     MD5 check sum: 91400c9766925bcf19f520983a725ff0
     Pseudo is Ultrasoft + core correction, Zval =  6.0
     Generated using &quot;atomic&quot; code by A. Dal Corso  v.6.3MaX
     Using radial grid of 1095 points,  4 beta functions with: 
                l(1) =   0
                l(2) =   0
                l(3) =   1
                l(4) =   1
     Q(r) pseudized with 0 coefficients 


     atomic species   valence    mass     pseudopotential
        Zn            12.00    65.38000     Zn( 1.00)
        O              6.00    15.99900     O ( 1.00)

     No symmetry found


                                    s                        frac. trans.

      isym =  1     identity                                     

 cryst.   s( 1) = (     1          0          0      )
                  (     0          1          0      )
                  (     0          0          1      )

 cart.    s( 1) = (  1.0000000  0.0000000  0.0000000 )
                  (  0.0000000  1.0000000  0.0000000 )
                  (  0.0000000  0.0000000  1.0000000 )


   Cartesian axes

     site n.     atom                  positions (alat units)
         1           Zn  tau(   1) = (   0.5112958   0.3016620   0.7723374  )
         2           Zn  tau(   2) = (  -0.0024384   0.6520027   0.0319555  )
         3           O   tau(   3) = (   0.5384462   0.3522210   1.4156774  )
         4           O   tau(   4) = (  -0.0495058   0.5589392   0.5823366  )
         5           Zn  tau(   5) = (  -0.0483902   1.1580174   0.7793141  )
         6           Zn  tau(   6) = (  -0.5449381   1.4312153   0.0068960  )
         7           O   tau(   7) = (  -0.0081375   1.1896119   1.3824362  )
         8           O   tau(   8) = (  -0.4698912   1.4899240   0.5867384  )
         9           Zn  tau(   9) = (  -0.5604909   2.0478185   0.7723169  )
        10           Zn  tau(  10) = (  -0.9941477   2.2926901   0.0261013  )
        11           O   tau(  11) = (  -0.5061625   2.0644866   1.3026284  )
        12           O   tau(  12) = (  -1.0394518   2.3326343   0.5599016  )

   Crystallographic axes

     site n.     atom                  positions (cryst. coord.)
         1           Zn  tau(   1) = (  0.6854604  0.1161097  0.4983516  )
         2           Zn  tau(   2) = (  0.3739955  0.2509560  0.0206193  )
         3           O   tau(   3) = (  0.7418011  0.1355699  0.9134676  )
         4           O   tau(   4) = (  0.2731979  0.2151358  0.3757534  )
         5           Zn  tau(   5) = (  0.6201915  0.4457211  0.5028534  )
         6           Zn  tau(   6) = (  0.2813744  0.5508750  0.0044496  )
         7           O   tau(   7) = (  0.6786852  0.4578818  0.8920186  )
         8           O   tau(   8) = (  0.3903169  0.5734720  0.3785937  )
         9           Zn  tau(   9) = (  0.6218177  0.7882057  0.4983384  )
        10           Zn  tau(  10) = (  0.3295376  0.8824568  0.0168419  )
        11           O   tau(  11) = (  0.6857694  0.7946213  0.8405226  )
        12           O   tau(  12) = (  0.3072952  0.8978313  0.3612772  )

     number of k points=   112
                       cart. coord. in units 2pi/alat
        k(    1) = (   0.0000000   0.0000000   0.0000000), wk =   0.0092593
        k(    2) = (   0.0000000   0.0000000   0.1075419), wk =   0.0185185
        k(    3) = (   0.0000000   0.0000000   0.2150837), wk =   0.0185185
        k(    4) = (   0.0000000   0.0000000  -0.3226256), wk =   0.0092593
        k(    5) = (   0.0000000   0.0641500   0.0000000), wk =   0.0185185
        k(    6) = (   0.0000000   0.0641500   0.1075419), wk =   0.0185185
        k(    7) = (   0.0000000   0.0641500   0.2150837), wk =   0.0185185
        k(    8) = (   0.0000000   0.0641500  -0.3226256), wk =   0.0185185
        k(    9) = (   0.0000000   0.1283001   0.0000000), wk =   0.0185185
        k(   10) = (   0.0000000   0.1283001   0.1075419), wk =   0.0185185
        k(   11) = (   0.0000000   0.1283001   0.2150837), wk =   0.0185185
        k(   12) = (   0.0000000   0.1283001  -0.3226256), wk =   0.0185185
        k(   13) = (   0.0000000  -0.1924501   0.0000000), wk =   0.0092593
        k(   14) = (   0.0000000  -0.1924501   0.1075419), wk =   0.0185185
        k(   15) = (   0.0000000  -0.1924501   0.2150837), wk =   0.0185185
        k(   16) = (   0.0000000  -0.1924501  -0.3226256), wk =   0.0092593
        k(   17) = (   0.1666667   0.0962250   0.0000000), wk =   0.0185185
        k(   18) = (   0.1666667   0.0962250   0.1075419), wk =   0.0185185
        k(   19) = (   0.1666667   0.0962250   0.2150837), wk =   0.0185185
        k(   20) = (   0.1666667   0.0962250  -0.3226256), wk =   0.0185185
        k(   21) = (   0.1666667   0.1603751   0.0000000), wk =   0.0185185
        k(   22) = (   0.1666667   0.1603751   0.1075419), wk =   0.0185185
        k(   23) = (   0.1666667   0.1603751   0.2150837), wk =   0.0185185
        k(   24) = (   0.1666667   0.1603751  -0.3226256), wk =   0.0185185
        k(   25) = (   0.1666667  -0.0320750   0.0000000), wk =   0.0185185
        k(   26) = (   0.1666667  -0.0320750   0.1075419), wk =   0.0185185
        k(   27) = (   0.1666667  -0.0320750   0.2150837), wk =   0.0185185
        k(   28) = (   0.1666667  -0.0320750  -0.3226256), wk =   0.0185185
        k(   29) = (   0.3333333   0.1924501   0.0000000), wk =   0.0185185
        k(   30) = (   0.3333333   0.1924501   0.1075419), wk =   0.0185185
        k(   31) = (   0.3333333   0.1924501   0.2150837), wk =   0.0185185
        k(   32) = (   0.3333333   0.1924501  -0.3226256), wk =   0.0185185
        k(   33) = (   0.3333333   0.2566001   0.0000000), wk =   0.0185185
        k(   34) = (   0.3333333   0.2566001   0.1075419), wk =   0.0185185
        k(   35) = (   0.3333333   0.2566001   0.2150837), wk =   0.0185185
        k(   36) = (   0.3333333   0.2566001  -0.3226256), wk =   0.0185185
        k(   37) = (   0.3333333   0.3207501   0.0000000), wk =   0.0185185
        k(   38) = (   0.3333333   0.3207501   0.1075419), wk =   0.0185185
        k(   39) = (   0.3333333   0.3207501   0.2150837), wk =   0.0185185
        k(   40) = (   0.3333333   0.3207501  -0.3226256), wk =   0.0185185
        k(   41) = (   0.3333333   0.0000000   0.0000000), wk =   0.0185185
        k(   42) = (   0.3333333   0.0000000   0.1075419), wk =   0.0185185
        k(   43) = (   0.3333333   0.0000000   0.2150837), wk =   0.0185185
        k(   44) = (   0.3333333   0.0000000  -0.3226256), wk =   0.0185185
        k(   45) = (  -0.5000000  -0.2886751   0.0000000), wk =   0.0092593
        k(   46) = (  -0.5000000  -0.2886751   0.1075419), wk =   0.0185185
        k(   47) = (  -0.5000000  -0.2886751   0.2150837), wk =   0.0185185
        k(   48) = (  -0.5000000  -0.2886751  -0.3226256), wk =   0.0092593
        k(   49) = (  -0.5000000  -0.2245251   0.0000000), wk =   0.0185185
        k(   50) = (  -0.5000000  -0.2245251   0.1075419), wk =   0.0185185
        k(   51) = (  -0.5000000  -0.2245251   0.2150837), wk =   0.0185185
        k(   52) = (  -0.5000000  -0.2245251  -0.3226256), wk =   0.0185185
        k(   53) = (   0.0000000  -0.0641500   0.1075419), wk =   0.0185185
        k(   54) = (   0.0000000  -0.0641500   0.2150837), wk =   0.0185185
        k(   55) = (   0.0000000  -0.1283001   0.1075419), wk =   0.0185185
        k(   56) = (   0.0000000  -0.1283001   0.2150837), wk =   0.0185185
        k(   57) = (  -0.1666667   0.0962250   0.0000000), wk =   0.0185185
        k(   58) = (  -0.1666667  -0.0962250   0.1075419), wk =   0.0185185
        k(   59) = (  -0.1666667   0.0962250  -0.1075419), wk =   0.0185185
        k(   60) = (   0.1666667  -0.0962250  -0.1075419), wk =   0.0185185
        k(   61) = (  -0.1666667  -0.0962250   0.2150837), wk =   0.0185185
        k(   62) = (  -0.1666667   0.0962250  -0.2150837), wk =   0.0185185
        k(   63) = (   0.1666667  -0.0962250  -0.2150837), wk =   0.0185185
        k(   64) = (  -0.1666667   0.0962250   0.3226256), wk =   0.0185185
        k(   65) = (  -0.1666667   0.1603751   0.0000000), wk =   0.0185185
        k(   66) = (  -0.1666667  -0.1603751   0.1075419), wk =   0.0185185
        k(   67) = (  -0.1666667   0.1603751  -0.1075419), wk =   0.0185185
        k(   68) = (   0.1666667  -0.1603751  -0.1075419), wk =   0.0185185
        k(   69) = (  -0.1666667  -0.1603751   0.2150837), wk =   0.0185185
        k(   70) = (  -0.1666667   0.1603751  -0.2150837), wk =   0.0185185
        k(   71) = (   0.1666667  -0.1603751  -0.2150837), wk =   0.0185185
        k(   72) = (  -0.1666667   0.1603751   0.3226256), wk =   0.0185185
        k(   73) = (  -0.1666667  -0.0320750   0.0000000), wk =   0.0185185
        k(   74) = (  -0.1666667   0.0320750   0.1075419), wk =   0.0185185
        k(   75) = (  -0.1666667  -0.0320750  -0.1075419), wk =   0.0185185
        k(   76) = (   0.1666667   0.0320750  -0.1075419), wk =   0.0185185
        k(   77) = (  -0.1666667   0.0320750   0.2150837), wk =   0.0185185
        k(   78) = (  -0.1666667  -0.0320750  -0.2150837), wk =   0.0185185
        k(   79) = (   0.1666667   0.0320750  -0.2150837), wk =   0.0185185
        k(   80) = (  -0.1666667  -0.0320750   0.3226256), wk =   0.0185185
        k(   81) = (  -0.3333333  -0.1924501   0.1075419), wk =   0.0185185
        k(   82) = (  -0.3333333  -0.1924501   0.2150837), wk =   0.0185185
        k(   83) = (  -0.3333333   0.2566001   0.0000000), wk =   0.0185185
        k(   84) = (  -0.3333333  -0.2566001   0.1075419), wk =   0.0185185
        k(   85) = (  -0.3333333   0.2566001  -0.1075419), wk =   0.0185185
        k(   86) = (   0.3333333  -0.2566001  -0.1075419), wk =   0.0185185
        k(   87) = (  -0.3333333  -0.2566001   0.2150837), wk =   0.0185185
        k(   88) = (  -0.3333333   0.2566001  -0.2150837), wk =   0.0185185
        k(   89) = (   0.3333333  -0.2566001  -0.2150837), wk =   0.0185185
        k(   90) = (  -0.3333333   0.2566001   0.3226256), wk =   0.0185185
        k(   91) = (  -0.3333333   0.3207501   0.0000000), wk =   0.0185185
        k(   92) = (  -0.3333333  -0.3207501   0.1075419), wk =   0.0185185
        k(   93) = (  -0.3333333   0.3207501  -0.1075419), wk =   0.0185185
        k(   94) = (   0.3333333  -0.3207501  -0.1075419), wk =   0.0185185
        k(   95) = (  -0.3333333  -0.3207501   0.2150837), wk =   0.0185185
        k(   96) = (  -0.3333333   0.3207501  -0.2150837), wk =   0.0185185
        k(   97) = (   0.3333333  -0.3207501  -0.2150837), wk =   0.0185185
        k(   98) = (  -0.3333333   0.3207501   0.3226256), wk =   0.0185185
        k(   99) = (  -0.3333333  -0.0000000   0.1075419), wk =   0.0185185
        k(  100) = (  -0.3333333  -0.0000000   0.2150837), wk =   0.0185185
        k(  101) = (   0.5000000  -0.2886751   0.0000000), wk =   0.0092593
        k(  102) = (   0.5000000  -0.2886751  -0.1075419), wk =   0.0185185
        k(  103) = (   0.5000000  -0.2886751  -0.2150837), wk =   0.0185185
        k(  104) = (   0.5000000  -0.2886751   0.3226256), wk =   0.0092593
        k(  105) = (   0.5000000  -0.2245251   0.0000000), wk =   0.0185185
        k(  106) = (   0.5000000   0.2245251   0.1075419), wk =   0.0185185
        k(  107) = (   0.5000000  -0.2245251  -0.1075419), wk =   0.0185185
        k(  108) = (  -0.5000000   0.2245251  -0.1075419), wk =   0.0185185
        k(  109) = (   0.5000000   0.2245251   0.2150837), wk =   0.0185185
        k(  110) = (   0.5000000  -0.2245251  -0.2150837), wk =   0.0185185
        k(  111) = (  -0.5000000   0.2245251  -0.2150837), wk =   0.0185185
        k(  112) = (   0.5000000  -0.2245251   0.3226256), wk =   0.0185185

                       cryst. coord.
        k(    1) = (   0.0000000   0.0000000   0.0000000), wk =   0.0092593
        k(    2) = (   0.0000000   0.0000000   0.1666667), wk =   0.0185185
        k(    3) = (   0.0000000   0.0000000   0.3333333), wk =   0.0185185
        k(    4) = (   0.0000000   0.0000000  -0.5000000), wk =   0.0092593
        k(    5) = (   0.0000000   0.1666667   0.0000000), wk =   0.0185185
        k(    6) = (   0.0000000   0.1666667   0.1666667), wk =   0.0185185
        k(    7) = (   0.0000000   0.1666667   0.3333333), wk =   0.0185185
        k(    8) = (   0.0000000   0.1666667  -0.5000000), wk =   0.0185185
        k(    9) = (   0.0000000   0.3333333   0.0000000), wk =   0.0185185
        k(   10) = (   0.0000000   0.3333333   0.1666667), wk =   0.0185185
        k(   11) = (   0.0000000   0.3333333   0.3333333), wk =   0.0185185
        k(   12) = (   0.0000000   0.3333333  -0.5000000), wk =   0.0185185
        k(   13) = (   0.0000000  -0.5000000   0.0000000), wk =   0.0092593
        k(   14) = (   0.0000000  -0.5000000   0.1666667), wk =   0.0185185
        k(   15) = (   0.0000000  -0.5000000   0.3333333), wk =   0.0185185
        k(   16) = (   0.0000000  -0.5000000  -0.5000000), wk =   0.0092593
        k(   17) = (   0.1666667   0.0000000   0.0000000), wk =   0.0185185
        k(   18) = (   0.1666667   0.0000000   0.1666667), wk =   0.0185185
        k(   19) = (   0.1666667   0.0000000   0.3333333), wk =   0.0185185
        k(   20) = (   0.1666667   0.0000000  -0.5000000), wk =   0.0185185
        k(   21) = (   0.1666667   0.1666667   0.0000000), wk =   0.0185185
        k(   22) = (   0.1666667   0.1666667   0.1666667), wk =   0.0185185
        k(   23) = (   0.1666667   0.1666667   0.3333333), wk =   0.0185185
        k(   24) = (   0.1666667   0.1666667  -0.5000000), wk =   0.0185185
        k(   25) = (   0.1666667  -0.3333333   0.0000000), wk =   0.0185185
        k(   26) = (   0.1666667  -0.3333333   0.1666667), wk =   0.0185185
        k(   27) = (   0.1666667  -0.3333333   0.3333333), wk =   0.0185185
        k(   28) = (   0.1666667  -0.3333333  -0.5000000), wk =   0.0185185
        k(   29) = (   0.3333333   0.0000000   0.0000000), wk =   0.0185185
        k(   30) = (   0.3333333   0.0000000   0.1666667), wk =   0.0185185
        k(   31) = (   0.3333333   0.0000000   0.3333333), wk =   0.0185185
        k(   32) = (   0.3333333   0.0000000  -0.5000000), wk =   0.0185185
        k(   33) = (   0.3333333   0.1666667   0.0000000), wk =   0.0185185
        k(   34) = (   0.3333333   0.1666667   0.1666667), wk =   0.0185185
        k(   35) = (   0.3333333   0.1666667   0.3333333), wk =   0.0185185
        k(   36) = (   0.3333333   0.1666667  -0.5000000), wk =   0.0185185
        k(   37) = (   0.3333333   0.3333333   0.0000000), wk =   0.0185185
        k(   38) = (   0.3333333   0.3333333   0.1666667), wk =   0.0185185
        k(   39) = (   0.3333333   0.3333333   0.3333333), wk =   0.0185185
        k(   40) = (   0.3333333   0.3333333  -0.5000000), wk =   0.0185185
        k(   41) = (   0.3333333  -0.5000000   0.0000000), wk =   0.0185185
        k(   42) = (   0.3333333  -0.5000000   0.1666667), wk =   0.0185185
        k(   43) = (   0.3333333  -0.5000000   0.3333333), wk =   0.0185185
        k(   44) = (   0.3333333  -0.5000000  -0.5000000), wk =   0.0185185
        k(   45) = (  -0.5000000   0.0000000   0.0000000), wk =   0.0092593
        k(   46) = (  -0.5000000   0.0000000   0.1666667), wk =   0.0185185
        k(   47) = (  -0.5000000   0.0000000   0.3333333), wk =   0.0185185
        k(   48) = (  -0.5000000   0.0000000  -0.5000000), wk =   0.0092593
        k(   49) = (  -0.5000000   0.1666667   0.0000000), wk =   0.0185185
        k(   50) = (  -0.5000000   0.1666667   0.1666667), wk =   0.0185185
        k(   51) = (  -0.5000000   0.1666667   0.3333333), wk =   0.0185185
        k(   52) = (  -0.5000000   0.1666667  -0.5000000), wk =   0.0185185
        k(   53) = (   0.0000000  -0.1666667   0.1666667), wk =   0.0185185
        k(   54) = (   0.0000000  -0.1666667   0.3333333), wk =   0.0185185
        k(   55) = (   0.0000000  -0.3333333   0.1666667), wk =   0.0185185
        k(   56) = (   0.0000000  -0.3333333   0.3333333), wk =   0.0185185
        k(   57) = (  -0.1666667   0.5000000   0.0000000), wk =   0.0185185
        k(   58) = (  -0.1666667   0.0000000   0.1666667), wk =   0.0185185
        k(   59) = (  -0.1666667   0.5000000  -0.1666667), wk =   0.0185185
        k(   60) = (   0.1666667  -0.5000000  -0.1666667), wk =   0.0185185
        k(   61) = (  -0.1666667   0.0000000   0.3333333), wk =   0.0185185
        k(   62) = (  -0.1666667   0.5000000  -0.3333333), wk =   0.0185185
        k(   63) = (   0.1666667  -0.5000000  -0.3333333), wk =   0.0185185
        k(   64) = (  -0.1666667   0.5000000   0.5000000), wk =   0.0185185
        k(   65) = (  -0.1666667   0.6666667   0.0000000), wk =   0.0185185
        k(   66) = (  -0.1666667  -0.1666667   0.1666667), wk =   0.0185185
        k(   67) = (  -0.1666667   0.6666667  -0.1666667), wk =   0.0185185
        k(   68) = (   0.1666667  -0.6666667  -0.1666667), wk =   0.0185185
        k(   69) = (  -0.1666667  -0.1666667   0.3333333), wk =   0.0185185
        k(   70) = (  -0.1666667   0.6666667  -0.3333333), wk =   0.0185185
        k(   71) = (   0.1666667  -0.6666667  -0.3333333), wk =   0.0185185
        k(   72) = (  -0.1666667   0.6666667   0.5000000), wk =   0.0185185
        k(   73) = (  -0.1666667   0.1666667   0.0000000), wk =   0.0185185
        k(   74) = (  -0.1666667   0.3333333   0.1666667), wk =   0.0185185
        k(   75) = (  -0.1666667   0.1666667  -0.1666667), wk =   0.0185185
        k(   76) = (   0.1666667  -0.1666667  -0.1666667), wk =   0.0185185
        k(   77) = (  -0.1666667   0.3333333   0.3333333), wk =   0.0185185
        k(   78) = (  -0.1666667   0.1666667  -0.3333333), wk =   0.0185185
        k(   79) = (   0.1666667  -0.1666667  -0.3333333), wk =   0.0185185
        k(   80) = (  -0.1666667   0.1666667   0.5000000), wk =   0.0185185
        k(   81) = (  -0.3333333   0.0000000   0.1666667), wk =   0.0185185
        k(   82) = (  -0.3333333   0.0000000   0.3333333), wk =   0.0185185
        k(   83) = (  -0.3333333   1.1666667   0.0000000), wk =   0.0185185
        k(   84) = (  -0.3333333  -0.1666667   0.1666667), wk =   0.0185185
        k(   85) = (  -0.3333333   1.1666667  -0.1666667), wk =   0.0185185
        k(   86) = (   0.3333333  -1.1666667  -0.1666667), wk =   0.0185185
        k(   87) = (  -0.3333333  -0.1666667   0.3333333), wk =   0.0185185
        k(   88) = (  -0.3333333   1.1666667  -0.3333333), wk =   0.0185185
        k(   89) = (   0.3333333  -1.1666667  -0.3333333), wk =   0.0185185
        k(   90) = (  -0.3333333   1.1666667   0.5000000), wk =   0.0185185
        k(   91) = (  -0.3333333   1.3333333   0.0000000), wk =   0.0185185
        k(   92) = (  -0.3333333  -0.3333333   0.1666667), wk =   0.0185185
        k(   93) = (  -0.3333333   1.3333333  -0.1666667), wk =   0.0185185
        k(   94) = (   0.3333333  -1.3333333  -0.1666667), wk =   0.0185185
        k(   95) = (  -0.3333333  -0.3333333   0.3333333), wk =   0.0185185
        k(   96) = (  -0.3333333   1.3333333  -0.3333333), wk =   0.0185185
        k(   97) = (   0.3333333  -1.3333333  -0.3333333), wk =   0.0185185
        k(   98) = (  -0.3333333   1.3333333   0.5000000), wk =   0.0185185
        k(   99) = (  -0.3333333   0.5000000   0.1666667), wk =   0.0185185
        k(  100) = (  -0.3333333   0.5000000   0.3333333), wk =   0.0185185
        k(  101) = (   0.5000000  -1.5000000   0.0000000), wk =   0.0092593
        k(  102) = (   0.5000000  -1.5000000  -0.1666667), wk =   0.0185185
        k(  103) = (   0.5000000  -1.5000000  -0.3333333), wk =   0.0185185
        k(  104) = (   0.5000000  -1.5000000   0.5000000), wk =   0.0092593
        k(  105) = (   0.5000000  -1.3333333   0.0000000), wk =   0.0185185
        k(  106) = (   0.5000000  -0.1666667   0.1666667), wk =   0.0185185
        k(  107) = (   0.5000000  -1.3333333  -0.1666667), wk =   0.0185185
        k(  108) = (  -0.5000000   1.3333333  -0.1666667), wk =   0.0185185
        k(  109) = (   0.5000000  -0.1666667   0.3333333), wk =   0.0185185
        k(  110) = (   0.5000000  -1.3333333  -0.3333333), wk =   0.0185185
        k(  111) = (  -0.5000000   1.3333333  -0.3333333), wk =   0.0185185
        k(  112) = (   0.5000000  -1.3333333   0.5000000), wk =   0.0185185

     Dense  grid:    93589 G-vectors     FFT dimensions: (  36, 108,  60)

     Smooth grid:    33087 G-vectors     FFT dimensions: (  25,  75,  40)

     Dynamical RAM for                 wfc:       0.43 MB

     Dynamical RAM for     wfc (w. buffer):      12.33 MB

     Dynamical RAM for           str. fact:       0.36 MB

     Dynamical RAM for           local pot:       0.00 MB

     Dynamical RAM for          nlocal pot:       1.23 MB

     Dynamical RAM for                qrad:       3.21 MB

     Dynamical RAM for          rho,v,vnew:       1.25 MB

     Dynamical RAM for               rhoin:       0.42 MB

     Dynamical RAM for            rho*nmix:       2.86 MB

     Dynamical RAM for           G-vectors:       0.70 MB

     Dynamical RAM for          h,s,v(r/c):       0.53 MB

     Dynamical RAM for          <psi|beta>:       0.13 MB

     Dynamical RAM for                 psi:       0.85 MB

     Dynamical RAM for                hpsi:       0.85 MB

     Dynamical RAM for                spsi:       0.85 MB

     Dynamical RAM for      wfcinit/wfcrot:       1.37 MB

     Dynamical RAM for           addusdens:       8.70 MB

     Dynamical RAM for          addusforce:       9.13 MB

     Estimated static dynamical RAM per process >      21.21 MB

     Estimated max dynamical RAM per process >      33.19 MB

     Estimated total dynamical RAM >     993.65 MB

     Check: negative core charge=   -0.000001

     Initial potential from superposition of free atoms

     starting charge     107.9776, renormalised to     108.0000
     Starting wfcs are   78 randomized atomic wfcs

     total cpu time spent up to now is        4.3 secs

     Self-consistent Calculation

     iteration #  1     ecut=    50.00 Ry     beta= 0.30
     Davidson diagonalization with overlap

---- Real-time Memory Report at c_bands before calling an iterative solver
            58 MiB given to the printing process from OS
             0 MiB allocation reported by mallinfo(arena+hblkhd)
        110192 MiB available memory on the node where the printing process lives
------------------
     ethr =  1.00E-02,  avg # of iterations =  2.2

     total cpu time spent up to now is        9.5 secs

     total energy              =   -1083.36255126 Ry
     estimated scf accuracy    <       2.23402929 Ry

     iteration #  2     ecut=    50.00 Ry     beta= 0.30
     Davidson diagonalization with overlap

---- Real-time Memory Report at c_bands before calling an iterative solver
            67 MiB given to the printing process from OS
             0 MiB allocation reported by mallinfo(arena+hblkhd)
        109953 MiB available memory on the node where the printing process lives
------------------
     ethr =  2.07E-03,  avg # of iterations =  2.0

     total cpu time spent up to now is       15.4 secs

     total energy              =   -1083.47529169 Ry
     estimated scf accuracy    <       0.45804954 Ry

     iteration #  3     ecut=    50.00 Ry     beta= 0.30
     Davidson diagonalization with overlap

---- Real-time Memory Report at c_bands before calling an iterative solver
            67 MiB given to the printing process from OS
             0 MiB allocation reported by mallinfo(arena+hblkhd)
        109956 MiB available memory on the node where the printing process lives
------------------
     ethr =  4.24E-04,  avg # of iterations =  6.1

     total cpu time spent up to now is       26.2 secs

     total energy              =   -1083.74513097 Ry
     estimated scf accuracy    <       0.24528668 Ry

     iteration #  4     ecut=    50.00 Ry     beta= 0.30
     Davidson diagonalization with overlap

---- Real-time Memory Report at c_bands before calling an iterative solver
            67 MiB given to the printing process from OS
             0 MiB allocation reported by mallinfo(arena+hblkhd)
        109966 MiB available memory on the node where the printing process lives
------------------
     ethr =  2.27E-04,  avg # of iterations =  2.0

     total cpu time spent up to now is       31.3 secs

     total energy              =   -1083.74242465 Ry
     estimated scf accuracy    <       0.05450270 Ry

     iteration #  5     ecut=    50.00 Ry     beta= 0.30
     Davidson diagonalization with overlap

---- Real-time Memory Report at c_bands before calling an iterative solver
            67 MiB given to the printing process from OS
             0 MiB allocation reported by mallinfo(arena+hblkhd)
        109968 MiB available memory on the node where the printing process lives
------------------
     ethr =  5.05E-05,  avg # of iterations =  8.8

     total cpu time spent up to now is       46.3 secs

     total energy              =   -1083.81809067 Ry
     estimated scf accuracy    <       0.74967347 Ry

     iteration #  6     ecut=    50.00 Ry     beta= 0.30
     Davidson diagonalization with overlap

---- Real-time Memory Report at c_bands before calling an iterative solver
            67 MiB given to the printing process from OS
             0 MiB allocation reported by mallinfo(arena+hblkhd)
        109968 MiB available memory on the node where the printing process lives
------------------
     ethr =  5.05E-05,  avg # of iterations =  5.0

     total cpu time spent up to now is       55.6 secs

     total energy              =   -1083.68688992 Ry
     estimated scf accuracy    <       0.27082013 Ry

     iteration #  7     ecut=    50.00 Ry     beta= 0.30
     Davidson diagonalization with overlap

---- Real-time Memory Report at c_bands before calling an iterative solver
            67 MiB given to the printing process from OS
             0 MiB allocation reported by mallinfo(arena+hblkhd)
        109968 MiB available memory on the node where the printing process lives
------------------
     ethr =  5.05E-05,  avg # of iterations =  7.4

     total cpu time spent up to now is       68.6 secs

     total energy              =   -1083.77661172 Ry
     estimated scf accuracy    <       0.02985767 Ry

     iteration #  8     ecut=    50.00 Ry     beta= 0.30
     Davidson diagonalization with overlap

---- Real-time Memory Report at c_bands before calling an iterative solver
            68 MiB given to the printing process from OS
             0 MiB allocation reported by mallinfo(arena+hblkhd)
        109970 MiB available memory on the node where the printing process lives
------------------
     ethr =  2.76E-05,  avg # of iterations =  2.0

     total cpu time spent up to now is       74.2 secs

     total energy              =   -1083.77602812 Ry
     estimated scf accuracy    <       0.00783723 Ry

     iteration #  9     ecut=    50.00 Ry     beta= 0.30
     Davidson diagonalization with overlap

---- Real-time Memory Report at c_bands before calling an iterative solver
            68 MiB given to the printing process from OS
             0 MiB allocation reported by mallinfo(arena+hblkhd)
        109970 MiB available memory on the node where the printing process lives
------------------
     ethr =  7.26E-06,  avg # of iterations =  4.8

     total cpu time spent up to now is       82.9 secs

     total energy              =   -1083.77982739 Ry
     estimated scf accuracy    <       0.00012982 Ry

     iteration # 10     ecut=    50.00 Ry     beta= 0.30
     Davidson diagonalization with overlap

---- Real-time Memory Report at c_bands before calling an iterative solver
            68 MiB given to the printing process from OS
             0 MiB allocation reported by mallinfo(arena+hblkhd)
        109971 MiB available memory on the node where the printing process lives
------------------
     ethr =  1.20E-07,  avg # of iterations =  7.6

     total cpu time spent up to now is       96.2 secs

     total energy              =   -1083.78013699 Ry
     estimated scf accuracy    <       0.00002380 Ry

     iteration # 11     ecut=    50.00 Ry     beta= 0.30
     Davidson diagonalization with overlap

---- Real-time Memory Report at c_bands before calling an iterative solver
            68 MiB given to the printing process from OS
             0 MiB allocation reported by mallinfo(arena+hblkhd)
        109971 MiB available memory on the node where the printing process lives
------------------
     ethr =  2.20E-08,  avg # of iterations =  4.8

     total cpu time spent up to now is      104.5 secs

     total energy              =   -1083.78014372 Ry
     estimated scf accuracy    <       0.00000816 Ry

     iteration # 12     ecut=    50.00 Ry     beta= 0.30
     Davidson diagonalization with overlap

---- Real-time Memory Report at c_bands before calling an iterative solver
            68 MiB given to the printing process from OS
             0 MiB allocation reported by mallinfo(arena+hblkhd)
        109972 MiB available memory on the node where the printing process lives
------------------
     ethr =  7.56E-09,  avg # of iterations =  2.7

     total cpu time spent up to now is      110.8 secs

     total energy              =   -1083.78014046 Ry
     estimated scf accuracy    <       0.00000527 Ry

     iteration # 13     ecut=    50.00 Ry     beta= 0.30
     Davidson diagonalization with overlap

---- Real-time Memory Report at c_bands before calling an iterative solver
            68 MiB given to the printing process from OS
             0 MiB allocation reported by mallinfo(arena+hblkhd)
        109972 MiB available memory on the node where the printing process lives
------------------
     ethr =  4.88E-09,  avg # of iterations =  7.0

     total cpu time spent up to now is      123.6 secs

     total energy              =   -1083.78014558 Ry
     estimated scf accuracy    <       0.00001504 Ry

     iteration # 14     ecut=    50.00 Ry     beta= 0.30
     Davidson diagonalization with overlap

---- Real-time Memory Report at c_bands before calling an iterative solver
            68 MiB given to the printing process from OS
             0 MiB allocation reported by mallinfo(arena+hblkhd)
        109973 MiB available memory on the node where the printing process lives
------------------
     ethr =  4.88E-09,  avg # of iterations =  2.0

     total cpu time spent up to now is      128.5 secs

     total energy              =   -1083.78013999 Ry
     estimated scf accuracy    <       0.00000922 Ry

     iteration # 15     ecut=    50.00 Ry     beta= 0.30
     Davidson diagonalization with overlap

---- Real-time Memory Report at c_bands before calling an iterative solver
            68 MiB given to the printing process from OS
             0 MiB allocation reported by mallinfo(arena+hblkhd)
        109977 MiB available memory on the node where the printing process lives
------------------
     ethr =  4.88E-09,  avg # of iterations =  6.4

     total cpu time spent up to now is      139.5 secs

     total energy              =   -1083.78014367 Ry
     estimated scf accuracy    <       0.00000264 Ry

     iteration # 16     ecut=    50.00 Ry     beta= 0.30
     Davidson diagonalization with overlap

---- Real-time Memory Report at c_bands before calling an iterative solver
            68 MiB given to the printing process from OS
             0 MiB allocation reported by mallinfo(arena+hblkhd)
        109977 MiB available memory on the node where the printing process lives
------------------
     ethr =  2.45E-09,  avg # of iterations =  2.1

     total cpu time spent up to now is      144.9 secs

     total energy              =   -1083.78014341 Ry
     estimated scf accuracy    <       0.00000076 Ry

     iteration # 17     ecut=    50.00 Ry     beta= 0.30
     Davidson diagonalization with overlap

---- Real-time Memory Report at c_bands before calling an iterative solver
            68 MiB given to the printing process from OS
             0 MiB allocation reported by mallinfo(arena+hblkhd)
        109977 MiB available memory on the node where the printing process lives
------------------
     ethr =  7.01E-10,  avg # of iterations =  6.7

     total cpu time spent up to now is      155.3 secs

     total energy              =   -1083.78014388 Ry
     estimated scf accuracy    <       0.00000051 Ry

     iteration # 18     ecut=    50.00 Ry     beta= 0.30
     Davidson diagonalization with overlap

---- Real-time Memory Report at c_bands before calling an iterative solver
            68 MiB given to the printing process from OS
             0 MiB allocation reported by mallinfo(arena+hblkhd)
        109977 MiB available memory on the node where the printing process lives
------------------
     ethr =  4.74E-10,  avg # of iterations =  2.0

     total cpu time spent up to now is      160.3 secs

     total energy              =   -1083.78014384 Ry
     estimated scf accuracy    <       0.00000013 Ry

     iteration # 19     ecut=    50.00 Ry     beta= 0.30
     Davidson diagonalization with overlap

---- Real-time Memory Report at c_bands before calling an iterative solver
            68 MiB given to the printing process from OS
             0 MiB allocation reported by mallinfo(arena+hblkhd)
        109977 MiB available memory on the node where the printing process lives
------------------
     ethr =  1.21E-10,  avg # of iterations =  6.9

     total cpu time spent up to now is      171.3 secs

     total energy              =   -1083.78014397 Ry
     estimated scf accuracy    <       0.00000016 Ry

     iteration # 20     ecut=    50.00 Ry     beta= 0.30
     Davidson diagonalization with overlap

---- Real-time Memory Report at c_bands before calling an iterative solver
            68 MiB given to the printing process from OS
             0 MiB allocation reported by mallinfo(arena+hblkhd)
        109977 MiB available memory on the node where the printing process lives
------------------
     ethr =  1.21E-10,  avg # of iterations =  1.0

     total cpu time spent up to now is      175.7 secs

     total energy              =   -1083.78014393 Ry
     estimated scf accuracy    <       0.00000012 Ry

     iteration # 21     ecut=    50.00 Ry     beta= 0.30
     Davidson diagonalization with overlap

---- Real-time Memory Report at c_bands before calling an iterative solver
            68 MiB given to the printing process from OS
             0 MiB allocation reported by mallinfo(arena+hblkhd)
        109977 MiB available memory on the node where the printing process lives
------------------
     ethr =  1.08E-10,  avg # of iterations =  2.7

     total cpu time spent up to now is      181.3 secs

     total energy              =   -1083.78014394 Ry
     estimated scf accuracy    <       0.00000003 Ry

     iteration # 22     ecut=    50.00 Ry     beta= 0.30
     Davidson diagonalization with overlap

---- Real-time Memory Report at c_bands before calling an iterative solver
            68 MiB given to the printing process from OS
             0 MiB allocation reported by mallinfo(arena+hblkhd)
        109977 MiB available memory on the node where the printing process lives
------------------
     ethr =  2.45E-11,  avg # of iterations =  4.8

     total cpu time spent up to now is      189.5 secs

     End of self-consistent calculation

          k = 0.0000 0.0000 0.0000 (  4161 PWs)   bands (ev):

    -8.6182  -7.7944  -7.4923  -7.0241  -6.5149  -5.5060   3.9064   4.1149
     4.2362   4.4442   4.5558   4.7347   4.9263   5.0431   5.1680   5.1981
     5.2212   5.4886   5.6476   5.7585   6.0138   6.4144   6.5089   6.8152
     7.0060   7.1225   7.1900   7.4685   7.5171   7.6561   7.7603   7.8230
     7.9523   8.0770   8.1581   8.2266   8.5209   8.6914   8.8339   8.9880
     9.2000   9.9123  10.3470  10.6688  10.7904  11.6683  11.7522  11.8447
    12.1479  12.6339  12.9689  13.2512  13.3696  13.5023

     occupation numbers 
     1.0000   1.0000   1.0000   1.0000   1.0000   1.0000   1.0000   1.0000
     1.0000   1.0000   1.0000   1.0000   1.0000   1.0000   1.0000   1.0000
     1.0000   1.0000   1.0000   1.0000   1.0000   1.0000   1.0000   1.0000
     1.0000   1.0000   1.0000   1.0000   1.0000   1.0000   1.0000   1.0000
     1.0000   1.0000   1.0000   1.0000   1.0000   1.0000   1.0000   1.0000
     1.0000   1.0000   1.0000   1.0000   1.0000   1.0000   1.0000   1.0000
     1.0000   1.0000   1.0000   1.0000   1.0000   1.0000

          k = 0.0000 0.0000 0.1075 (  4149 PWs)   bands (ev):

    -8.5478  -7.7692  -7.4511  -7.0613  -6.5810  -5.5431   3.7855   4.0003
     4.2228   4.3362   4.5007   4.6556   4.8727   4.9870   5.0909   5.1926
     5.2802   5.4340   5.6548   5.7469   6.0027   6.3513   6.4389   6.7272
     7.0489   7.1576   7.2579   7.4535   7.5833   7.7266   7.7932   7.8530
     8.0197   8.1049   8.1389   8.2381   8.6586   8.7324   9.1484   9.2956
     9.4310  10.1024  10.4062  10.5843  10.7172  11.6892  11.7976  11.9382
    12.0881  12.5837  12.8613  13.0175  13.1876  13.2908

     occupation numbers 
     1.0000   1.0000   1.0000   1.0000   1.0000   1.0000   1.0000   1.0000
     1.0000   1.0000   1.0000   1.0000   1.0000   1.0000   1.0000   1.0000
     1.0000   1.0000   1.0000   1.0000   1.0000   1.0000   1.0000   1.0000
     1.0000   1.0000   1.0000   1.0000   1.0000   1.0000   1.0000   1.0000
     1.0000   1.0000   1.0000   1.0000   1.0000   1.0000   1.0000   1.0000
     1.0000   1.0000   1.0000   1.0000   1.0000   1.0000   1.0000   1.0000
     1.0000   1.0000   1.0000   1.0000   1.0000   1.0000

          k = 0.0000 0.0000 0.2151 (  4166 PWs)   bands (ev):

    -8.3731  -7.7556  -7.3467  -7.1166  -6.7486  -5.6210   3.5667   3.7990
     4.1078   4.2287   4.4351   4.4571   4.6689   4.9687   5.0508   5.2176
     5.3459   5.4566   5.6283   5.7191   5.9688   6.1072   6.3825   6.5325
     7.1321   7.2287   7.3642   7.4013   7.7263   7.7805   7.8616   7.9281
     8.0278   8.0557   8.0873   8.1538   9.0147   9.2206   9.6034   9.8202
    10.0950  10.3430  10.5260  10.6908  11.0195  11.5320  11.6724  11.9234
    12.1315  12.3194  12.4213  12.6142  12.9849  13.0420

     occupation numbers 
     1.0000   1.0000   1.0000   1.0000   1.0000   1.0000   1.0000   1.0000
     1.0000   1.0000   1.0000   1.0000   1.0000   1.0000   1.0000   1.0000
     1.0000   1.0000   1.0000   1.0000   1.0000   1.0000   1.0000   1.0000
     1.0000   1.0000   1.0000   1.0000   1.0000   1.0000   1.0000   1.0000
     1.0000   1.0000   1.0000   1.0000   1.0000   1.0000   1.0000   1.0000
     1.0000   1.0000   1.0000   1.0000   1.0000   1.0000   1.0000   1.0000
     1.0000   1.0000   1.0000   1.0000   1.0000   1.0000

          k = 0.0000 0.0000-0.3226 (  4124 PWs)   bands (ev):

    -8.2495  -7.7950  -7.2806  -7.0944  -6.8844  -5.6621   3.4725   3.7005
     4.0177   4.2339   4.3360   4.4385   4.5665   4.9751   5.0204   5.2364
     5.3519   5.5507   5.6216   5.7096   5.8907   5.9796   6.3591   6.4329
     7.2057   7.2499   7.3884   7.4017   7.7610   7.8683   7.8997   7.9708
     8.0022   8.0071   8.0438   8.0698   9.2332   9.4871   9.7919   9.8351
    10.3462  10.7721  10.9143  11.1376  11.2929  11.3418  11.5115  11.6567
    11.8345  11.9422  12.4131  12.5863  12.7852  12.8378

     occupation numbers 
     1.0000   1.0000   1.0000   1.0000   1.0000   1.0000   1.0000   1.0000
     1.0000   1.0000   1.0000   1.0000   1.0000   1.0000   1.0000   1.0000
     1.0000   1.0000   1.0000   1.0000   1.0000   1.0000   1.0000   1.0000
     1.0000   1.0000   1.0000   1.0000   1.0000   1.0000   1.0000   1.0000
     1.0000   1.0000   1.0000   1.0000   1.0000   1.0000   1.0000   1.0000
     1.0000   1.0000   1.0000   1.0000   1.0000   1.0000   1.0000   1.0000
     1.0000   1.0000   1.0000   1.0000   1.0000   1.0000

          k = 0.0000 0.0642 0.0000 (  4155 PWs)   bands (ev):

    -8.6050  -7.8453  -7.4613  -7.0131  -6.5182  -5.5062   3.9081   4.1182
     4.2547   4.4481   4.5517   4.7251   4.9118   5.0411   5.1254   5.2049
     5.2750   5.4813   5.6296   5.7531   5.9912   6.4087   6.5230   6.7894
     7.0110   7.1021   7.2186   7.4809   7.5235   7.6647   7.7516   7.8568
     7.9856   8.0996   8.1636   8.2493   8.4515   8.6391   8.6844   9.0492
     9.5094   9.7880  10.2450  10.5086  11.1842  11.5783  11.7202  11.7838
    12.1033  12.6884  12.9721  13.0903  13.3641  13.4840

     occupation numbers 
     1.0000   1.0000   1.0000   1.0000   1.0000   1.0000   1.0000   1.0000
     1.0000   1.0000   1.0000   1.0000   1.0000   1.0000   1.0000   1.0000
     1.0000   1.0000   1.0000   1.0000   1.0000   1.0000   1.0000   1.0000
     1.0000   1.0000   1.0000   1.0000   1.0000   1.0000   1.0000   1.0000
     1.0000   1.0000   1.0000   1.0000   1.0000   1.0000   1.0000   1.0000
     1.0000   1.0000   1.0000   1.0000   1.0000   1.0000   1.0000   1.0000
     1.0000   1.0000   1.0000   1.0000   1.0000   1.0000

          k = 0.0000 0.0642 0.1075 (  4138 PWs)   bands (ev):

    -8.5367  -7.8001  -7.4488  -7.0397  -6.5846  -5.5428   3.7829   4.0164
     4.2087   4.3592   4.5122   4.6358   4.8796   4.9407   5.1057   5.1827
     5.3087   5.4301   5.6488   5.7451   5.9829   6.3455   6.4492   6.7341
     7.0509   7.1623   7.2048   7.4554   7.6205   7.7416   7.8404   7.8942
     7.9677   8.1046   8.1431   8.2467   8.5335   8.7032   9.0888   9.3831
     9.6573   9.9805  10.2482  10.6626  10.9608  11.6396  11.7545  11.8542
    12.0615  12.6141  12.7935  12.9797  13.2210  13.2673

     occupation numbers 
     1.0000   1.0000   1.0000   1.0000   1.0000   1.0000   1.0000   1.0000
     1.0000   1.0000   1.0000   1.0000   1.0000   1.0000   1.0000   1.0000
     1.0000   1.0000   1.0000   1.0000   1.0000   1.0000   1.0000   1.0000
     1.0000   1.0000   1.0000   1.0000   1.0000   1.0000   1.0000   1.0000
     1.0000   1.0000   1.0000   1.0000   1.0000   1.0000   1.0000   1.0000
     1.0000   1.0000   1.0000   1.0000   1.0000   1.0000   1.0000   1.0000
     1.0000   1.0000   1.0000   1.0000   1.0000   1.0000

          k = 0.0000 0.0642 0.2151 (  4140 PWs)   bands (ev):

    -8.3672  -7.7436  -7.4120  -7.0649  -6.7542  -5.6190   3.5635   3.8042
     4.1303   4.2097   4.4263   4.4563   4.6958   4.9284   5.0861   5.2089
     5.3327   5.4636   5.6453   5.7067   5.9493   6.1069   6.3850   6.5399
     7.1339   7.2300   7.3452   7.4050   7.7538   7.8047   7.8671   7.9473
     8.0111   8.0525   8.0921   8.1521   8.7891   9.2623   9.5527   9.8870
    10.2061  10.4211  10.5399  10.6890  11.1437  11.5489  11.6397  11.8457
    12.0865  12.2290  12.4313  12.6351  12.9652  13.0078

     occupation numbers 
     1.0000   1.0000   1.0000   1.0000   1.0000   1.0000   1.0000   1.0000
     1.0000   1.0000   1.0000   1.0000   1.0000   1.0000   1.0000   1.0000
     1.0000   1.0000   1.0000   1.0000   1.0000   1.0000   1.0000   1.0000
     1.0000   1.0000   1.0000   1.0000   1.0000   1.0000   1.0000   1.0000
     1.0000   1.0000   1.0000   1.0000   1.0000   1.0000   1.0000   1.0000
     1.0000   1.0000   1.0000   1.0000   1.0000   1.0000   1.0000   1.0000
     1.0000   1.0000   1.0000   1.0000   1.0000   1.0000

          k = 0.0000 0.0642-0.3226 (  4142 PWs)   bands (ev):

    -8.2475  -7.7751  -7.3511  -7.0439  -6.8890  -5.6589   3.4716   3.6964
     4.0317   4.2221   4.3364   4.4400   4.5865   4.9448   5.0345   5.2558
     5.3348   5.5402   5.6372   5.7098   5.8828   5.9665   6.3577   6.4404
     7.2085   7.2505   7.3920   7.4108   7.7708   7.8622   7.9086   7.9708
     8.0095   8.0218   8.0414   8.0748   9.0177   9.2430   9.9895  10.0941
    10.4154  10.7377  10.9289  11.1332  11.2850  11.3321  11.5282  11.6900
    11.8328  11.9769  12.3688  12.5265  12.7198  12.8029

     occupation numbers 
     1.0000   1.0000   1.0000   1.0000   1.0000   1.0000   1.0000   1.0000
     1.0000   1.0000   1.0000   1.0000   1.0000   1.0000   1.0000   1.0000
     1.0000   1.0000   1.0000   1.0000   1.0000   1.0000   1.0000   1.0000
     1.0000   1.0000   1.0000   1.0000   1.0000   1.0000   1.0000   1.0000
     1.0000   1.0000   1.0000   1.0000   1.0000   1.0000   1.0000   1.0000
     1.0000   1.0000   1.0000   1.0000   1.0000   1.0000   1.0000   1.0000
     1.0000   1.0000   1.0000   1.0000   1.0000   1.0000

          k = 0.0000 0.1283 0.0000 (  4136 PWs)   bands (ev):

    -8.5758  -7.9316  -7.4182  -6.9905  -6.5250  -5.5064   3.9144   4.1259
     4.2857   4.4561   4.5529   4.7012   4.8796   5.0157   5.1165   5.2134
     5.3396   5.4672   5.5894   5.7443   5.9444   6.4009   6.5455   6.7477
     7.0371   7.0896   7.2204   7.4941   7.5343   7.6692   7.7589   7.9071
     8.0384   8.1319   8.1755   8.2381   8.3868   8.5982   8.6871   9.1227
     9.5733   9.6621  10.1878  10.7271  11.3695  11.4583  11.5678  11.7871
    12.0346  12.6522  12.8255  13.1241  13.3372  13.4281

     occupation numbers 
     1.0000   1.0000   1.0000   1.0000   1.0000   1.0000   1.0000   1.0000
     1.0000   1.0000   1.0000   1.0000   1.0000   1.0000   1.0000   1.0000
     1.0000   1.0000   1.0000   1.0000   1.0000   1.0000   1.0000   1.0000
     1.0000   1.0000   1.0000   1.0000   1.0000   1.0000   1.0000   1.0000
     1.0000   1.0000   1.0000   1.0000   1.0000   1.0000   1.0000   1.0000
     1.0000   1.0000   1.0000   1.0000   1.0000   1.0000   1.0000   1.0000
     1.0000   1.0000   1.0000   1.0000   1.0000   1.0000

          k = 0.0000 0.1283 0.1075 (  4139 PWs)   bands (ev):

    -8.5109  -7.8695  -7.4304  -7.0063  -6.5921  -5.5420   3.7831   4.0204
     4.2196   4.3831   4.5249   4.6148   4.8248   4.9483   5.1284   5.1913
     5.3240   5.4088   5.6322   5.7517   5.9278   6.3412   6.4685   6.7052
     7.0663   7.1401   7.2528   7.4598   7.6284   7.7340   7.8778   7.9158
     7.9989   8.1069   8.1396   8.2285   8.4637   8.7185   9.0710   9.2735
     9.7771   9.8499  10.3674  10.8436  11.2540  11.4616  11.6078  11.8616
    11.9794  12.4324  12.7620  13.0540  13.2095  13.2331

     occupation numbers 
     1.0000   1.0000   1.0000   1.0000   1.0000   1.0000   1.0000   1.0000
     1.0000   1.0000   1.0000   1.0000   1.0000   1.0000   1.0000   1.0000
     1.0000   1.0000   1.0000   1.0000   1.0000   1.0000   1.0000   1.0000
     1.0000   1.0000   1.0000   1.0000   1.0000   1.0000   1.0000   1.0000
     1.0000   1.0000   1.0000   1.0000   1.0000   1.0000   1.0000   1.0000
     1.0000   1.0000   1.0000   1.0000   1.0000   1.0000   1.0000   1.0000
     1.0000   1.0000   1.0000   1.0000   1.0000   1.0000

          k = 0.0000 0.1283 0.2151 (  4129 PWs)   bands (ev):

    -8.3518  -7.7408  -7.4787  -7.0108  -6.7623  -5.6149   3.5615   3.7993
     4.1375   4.2286   4.4087   4.4755   4.7044   4.9048   5.0881   5.2392
     5.3112   5.4535   5.6495   5.7194   5.8959   6.1100   6.3897   6.5412
     7.1387   7.2273   7.3758   7.4156   7.7546   7.8260   7.8855   7.9739
     8.0006   8.0574   8.0873   8.1709   8.5981   9.0962   9.4525  10.0288
    10.3409  10.3707  10.8191  10.8325  11.2842  11.5250  11.6198  11.7075
    12.0074  12.0747  12.4399  12.6483  12.8923  12.9513

     occupation numbers 
     1.0000   1.0000   1.0000   1.0000   1.0000   1.0000   1.0000   1.0000
     1.0000   1.0000   1.0000   1.0000   1.0000   1.0000   1.0000   1.0000
     1.0000   1.0000   1.0000   1.0000   1.0000   1.0000   1.0000   1.0000
     1.0000   1.0000   1.0000   1.0000   1.0000   1.0000   1.0000   1.0000
     1.0000   1.0000   1.0000   1.0000   1.0000   1.0000   1.0000   1.0000
     1.0000   1.0000   1.0000   1.0000   1.0000   1.0000   1.0000   1.0000
     1.0000   1.0000   1.0000   1.0000   1.0000   1.0000

          k = 0.0000 0.1283-0.3226 (  4136 PWs)   bands (ev):

    -8.2434  -7.7197  -7.4693  -6.9813  -6.8979  -5.6523   3.4702   3.6889
     4.0649   4.1935   4.3378   4.4465   4.6242   4.9040   5.0427   5.2939
     5.3094   5.5139   5.6640   5.7189   5.8526   5.9475   6.3553   6.4551
     7.2140   7.2518   7.3926   7.4378   7.7894   7.8533   7.9221   7.9753
     8.0228   8.0363   8.0637   8.0910   8.7455   8.9564  10.1546  10.3990
    10.6157  10.6967  11.0041  11.1197  11.2311  11.3243  11.5680  11.7718
    11.8396  12.0209  12.2242  12.4256  12.5691  12.7464

     occupation numbers 
     1.0000   1.0000   1.0000   1.0000   1.0000   1.0000   1.0000   1.0000
     1.0000   1.0000   1.0000   1.0000   1.0000   1.0000   1.0000   1.0000
     1.0000   1.0000   1.0000   1.0000   1.0000   1.0000   1.0000   1.0000
     1.0000   1.0000   1.0000   1.0000   1.0000   1.0000   1.0000   1.0000
     1.0000   1.0000   1.0000   1.0000   1.0000   1.0000   1.0000   1.0000
     1.0000   1.0000   1.0000   1.0000   1.0000   1.0000   1.0000   1.0000
     1.0000   1.0000   1.0000   1.0000   1.0000   1.0000

          k = 0.0000-0.1925 0.0000 (  4138 PWs)   bands (ev):

    -8.5593  -7.9716  -7.4018  -6.9788  -6.5286  -5.5065   3.9190   4.1290
     4.2979   4.4610   4.5609   4.6833   4.8640   4.9979   5.1229   5.2190
     5.3697   5.4584   5.5664   5.7410   5.9196   6.3982   6.5550   6.7311
     7.0536   7.0902   7.2084   7.4978   7.5378   7.6678   7.7659   7.9299
     8.0586   8.1368   8.1775   8.1917   8.3649   8.6408   8.8681   9.0496
     9.3938   9.5765  10.4842  10.8516  11.1073  11.4645  11.4942  11.9526
    12.0166  12.4432  12.8606  13.1983  13.3062  13.3871

     occupation numbers 
     1.0000   1.0000   1.0000   1.0000   1.0000   1.0000   1.0000   1.0000
     1.0000   1.0000   1.0000   1.0000   1.0000   1.0000   1.0000   1.0000
     1.0000   1.0000   1.0000   1.0000   1.0000   1.0000   1.0000   1.0000
     1.0000   1.0000   1.0000   1.0000   1.0000   1.0000   1.0000   1.0000
     1.0000   1.0000   1.0000   1.0000   1.0000   1.0000   1.0000   1.0000
     1.0000   1.0000   1.0000   1.0000   1.0000   1.0000   1.0000   1.0000
     1.0000   1.0000   1.0000   1.0000   1.0000   1.0000

          k = 0.0000-0.1925 0.1075 (  4132 PWs)   bands (ev):

    -8.4956  -7.9070  -7.4167  -6.9935  -6.5959  -5.5414   3.7858   4.0096
     4.2406   4.3837   4.5260   4.6205   4.7845   4.9767   5.1175   5.2345
     5.3093   5.3881   5.6224   5.7659   5.8866   6.3404   6.4802   6.6767
     7.0744   7.1334   7.3235   7.4630   7.6205   7.7239   7.8232   7.9306
     8.0589   8.1027   8.1393   8.1842   8.5622   8.8347   8.9146   9.1295
     9.7612   9.8429  10.5694  10.9447  11.2237  11.4473  11.5869  11.8703
    11.9594  12.2509  12.7873  13.0864  13.1720  13.2417

     occupation numbers 
     1.0000   1.0000   1.0000   1.0000   1.0000   1.0000   1.0000   1.0000
     1.0000   1.0000   1.0000   1.0000   1.0000   1.0000   1.0000   1.0000
     1.0000   1.0000   1.0000   1.0000   1.0000   1.0000   1.0000   1.0000
     1.0000   1.0000   1.0000   1.0000   1.0000   1.0000   1.0000   1.0000
     1.0000   1.0000   1.0000   1.0000   1.0000   1.0000   1.0000   1.0000
     1.0000   1.0000   1.0000   1.0000   1.0000   1.0000   1.0000   1.0000
     1.0000   1.0000   1.0000   1.0000   1.0000   1.0000

          k = 0.0000-0.1925 0.2151 (  4122 PWs)   bands (ev):

    -8.3421  -7.7545  -7.4882  -6.9969  -6.7642  -5.6127   3.5625   3.7896
     4.1245   4.2640   4.4059   4.4898   4.6827   4.9166   5.0656   5.2780
     5.3066   5.4303   5.6373   5.7551   5.8512   6.1132   6.3918   6.5362
     7.1419   7.2248   7.3983   7.4524   7.7539   7.8065   7.8732   7.9808
     8.0264   8.0499   8.0908   8.1659   8.6403   8.8651   9.4785  10.0479
    10.3098  10.4647  10.8086  11.0973  11.3103  11.4849  11.5778  11.7080
    11.9421  12.0508  12.3987  12.6600  12.8397  12.9297

     occupation numbers 
     1.0000   1.0000   1.0000   1.0000   1.0000   1.0000   1.0000   1.0000
     1.0000   1.0000   1.0000   1.0000   1.0000   1.0000   1.0000   1.0000
     1.0000   1.0000   1.0000   1.0000   1.0000   1.0000   1.0000   1.0000
     1.0000   1.0000   1.0000   1.0000   1.0000   1.0000   1.0000   1.0000
     1.0000   1.0000   1.0000   1.0000   1.0000   1.0000   1.0000   1.0000
     1.0000   1.0000   1.0000   1.0000   1.0000   1.0000   1.0000   1.0000
     1.0000   1.0000   1.0000   1.0000   1.0000   1.0000

          k = 0.0000-0.1925-0.3226 (  4112 PWs)   bands (ev):

    -8.2413  -7.6678  -7.5450  -6.9577  -6.9022  -5.6491   3.4695   3.6854
     4.0877   4.1731   4.3388   4.4509   4.6428   4.8863   5.0436   5.2882
     5.3266   5.4968   5.6738   5.7345   5.8252   5.9419   6.3543   6.4621
     7.2169   7.2528   7.3923   7.4536   7.7983   7.8497   7.9261   7.9792
     8.0288   8.0407   8.0712   8.1240   8.6253   8.8414  10.1804  10.5209
    10.6676  10.7625  11.0740  11.1342  11.1981  11.2906  11.5818  11.8412
    11.8874  11.9708  12.1196  12.3786  12.5031  12.7151

     occupation numbers 
     1.0000   1.0000   1.0000   1.0000   1.0000   1.0000   1.0000   1.0000
     1.0000   1.0000   1.0000   1.0000   1.0000   1.0000   1.0000   1.0000
     1.0000   1.0000   1.0000   1.0000   1.0000   1.0000   1.0000   1.0000
     1.0000   1.0000   1.0000   1.0000   1.0000   1.0000   1.0000   1.0000
     1.0000   1.0000   1.0000   1.0000   1.0000   1.0000   1.0000   1.0000
     1.0000   1.0000   1.0000   1.0000   1.0000   1.0000   1.0000   1.0000
     1.0000   1.0000   1.0000   1.0000   1.0000   1.0000

          k = 0.1667 0.0962 0.0000 (  4141 PWs)   bands (ev):

    -8.4271  -7.7453  -7.3366  -6.9582  -6.4939  -5.4502   4.0659   4.2346
     4.3115   4.4490   4.6186   4.7586   4.8298   5.0672   5.1628   5.2116
     5.3367   5.5090   5.6835   5.8646   6.1155   6.4009   6.5098   6.8488
     7.0028   7.0855   7.1803   7.4873   7.5231   7.5973   7.6460   7.8554
     8.0343   8.1450   8.1940   8.2974   8.4594   8.6276   8.7228   8.9727
     9.3907   9.6081   9.9370  10.0575  10.7589  11.1210  11.2555  11.4918
    11.6204  12.2100  12.6111  12.7523  13.0438  13.2176

     occupation numbers 
     1.0000   1.0000   1.0000   1.0000   1.0000   1.0000   1.0000   1.0000
     1.0000   1.0000   1.0000   1.0000   1.0000   1.0000   1.0000   1.0000
     1.0000   1.0000   1.0000   1.0000   1.0000   1.0000   1.0000   1.0000
     1.0000   1.0000   1.0000   1.0000   1.0000   1.0000   1.0000   1.0000
     1.0000   1.0000   1.0000   1.0000   1.0000   1.0000   1.0000   1.0000
     1.0000   1.0000   1.0000   1.0000   1.0000   1.0000   1.0000   1.0000
     1.0000   1.0000   1.0000   1.0000   1.0000   1.0000

          k = 0.1667 0.0962 0.1075 (  4136 PWs)   bands (ev):

    -8.3651  -7.6975  -7.3412  -6.9708  -6.5479  -5.4790   3.9381   4.0861
     4.2168   4.3540   4.5695   4.6567   4.8281   4.9515   5.1142   5.2849
     5.3650   5.4169   5.7245   5.8223   6.0785   6.3223   6.4801   6.7443
     6.9595   7.1256   7.2647   7.5402   7.6013   7.6619   7.7865   7.9483
     8.0487   8.1360   8.1807   8.3169   8.4548   8.7471   9.1285   9.2317
     9.5105   9.8393   9.9647  10.2007  10.8013  11.0522  11.2646  11.4947
    11.6362  12.1270  12.3886  12.6919  12.9763  13.0692

     occupation numbers 
     1.0000   1.0000   1.0000   1.0000   1.0000   1.0000   1.0000   1.0000
     1.0000   1.0000   1.0000   1.0000   1.0000   1.0000   1.0000   1.0000
     1.0000   1.0000   1.0000   1.0000   1.0000   1.0000   1.0000   1.0000
     1.0000   1.0000   1.0000   1.0000   1.0000   1.0000   1.0000   1.0000
     1.0000   1.0000   1.0000   1.0000   1.0000   1.0000   1.0000   1.0000
     1.0000   1.0000   1.0000   1.0000   1.0000   1.0000   1.0000   1.0000
     1.0000   1.0000   1.0000   1.0000   1.0000   1.0000

          k = 0.1667 0.0962 0.2151 (  4120 PWs)   bands (ev):

    -8.2206  -7.6161  -7.3473  -6.9741  -6.6903  -5.5359   3.6868   3.8613
     4.0626   4.2587   4.3904   4.5229   4.7079   4.9126   5.0508   5.2647
     5.3591   5.4670   5.7381   5.7969   6.0110   6.1333   6.4255   6.5491
     7.0848   7.2056   7.3682   7.4790   7.6996   7.7795   7.8502   7.9427
     8.0261   8.1062   8.1693   8.2975   8.6386   9.2331   9.4647   9.8067
    10.0166  10.1333  10.3921  10.5219  10.9173  11.0841  11.2176  11.4265
    11.7668  11.8359  12.0149  12.4297  12.6431  12.7883

     occupation numbers 
     1.0000   1.0000   1.0000   1.0000   1.0000   1.0000   1.0000   1.0000
     1.0000   1.0000   1.0000   1.0000   1.0000   1.0000   1.0000   1.0000
     1.0000   1.0000   1.0000   1.0000   1.0000   1.0000   1.0000   1.0000
     1.0000   1.0000   1.0000   1.0000   1.0000   1.0000   1.0000   1.0000
     1.0000   1.0000   1.0000   1.0000   1.0000   1.0000   1.0000   1.0000
     1.0000   1.0000   1.0000   1.0000   1.0000   1.0000   1.0000   1.0000
     1.0000   1.0000   1.0000   1.0000   1.0000   1.0000

          k = 0.1667 0.0962-0.3226 (  4122 PWs)   bands (ev):

    -8.1287  -7.6181  -7.3082  -6.9581  -6.7996  -5.5640   3.5927   3.7623
     3.9782   4.2368   4.3161   4.4807   4.6222   4.8855   5.0278   5.2346
     5.3607   5.5301   5.6939   5.8250   5.9502   6.0630   6.3771   6.5029
     7.1915   7.2721   7.3892   7.4170   7.7459   7.8568   7.8785   7.9189
     7.9740   8.0598   8.1745   8.2244   8.9028   9.0467   9.8632  10.0207
    10.2107  10.4443  10.6096  10.7880  10.9997  11.1470  11.2820  11.4820
    11.5195  11.8789  12.0051  12.2387  12.2654  12.5083

     occupation numbers 
     1.0000   1.0000   1.0000   1.0000   1.0000   1.0000   1.0000   1.0000
     1.0000   1.0000   1.0000   1.0000   1.0000   1.0000   1.0000   1.0000
     1.0000   1.0000   1.0000   1.0000   1.0000   1.0000   1.0000   1.0000
     1.0000   1.0000   1.0000   1.0000   1.0000   1.0000   1.0000   1.0000
     1.0000   1.0000   1.0000   1.0000   1.0000   1.0000   1.0000   1.0000
     1.0000   1.0000   1.0000   1.0000   1.0000   1.0000   1.0000   1.0000
     1.0000   1.0000   1.0000   1.0000   1.0000   1.0000

          k = 0.1667 0.1604 0.0000 (  4149 PWs)   bands (ev):

    -8.4063  -7.7998  -7.3169  -6.9379  -6.4991  -5.4504   4.0709   4.2465
     4.3244   4.4684   4.5961   4.7407   4.8401   5.0345   5.1908   5.2420
     5.3419   5.5036   5.6441   5.8246   6.1072   6.4296   6.5093   6.8303
     7.0084   7.0719   7.2092   7.4908   7.5332   7.6123   7.6888   7.8396
     7.9998   8.1077   8.1819   8.2537   8.4743   8.6106   8.6751   9.0062
     9.3078   9.7415   9.9816  10.2636  10.6742  11.0276  11.2678  11.4993
    11.5880  12.0934  12.6918  12.8806  12.9741  13.1667

     occupation numbers 
     1.0000   1.0000   1.0000   1.0000   1.0000   1.0000   1.0000   1.0000
     1.0000   1.0000   1.0000   1.0000   1.0000   1.0000   1.0000   1.0000
     1.0000   1.0000   1.0000   1.0000   1.0000   1.0000   1.0000   1.0000
     1.0000   1.0000   1.0000   1.0000   1.0000   1.0000   1.0000   1.0000
     1.0000   1.0000   1.0000   1.0000   1.0000   1.0000   1.0000   1.0000
     1.0000   1.0000   1.0000   1.0000   1.0000   1.0000   1.0000   1.0000
     1.0000   1.0000   1.0000   1.0000   1.0000   1.0000

          k = 0.1667 0.1604 0.1075 (  4142 PWs)   bands (ev):

    -8.3467  -7.7425  -7.3350  -6.9446  -6.5536  -5.4787   3.9391   4.0996
     4.2309   4.3485   4.5862   4.6241   4.8135   4.9663   5.1254   5.2906
     5.3702   5.4273   5.6837   5.8218   6.0469   6.3477   6.4851   6.7284
     6.9842   7.1271   7.3058   7.5387   7.5996   7.6513   7.7612   7.9244
     8.0392   8.1347   8.1632   8.2302   8.5478   8.8414   9.0218   9.1785
     9.2885   9.9748  10.1312  10.3734  10.7964  11.0257  11.2659  11.4837
    11.5757  11.9807  12.4876  12.7527  12.9206  13.0615

     occupation numbers 
     1.0000   1.0000   1.0000   1.0000   1.0000   1.0000   1.0000   1.0000
     1.0000   1.0000   1.0000   1.0000   1.0000   1.0000   1.0000   1.0000
     1.0000   1.0000   1.0000   1.0000   1.0000   1.0000   1.0000   1.0000
     1.0000   1.0000   1.0000   1.0000   1.0000   1.0000   1.0000   1.0000
     1.0000   1.0000   1.0000   1.0000   1.0000   1.0000   1.0000   1.0000
     1.0000   1.0000   1.0000   1.0000   1.0000   1.0000   1.0000   1.0000
     1.0000   1.0000   1.0000   1.0000   1.0000   1.0000

          k = 0.1667 0.1604 0.2151 (  4121 PWs)   bands (ev):

    -8.2101  -7.6115  -7.3933  -6.9391  -6.6961  -5.5337   3.6911   3.8597
     4.0810   4.2473   4.4024   4.5104   4.6868   4.9400   5.0445   5.2820
     5.3741   5.4501   5.7303   5.7966   5.9908   6.1389   6.4308   6.5620
     7.0914   7.2092   7.3951   7.4779   7.6885   7.7735   7.8021   7.9285
     8.0320   8.0826   8.2136   8.3022   8.6270   9.0112   9.4678   9.7342
    10.0380  10.2596  10.4361  10.7460  10.9479  11.0839  11.2717  11.3667
    11.6631  11.7595  12.1577  12.4022  12.6439  12.7220

     occupation numbers 
     1.0000   1.0000   1.0000   1.0000   1.0000   1.0000   1.0000   1.0000
     1.0000   1.0000   1.0000   1.0000   1.0000   1.0000   1.0000   1.0000
     1.0000   1.0000   1.0000   1.0000   1.0000   1.0000   1.0000   1.0000
     1.0000   1.0000   1.0000   1.0000   1.0000   1.0000   1.0000   1.0000
     1.0000   1.0000   1.0000   1.0000   1.0000   1.0000   1.0000   1.0000
     1.0000   1.0000   1.0000   1.0000   1.0000   1.0000   1.0000   1.0000
     1.0000   1.0000   1.0000   1.0000   1.0000   1.0000

          k = 0.1667 0.1604-0.3226 (  4124 PWs)   bands (ev):

    -8.1263  -7.5613  -7.4047  -6.9182  -6.8052  -5.5604   3.5982   3.7632
     3.9910   4.2184   4.3265   4.4763   4.6093   4.9102   5.0177   5.2479
     5.3685   5.5201   5.7048   5.8024   5.9714   6.0366   6.3896   6.5192
     7.1868   7.2692   7.3963   7.4256   7.7293   7.8236   7.8787   7.9075
     7.9736   8.0301   8.2629   8.3073   8.7100   8.8565   9.8586  10.0911
    10.3758  10.4865  10.5792  10.7774  11.0410  11.2043  11.3629  11.4454
    11.5872  11.9011  11.9728  12.1520  12.2814  12.4265

     occupation numbers 
     1.0000   1.0000   1.0000   1.0000   1.0000   1.0000   1.0000   1.0000
     1.0000   1.0000   1.0000   1.0000   1.0000   1.0000   1.0000   1.0000
     1.0000   1.0000   1.0000   1.0000   1.0000   1.0000   1.0000   1.0000
     1.0000   1.0000   1.0000   1.0000   1.0000   1.0000   1.0000   1.0000
     1.0000   1.0000   1.0000   1.0000   1.0000   1.0000   1.0000   1.0000
     1.0000   1.0000   1.0000   1.0000   1.0000   1.0000   1.0000   1.0000
     1.0000   1.0000   1.0000   1.0000   1.0000   1.0000

          k = 0.1667-0.0321 0.0000 (  4150 PWs)   bands (ev):

    -8.4472  -7.6713  -7.3831  -6.9708  -6.4898  -5.4497   4.0605   4.2261
     4.2928   4.4801   4.6232   4.7456   4.8585   4.9446   5.1730   5.2276
     5.3764   5.5030   5.6956   5.9082   6.1795   6.3643   6.5043   6.8709
     6.9715   7.1145   7.1846   7.4187   7.5062   7.5949   7.6454   7.8904
     8.0314   8.1442   8.1742   8.3587   8.4941   8.6760   8.7392   9.1379
     9.2758   9.3551   9.6953  10.3465  10.7370  10.9570  11.4029  11.4977
    11.7588  12.2650  12.5168  12.6219  13.0915  13.2546

     occupation numbers 
     1.0000   1.0000   1.0000   1.0000   1.0000   1.0000   1.0000   1.0000
     1.0000   1.0000   1.0000   1.0000   1.0000   1.0000   1.0000   1.0000
     1.0000   1.0000   1.0000   1.0000   1.0000   1.0000   1.0000   1.0000
     1.0000   1.0000   1.0000   1.0000   1.0000   1.0000   1.0000   1.0000
     1.0000   1.0000   1.0000   1.0000   1.0000   1.0000   1.0000   1.0000
     1.0000   1.0000   1.0000   1.0000   1.0000   1.0000   1.0000   1.0000
     1.0000   1.0000   1.0000   1.0000   1.0000   1.0000

          k = 0.1667-0.0321 0.1075 (  4135 PWs)   bands (ev):

    -8.3820  -7.6515  -7.3471  -6.9993  -6.5435  -5.4790   3.9366   4.0846
     4.2183   4.3618   4.5288   4.6364   4.8381   4.9548   5.1324   5.2883
     5.3414   5.4262   5.7263   5.8461   6.1112   6.3119   6.4739   6.7374
     6.9681   7.1154   7.3324   7.5104   7.6010   7.6698   7.7362   7.8912
     8.0996   8.1496   8.1802   8.3743   8.5343   8.7757   9.0839   9.3751
     9.4593   9.6205   9.8320  10.2585  10.6734  11.0479  11.3738  11.5713
    11.7399  12.1667  12.3885  12.5020  13.0167  13.0975

     occupation numbers 
     1.0000   1.0000   1.0000   1.0000   1.0000   1.0000   1.0000   1.0000
     1.0000   1.0000   1.0000   1.0000   1.0000   1.0000   1.0000   1.0000
     1.0000   1.0000   1.0000   1.0000   1.0000   1.0000   1.0000   1.0000
     1.0000   1.0000   1.0000   1.0000   1.0000   1.0000   1.0000   1.0000
     1.0000   1.0000   1.0000   1.0000   1.0000   1.0000   1.0000   1.0000
     1.0000   1.0000   1.0000   1.0000   1.0000   1.0000   1.0000   1.0000
     1.0000   1.0000   1.0000   1.0000   1.0000   1.0000

          k = 0.1667-0.0321 0.2151 (  4127 PWs)   bands (ev):

    -8.2289  -7.6342  -7.2634  -7.0372  -6.6833  -5.5378   3.6856   3.8690
     4.0473   4.2681   4.3611   4.5194   4.6876   4.9618   5.0314   5.2764
     5.3453   5.4865   5.7140   5.8116   5.9919   6.1817   6.3926   6.5504
     7.0856   7.2018   7.4059   7.4774   7.6936   7.7626   7.8632   7.9350
     8.0451   8.1062   8.1478   8.2417   8.8783   9.2561   9.5395   9.8287
     9.9160  10.0575  10.3215  10.4418  10.6498  11.1062  11.3360  11.5315
    11.7396  11.8763  12.0491  12.3548  12.6611  12.8311

     occupation numbers 
     1.0000   1.0000   1.0000   1.0000   1.0000   1.0000   1.0000   1.0000
     1.0000   1.0000   1.0000   1.0000   1.0000   1.0000   1.0000   1.0000
     1.0000   1.0000   1.0000   1.0000   1.0000   1.0000   1.0000   1.0000
     1.0000   1.0000   1.0000   1.0000   1.0000   1.0000   1.0000   1.0000
     1.0000   1.0000   1.0000   1.0000   1.0000   1.0000   1.0000   1.0000
     1.0000   1.0000   1.0000   1.0000   1.0000   1.0000   1.0000   1.0000
     1.0000   1.0000   1.0000   1.0000   1.0000   1.0000

          k = 0.1667-0.0321-0.3226 (  4130 PWs)   bands (ev):

    -8.1315  -7.6509  -7.2183  -7.0151  -6.7937  -5.5677   3.5894   3.7680
     3.9740   4.2221   4.2991   4.4871   4.6057   4.9120   5.0259   5.2714
     5.3321   5.5831   5.6743   5.7758   5.9328   6.1215   6.3465   6.4830
     7.1888   7.2779   7.3968   7.4261   7.7567   7.8486   7.9179   7.9514
     7.9742   8.0380   8.0933   8.1793   9.1426   9.3586   9.6890   9.8150
    10.1695  10.3762  10.6462  10.8011  10.9481  11.0850  11.2649  11.4289
    11.5568  11.8561  11.9545  12.2724  12.3213  12.5943

     occupation numbers 
     1.0000   1.0000   1.0000   1.0000   1.0000   1.0000   1.0000   1.0000
     1.0000   1.0000   1.0000   1.0000   1.0000   1.0000   1.0000   1.0000
     1.0000   1.0000   1.0000   1.0000   1.0000   1.0000   1.0000   1.0000
     1.0000   1.0000   1.0000   1.0000   1.0000   1.0000   1.0000   1.0000
     1.0000   1.0000   1.0000   1.0000   1.0000   1.0000   1.0000   1.0000
     1.0000   1.0000   1.0000   1.0000   1.0000   1.0000   1.0000   1.0000
     1.0000   1.0000   1.0000   1.0000   1.0000   1.0000

          k = 0.3333 0.1925 0.0000 (  4130 PWs)   bands (ev):

    -8.0555  -7.4109  -7.1518  -6.8853  -6.4545  -5.3375   3.9031   4.1770
     4.4138   4.5359   4.7645   4.8849   5.0227   5.1429   5.2520   5.3785
     5.4798   5.6711   5.7317   6.0386   6.0870   6.5257   6.6841   6.9136
     7.0685   7.1856   7.2512   7.3937   7.5108   7.6235   7.7409   7.8373
     7.9148   7.9665   8.0500   8.2156   8.3623   8.5479   8.8633   8.9257
     9.0747   9.2335   9.3612   9.8675  10.2551  10.4172  10.6442  10.7585
    10.8152  11.1760  12.1405  12.3248  12.4885  12.6696

     occupation numbers 
     1.0000   1.0000   1.0000   1.0000   1.0000   1.0000   1.0000   1.0000
     1.0000   1.0000   1.0000   1.0000   1.0000   1.0000   1.0000   1.0000
     1.0000   1.0000   1.0000   1.0000   1.0000   1.0000   1.0000   1.0000
     1.0000   1.0000   1.0000   1.0000   1.0000   1.0000   1.0000   1.0000
     1.0000   1.0000   1.0000   1.0000   1.0000   1.0000   1.0000   1.0000
     1.0000   1.0000   1.0000   1.0000   1.0000   1.0000   1.0000   1.0000
     1.0000   1.0000   1.0000   1.0000   1.0000   1.0000

          k = 0.3333 0.1925 0.1075 (  4133 PWs)   bands (ev):

    -8.0141  -7.3734  -7.1643  -6.8780  -6.4818  -5.3478   3.8132   4.0421
     4.3177   4.4124   4.6397   4.7963   4.9274   5.0176   5.1634   5.3979
     5.4657   5.6286   5.7735   5.9991   6.1536   6.4890   6.7111   6.8184
     7.0633   7.1835   7.2948   7.3923   7.5828   7.6648   7.7747   7.9209
     7.9604   8.0606   8.1757   8.2362   8.4797   8.7119   8.8664   9.0846
     9.1780   9.2918   9.4089  10.1101  10.2729  10.5060  10.6448  10.8951
    10.9308  11.0740  12.0495  12.2919  12.4268  12.6264

     occupation numbers 
     1.0000   1.0000   1.0000   1.0000   1.0000   1.0000   1.0000   1.0000
     1.0000   1.0000   1.0000   1.0000   1.0000   1.0000   1.0000   1.0000
     1.0000   1.0000   1.0000   1.0000   1.0000   1.0000   1.0000   1.0000
     1.0000   1.0000   1.0000   1.0000   1.0000   1.0000   1.0000   1.0000
     1.0000   1.0000   1.0000   1.0000   1.0000   1.0000   1.0000   1.0000
     1.0000   1.0000   1.0000   1.0000   1.0000   1.0000   1.0000   1.0000
     1.0000   1.0000   1.0000   1.0000   1.0000   1.0000

          k = 0.3333 0.1925 0.2151 (  4155 PWs)   bands (ev):

    -7.9289  -7.2941  -7.1817  -6.8629  -6.5542  -5.3661   3.6670   3.7558
     4.0981   4.2209   4.4527   4.6043   4.8002   4.9240   5.1189   5.3321
     5.4596   5.6203   5.8448   5.9346   6.0984   6.4217   6.6288   6.7304
     7.1447   7.1781   7.3100   7.4821   7.6739   7.6852   7.7655   7.9347
     8.0379   8.1284   8.2881   8.3894   8.6981   8.8272   8.9455   9.2052
     9.3564   9.6420   9.8928  10.1978  10.4368  10.5360  10.8597  10.9957
    11.2093  11.4088  11.8867  12.0419  12.2886  12.4421

     occupation numbers 
     1.0000   1.0000   1.0000   1.0000   1.0000   1.0000   1.0000   1.0000
     1.0000   1.0000   1.0000   1.0000   1.0000   1.0000   1.0000   1.0000
     1.0000   1.0000   1.0000   1.0000   1.0000   1.0000   1.0000   1.0000
     1.0000   1.0000   1.0000   1.0000   1.0000   1.0000   1.0000   1.0000
     1.0000   1.0000   1.0000   1.0000   1.0000   1.0000   1.0000   1.0000
     1.0000   1.0000   1.0000   1.0000   1.0000   1.0000   1.0000   1.0000
     1.0000   1.0000   1.0000   1.0000   1.0000   1.0000

          k = 0.3333 0.1925-0.3226 (  4110 PWs)   bands (ev):

    -7.8847  -7.2730  -7.1601  -6.8567  -6.6040  -5.3740   3.6059   3.6467
     3.9667   4.1543   4.3740   4.4754   4.7903   4.8978   5.0848   5.3480
     5.4236   5.6436   5.7997   5.9642   6.0420   6.3764   6.5893   6.6877
     7.1315   7.2689   7.3982   7.4542   7.6633   7.7097   7.8353   7.9313
     8.0087   8.0232   8.4737   8.5208   8.6563   8.7296   9.1533   9.3870
     9.5950   9.6942   9.7868   9.8591  10.6077  10.9354  11.1051  11.2637
    11.4340  11.6147  11.7850  11.8965  12.0655  12.1937

     occupation numbers 
     1.0000   1.0000   1.0000   1.0000   1.0000   1.0000   1.0000   1.0000
     1.0000   1.0000   1.0000   1.0000   1.0000   1.0000   1.0000   1.0000
     1.0000   1.0000   1.0000   1.0000   1.0000   1.0000   1.0000   1.0000
     1.0000   1.0000   1.0000   1.0000   1.0000   1.0000   1.0000   1.0000
     1.0000   1.0000   1.0000   1.0000   1.0000   1.0000   1.0000   1.0000
     1.0000   1.0000   1.0000   1.0000   1.0000   1.0000   1.0000   1.0000
     1.0000   1.0000   1.0000   1.0000   1.0000   1.0000

          k = 0.3333 0.2566 0.0000 (  4114 PWs)   bands (ev):

    -8.0607  -7.3883  -7.1696  -6.8853  -6.4540  -5.3374   3.9152   4.1780
     4.4224   4.5469   4.7390   4.8967   4.9711   5.1137   5.3014   5.3867
     5.5061   5.5624   5.7185   6.0355   6.1345   6.5540   6.6939   6.9220
     7.0065   7.1943   7.2345   7.4337   7.4875   7.6337   7.7831   7.8705
     7.9873   8.0308   8.0667   8.2074   8.3609   8.5317   8.8211   8.9256
     9.0930   9.2320   9.4134   9.6927  10.1527  10.3689  10.5627  10.8146
    11.0311  11.2031  12.0442  12.3106  12.4945  12.6559

     occupation numbers 
     1.0000   1.0000   1.0000   1.0000   1.0000   1.0000   1.0000   1.0000
     1.0000   1.0000   1.0000   1.0000   1.0000   1.0000   1.0000   1.0000
     1.0000   1.0000   1.0000   1.0000   1.0000   1.0000   1.0000   1.0000
     1.0000   1.0000   1.0000   1.0000   1.0000   1.0000   1.0000   1.0000
     1.0000   1.0000   1.0000   1.0000   1.0000   1.0000   1.0000   1.0000
     1.0000   1.0000   1.0000   1.0000   1.0000   1.0000   1.0000   1.0000
     1.0000   1.0000   1.0000   1.0000   1.0000   1.0000

          k = 0.3333 0.2566 0.1075 (  4129 PWs)   bands (ev):

    -8.0181  -7.3599  -7.1692  -6.8829  -6.4812  -5.3477   3.8317   4.0430
     4.3130   4.4344   4.5748   4.7750   4.8978   5.0904   5.1831   5.3888
     5.4375   5.5958   5.7686   6.0048   6.1568   6.5010   6.6989   6.8317
     7.0558   7.1793   7.3444   7.4043   7.5695   7.6575   7.8113   7.9004
     7.9913   8.1237   8.2025   8.2424   8.4441   8.6931   8.9670   8.9960
     9.1872   9.3345   9.3848   9.9572  10.2193  10.5025  10.6631  10.8280
    11.0606  11.1638  11.9657  12.2168  12.4539  12.6248

     occupation numbers 
     1.0000   1.0000   1.0000   1.0000   1.0000   1.0000   1.0000   1.0000
     1.0000   1.0000   1.0000   1.0000   1.0000   1.0000   1.0000   1.0000
     1.0000   1.0000   1.0000   1.0000   1.0000   1.0000   1.0000   1.0000
     1.0000   1.0000   1.0000   1.0000   1.0000   1.0000   1.0000   1.0000
     1.0000   1.0000   1.0000   1.0000   1.0000   1.0000   1.0000   1.0000
     1.0000   1.0000   1.0000   1.0000   1.0000   1.0000   1.0000   1.0000
     1.0000   1.0000   1.0000   1.0000   1.0000   1.0000

          k = 0.3333 0.2566 0.2151 (  4133 PWs)   bands (ev):

    -7.9305  -7.3075  -7.1562  -6.8738  -6.5533  -5.3662   3.6850   3.7560
     4.1181   4.2089   4.3654   4.5769   4.8325   4.9856   5.1246   5.3619
     5.4300   5.6205   5.8451   5.8917   6.0906   6.4238   6.5862   6.7597
     7.1342   7.1896   7.3586   7.5027   7.6578   7.6869   7.8089   7.9391
     8.0426   8.1262   8.2751   8.4052   8.5944   8.8515   9.0699   9.1360
     9.4688   9.5527   9.9033  10.2650  10.3944  10.5508  10.7861  10.9995
    11.2318  11.4202  11.7940  11.9862  12.2953  12.4533

     occupation numbers 
     1.0000   1.0000   1.0000   1.0000   1.0000   1.0000   1.0000   1.0000
     1.0000   1.0000   1.0000   1.0000   1.0000   1.0000   1.0000   1.0000
     1.0000   1.0000   1.0000   1.0000   1.0000   1.0000   1.0000   1.0000
     1.0000   1.0000   1.0000   1.0000   1.0000   1.0000   1.0000   1.0000
     1.0000   1.0000   1.0000   1.0000   1.0000   1.0000   1.0000   1.0000
     1.0000   1.0000   1.0000   1.0000   1.0000   1.0000   1.0000   1.0000
     1.0000   1.0000   1.0000   1.0000   1.0000   1.0000

          k = 0.3333 0.2566-0.3226 (  4128 PWs)   bands (ev):

    -7.8852  -7.2927  -7.1299  -6.8671  -6.6031  -5.3742   3.6155   3.6471
     3.9989   4.1430   4.2698   4.4643   4.8437   4.9250   5.1116   5.3824
     5.4009   5.6682   5.7855   5.9069   6.0108   6.3803   6.5577   6.6810
     7.1541   7.2836   7.4162   7.4803   7.6835   7.7251   7.8641   7.9312
     8.0033   8.0349   8.3958   8.4500   8.6776   8.7539   9.1614   9.3829
     9.5267   9.8044   9.8894   9.9695  10.6066  10.8569  10.9780  11.1983
    11.4960  11.5791  11.7348  11.9073  12.0664  12.1809

     occupation numbers 
     1.0000   1.0000   1.0000   1.0000   1.0000   1.0000   1.0000   1.0000
     1.0000   1.0000   1.0000   1.0000   1.0000   1.0000   1.0000   1.0000
     1.0000   1.0000   1.0000   1.0000   1.0000   1.0000   1.0000   1.0000
     1.0000   1.0000   1.0000   1.0000   1.0000   1.0000   1.0000   1.0000
     1.0000   1.0000   1.0000   1.0000   1.0000   1.0000   1.0000   1.0000
     1.0000   1.0000   1.0000   1.0000   1.0000   1.0000   1.0000   1.0000
     1.0000   1.0000   1.0000   1.0000   1.0000   1.0000

          k = 0.3333 0.3208 0.0000 (  4133 PWs)   bands (ev):

    -8.0688  -7.3594  -7.1792  -6.8980  -6.4522  -5.3373   3.9313   4.2123
     4.4362   4.5529   4.6104   4.8998   4.9463   5.0906   5.3027   5.4141
     5.4957   5.5892   5.7158   6.0114   6.1526   6.5465   6.7156   6.9385
     6.9899   7.1279   7.2438   7.4100   7.5632   7.6478   7.8150   7.8774
     8.0175   8.1023   8.1759   8.2592   8.4163   8.5417   8.7826   8.9251
     9.0009   9.3103   9.4478   9.5640   9.9785  10.1693  10.4246  10.9750
    11.1781  11.3744  11.9306  12.1588  12.5604  12.6141

     occupation numbers 
     1.0000   1.0000   1.0000   1.0000   1.0000   1.0000   1.0000   1.0000
     1.0000   1.0000   1.0000   1.0000   1.0000   1.0000   1.0000   1.0000
     1.0000   1.0000   1.0000   1.0000   1.0000   1.0000   1.0000   1.0000
     1.0000   1.0000   1.0000   1.0000   1.0000   1.0000   1.0000   1.0000
     1.0000   1.0000   1.0000   1.0000   1.0000   1.0000   1.0000   1.0000
     1.0000   1.0000   1.0000   1.0000   1.0000   1.0000   1.0000   1.0000
     1.0000   1.0000   1.0000   1.0000   1.0000   1.0000

          k = 0.3333 0.3208 0.1075 (  4130 PWs)   bands (ev):

    -8.0249  -7.3462  -7.1593  -6.9014  -6.4793  -5.3477   3.8496   4.0516
     4.3263   4.4450   4.5077   4.7512   4.8473   5.1114   5.2240   5.3798
     5.4313   5.5572   5.8041   6.0059   6.1510   6.4763   6.7043   6.8427
     7.0025   7.1617   7.3290   7.5038   7.6133   7.6768   7.8287   7.9070
     8.0547   8.1553   8.2391   8.3163   8.3742   8.7533   8.8575   9.0421
     9.2461   9.3230   9.4886   9.7320  10.1161  10.3445  10.5957  10.9266
    11.1797  11.3214  11.8557  12.0685  12.4849  12.6015

     occupation numbers 
     1.0000   1.0000   1.0000   1.0000   1.0000   1.0000   1.0000   1.0000
     1.0000   1.0000   1.0000   1.0000   1.0000   1.0000   1.0000   1.0000
     1.0000   1.0000   1.0000   1.0000   1.0000   1.0000   1.0000   1.0000
     1.0000   1.0000   1.0000   1.0000   1.0000   1.0000   1.0000   1.0000
     1.0000   1.0000   1.0000   1.0000   1.0000   1.0000   1.0000   1.0000
     1.0000   1.0000   1.0000   1.0000   1.0000   1.0000   1.0000   1.0000
     1.0000   1.0000   1.0000   1.0000   1.0000   1.0000

          k = 0.3333 0.3208 0.2151 (  4132 PWs)   bands (ev):

    -7.9337  -7.3262  -7.1086  -6.9010  -6.5513  -5.3663   3.6977   3.7539
     4.1372   4.2236   4.3079   4.5351   4.8174   5.0285   5.1333   5.3657
     5.4236   5.6126   5.8455   5.8952   6.0875   6.3839   6.5787   6.7362
     7.1262   7.2062   7.3653   7.5605   7.6763   7.7360   7.8679   7.9460
     8.0637   8.1290   8.2275   8.3973   8.5512   8.7694   9.1684   9.2823
     9.3980   9.6738   9.8457  10.1680  10.4516  10.6162  10.7496  10.9740
    11.1978  11.3800  11.6329  11.9669  12.2982  12.4362

     occupation numbers 
     1.0000   1.0000   1.0000   1.0000   1.0000   1.0000   1.0000   1.0000
     1.0000   1.0000   1.0000   1.0000   1.0000   1.0000   1.0000   1.0000
     1.0000   1.0000   1.0000   1.0000   1.0000   1.0000   1.0000   1.0000
     1.0000   1.0000   1.0000   1.0000   1.0000   1.0000   1.0000   1.0000
     1.0000   1.0000   1.0000   1.0000   1.0000   1.0000   1.0000   1.0000
     1.0000   1.0000   1.0000   1.0000   1.0000   1.0000   1.0000   1.0000
     1.0000   1.0000   1.0000   1.0000   1.0000   1.0000

          k = 0.3333 0.3208-0.3226 (  4132 PWs)   bands (ev):

    -7.8861  -7.3217  -7.0727  -6.8952  -6.6017  -5.3747   3.6212   3.6437
     4.0396   4.1500   4.1995   4.4352   4.8048   4.9798   5.1401   5.3653
     5.4231   5.6670   5.7981   5.8827   6.0063   6.3245   6.5596   6.6473
     7.1774   7.3130   7.4122   7.4981   7.7362   7.7854   7.8986   7.9625
     8.0022   8.0763   8.2568   8.3293   8.6902   8.8245   9.1411   9.2531
     9.6694   9.9672  10.0427  10.1913  10.5478  10.7028  10.7765  11.0845
    11.4581  11.5311  11.7206  11.9023  12.0745  12.1523

     occupation numbers 
     1.0000   1.0000   1.0000   1.0000   1.0000   1.0000   1.0000   1.0000
     1.0000   1.0000   1.0000   1.0000   1.0000   1.0000   1.0000   1.0000
     1.0000   1.0000   1.0000   1.0000   1.0000   1.0000   1.0000   1.0000
     1.0000   1.0000   1.0000   1.0000   1.0000   1.0000   1.0000   1.0000
     1.0000   1.0000   1.0000   1.0000   1.0000   1.0000   1.0000   1.0000
     1.0000   1.0000   1.0000   1.0000   1.0000   1.0000   1.0000   1.0000
     1.0000   1.0000   1.0000   1.0000   1.0000   1.0000

          k = 0.3333 0.0000 0.0000 (  4138 PWs)   bands (ev):

    -8.0720  -7.3577  -7.1651  -6.9120  -6.4510  -5.3373   3.9357   4.2613
     4.4222   4.4996   4.5857   4.8813   4.9530   5.0800   5.2965   5.4140
     5.4882   5.6658   5.7468   5.9858   6.1371   6.5158   6.7214   6.9540
     6.9950   7.1055   7.2448   7.3976   7.5835   7.6611   7.8182   7.8864
     8.0149   8.1460   8.2007   8.2729   8.4829   8.5734   8.7312   8.8426
     9.0664   9.3083   9.4556   9.6361   9.9209  10.0110  10.3073  11.0287
    11.2464  11.4985  11.8478  12.0960  12.5613  12.6128

     occupation numbers 
     1.0000   1.0000   1.0000   1.0000   1.0000   1.0000   1.0000   1.0000
     1.0000   1.0000   1.0000   1.0000   1.0000   1.0000   1.0000   1.0000
     1.0000   1.0000   1.0000   1.0000   1.0000   1.0000   1.0000   1.0000
     1.0000   1.0000   1.0000   1.0000   1.0000   1.0000   1.0000   1.0000
     1.0000   1.0000   1.0000   1.0000   1.0000   1.0000   1.0000   1.0000
     1.0000   1.0000   1.0000   1.0000   1.0000   1.0000   1.0000   1.0000
     1.0000   1.0000   1.0000   1.0000   1.0000   1.0000

          k = 0.3333 0.0000 0.1075 (  4138 PWs)   bands (ev):

    -8.0277  -7.3467  -7.1420  -6.9166  -6.4779  -5.3477   3.8477   4.0593
     4.3337   4.4493   4.4894   4.7586   4.8218   5.0641   5.2403   5.3848
     5.4641   5.5403   5.8429   6.0023   6.1454   6.4456   6.7030   6.8483
     6.9699   7.1491   7.3046   7.5518   7.6484   7.7002   7.8280   7.9248
     8.1081   8.1456   8.2343   8.3153   8.4539   8.5678   8.9741   9.0947
     9.2006   9.3739   9.5599   9.6840  10.0102  10.2513  10.5217  10.9511
    11.3021  11.3751  11.7675  12.0365  12.4798  12.5896

     occupation numbers 
     1.0000   1.0000   1.0000   1.0000   1.0000   1.0000   1.0000   1.0000
     1.0000   1.0000   1.0000   1.0000   1.0000   1.0000   1.0000   1.0000
     1.0000   1.0000   1.0000   1.0000   1.0000   1.0000   1.0000   1.0000
     1.0000   1.0000   1.0000   1.0000   1.0000   1.0000   1.0000   1.0000
     1.0000   1.0000   1.0000   1.0000   1.0000   1.0000   1.0000   1.0000
     1.0000   1.0000   1.0000   1.0000   1.0000   1.0000   1.0000   1.0000
     1.0000   1.0000   1.0000   1.0000   1.0000   1.0000

          k = 0.3333 0.0000 0.2151 (  4121 PWs)   bands (ev):

    -7.9353  -7.3334  -7.0825  -6.9191  -6.5501  -5.3664   3.6909   3.7518
     4.1195   4.2602   4.3474   4.5023   4.7799   5.0321   5.1151   5.3416
     5.4474   5.6115   5.8561   5.9284   6.0907   6.3548   6.5832   6.7054
     7.1252   7.2092   7.3420   7.5787   7.7114   7.7750   7.9010   7.9549
     8.0774   8.1201   8.2306   8.3394   8.5609   8.7293   9.1803   9.3060
     9.5120   9.7113   9.7934  10.1290  10.3919  10.6775  10.7754  10.9795
    11.1538  11.3270  11.5581  11.9947  12.2953  12.4136

     occupation numbers 
     1.0000   1.0000   1.0000   1.0000   1.0000   1.0000   1.0000   1.0000
     1.0000   1.0000   1.0000   1.0000   1.0000   1.0000   1.0000   1.0000
     1.0000   1.0000   1.0000   1.0000   1.0000   1.0000   1.0000   1.0000
     1.0000   1.0000   1.0000   1.0000   1.0000   1.0000   1.0000   1.0000
     1.0000   1.0000   1.0000   1.0000   1.0000   1.0000   1.0000   1.0000
     1.0000   1.0000   1.0000   1.0000   1.0000   1.0000   1.0000   1.0000
     1.0000   1.0000   1.0000   1.0000   1.0000   1.0000

          k = 0.3333 0.0000-0.3226 (  4138 PWs)   bands (ev):

    -7.8864  -7.3338  -7.0383  -6.9173  -6.6011  -5.3748   3.6177   3.6393
     4.0192   4.1659   4.2631   4.4067   4.7406   5.0068   5.1234   5.3456
     5.4277   5.6684   5.7920   5.9241   6.0500   6.2689   6.5644   6.6327
     7.1810   7.3244   7.3966   7.4936   7.7752   7.8175   7.9046   7.9649
     8.0378   8.1540   8.1703   8.2415   8.6799   8.8883   9.0876   9.2164
     9.8075   9.9882  10.1309  10.2945  10.4915  10.6020  10.7262  11.0347
    11.3958  11.4955  11.7399  11.8923  12.0795  12.1421

     occupation numbers 
     1.0000   1.0000   1.0000   1.0000   1.0000   1.0000   1.0000   1.0000
     1.0000   1.0000   1.0000   1.0000   1.0000   1.0000   1.0000   1.0000
     1.0000   1.0000   1.0000   1.0000   1.0000   1.0000   1.0000   1.0000
     1.0000   1.0000   1.0000   1.0000   1.0000   1.0000   1.0000   1.0000
     1.0000   1.0000   1.0000   1.0000   1.0000   1.0000   1.0000   1.0000
     1.0000   1.0000   1.0000   1.0000   1.0000   1.0000   1.0000   1.0000
     1.0000   1.0000   1.0000   1.0000   1.0000   1.0000

          k =-0.5000-0.2887 0.0000 (  4132 PWs)   bands (ev):

    -7.8546  -7.1112  -7.0519  -6.9768  -6.4385  -5.2815   3.8858   4.1589
     4.2732   4.4650   4.6053   4.9345   5.1563   5.2442   5.2906   5.4361
     5.4940   5.6168   5.8031   6.0390   6.2660   6.5838   6.8682   6.9745
     7.0791   7.2177   7.3131   7.5048   7.6736   7.8409   7.8848   7.9692
     8.0544   8.1014   8.1928   8.2407   8.3412   8.5627   8.7225   8.8712
     8.9929   9.0477   9.3455   9.3683   9.4942   9.5942  10.0917  10.2027
    11.0922  11.2792  11.5864  12.0743  12.1269  12.2315

     occupation numbers 
     1.0000   1.0000   1.0000   1.0000   1.0000   1.0000   1.0000   1.0000
     1.0000   1.0000   1.0000   1.0000   1.0000   1.0000   1.0000   1.0000
     1.0000   1.0000   1.0000   1.0000   1.0000   1.0000   1.0000   1.0000
     1.0000   1.0000   1.0000   1.0000   1.0000   1.0000   1.0000   1.0000
     1.0000   1.0000   1.0000   1.0000   1.0000   1.0000   1.0000   1.0000
     1.0000   1.0000   1.0000   1.0000   1.0000   1.0000   1.0000   1.0000
     1.0000   1.0000   1.0000   1.0000   1.0000   1.0000

          k =-0.5000-0.2887 0.1075 (  4136 PWs)   bands (ev):

    -7.8318  -7.1087  -7.0291  -6.9643  -6.4505  -5.2800   3.8015   4.0143
     4.1698   4.3798   4.4720   4.8162   5.0467   5.1721   5.2312   5.4366
     5.5292   5.6344   5.8411   6.0512   6.2265   6.5387   6.7702   7.0226
     7.1307   7.3222   7.3582   7.4627   7.5712   7.7192   7.9123   8.0266
     8.0852   8.1504   8.2084   8.3067   8.4042   8.5492   8.7377   8.8303
     9.0136   9.1783   9.3570   9.6182   9.7952   9.9204  10.0192  10.4736
    11.1620  11.3391  11.6649  11.9935  12.0977  12.1660

     occupation numbers 
     1.0000   1.0000   1.0000   1.0000   1.0000   1.0000   1.0000   1.0000
     1.0000   1.0000   1.0000   1.0000   1.0000   1.0000   1.0000   1.0000
     1.0000   1.0000   1.0000   1.0000   1.0000   1.0000   1.0000   1.0000
     1.0000   1.0000   1.0000   1.0000   1.0000   1.0000   1.0000   1.0000
     1.0000   1.0000   1.0000   1.0000   1.0000   1.0000   1.0000   1.0000
     1.0000   1.0000   1.0000   1.0000   1.0000   1.0000   1.0000   1.0000
     1.0000   1.0000   1.0000   1.0000   1.0000   1.0000

          k =-0.5000-0.2887 0.2151 (  4124 PWs)   bands (ev):

    -7.7837  -7.1120  -6.9795  -6.9309  -6.4803  -5.2772   3.6251   3.7194
     3.9877   4.2087   4.2593   4.5461   4.9290   5.1613   5.2153   5.4275
     5.5120   5.7218   5.8096   5.9884   6.1388   6.4281   6.6801   6.9228
     7.2544   7.3516   7.4520   7.5298   7.5807   7.7098   7.8744   8.0290
     8.0807   8.1490   8.2400   8.3124   8.4815   8.6316   8.7437   8.9019
     9.0666   9.4270   9.6465   9.8245  10.1877  10.3111  10.5946  10.9460
    11.1880  11.3288  11.5508  11.9459  12.0250  12.1913

     occupation numbers 
     1.0000   1.0000   1.0000   1.0000   1.0000   1.0000   1.0000   1.0000
     1.0000   1.0000   1.0000   1.0000   1.0000   1.0000   1.0000   1.0000
     1.0000   1.0000   1.0000   1.0000   1.0000   1.0000   1.0000   1.0000
     1.0000   1.0000   1.0000   1.0000   1.0000   1.0000   1.0000   1.0000
     1.0000   1.0000   1.0000   1.0000   1.0000   1.0000   1.0000   1.0000
     1.0000   1.0000   1.0000   1.0000   1.0000   1.0000   1.0000   1.0000
     1.0000   1.0000   1.0000   1.0000   1.0000   1.0000

          k =-0.5000-0.2887-0.3226 (  4144 PWs)   bands (ev):

    -7.7582  -7.1166  -6.9567  -6.9061  -6.4996  -5.2761   3.5329   3.5868
     3.9012   4.1235   4.1574   4.4364   4.8906   5.1692   5.2049   5.4240
     5.5366   5.7183   5.8778   5.8849   6.0738   6.3685   6.6941   6.7823
     7.3382   7.3925   7.4483   7.5108   7.6490   7.8040   7.8424   8.0136
     8.0671   8.1521   8.2387   8.2485   8.5546   8.6080   8.7939   8.9839
     9.1286   9.2963   9.9707  10.1636  10.3641  10.5383  10.7347  10.8801
    11.1332  11.4899  11.7021  11.8813  12.0454  12.0648

     occupation numbers 
     1.0000   1.0000   1.0000   1.0000   1.0000   1.0000   1.0000   1.0000
     1.0000   1.0000   1.0000   1.0000   1.0000   1.0000   1.0000   1.0000
     1.0000   1.0000   1.0000   1.0000   1.0000   1.0000   1.0000   1.0000
     1.0000   1.0000   1.0000   1.0000   1.0000   1.0000   1.0000   1.0000
     1.0000   1.0000   1.0000   1.0000   1.0000   1.0000   1.0000   1.0000
     1.0000   1.0000   1.0000   1.0000   1.0000   1.0000   1.0000   1.0000
     1.0000   1.0000   1.0000   1.0000   1.0000   1.0000

          k =-0.5000-0.2245 0.0000 (  4127 PWs)   bands (ev):

    -7.8544  -7.1114  -7.0541  -6.9741  -6.4388  -5.2814   3.8840   4.1711
     4.2854   4.4157   4.6263   4.9079   5.1246   5.2572   5.3207   5.4395
     5.5245   5.6145   5.8328   6.0317   6.2487   6.6017   6.8582   6.9978
     7.0841   7.2151   7.2835   7.4887   7.6624   7.8191   7.8987   7.9659
     8.0222   8.0912   8.1995   8.2649   8.3549   8.5324   8.6960   8.8908
     9.0065   9.0914   9.3205   9.4078   9.4643   9.6429  10.0197  10.2425
    11.1219  11.2531  11.5757  12.0286  12.1314  12.2784

     occupation numbers 
     1.0000   1.0000   1.0000   1.0000   1.0000   1.0000   1.0000   1.0000
     1.0000   1.0000   1.0000   1.0000   1.0000   1.0000   1.0000   1.0000
     1.0000   1.0000   1.0000   1.0000   1.0000   1.0000   1.0000   1.0000
     1.0000   1.0000   1.0000   1.0000   1.0000   1.0000   1.0000   1.0000
     1.0000   1.0000   1.0000   1.0000   1.0000   1.0000   1.0000   1.0000
     1.0000   1.0000   1.0000   1.0000   1.0000   1.0000   1.0000   1.0000
     1.0000   1.0000   1.0000   1.0000   1.0000   1.0000

          k =-0.5000-0.2245 0.1075 (  4135 PWs)   bands (ev):

    -7.8317  -7.1094  -7.0309  -6.9618  -6.4508  -5.2799   3.8016   4.0159
     4.1925   4.2987   4.5214   4.8220   5.0565   5.1352   5.2776   5.4455
     5.5425   5.5949   5.8309   6.0499   6.2491   6.5524   6.7413   7.0303
     7.1218   7.3138   7.3650   7.5061   7.5915   7.6981   7.9177   7.9745
     8.0969   8.1366   8.1863   8.2824   8.4194   8.5753   8.6771   8.9119
     9.0602   9.1265   9.3849   9.6584   9.7105   9.9118  10.0261  10.4704
    11.2221  11.3490  11.6281  11.9548  12.0691  12.2267

     occupation numbers 
     1.0000   1.0000   1.0000   1.0000   1.0000   1.0000   1.0000   1.0000
     1.0000   1.0000   1.0000   1.0000   1.0000   1.0000   1.0000   1.0000
     1.0000   1.0000   1.0000   1.0000   1.0000   1.0000   1.0000   1.0000
     1.0000   1.0000   1.0000   1.0000   1.0000   1.0000   1.0000   1.0000
     1.0000   1.0000   1.0000   1.0000   1.0000   1.0000   1.0000   1.0000
     1.0000   1.0000   1.0000   1.0000   1.0000   1.0000   1.0000   1.0000
     1.0000   1.0000   1.0000   1.0000   1.0000   1.0000

          k =-0.5000-0.2245 0.2151 (  4140 PWs)   bands (ev):

    -7.7836  -7.1120  -6.9822  -6.9281  -6.4805  -5.2772   3.6247   3.7175
     3.9795   4.1718   4.3191   4.5628   4.8925   5.1556   5.2206   5.4360
     5.5168   5.6611   5.8305   6.0106   6.1642   6.4429   6.6647   6.9089
     7.2295   7.3672   7.4662   7.5178   7.6089   7.7191   7.9041   7.9277
     8.1176   8.1603   8.2172   8.3239   8.4539   8.6159   8.7442   9.0174
     9.0817   9.3296   9.6722   9.8283  10.1547  10.2734  10.5653  11.0881
    11.1627  11.3516  11.4911  11.9063  12.0821  12.1808

     occupation numbers 
     1.0000   1.0000   1.0000   1.0000   1.0000   1.0000   1.0000   1.0000
     1.0000   1.0000   1.0000   1.0000   1.0000   1.0000   1.0000   1.0000
     1.0000   1.0000   1.0000   1.0000   1.0000   1.0000   1.0000   1.0000
     1.0000   1.0000   1.0000   1.0000   1.0000   1.0000   1.0000   1.0000
     1.0000   1.0000   1.0000   1.0000   1.0000   1.0000   1.0000   1.0000
     1.0000   1.0000   1.0000   1.0000   1.0000   1.0000   1.0000   1.0000
     1.0000   1.0000   1.0000   1.0000   1.0000   1.0000

          k =-0.5000-0.2245-0.3226 (  4144 PWs)   bands (ev):

    -7.7582  -7.1160  -6.9600  -6.9034  -6.4997  -5.2760   3.5323   3.5806
     3.9032   4.0714   4.2429   4.4395   4.8508   5.1273   5.2272   5.4189
     5.5459   5.7095   5.8691   5.9322   6.0813   6.3801   6.6796   6.7867
     7.3254   7.3797   7.4443   7.5223   7.6437   7.7724   7.8712   7.9882
     8.1068   8.1686   8.2297   8.2413   8.5615   8.6357   8.7502   8.9824
     9.1526   9.3118   9.9201  10.0656  10.4473  10.5478  10.7862  10.8821
    11.1122  11.4733  11.6861  11.8872  12.0541  12.0782

     occupation numbers 
     1.0000   1.0000   1.0000   1.0000   1.0000   1.0000   1.0000   1.0000
     1.0000   1.0000   1.0000   1.0000   1.0000   1.0000   1.0000   1.0000
     1.0000   1.0000   1.0000   1.0000   1.0000   1.0000   1.0000   1.0000
     1.0000   1.0000   1.0000   1.0000   1.0000   1.0000   1.0000   1.0000
     1.0000   1.0000   1.0000   1.0000   1.0000   1.0000   1.0000   1.0000
     1.0000   1.0000   1.0000   1.0000   1.0000   1.0000   1.0000   1.0000
     1.0000   1.0000   1.0000   1.0000   1.0000   1.0000

          k = 0.0000-0.0642 0.1075 (  4138 PWs)   bands (ev):

    -8.5353  -7.8117  -7.4306  -7.0479  -6.5846  -5.5426   3.7871   3.9902
     4.2532   4.3303   4.4979   4.6563   4.8343   5.0217   5.0947   5.2139
     5.2672   5.4165   5.6434   5.7513   5.9715   6.3495   6.4525   6.6937
     7.0554   7.1394   7.4020   7.4609   7.5134   7.7030   7.7799   7.8700
     8.0610   8.1098   8.1399   8.2707   8.5564   8.7203   9.0583   9.3604
     9.5974   9.9718  10.2093  10.6334  11.1176  11.6027  11.7710  11.9057
    12.0273  12.5464  12.8569  12.9534  13.2029  13.2968

     occupation numbers 
     1.0000   1.0000   1.0000   1.0000   1.0000   1.0000   1.0000   1.0000
     1.0000   1.0000   1.0000   1.0000   1.0000   1.0000   1.0000   1.0000
     1.0000   1.0000   1.0000   1.0000   1.0000   1.0000   1.0000   1.0000
     1.0000   1.0000   1.0000   1.0000   1.0000   1.0000   1.0000   1.0000
     1.0000   1.0000   1.0000   1.0000   1.0000   1.0000   1.0000   1.0000
     1.0000   1.0000   1.0000   1.0000   1.0000   1.0000   1.0000   1.0000
     1.0000   1.0000   1.0000   1.0000   1.0000   1.0000

          k = 0.0000-0.0642 0.2151 (  4140 PWs)   bands (ev):

    -8.3643  -7.7656  -7.3715  -7.0898  -6.7509  -5.6187   3.5678   3.7890
     4.1000   4.2592   4.4233   4.4813   4.6499   4.9943   5.0120   5.2567
     5.3321   5.4404   5.6239   5.7305   5.9412   6.1109   6.3847   6.5273
     7.1352   7.2257   7.3998   7.4368   7.6915   7.7733   7.8672   7.9377
     8.0318   8.0584   8.0886   8.1667   8.8475   9.2195   9.5311   9.9554
    10.0645  10.3756  10.5215  10.8756  11.0576  11.4690  11.6885  11.9447
    12.0921  12.2810  12.4359  12.5776  12.9194  13.0268

     occupation numbers 
     1.0000   1.0000   1.0000   1.0000   1.0000   1.0000   1.0000   1.0000
     1.0000   1.0000   1.0000   1.0000   1.0000   1.0000   1.0000   1.0000
     1.0000   1.0000   1.0000   1.0000   1.0000   1.0000   1.0000   1.0000
     1.0000   1.0000   1.0000   1.0000   1.0000   1.0000   1.0000   1.0000
     1.0000   1.0000   1.0000   1.0000   1.0000   1.0000   1.0000   1.0000
     1.0000   1.0000   1.0000   1.0000   1.0000   1.0000   1.0000   1.0000
     1.0000   1.0000   1.0000   1.0000   1.0000   1.0000

          k = 0.0000-0.1283 0.1075 (  4139 PWs)   bands (ev):

    -8.5092  -7.8788  -7.4158  -7.0135  -6.5920  -5.5417   3.7872   3.9954
     4.2576   4.3570   4.5102   4.6405   4.7949   5.0129   5.0978   5.2484
     5.2791   5.3912   5.6273   5.7607   5.9135   6.3435   6.4736   6.6714
     7.0675   7.1319   7.4042   7.4656   7.5672   7.7037   7.7811   7.9101
     8.0724   8.1063   8.1465   8.2367   8.5809   8.6797   8.9770   9.2505
     9.7786   9.9074  10.2260  10.8449  11.4411  11.5140  11.6235  11.7542
    11.9524  12.4269  12.7947  12.9946  13.2037  13.2740

     occupation numbers 
     1.0000   1.0000   1.0000   1.0000   1.0000   1.0000   1.0000   1.0000
     1.0000   1.0000   1.0000   1.0000   1.0000   1.0000   1.0000   1.0000
     1.0000   1.0000   1.0000   1.0000   1.0000   1.0000   1.0000   1.0000
     1.0000   1.0000   1.0000   1.0000   1.0000   1.0000   1.0000   1.0000
     1.0000   1.0000   1.0000   1.0000   1.0000   1.0000   1.0000   1.0000
     1.0000   1.0000   1.0000   1.0000   1.0000   1.0000   1.0000   1.0000
     1.0000   1.0000   1.0000   1.0000   1.0000   1.0000

          k = 0.0000-0.1283 0.2151 (  4129 PWs)   bands (ev):

    -8.3486  -7.7667  -7.4417  -7.0292  -6.7584  -5.6146   3.5656   3.7846
     4.1086   4.2764   4.4136   4.4928   4.6558   4.9527   5.0361   5.2973
     5.3059   5.4228   5.6287   5.7473   5.8832   6.1137   6.3892   6.5296
     7.1400   7.2243   7.4013   7.4813   7.7183   7.7682   7.8722   7.9655
     8.0350   8.0482   8.0960   8.1652   8.7195   8.9430   9.5185  10.0525
    10.2995  10.3587  10.5792  11.1155  11.2141  11.4064  11.6810  11.8512
    11.9629  12.1743  12.3971  12.6166  12.8419  12.9761

     occupation numbers 
     1.0000   1.0000   1.0000   1.0000   1.0000   1.0000   1.0000   1.0000
     1.0000   1.0000   1.0000   1.0000   1.0000   1.0000   1.0000   1.0000
     1.0000   1.0000   1.0000   1.0000   1.0000   1.0000   1.0000   1.0000
     1.0000   1.0000   1.0000   1.0000   1.0000   1.0000   1.0000   1.0000
     1.0000   1.0000   1.0000   1.0000   1.0000   1.0000   1.0000   1.0000
     1.0000   1.0000   1.0000   1.0000   1.0000   1.0000   1.0000   1.0000
     1.0000   1.0000   1.0000   1.0000   1.0000   1.0000

          k =-0.1667 0.0962 0.0000 (  4141 PWs)   bands (ev):

    -8.4287  -7.7349  -7.3518  -6.9512  -6.4947  -5.4499   4.0651   4.2457
     4.2959   4.5021   4.6037   4.7329   4.8543   4.9343   5.2020   5.2392
     5.3966   5.4724   5.6658   5.8687   6.1663   6.3948   6.5096   6.8476
     6.9746   7.1081   7.2210   7.4499   7.5104   7.6166   7.6353   7.8863
     7.9821   8.1240   8.1924   8.3179   8.4588   8.6317   8.7090   8.9968
     9.3597   9.6712   9.8414  10.0828  10.7495  11.1730  11.3094  11.4618
    11.6550  12.2114  12.5372  12.6945  13.1042  13.2129

     occupation numbers 
     1.0000   1.0000   1.0000   1.0000   1.0000   1.0000   1.0000   1.0000
     1.0000   1.0000   1.0000   1.0000   1.0000   1.0000   1.0000   1.0000
     1.0000   1.0000   1.0000   1.0000   1.0000   1.0000   1.0000   1.0000
     1.0000   1.0000   1.0000   1.0000   1.0000   1.0000   1.0000   1.0000
     1.0000   1.0000   1.0000   1.0000   1.0000   1.0000   1.0000   1.0000
     1.0000   1.0000   1.0000   1.0000   1.0000   1.0000   1.0000   1.0000
     1.0000   1.0000   1.0000   1.0000   1.0000   1.0000

          k =-0.1667-0.0962 0.1075 (  4136 PWs)   bands (ev):

    -8.3685  -7.7051  -7.3222  -6.9775  -6.5527  -5.4766   3.9609   4.1263
     4.1897   4.4542   4.5112   4.7064   4.7804   4.9798   5.0623   5.2241
     5.3301   5.4342   5.7102   5.9327   6.0835   6.3000   6.4832   6.7889
     7.0219   7.1087   7.3908   7.4752   7.5405   7.6066   7.6467   7.8730
     8.0552   8.1433   8.2384   8.3631   8.5046   8.6666   9.1236   9.1456
     9.4849   9.7419  10.0562  10.1729  10.8741  11.0372  11.3141  11.4145
    11.7422  11.9779  12.5233  12.7243  12.9440  13.1677

     occupation numbers 
     1.0000   1.0000   1.0000   1.0000   1.0000   1.0000   1.0000   1.0000
     1.0000   1.0000   1.0000   1.0000   1.0000   1.0000   1.0000   1.0000
     1.0000   1.0000   1.0000   1.0000   1.0000   1.0000   1.0000   1.0000
     1.0000   1.0000   1.0000   1.0000   1.0000   1.0000   1.0000   1.0000
     1.0000   1.0000   1.0000   1.0000   1.0000   1.0000   1.0000   1.0000
     1.0000   1.0000   1.0000   1.0000   1.0000   1.0000   1.0000   1.0000
     1.0000   1.0000   1.0000   1.0000   1.0000   1.0000

          k =-0.1667 0.0962-0.1075 (  4136 PWs)   bands (ev):

    -8.3652  -7.6984  -7.3392  -6.9714  -6.5489  -5.4786   3.9384   4.0965
     4.2334   4.3552   4.5307   4.6336   4.7948   4.9887   5.1437   5.2915
     5.3573   5.4182   5.6904   5.8441   6.0801   6.3363   6.4811   6.7244
     6.9898   7.1229   7.4152   7.4730   7.5975   7.6433   7.7159   7.8849
     8.0710   8.1435   8.1727   8.3345   8.5674   8.7499   9.0259   9.2378
     9.4918   9.7841  10.0068  10.0998  10.8837  11.0865  11.3036  11.5627
    11.6564  12.0746  12.4193  12.5401  13.0139  13.0936

     occupation numbers 
     1.0000   1.0000   1.0000   1.0000   1.0000   1.0000   1.0000   1.0000
     1.0000   1.0000   1.0000   1.0000   1.0000   1.0000   1.0000   1.0000
     1.0000   1.0000   1.0000   1.0000   1.0000   1.0000   1.0000   1.0000
     1.0000   1.0000   1.0000   1.0000   1.0000   1.0000   1.0000   1.0000
     1.0000   1.0000   1.0000   1.0000   1.0000   1.0000   1.0000   1.0000
     1.0000   1.0000   1.0000   1.0000   1.0000   1.0000   1.0000   1.0000
     1.0000   1.0000   1.0000   1.0000   1.0000   1.0000

          k = 0.1667-0.0962-0.1075 (  4136 PWs)   bands (ev):

    -8.3713  -7.6844  -7.3535  -6.9633  -6.5536  -5.4764   3.9650   4.1263
     4.1823   4.4579   4.5523   4.7081   4.7385   4.8951   5.1269   5.2298
     5.3574   5.4365   5.7154   5.8629   6.1461   6.3187   6.4746   6.7945
     7.0242   7.1183   7.2364   7.4903   7.5799   7.6330   7.7226   7.8777
     8.0136   8.1337   8.1878   8.3010   8.5744   8.7260   9.0045   9.2101
     9.5373   9.7996   9.9778  10.2960  10.6500  11.1794  11.3137  11.4259
    11.6788  12.0557  12.4041  12.7346  13.0092  13.1408

     occupation numbers 
     1.0000   1.0000   1.0000   1.0000   1.0000   1.0000   1.0000   1.0000
     1.0000   1.0000   1.0000   1.0000   1.0000   1.0000   1.0000   1.0000
     1.0000   1.0000   1.0000   1.0000   1.0000   1.0000   1.0000   1.0000
     1.0000   1.0000   1.0000   1.0000   1.0000   1.0000   1.0000   1.0000
     1.0000   1.0000   1.0000   1.0000   1.0000   1.0000   1.0000   1.0000
     1.0000   1.0000   1.0000   1.0000   1.0000   1.0000   1.0000   1.0000
     1.0000   1.0000   1.0000   1.0000   1.0000   1.0000

          k =-0.1667-0.0962 0.2151 (  4120 PWs)   bands (ev):

    -8.2243  -7.6344  -7.3062  -6.9933  -6.6936  -5.5333   3.7191   3.8767
     4.0442   4.3181   4.4195   4.5519   4.6367   4.8832   5.0330   5.2348
     5.3542   5.4268   5.7230   5.9005   6.0110   6.1275   6.4215   6.6065
     7.1012   7.2237   7.4190   7.4548   7.6655   7.7526   7.7938   7.9205
     8.0074   8.1086   8.1912   8.2796   8.7309   9.1165   9.3576   9.7104
     9.9827  10.1994  10.4056  10.5409  10.8457  11.0862  11.2055  11.4601
    11.6486  11.9624  12.1880  12.4410  12.6937  12.7899

     occupation numbers 
     1.0000   1.0000   1.0000   1.0000   1.0000   1.0000   1.0000   1.0000
     1.0000   1.0000   1.0000   1.0000   1.0000   1.0000   1.0000   1.0000
     1.0000   1.0000   1.0000   1.0000   1.0000   1.0000   1.0000   1.0000
     1.0000   1.0000   1.0000   1.0000   1.0000   1.0000   1.0000   1.0000
     1.0000   1.0000   1.0000   1.0000   1.0000   1.0000   1.0000   1.0000
     1.0000   1.0000   1.0000   1.0000   1.0000   1.0000   1.0000   1.0000
     1.0000   1.0000   1.0000   1.0000   1.0000   1.0000

          k =-0.1667 0.0962-0.2151 (  4120 PWs)   bands (ev):

    -8.2188  -7.6323  -7.3217  -6.9872  -6.6886  -5.5356   3.6902   3.8661
     4.0654   4.2571   4.3701   4.5138   4.6671   4.9944   5.0183   5.3010
     5.3430   5.4784   5.7013   5.8175   5.9759   6.1768   6.4014   6.5643
     7.0921   7.2065   7.4432   7.4719   7.6792   7.7446   7.8151   7.9341
     8.0459   8.0807   8.1753   8.3010   8.7175   9.1431   9.5587   9.7271
     9.9842  10.1476  10.3565  10.5103  10.8848  11.0841  11.2962  11.4746
    11.7487  11.8720  12.0874  12.2998  12.6397  12.8151

     occupation numbers 
     1.0000   1.0000   1.0000   1.0000   1.0000   1.0000   1.0000   1.0000
     1.0000   1.0000   1.0000   1.0000   1.0000   1.0000   1.0000   1.0000
     1.0000   1.0000   1.0000   1.0000   1.0000   1.0000   1.0000   1.0000
     1.0000   1.0000   1.0000   1.0000   1.0000   1.0000   1.0000   1.0000
     1.0000   1.0000   1.0000   1.0000   1.0000   1.0000   1.0000   1.0000
     1.0000   1.0000   1.0000   1.0000   1.0000   1.0000   1.0000   1.0000
     1.0000   1.0000   1.0000   1.0000   1.0000   1.0000

          k = 0.1667-0.0962-0.2151 (  4120 PWs)   bands (ev):

    -8.2278  -7.6042  -7.3527  -6.9700  -6.6969  -5.5335   3.7201   3.8903
     4.0416   4.2894   4.4369   4.5379   4.6087   4.9057   5.0481   5.2574
     5.3377   5.4784   5.7319   5.7917   6.0476   6.1583   6.4113   6.5926
     7.0964   7.2342   7.3747   7.4435   7.7092   7.7738   7.8245   7.8764
     8.0197   8.1133   8.1552   8.2894   8.6956   9.1881   9.3541   9.6910
     9.9304  10.3179  10.3916  10.5674  10.7479  11.0811  11.2567  11.5762
    11.6496  11.8024  12.0986  12.4543  12.7353  12.8296

     occupation numbers 
     1.0000   1.0000   1.0000   1.0000   1.0000   1.0000   1.0000   1.0000
     1.0000   1.0000   1.0000   1.0000   1.0000   1.0000   1.0000   1.0000
     1.0000   1.0000   1.0000   1.0000   1.0000   1.0000   1.0000   1.0000
     1.0000   1.0000   1.0000   1.0000   1.0000   1.0000   1.0000   1.0000
     1.0000   1.0000   1.0000   1.0000   1.0000   1.0000   1.0000   1.0000
     1.0000   1.0000   1.0000   1.0000   1.0000   1.0000   1.0000   1.0000
     1.0000   1.0000   1.0000   1.0000   1.0000   1.0000

          k =-0.1667 0.0962 0.3226 (  4122 PWs)   bands (ev):

    -8.1291  -7.6153  -7.3125  -6.9564  -6.7992  -5.5641   3.5951   3.7684
     3.9884   4.2013   4.3098   4.4845   4.5942   4.9388   5.0111   5.2936
     5.3282   5.5851   5.6757   5.7547   5.9471   6.0988   6.3612   6.4985
     7.1847   7.2749   7.4093   7.4275   7.7473   7.8238   7.9061   7.9241
     7.9659   8.0223   8.1685   8.2511   8.8939   9.0860   9.8107  10.0537
    10.2082  10.3817  10.5859  10.8152  11.0916  11.1567  11.3152  11.4162
    11.5634  11.8517  11.9072  12.2267  12.2760  12.5733

     occupation numbers 
     1.0000   1.0000   1.0000   1.0000   1.0000   1.0000   1.0000   1.0000
     1.0000   1.0000   1.0000   1.0000   1.0000   1.0000   1.0000   1.0000
     1.0000   1.0000   1.0000   1.0000   1.0000   1.0000   1.0000   1.0000
     1.0000   1.0000   1.0000   1.0000   1.0000   1.0000   1.0000   1.0000
     1.0000   1.0000   1.0000   1.0000   1.0000   1.0000   1.0000   1.0000
     1.0000   1.0000   1.0000   1.0000   1.0000   1.0000   1.0000   1.0000
     1.0000   1.0000   1.0000   1.0000   1.0000   1.0000

          k =-0.1667 0.1604 0.0000 (  4149 PWs)   bands (ev):

    -8.4072  -7.7955  -7.3234  -6.9346  -6.4995  -5.4502   4.0703   4.2559
     4.3118   4.4965   4.5900   4.7319   4.8371   4.9823   5.1949   5.2723
     5.3712   5.4762   5.6385   5.8279   6.1306   6.4274   6.5111   6.8273
     6.9886   7.0915   7.2256   7.4864   7.5241   7.6131   7.6765   7.8560
     7.9767   8.0883   8.1977   8.2587   8.4843   8.5971   8.6886   8.9937
     9.3083   9.7377  10.0385  10.1641  10.7108  11.0718  11.2626  11.4760
    11.6282  12.0784  12.6728  12.7991  13.0550  13.1584

     occupation numbers 
     1.0000   1.0000   1.0000   1.0000   1.0000   1.0000   1.0000   1.0000
     1.0000   1.0000   1.0000   1.0000   1.0000   1.0000   1.0000   1.0000
     1.0000   1.0000   1.0000   1.0000   1.0000   1.0000   1.0000   1.0000
     1.0000   1.0000   1.0000   1.0000   1.0000   1.0000   1.0000   1.0000
     1.0000   1.0000   1.0000   1.0000   1.0000   1.0000   1.0000   1.0000
     1.0000   1.0000   1.0000   1.0000   1.0000   1.0000   1.0000   1.0000
     1.0000   1.0000   1.0000   1.0000   1.0000   1.0000

          k =-0.1667-0.1604 0.1075 (  4142 PWs)   bands (ev):

    -8.3510  -7.7442  -7.3244  -6.9479  -6.5583  -5.4762   3.9703   4.1424
     4.1842   4.4565   4.5100   4.7021   4.7521   4.9957   5.0884   5.2428
     5.3269   5.4088   5.7161   5.8824   6.0711   6.3217   6.5027   6.7839
     7.0292   7.1043   7.3503   7.5141   7.5718   7.6065   7.6644   7.8641
     8.0104   8.1239   8.2081   8.2813   8.5778   8.7246   9.0277   9.1271
     9.2680   9.9901  10.1694  10.3698  10.7514  11.1218  11.2498  11.4622
    11.5231  11.9310  12.6562  12.7572  12.9304  13.1110

     occupation numbers 
     1.0000   1.0000   1.0000   1.0000   1.0000   1.0000   1.0000   1.0000
     1.0000   1.0000   1.0000   1.0000   1.0000   1.0000   1.0000   1.0000
     1.0000   1.0000   1.0000   1.0000   1.0000   1.0000   1.0000   1.0000
     1.0000   1.0000   1.0000   1.0000   1.0000   1.0000   1.0000   1.0000
     1.0000   1.0000   1.0000   1.0000   1.0000   1.0000   1.0000   1.0000
     1.0000   1.0000   1.0000   1.0000   1.0000   1.0000   1.0000   1.0000
     1.0000   1.0000   1.0000   1.0000   1.0000   1.0000

          k =-0.1667 0.1604-0.1075 (  4142 PWs)   bands (ev):

    -8.3467  -7.7428  -7.3341  -6.9448  -6.5541  -5.4784   3.9390   4.1060
     4.2413   4.3437   4.5561   4.6329   4.7878   4.9862   5.1392   5.2934
     5.3678   5.4328   5.6625   5.8313   6.0497   6.3526   6.4890   6.7170
     6.9963   7.1261   7.3827   7.5120   7.5974   7.6397   7.7202   7.8919
     8.0507   8.1443   8.1555   8.2403   8.6354   8.8126   8.9743   9.1331
     9.3250   9.9714  10.1708  10.2370  10.8612  11.0528  11.3150  11.5182
    11.5690  11.9461  12.5077  12.6464  12.9650  13.0746

     occupation numbers 
     1.0000   1.0000   1.0000   1.0000   1.0000   1.0000   1.0000   1.0000
     1.0000   1.0000   1.0000   1.0000   1.0000   1.0000   1.0000   1.0000
     1.0000   1.0000   1.0000   1.0000   1.0000   1.0000   1.0000   1.0000
     1.0000   1.0000   1.0000   1.0000   1.0000   1.0000   1.0000   1.0000
     1.0000   1.0000   1.0000   1.0000   1.0000   1.0000   1.0000   1.0000
     1.0000   1.0000   1.0000   1.0000   1.0000   1.0000   1.0000   1.0000
     1.0000   1.0000   1.0000   1.0000   1.0000   1.0000

          k = 0.1667-0.1604-0.1075 (  4142 PWs)   bands (ev):

    -8.3526  -7.7352  -7.3376  -6.9415  -6.5587  -5.4761   3.9724   4.1446
     4.1781   4.4556   4.5345   4.7052   4.7251   4.9529   5.1181   5.2697
     5.3184   5.4136   5.7231   5.8423   6.1039   6.3290   6.5006   6.7854
     7.0311   7.1112   7.2812   7.5026   7.5892   7.6098   7.7275   7.8639
     7.9807   8.1147   8.2014   8.2563   8.6076   8.7719   8.9648   9.1104
     9.3212   9.9889  10.1984  10.3682  10.7066  11.1743  11.2669  11.3554
    11.5782  11.9408  12.5830  12.7781  12.9891  13.0826

     occupation numbers 
     1.0000   1.0000   1.0000   1.0000   1.0000   1.0000   1.0000   1.0000
     1.0000   1.0000   1.0000   1.0000   1.0000   1.0000   1.0000   1.0000
     1.0000   1.0000   1.0000   1.0000   1.0000   1.0000   1.0000   1.0000
     1.0000   1.0000   1.0000   1.0000   1.0000   1.0000   1.0000   1.0000
     1.0000   1.0000   1.0000   1.0000   1.0000   1.0000   1.0000   1.0000
     1.0000   1.0000   1.0000   1.0000   1.0000   1.0000   1.0000   1.0000
     1.0000   1.0000   1.0000   1.0000   1.0000   1.0000

          k =-0.1667-0.1604 0.2151 (  4121 PWs)   bands (ev):

    -8.2153  -7.6221  -7.3676  -6.9486  -6.6999  -5.5311   3.7255   3.8850
     4.0428   4.3162   4.4145   4.5481   4.6284   4.9120   5.0243   5.2434
     5.3520   5.4311   5.7328   5.8701   5.9941   6.1374   6.4410   6.6153
     7.0993   7.2176   7.4279   7.4640   7.6618   7.7504   7.7830   7.8999
     7.9915   8.1134   8.2272   8.2826   8.6912   8.9513   9.2624   9.6634
    10.0740  10.3806  10.5296  10.6314  10.8919  10.9987  11.2266  11.4603
    11.5417  11.9289  12.2669  12.4236  12.6412  12.7899

     occupation numbers 
     1.0000   1.0000   1.0000   1.0000   1.0000   1.0000   1.0000   1.0000
     1.0000   1.0000   1.0000   1.0000   1.0000   1.0000   1.0000   1.0000
     1.0000   1.0000   1.0000   1.0000   1.0000   1.0000   1.0000   1.0000
     1.0000   1.0000   1.0000   1.0000   1.0000   1.0000   1.0000   1.0000
     1.0000   1.0000   1.0000   1.0000   1.0000   1.0000   1.0000   1.0000
     1.0000   1.0000   1.0000   1.0000   1.0000   1.0000   1.0000   1.0000
     1.0000   1.0000   1.0000   1.0000   1.0000   1.0000

          k =-0.1667 0.1604-0.2151 (  4121 PWs)   bands (ev):

    -8.2091  -7.6214  -7.3801  -6.9445  -6.6951  -5.5336   3.6927   3.8622
     4.0832   4.2449   4.3911   4.5087   4.6677   4.9751   5.0313   5.3054
     5.3542   5.4661   5.7056   5.8119   5.9705   6.1607   6.4203   6.5689
     7.0950   7.2095   7.4350   7.4767   7.6777   7.7505   7.7856   7.9264
     8.0435   8.0712   8.2261   8.2778   8.7195   8.9171   9.5194   9.7153
    10.0194  10.2651  10.4534  10.6293  10.9396  11.1321  11.3172  11.4228
    11.6079  11.8061  12.2245  12.2831  12.6316  12.7554

     occupation numbers 
     1.0000   1.0000   1.0000   1.0000   1.0000   1.0000   1.0000   1.0000
     1.0000   1.0000   1.0000   1.0000   1.0000   1.0000   1.0000   1.0000
     1.0000   1.0000   1.0000   1.0000   1.0000   1.0000   1.0000   1.0000
     1.0000   1.0000   1.0000   1.0000   1.0000   1.0000   1.0000   1.0000
     1.0000   1.0000   1.0000   1.0000   1.0000   1.0000   1.0000   1.0000
     1.0000   1.0000   1.0000   1.0000   1.0000   1.0000   1.0000   1.0000
     1.0000   1.0000   1.0000   1.0000   1.0000   1.0000

          k = 0.1667-0.1604-0.2151 (  4121 PWs)   bands (ev):

    -8.2171  -7.6040  -7.3915  -6.9391  -6.7018  -5.5312   3.7260   3.8917
     4.0415   4.3011   4.4233   4.5412   4.6164   4.9184   5.0342   5.2788
     5.3100   5.4703   5.7427   5.7992   6.0268   6.1461   6.4366   6.6088
     7.0967   7.2226   7.4100   7.4465   7.6849   7.7755   7.7915   7.8736
     7.9969   8.1114   8.2126   8.2939   8.6644   8.9980   9.2532   9.6560
    10.0444  10.4239  10.5658  10.6141  10.8474  11.0568  11.1907  11.4603
    11.6194  11.8205  12.2204  12.4395  12.6697  12.8087

     occupation numbers 
     1.0000   1.0000   1.0000   1.0000   1.0000   1.0000   1.0000   1.0000
     1.0000   1.0000   1.0000   1.0000   1.0000   1.0000   1.0000   1.0000
     1.0000   1.0000   1.0000   1.0000   1.0000   1.0000   1.0000   1.0000
     1.0000   1.0000   1.0000   1.0000   1.0000   1.0000   1.0000   1.0000
     1.0000   1.0000   1.0000   1.0000   1.0000   1.0000   1.0000   1.0000
     1.0000   1.0000   1.0000   1.0000   1.0000   1.0000   1.0000   1.0000
     1.0000   1.0000   1.0000   1.0000   1.0000   1.0000

          k =-0.1667 0.1604 0.3226 (  4124 PWs)   bands (ev):

    -8.1264  -7.5585  -7.4080  -6.9177  -6.8050  -5.5605   3.5994   3.7660
     3.9972   4.1998   4.3225   4.4793   4.5961   4.9347   5.0103   5.2847
     5.3370   5.5585   5.6984   5.7586   5.9684   6.0582   6.3824   6.5168
     7.1832   7.2708   7.4044   7.4334   7.7319   7.8078   7.8854   7.9121
     7.9688   8.0158   8.2692   8.3097   8.7146   8.8607   9.8415  10.1332
    10.3183  10.5037  10.5334  10.8004  11.1214  11.1828  11.3463  11.4417
    11.6324  11.8612  11.9338  12.1406  12.2552  12.4892

     occupation numbers 
     1.0000   1.0000   1.0000   1.0000   1.0000   1.0000   1.0000   1.0000
     1.0000   1.0000   1.0000   1.0000   1.0000   1.0000   1.0000   1.0000
     1.0000   1.0000   1.0000   1.0000   1.0000   1.0000   1.0000   1.0000
     1.0000   1.0000   1.0000   1.0000   1.0000   1.0000   1.0000   1.0000
     1.0000   1.0000   1.0000   1.0000   1.0000   1.0000   1.0000   1.0000
     1.0000   1.0000   1.0000   1.0000   1.0000   1.0000   1.0000   1.0000
     1.0000   1.0000   1.0000   1.0000   1.0000   1.0000

          k =-0.1667-0.0321 0.0000 (  4150 PWs)   bands (ev):

    -8.4465  -7.6783  -7.3734  -6.9745  -6.4894  -5.4498   4.0607   4.2238
     4.2971   4.4545   4.6317   4.7681   4.8230   5.0251   5.1431   5.2255
     5.3496   5.5132   5.7053   5.9081   6.1498   6.3704   6.5055   6.8681
     6.9829   7.1159   7.1550   7.4480   7.5067   7.5835   7.6457   7.8758
     8.0610   8.1502   8.1784   8.3603   8.4660   8.6537   8.8395   9.0803
     9.1806   9.4336   9.7353  10.3020  10.8012  10.9202  11.3549  11.4995
    11.7583  12.2515  12.5873  12.6202  13.0726  13.2544

     occupation numbers 
     1.0000   1.0000   1.0000   1.0000   1.0000   1.0000   1.0000   1.0000
     1.0000   1.0000   1.0000   1.0000   1.0000   1.0000   1.0000   1.0000
     1.0000   1.0000   1.0000   1.0000   1.0000   1.0000   1.0000   1.0000
     1.0000   1.0000   1.0000   1.0000   1.0000   1.0000   1.0000   1.0000
     1.0000   1.0000   1.0000   1.0000   1.0000   1.0000   1.0000   1.0000
     1.0000   1.0000   1.0000   1.0000   1.0000   1.0000   1.0000   1.0000
     1.0000   1.0000   1.0000   1.0000   1.0000   1.0000

          k =-0.1667 0.0321 0.1075 (  4135 PWs)   bands (ev):

    -8.3871  -7.6415  -7.3565  -6.9931  -6.5482  -5.4768   3.9559   4.1136
     4.1832   4.4607   4.5480   4.7143   4.7783   4.8618   5.1084   5.2194
     5.3420   5.4705   5.7118   5.9087   6.1667   6.2932   6.4514   6.8001
     7.0120   7.1239   7.2447   7.4779   7.5690   7.6498   7.6854   7.8772
     8.0887   8.1374   8.1810   8.3417   8.5912   8.7314   9.0400   9.3309
     9.5375   9.6044   9.9047  10.3093  10.5023  11.0958  11.3857  11.5198
    11.8010  12.1083  12.3488  12.6485  13.0004  13.1888

     occupation numbers 
     1.0000   1.0000   1.0000   1.0000   1.0000   1.0000   1.0000   1.0000
     1.0000   1.0000   1.0000   1.0000   1.0000   1.0000   1.0000   1.0000
     1.0000   1.0000   1.0000   1.0000   1.0000   1.0000   1.0000   1.0000
     1.0000   1.0000   1.0000   1.0000   1.0000   1.0000   1.0000   1.0000
     1.0000   1.0000   1.0000   1.0000   1.0000   1.0000   1.0000   1.0000
     1.0000   1.0000   1.0000   1.0000   1.0000   1.0000   1.0000   1.0000
     1.0000   1.0000   1.0000   1.0000   1.0000   1.0000

          k =-0.1667-0.0321-0.1075 (  4135 PWs)   bands (ev):

    -8.3820  -7.6509  -7.3483  -6.9989  -6.5430  -5.4792   3.9363   4.0805
     4.2114   4.3568   4.5460   4.6572   4.8577   4.9270   5.1189   5.2833
     5.3486   5.4267   5.7417   5.8337   6.1127   6.3024   6.4763   6.7459
     6.9499   7.1168   7.2779   7.5306   7.6023   7.6742   7.7686   7.9211
     8.0977   8.1550   8.1776   8.3226   8.5643   8.7034   9.1829   9.3179
     9.4699   9.6514   9.9075  10.2109  10.6571  11.0241  11.4120  11.4777
    11.7430  12.1800  12.3759  12.5734  13.0063  13.0866

     occupation numbers 
     1.0000   1.0000   1.0000   1.0000   1.0000   1.0000   1.0000   1.0000
     1.0000   1.0000   1.0000   1.0000   1.0000   1.0000   1.0000   1.0000
     1.0000   1.0000   1.0000   1.0000   1.0000   1.0000   1.0000   1.0000
     1.0000   1.0000   1.0000   1.0000   1.0000   1.0000   1.0000   1.0000
     1.0000   1.0000   1.0000   1.0000   1.0000   1.0000   1.0000   1.0000
     1.0000   1.0000   1.0000   1.0000   1.0000   1.0000   1.0000   1.0000
     1.0000   1.0000   1.0000   1.0000   1.0000   1.0000

          k = 0.1667 0.0321-0.1075 (  4135 PWs)   bands (ev):

    -8.3858  -7.6541  -7.3373  -7.0012  -6.5479  -5.4769   3.9538   4.1143
     4.1860   4.4573   4.5300   4.7140   4.7896   4.9066   5.0776   5.2294
     5.3203   5.4684   5.7115   5.9395   6.1386   6.2806   6.4585   6.7959
     7.0124   7.1214   7.3111   7.4654   7.5564   7.6275   7.6644   7.8738
     8.0898   8.1600   8.2149   8.3428   8.6165   8.6677   9.1266   9.2652
     9.4444   9.6614   9.9312  10.1777  10.6780  11.0452  11.3806  11.4896
    11.8615  12.0359  12.4187  12.6456  12.9770  13.1976

     occupation numbers 
     1.0000   1.0000   1.0000   1.0000   1.0000   1.0000   1.0000   1.0000
     1.0000   1.0000   1.0000   1.0000   1.0000   1.0000   1.0000   1.0000
     1.0000   1.0000   1.0000   1.0000   1.0000   1.0000   1.0000   1.0000
     1.0000   1.0000   1.0000   1.0000   1.0000   1.0000   1.0000   1.0000
     1.0000   1.0000   1.0000   1.0000   1.0000   1.0000   1.0000   1.0000
     1.0000   1.0000   1.0000   1.0000   1.0000   1.0000   1.0000   1.0000
     1.0000   1.0000   1.0000   1.0000   1.0000   1.0000

          k =-0.1667 0.0321 0.2151 (  4127 PWs)   bands (ev):

    -8.2364  -7.6192  -7.2809  -7.0230  -6.6905  -5.5357   3.7136   3.8821
     4.0421   4.2950   4.4391   4.5417   4.6151   4.8785   5.0614   5.2532
     5.3202   5.4843   5.7109   5.8404   6.0438   6.1642   6.3909   6.5834
     7.0988   7.2411   7.3603   7.4458   7.7129   7.7751   7.8322   7.8971
     8.0438   8.1019   8.1402   8.2281   8.9065   9.1510   9.6045   9.7154
     9.8286  10.0992  10.3438  10.4756  10.6045  11.1308  11.3077  11.5379
    11.7763  11.8102  12.0713  12.4585  12.7682  12.8203

     occupation numbers 
     1.0000   1.0000   1.0000   1.0000   1.0000   1.0000   1.0000   1.0000
     1.0000   1.0000   1.0000   1.0000   1.0000   1.0000   1.0000   1.0000
     1.0000   1.0000   1.0000   1.0000   1.0000   1.0000   1.0000   1.0000
     1.0000   1.0000   1.0000   1.0000   1.0000   1.0000   1.0000   1.0000
     1.0000   1.0000   1.0000   1.0000   1.0000   1.0000   1.0000   1.0000
     1.0000   1.0000   1.0000   1.0000   1.0000   1.0000   1.0000   1.0000
     1.0000   1.0000   1.0000   1.0000   1.0000   1.0000

          k =-0.1667-0.0321-0.2151 (  4127 PWs)   bands (ev):

    -8.2298  -7.6273  -7.2783  -7.0275  -6.6840  -5.5380   3.6838   3.8666
     4.0465   4.2675   4.3709   4.5261   4.7098   4.9198   5.0455   5.2633
     5.3459   5.4860   5.7283   5.8044   6.0055   6.1610   6.4070   6.5420
     7.0819   7.2012   7.3737   7.4796   7.7023   7.7773   7.8828   7.9400
     8.0367   8.1240   8.1512   8.2166   8.8545   9.2334   9.5816   9.8481
     9.9632  10.0757  10.3085  10.3521  10.7039  11.1260  11.2976  11.5089
    11.7493  11.8779  12.0052  12.4025  12.6613  12.8253

     occupation numbers 
     1.0000   1.0000   1.0000   1.0000   1.0000   1.0000   1.0000   1.0000
     1.0000   1.0000   1.0000   1.0000   1.0000   1.0000   1.0000   1.0000
     1.0000   1.0000   1.0000   1.0000   1.0000   1.0000   1.0000   1.0000
     1.0000   1.0000   1.0000   1.0000   1.0000   1.0000   1.0000   1.0000
     1.0000   1.0000   1.0000   1.0000   1.0000   1.0000   1.0000   1.0000
     1.0000   1.0000   1.0000   1.0000   1.0000   1.0000   1.0000   1.0000
     1.0000   1.0000   1.0000   1.0000   1.0000   1.0000

          k = 0.1667 0.0321-0.2151 (  4127 PWs)   bands (ev):

    -8.2348  -7.6321  -7.2540  -7.0403  -6.6891  -5.5356   3.7132   3.8752
     4.0436   4.3088   4.4302   4.5487   4.6316   4.8629   5.0557   5.2569
     5.3040   5.4703   5.7110   5.8818   6.0380   6.1420   6.3969   6.5908
     7.1010   7.2356   7.3806   7.4476   7.6916   7.7726   7.8148   7.9152
     8.0365   8.0969   8.1649   8.2246   8.9319   9.1384   9.5312   9.7741
     9.8287  10.0648  10.3421  10.4665  10.6525  11.1289  11.2927  11.4909
    11.7189  11.9231  12.1148  12.4586  12.7500  12.7996

     occupation numbers 
     1.0000   1.0000   1.0000   1.0000   1.0000   1.0000   1.0000   1.0000
     1.0000   1.0000   1.0000   1.0000   1.0000   1.0000   1.0000   1.0000
     1.0000   1.0000   1.0000   1.0000   1.0000   1.0000   1.0000   1.0000
     1.0000   1.0000   1.0000   1.0000   1.0000   1.0000   1.0000   1.0000
     1.0000   1.0000   1.0000   1.0000   1.0000   1.0000   1.0000   1.0000
     1.0000   1.0000   1.0000   1.0000   1.0000   1.0000   1.0000   1.0000
     1.0000   1.0000   1.0000   1.0000   1.0000   1.0000

          k =-0.1667-0.0321 0.3226 (  4130 PWs)   bands (ev):

    -8.1313  -7.6520  -7.2157  -7.0167  -6.7938  -5.5676   3.5882   3.7648
     3.9701   4.2397   4.3009   4.4862   4.6205   4.8844   5.0343   5.2483
     5.3361   5.5669   5.6796   5.8056   5.9357   6.1048   6.3554   6.4851
     7.1919   7.2768   7.3866   7.4212   7.7572   7.8626   7.9093   7.9402
     7.9728   8.0659   8.1182   8.1451   9.1556   9.3073   9.6781   9.9074
    10.1295  10.3823  10.6671  10.8208  10.8946  11.0650  11.2508  11.4554
    11.5451  11.8708  11.9928  12.2788  12.3071  12.5717

     occupation numbers 
     1.0000   1.0000   1.0000   1.0000   1.0000   1.0000   1.0000   1.0000
     1.0000   1.0000   1.0000   1.0000   1.0000   1.0000   1.0000   1.0000
     1.0000   1.0000   1.0000   1.0000   1.0000   1.0000   1.0000   1.0000
     1.0000   1.0000   1.0000   1.0000   1.0000   1.0000   1.0000   1.0000
     1.0000   1.0000   1.0000   1.0000   1.0000   1.0000   1.0000   1.0000
     1.0000   1.0000   1.0000   1.0000   1.0000   1.0000   1.0000   1.0000
     1.0000   1.0000   1.0000   1.0000   1.0000   1.0000

          k =-0.3333-0.1925 0.1075 (  4133 PWs)   bands (ev):

    -8.0208  -7.3692  -7.1573  -6.8802  -6.4875  -5.3450   3.8573   4.0957
     4.2291   4.4293   4.7081   4.7346   4.8870   5.0959   5.2237   5.3729
     5.4604   5.5290   5.8792   5.9586   6.1895   6.5307   6.6442   6.8698
     6.9950   7.2023   7.3384   7.4422   7.5220   7.6139   7.7029   7.8463
     7.9272   8.0695   8.1568   8.2734   8.4765   8.6637   8.9995   9.0320
     9.1490   9.3032   9.4580   9.9936  10.2200  10.4640  10.6119  10.8790
    10.9897  11.1353  12.1982  12.3156  12.4883  12.5961

     occupation numbers 
     1.0000   1.0000   1.0000   1.0000   1.0000   1.0000   1.0000   1.0000
     1.0000   1.0000   1.0000   1.0000   1.0000   1.0000   1.0000   1.0000
     1.0000   1.0000   1.0000   1.0000   1.0000   1.0000   1.0000   1.0000
     1.0000   1.0000   1.0000   1.0000   1.0000   1.0000   1.0000   1.0000
     1.0000   1.0000   1.0000   1.0000   1.0000   1.0000   1.0000   1.0000
     1.0000   1.0000   1.0000   1.0000   1.0000   1.0000   1.0000   1.0000
     1.0000   1.0000   1.0000   1.0000   1.0000   1.0000

          k =-0.3333-0.1925 0.2151 (  4155 PWs)   bands (ev):

    -7.9368  -7.2924  -7.1682  -6.8673  -6.5608  -5.3632   3.7036   3.8106
     4.0332   4.2335   4.4982   4.5686   4.7561   5.0031   5.0835   5.3887
     5.4249   5.5497   5.8451   5.9612   6.1439   6.4205   6.6072   6.7834
     7.0140   7.2720   7.3945   7.5117   7.6025   7.6641   7.7488   7.8677
     8.0142   8.1401   8.2596   8.3517   8.7570   8.8498   8.9864   9.1449
     9.3899   9.5921   9.8105  10.0631  10.3634  10.5527  10.6922  11.1378
    11.3733  11.4794  11.8224  12.1334  12.3467  12.4894

     occupation numbers 
     1.0000   1.0000   1.0000   1.0000   1.0000   1.0000   1.0000   1.0000
     1.0000   1.0000   1.0000   1.0000   1.0000   1.0000   1.0000   1.0000
     1.0000   1.0000   1.0000   1.0000   1.0000   1.0000   1.0000   1.0000
     1.0000   1.0000   1.0000   1.0000   1.0000   1.0000   1.0000   1.0000
     1.0000   1.0000   1.0000   1.0000   1.0000   1.0000   1.0000   1.0000
     1.0000   1.0000   1.0000   1.0000   1.0000   1.0000   1.0000   1.0000
     1.0000   1.0000   1.0000   1.0000   1.0000   1.0000

          k =-0.3333 0.2566 0.0000 (  4114 PWs)   bands (ev):

    -8.0588  -7.4076  -7.1396  -6.8986  -6.4532  -5.3374   3.9058   4.2080
     4.4187   4.5031   4.7164   4.8657   5.0229   5.1292   5.2482   5.4144
     5.4624   5.7080   5.8013   5.9984   6.0725   6.4945   6.6946   6.9304
     7.0697   7.1754   7.2116   7.4085   7.5606   7.6209   7.7450   7.8340
     7.9350   7.9711   8.0985   8.2565   8.3709   8.5232   8.8134   8.9580
     9.0375   9.2464   9.4730   9.8260  10.1779  10.3303  10.4225  10.8066
    10.9536  11.2902  12.0926  12.2756  12.5116  12.6560

     occupation numbers 
     1.0000   1.0000   1.0000   1.0000   1.0000   1.0000   1.0000   1.0000
     1.0000   1.0000   1.0000   1.0000   1.0000   1.0000   1.0000   1.0000
     1.0000   1.0000   1.0000   1.0000   1.0000   1.0000   1.0000   1.0000
     1.0000   1.0000   1.0000   1.0000   1.0000   1.0000   1.0000   1.0000
     1.0000   1.0000   1.0000   1.0000   1.0000   1.0000   1.0000   1.0000
     1.0000   1.0000   1.0000   1.0000   1.0000   1.0000   1.0000   1.0000
     1.0000   1.0000   1.0000   1.0000   1.0000   1.0000

          k =-0.3333-0.2566 0.1075 (  4129 PWs)   bands (ev):

    -8.0252  -7.3485  -7.1727  -6.8815  -6.4869  -5.3450   3.8616   4.0840
     4.2845   4.4189   4.6269   4.7418   4.9034   5.0600   5.2606   5.3818
     5.4476   5.5702   5.7833   6.0125   6.1705   6.5250   6.6276   6.8870
     6.9763   7.1927   7.3152   7.4620   7.5250   7.6561   7.7502   7.8685
     7.9743   8.1128   8.1825   8.2422   8.4709   8.6320   8.9991   9.0558
     9.1655   9.3059   9.4997   9.8638  10.0836  10.4929  10.5956  10.8849
    11.0625  11.2257  12.1130  12.2222  12.5455  12.5778

     occupation numbers 
     1.0000   1.0000   1.0000   1.0000   1.0000   1.0000   1.0000   1.0000
     1.0000   1.0000   1.0000   1.0000   1.0000   1.0000   1.0000   1.0000
     1.0000   1.0000   1.0000   1.0000   1.0000   1.0000   1.0000   1.0000
     1.0000   1.0000   1.0000   1.0000   1.0000   1.0000   1.0000   1.0000
     1.0000   1.0000   1.0000   1.0000   1.0000   1.0000   1.0000   1.0000
     1.0000   1.0000   1.0000   1.0000   1.0000   1.0000   1.0000   1.0000
     1.0000   1.0000   1.0000   1.0000   1.0000   1.0000

          k =-0.3333 0.2566-0.1075 (  4129 PWs)   bands (ev):

    -8.0170  -7.3725  -7.1506  -6.8908  -6.4803  -5.3478   3.8104   4.0512
     4.3211   4.4083   4.6534   4.7897   4.8832   4.9787   5.1918   5.3989
     5.4958   5.5936   5.8337   5.9903   6.1506   6.4506   6.7052   6.8411
     7.0075   7.1711   7.2621   7.4778   7.6278   7.7145   7.7382   7.9484
     7.9777   8.0512   8.1839   8.2776   8.4733   8.6435   8.8610   9.0398
     9.2430   9.3104   9.5134  10.0654  10.1849  10.4254  10.6054  10.7728
    11.0717  11.1597  12.0872  12.1646  12.4657  12.6029

     occupation numbers 
     1.0000   1.0000   1.0000   1.0000   1.0000   1.0000   1.0000   1.0000
     1.0000   1.0000   1.0000   1.0000   1.0000   1.0000   1.0000   1.0000
     1.0000   1.0000   1.0000   1.0000   1.0000   1.0000   1.0000   1.0000
     1.0000   1.0000   1.0000   1.0000   1.0000   1.0000   1.0000   1.0000
     1.0000   1.0000   1.0000   1.0000   1.0000   1.0000   1.0000   1.0000
     1.0000   1.0000   1.0000   1.0000   1.0000   1.0000   1.0000   1.0000
     1.0000   1.0000   1.0000   1.0000   1.0000   1.0000

          k = 0.3333-0.2566-0.1075 (  4129 PWs)   bands (ev):

    -8.0232  -7.3734  -7.1362  -6.8958  -6.4863  -5.3450   3.8607   4.1223
     4.2058   4.4463   4.6452   4.7646   4.8555   5.0724   5.2288   5.3499
     5.4744   5.5606   5.8884   6.0107   6.1589   6.4926   6.6798   6.8811
     6.9992   7.1679   7.3261   7.4347   7.5530   7.6163   7.7416   7.8298
     7.9669   8.0880   8.1613   8.3039   8.5065   8.6656   8.8779   8.9134
     9.2073   9.4481   9.5089   9.9423  10.1853  10.4039  10.5360  10.8334
    11.0114  11.2783  12.1145  12.2896  12.4733  12.6278

     occupation numbers 
     1.0000   1.0000   1.0000   1.0000   1.0000   1.0000   1.0000   1.0000
     1.0000   1.0000   1.0000   1.0000   1.0000   1.0000   1.0000   1.0000
     1.0000   1.0000   1.0000   1.0000   1.0000   1.0000   1.0000   1.0000
     1.0000   1.0000   1.0000   1.0000   1.0000   1.0000   1.0000   1.0000
     1.0000   1.0000   1.0000   1.0000   1.0000   1.0000   1.0000   1.0000
     1.0000   1.0000   1.0000   1.0000   1.0000   1.0000   1.0000   1.0000
     1.0000   1.0000   1.0000   1.0000   1.0000   1.0000

          k =-0.3333-0.2566 0.2151 (  4133 PWs)   bands (ev):

    -7.9391  -7.2907  -7.1625  -6.8725  -6.5603  -5.3634   3.7069   3.8073
     4.0768   4.2307   4.3897   4.5471   4.8342   4.9642   5.1476   5.3684
     5.4349   5.6278   5.7756   5.9455   6.1026   6.4215   6.5732   6.7688
     7.0403   7.2919   7.4007   7.5120   7.6311   7.6895   7.7806   7.8890
     8.0227   8.1439   8.2543   8.3231   8.6690   8.8779   9.0127   9.1466
     9.4622   9.6759   9.7340  10.1165  10.3144  10.5537  10.6557  11.1740
    11.3164  11.5121  11.7389  12.0613  12.3895  12.4663

     occupation numbers 
     1.0000   1.0000   1.0000   1.0000   1.0000   1.0000   1.0000   1.0000
     1.0000   1.0000   1.0000   1.0000   1.0000   1.0000   1.0000   1.0000
     1.0000   1.0000   1.0000   1.0000   1.0000   1.0000   1.0000   1.0000
     1.0000   1.0000   1.0000   1.0000   1.0000   1.0000   1.0000   1.0000
     1.0000   1.0000   1.0000   1.0000   1.0000   1.0000   1.0000   1.0000
     1.0000   1.0000   1.0000   1.0000   1.0000   1.0000   1.0000   1.0000
     1.0000   1.0000   1.0000   1.0000   1.0000   1.0000

          k =-0.3333 0.2566-0.2151 (  4133 PWs)   bands (ev):

    -7.9304  -7.3077  -7.1559  -6.8744  -6.5529  -5.3662   3.6594   3.7558
     4.0820   4.2728   4.4775   4.5728   4.7673   4.8966   5.1285   5.3147
     5.4754   5.6165   5.8540   5.9643   6.1057   6.3897   6.6255   6.7078
     7.1365   7.1837   7.2952   7.5087   7.6947   7.7434   7.7761   7.9365
     8.0391   8.1412   8.2589   8.4029   8.6359   8.8547   8.9699   9.1337
     9.4598   9.6415   9.9399  10.2828  10.3349  10.5123  10.8623  11.0036
    11.1351  11.3982  11.8377  12.0580  12.2858  12.4183

     occupation numbers 
     1.0000   1.0000   1.0000   1.0000   1.0000   1.0000   1.0000   1.0000
     1.0000   1.0000   1.0000   1.0000   1.0000   1.0000   1.0000   1.0000
     1.0000   1.0000   1.0000   1.0000   1.0000   1.0000   1.0000   1.0000
     1.0000   1.0000   1.0000   1.0000   1.0000   1.0000   1.0000   1.0000
     1.0000   1.0000   1.0000   1.0000   1.0000   1.0000   1.0000   1.0000
     1.0000   1.0000   1.0000   1.0000   1.0000   1.0000   1.0000   1.0000
     1.0000   1.0000   1.0000   1.0000   1.0000   1.0000

          k = 0.3333-0.2566-0.2151 (  4133 PWs)   bands (ev):

    -7.9377  -7.3145  -7.1296  -6.8836  -6.5597  -5.3633   3.7025   3.8111
     4.0197   4.2785   4.4954   4.5748   4.6849   5.0068   5.0797   5.3825
     5.4361   5.5202   5.8682   6.0267   6.1376   6.3728   6.6199   6.7876
     7.0134   7.2541   7.3816   7.5197   7.6094   7.7104   7.7853   7.8581
     8.0177   8.1357   8.2557   8.3661   8.6985   8.8561   9.0133   9.1566
     9.3417   9.5922   9.9364  10.0413  10.3888  10.5497  10.7350  11.0003
    11.2948  11.5201  11.8017  12.1515  12.3013  12.4987

     occupation numbers 
     1.0000   1.0000   1.0000   1.0000   1.0000   1.0000   1.0000   1.0000
     1.0000   1.0000   1.0000   1.0000   1.0000   1.0000   1.0000   1.0000
     1.0000   1.0000   1.0000   1.0000   1.0000   1.0000   1.0000   1.0000
     1.0000   1.0000   1.0000   1.0000   1.0000   1.0000   1.0000   1.0000
     1.0000   1.0000   1.0000   1.0000   1.0000   1.0000   1.0000   1.0000
     1.0000   1.0000   1.0000   1.0000   1.0000   1.0000   1.0000   1.0000
     1.0000   1.0000   1.0000   1.0000   1.0000   1.0000

          k =-0.3333 0.2566 0.3226 (  4128 PWs)   bands (ev):

    -7.8849  -7.2963  -7.1250  -6.8685  -6.6035  -5.3741   3.5989   3.6461
     3.9531   4.2093   4.4083   4.4325   4.7151   4.9210   5.0827   5.3313
     5.4374   5.6211   5.8123   6.0151   6.0605   6.3314   6.5720   6.6873
     7.1358   7.2834   7.3811   7.4507   7.6851   7.7538   7.8566   7.9312
     8.0028   8.0432   8.4148   8.4622   8.6422   8.7903   9.1934   9.3202
     9.5980   9.7420   9.8406   9.9489  10.5930  10.9385  11.0359  11.2290
    11.3764  11.5749  11.7949  11.8835  12.0757  12.1798

     occupation numbers 
     1.0000   1.0000   1.0000   1.0000   1.0000   1.0000   1.0000   1.0000
     1.0000   1.0000   1.0000   1.0000   1.0000   1.0000   1.0000   1.0000
     1.0000   1.0000   1.0000   1.0000   1.0000   1.0000   1.0000   1.0000
     1.0000   1.0000   1.0000   1.0000   1.0000   1.0000   1.0000   1.0000
     1.0000   1.0000   1.0000   1.0000   1.0000   1.0000   1.0000   1.0000
     1.0000   1.0000   1.0000   1.0000   1.0000   1.0000   1.0000   1.0000
     1.0000   1.0000   1.0000   1.0000   1.0000   1.0000

          k =-0.3333 0.3208 0.0000 (  4133 PWs)   bands (ev):

    -8.0671  -7.3827  -7.1436  -6.9127  -6.4515  -5.3374   3.9222   4.2549
     4.4230   4.4664   4.6463   4.8629   4.9863   5.0901   5.2806   5.4265
     5.4704   5.6938   5.8099   5.9757   6.1013   6.4911   6.7102   6.9601
     7.0032   7.1423   7.2290   7.4057   7.5765   7.6489   7.7931   7.8729
     7.9662   8.0875   8.1697   8.2896   8.4294   8.4930   8.7364   8.8699
     9.0915   9.3708   9.4840   9.7017   9.9707  10.1255  10.3073  10.9301
    11.1481  11.4510  11.9242  12.1875  12.5425  12.6286

     occupation numbers 
     1.0000   1.0000   1.0000   1.0000   1.0000   1.0000   1.0000   1.0000
     1.0000   1.0000   1.0000   1.0000   1.0000   1.0000   1.0000   1.0000
     1.0000   1.0000   1.0000   1.0000   1.0000   1.0000   1.0000   1.0000
     1.0000   1.0000   1.0000   1.0000   1.0000   1.0000   1.0000   1.0000
     1.0000   1.0000   1.0000   1.0000   1.0000   1.0000   1.0000   1.0000
     1.0000   1.0000   1.0000   1.0000   1.0000   1.0000   1.0000   1.0000
     1.0000   1.0000   1.0000   1.0000   1.0000   1.0000

          k =-0.3333-0.3208 0.1075 (  4130 PWs)   bands (ev):

    -8.0318  -7.3330  -7.1667  -6.8979  -6.4852  -5.3450   3.8697   4.0958
     4.3501   4.4280   4.4840   4.7502   4.8869   5.0124   5.2915   5.3593
     5.4704   5.6494   5.7245   6.0261   6.1686   6.4705   6.6511   6.9007
     6.9736   7.1589   7.2977   7.4534   7.5926   7.6680   7.8043   7.8725
     8.0876   8.1500   8.2266   8.2670   8.4721   8.6039   8.8405   9.1257
     9.2403   9.3882   9.5399   9.6913   9.9738  10.3265  10.5344  10.9771
    11.1161  11.4502  11.9235  12.1156  12.4885  12.6473

     occupation numbers 
     1.0000   1.0000   1.0000   1.0000   1.0000   1.0000   1.0000   1.0000
     1.0000   1.0000   1.0000   1.0000   1.0000   1.0000   1.0000   1.0000
     1.0000   1.0000   1.0000   1.0000   1.0000   1.0000   1.0000   1.0000
     1.0000   1.0000   1.0000   1.0000   1.0000   1.0000   1.0000   1.0000
     1.0000   1.0000   1.0000   1.0000   1.0000   1.0000   1.0000   1.0000
     1.0000   1.0000   1.0000   1.0000   1.0000   1.0000   1.0000   1.0000
     1.0000   1.0000   1.0000   1.0000   1.0000   1.0000

          k =-0.3333 0.3208-0.1075 (  4130 PWs)   bands (ev):

    -8.0239  -7.3595  -7.1385  -6.9108  -6.4784  -5.3477   3.8269   4.0600
     4.3211   4.4300   4.5713   4.7809   4.8344   5.0022   5.2263   5.3939
     5.5055   5.5433   5.8619   5.9931   6.1483   6.4317   6.6951   6.8570
     6.9707   7.1511   7.2782   7.5432   7.6532   7.7131   7.7935   7.9404
     8.0467   8.1109   8.2033   8.3679   8.4331   8.5464   8.8763   9.0541
     9.2717   9.3886   9.5862   9.8809   9.9848  10.3125  10.5377  10.8469
    11.2174  11.3069  11.9202  12.0871  12.4780  12.5864

     occupation numbers 
     1.0000   1.0000   1.0000   1.0000   1.0000   1.0000   1.0000   1.0000
     1.0000   1.0000   1.0000   1.0000   1.0000   1.0000   1.0000   1.0000
     1.0000   1.0000   1.0000   1.0000   1.0000   1.0000   1.0000   1.0000
     1.0000   1.0000   1.0000   1.0000   1.0000   1.0000   1.0000   1.0000
     1.0000   1.0000   1.0000   1.0000   1.0000   1.0000   1.0000   1.0000
     1.0000   1.0000   1.0000   1.0000   1.0000   1.0000   1.0000   1.0000
     1.0000   1.0000   1.0000   1.0000   1.0000   1.0000

          k = 0.3333-0.3208-0.1075 (  4130 PWs)   bands (ev):

    -8.0299  -7.3597  -7.1255  -6.9149  -6.4846  -5.3450   3.8697   4.1365
     4.2315   4.4437   4.5774   4.7814   4.7880   5.0368   5.2640   5.3495
     5.4720   5.6151   5.8323   6.0715   6.1380   6.4453   6.6873   6.9113
     6.9814   7.1302   7.3053   7.4345   7.5945   7.6519   7.8130   7.8512
     8.0400   8.1570   8.2003   8.3063   8.5653   8.6763   8.7154   8.8380
     9.2961   9.5298   9.6444   9.7539  10.0446  10.2915  10.3878  10.9504
    11.1135  11.4520  11.9221  12.1833  12.4572  12.6665

     occupation numbers 
     1.0000   1.0000   1.0000   1.0000   1.0000   1.0000   1.0000   1.0000
     1.0000   1.0000   1.0000   1.0000   1.0000   1.0000   1.0000   1.0000
     1.0000   1.0000   1.0000   1.0000   1.0000   1.0000   1.0000   1.0000
     1.0000   1.0000   1.0000   1.0000   1.0000   1.0000   1.0000   1.0000
     1.0000   1.0000   1.0000   1.0000   1.0000   1.0000   1.0000   1.0000
     1.0000   1.0000   1.0000   1.0000   1.0000   1.0000   1.0000   1.0000
     1.0000   1.0000   1.0000   1.0000   1.0000   1.0000

          k =-0.3333-0.3208 0.2151 (  4132 PWs)   bands (ev):

    -7.9423  -7.3108  -7.1163  -6.8964  -6.5587  -5.3636   3.7098   3.8046
     4.1313   4.2520   4.2917   4.5218   4.8133   4.9659   5.1910   5.3451
     5.4551   5.6809   5.7356   5.9668   6.0716   6.3596   6.5760   6.7520
     7.0628   7.2977   7.3926   7.5224   7.6691   7.7374   7.8446   7.9131
     8.0621   8.1611   8.2214   8.2750   8.6231   8.7919   9.0317   9.2817
     9.4567   9.7280   9.8288  10.0658  10.2879  10.5473  10.7353  11.0628
    11.2164  11.4980  11.6792  12.0112  12.3487  12.4845

     occupation numbers 
     1.0000   1.0000   1.0000   1.0000   1.0000   1.0000   1.0000   1.0000
     1.0000   1.0000   1.0000   1.0000   1.0000   1.0000   1.0000   1.0000
     1.0000   1.0000   1.0000   1.0000   1.0000   1.0000   1.0000   1.0000
     1.0000   1.0000   1.0000   1.0000   1.0000   1.0000   1.0000   1.0000
     1.0000   1.0000   1.0000   1.0000   1.0000   1.0000   1.0000   1.0000
     1.0000   1.0000   1.0000   1.0000   1.0000   1.0000   1.0000   1.0000
     1.0000   1.0000   1.0000   1.0000   1.0000   1.0000

          k =-0.3333 0.3208-0.2151 (  4132 PWs)   bands (ev):

    -7.9336  -7.3263  -7.1083  -6.9016  -6.5509  -5.3664   3.6701   3.7544
     4.0870   4.3161   4.4040   4.5150   4.7582   4.9599   5.1228   5.3227
     5.4665   5.6158   5.8627   5.9569   6.1005   6.3617   6.5892   6.7048
     7.1277   7.1982   7.3142   7.5514   7.7228   7.7689   7.8577   7.9498
     8.0449   8.1466   8.2397   8.3733   8.5505   8.8072   9.0815   9.2058
     9.4960   9.6584  10.0023  10.1961  10.3129  10.5455  10.8278  10.9946
    11.1177  11.3833  11.6544  12.0379  12.2883  12.4070

     occupation numbers 
     1.0000   1.0000   1.0000   1.0000   1.0000   1.0000   1.0000   1.0000
     1.0000   1.0000   1.0000   1.0000   1.0000   1.0000   1.0000   1.0000
     1.0000   1.0000   1.0000   1.0000   1.0000   1.0000   1.0000   1.0000
     1.0000   1.0000   1.0000   1.0000   1.0000   1.0000   1.0000   1.0000
     1.0000   1.0000   1.0000   1.0000   1.0000   1.0000   1.0000   1.0000
     1.0000   1.0000   1.0000   1.0000   1.0000   1.0000   1.0000   1.0000
     1.0000   1.0000   1.0000   1.0000   1.0000   1.0000

          k = 0.3333-0.3208-0.2151 (  4132 PWs)   bands (ev):

    -7.9408  -7.3284  -7.0854  -6.9117  -6.5581  -5.3635   3.7054   3.8092
     4.0431   4.3199   4.4011   4.5371   4.6850   4.9881   5.1441   5.3598
     5.4366   5.5640   5.8487   6.0474   6.1278   6.3052   6.6029   6.7718
     7.0411   7.2600   7.3770   7.5310   7.6474   7.7641   7.8540   7.8813
     8.0343   8.1311   8.2357   8.3823   8.5676   8.8090   9.0726   9.2691
     9.3320   9.6115   9.9697  10.0998  10.4413  10.5487  10.6568  10.9597
    11.1812  11.5040  11.7271  12.1077  12.2730  12.5061

     occupation numbers 
     1.0000   1.0000   1.0000   1.0000   1.0000   1.0000   1.0000   1.0000
     1.0000   1.0000   1.0000   1.0000   1.0000   1.0000   1.0000   1.0000
     1.0000   1.0000   1.0000   1.0000   1.0000   1.0000   1.0000   1.0000
     1.0000   1.0000   1.0000   1.0000   1.0000   1.0000   1.0000   1.0000
     1.0000   1.0000   1.0000   1.0000   1.0000   1.0000   1.0000   1.0000
     1.0000   1.0000   1.0000   1.0000   1.0000   1.0000   1.0000   1.0000
     1.0000   1.0000   1.0000   1.0000   1.0000   1.0000

          k =-0.3333 0.3208 0.3226 (  4132 PWs)   bands (ev):

    -7.8858  -7.3241  -7.0681  -6.8974  -6.6020  -5.3746   3.6037   3.6435
     3.9691   4.2538   4.3085   4.4065   4.7008   4.9813   5.0914   5.3368
     5.4290   5.6407   5.8033   5.9894   6.0794   6.2746   6.5509   6.6639
     7.1625   7.3093   7.3838   7.4708   7.7414   7.8054   7.9042   7.9511
     7.9832   8.0983   8.3031   8.3151   8.6575   8.8600   9.1336   9.2666
     9.7263   9.8570  10.0104  10.1087  10.5777  10.7425  10.9185  11.0904
    11.3799  11.4993  11.7670  11.8870  12.0812  12.1560

     occupation numbers 
     1.0000   1.0000   1.0000   1.0000   1.0000   1.0000   1.0000   1.0000
     1.0000   1.0000   1.0000   1.0000   1.0000   1.0000   1.0000   1.0000
     1.0000   1.0000   1.0000   1.0000   1.0000   1.0000   1.0000   1.0000
     1.0000   1.0000   1.0000   1.0000   1.0000   1.0000   1.0000   1.0000
     1.0000   1.0000   1.0000   1.0000   1.0000   1.0000   1.0000   1.0000
     1.0000   1.0000   1.0000   1.0000   1.0000   1.0000   1.0000   1.0000
     1.0000   1.0000   1.0000   1.0000   1.0000   1.0000

          k =-0.3333-0.0000 0.1075 (  4138 PWs)   bands (ev):

    -8.0342  -7.3404  -7.1402  -6.9156  -6.4841  -5.3450   3.8743   4.1214
     4.3170   4.4075   4.5135   4.7562   4.8179   5.0160   5.2901   5.3517
     5.4768   5.6559   5.7669   6.0247   6.1839   6.4289   6.6748   6.9109
     6.9772   7.1310   7.2946   7.4421   7.6223   7.6652   7.8231   7.8787
     8.1012   8.1697   8.2723   8.3044   8.4954   8.6052   8.7405   9.0089
     9.3203   9.4705   9.5525   9.7285   9.9796  10.1663  10.4286  11.0355
    11.1730  11.5632  11.7887  12.0933  12.4476  12.6800

     occupation numbers 
     1.0000   1.0000   1.0000   1.0000   1.0000   1.0000   1.0000   1.0000
     1.0000   1.0000   1.0000   1.0000   1.0000   1.0000   1.0000   1.0000
     1.0000   1.0000   1.0000   1.0000   1.0000   1.0000   1.0000   1.0000
     1.0000   1.0000   1.0000   1.0000   1.0000   1.0000   1.0000   1.0000
     1.0000   1.0000   1.0000   1.0000   1.0000   1.0000   1.0000   1.0000
     1.0000   1.0000   1.0000   1.0000   1.0000   1.0000   1.0000   1.0000
     1.0000   1.0000   1.0000   1.0000   1.0000   1.0000

          k =-0.3333-0.0000 0.2151 (  4121 PWs)   bands (ev):

    -7.9431  -7.3265  -7.0763  -6.9205  -6.5576  -5.3637   3.7097   3.8056
     4.1075   4.2500   4.3610   4.5037   4.7378   4.9806   5.1926   5.3383
     5.4529   5.6267   5.8002   5.9932   6.1153   6.2943   6.5887   6.7528
     7.0637   7.2833   7.3807   7.5327   7.6794   7.7684   7.8711   7.9222
     8.0852   8.1313   8.2195   8.3089   8.5705   8.7488   9.0821   9.2927
     9.4958   9.6319   9.8862  10.1231  10.3338  10.5520  10.7399  11.0069
    11.1085  11.4535  11.6950  12.0399  12.2885  12.5054

     occupation numbers 
     1.0000   1.0000   1.0000   1.0000   1.0000   1.0000   1.0000   1.0000
     1.0000   1.0000   1.0000   1.0000   1.0000   1.0000   1.0000   1.0000
     1.0000   1.0000   1.0000   1.0000   1.0000   1.0000   1.0000   1.0000
     1.0000   1.0000   1.0000   1.0000   1.0000   1.0000   1.0000   1.0000
     1.0000   1.0000   1.0000   1.0000   1.0000   1.0000   1.0000   1.0000
     1.0000   1.0000   1.0000   1.0000   1.0000   1.0000   1.0000   1.0000
     1.0000   1.0000   1.0000   1.0000   1.0000   1.0000

          k = 0.5000-0.2887 0.0000 (  4132 PWs)   bands (ev):

    -7.8541  -7.1125  -7.0600  -6.9669  -6.4397  -5.2812   3.8809   4.2210
     4.2815   4.3366   4.6573   4.8378   5.0717   5.2830   5.3396   5.5049
     5.5715   5.6096   5.9365   6.0729   6.1091   6.6719   6.8311   7.0626
     7.0944   7.2021   7.2815   7.4696   7.5288   7.8314   7.8515   7.8929
     8.0267   8.0696   8.2134   8.2213   8.3996   8.5279   8.7464   8.8763
     9.0283   9.2023   9.2519   9.3561   9.5085   9.7943   9.9059  10.2694
    11.1284  11.2653  11.5373  11.9699  12.0655  12.4097

     occupation numbers 
     1.0000   1.0000   1.0000   1.0000   1.0000   1.0000   1.0000   1.0000
     1.0000   1.0000   1.0000   1.0000   1.0000   1.0000   1.0000   1.0000
     1.0000   1.0000   1.0000   1.0000   1.0000   1.0000   1.0000   1.0000
     1.0000   1.0000   1.0000   1.0000   1.0000   1.0000   1.0000   1.0000
     1.0000   1.0000   1.0000   1.0000   1.0000   1.0000   1.0000   1.0000
     1.0000   1.0000   1.0000   1.0000   1.0000   1.0000   1.0000   1.0000
     1.0000   1.0000   1.0000   1.0000   1.0000   1.0000

          k = 0.5000-0.2887-0.1075 (  4136 PWs)   bands (ev):

    -7.8314  -7.1090  -7.0385  -6.9542  -6.4515  -5.2797   3.7905   4.0240
     4.1680   4.3298   4.5534   4.7952   4.9462   5.1048   5.3554   5.4425
     5.5561   5.6390   5.9037   6.0328   6.2298   6.6291   6.7612   7.0185
     7.1195   7.2212   7.4034   7.4650   7.4978   7.7399   7.8949   7.9874
     8.0553   8.1552   8.2038   8.2824   8.4171   8.5265   8.6696   8.9357
     8.9826   9.2487   9.4486   9.5737   9.7578   9.9229  10.0843  10.4513
    11.1658  11.3385  11.5829  11.9629  12.0453  12.3258

     occupation numbers 
     1.0000   1.0000   1.0000   1.0000   1.0000   1.0000   1.0000   1.0000
     1.0000   1.0000   1.0000   1.0000   1.0000   1.0000   1.0000   1.0000
     1.0000   1.0000   1.0000   1.0000   1.0000   1.0000   1.0000   1.0000
     1.0000   1.0000   1.0000   1.0000   1.0000   1.0000   1.0000   1.0000
     1.0000   1.0000   1.0000   1.0000   1.0000   1.0000   1.0000   1.0000
     1.0000   1.0000   1.0000   1.0000   1.0000   1.0000   1.0000   1.0000
     1.0000   1.0000   1.0000   1.0000   1.0000   1.0000

          k = 0.5000-0.2887-0.2151 (  4124 PWs)   bands (ev):

    -7.7835  -7.1105  -6.9914  -6.9203  -6.4810  -5.2770   3.6111   3.7067
     3.9691   4.2357   4.3336   4.6176   4.7891   5.0349   5.2689   5.4080
     5.5650   5.6652   5.9059   6.0036   6.1867   6.5042   6.6452   6.9034
     7.2240   7.2947   7.4276   7.4794   7.6408   7.7255   7.8772   8.0148
     8.0810   8.1838   8.2769   8.2892   8.4564   8.6063   8.7277   8.9563
     9.1422   9.2985   9.6101   9.8429  10.1708  10.4132  10.6183  10.9170
    11.1210  11.2980  11.5461  11.9414  12.1046  12.2206

     occupation numbers 
     1.0000   1.0000   1.0000   1.0000   1.0000   1.0000   1.0000   1.0000
     1.0000   1.0000   1.0000   1.0000   1.0000   1.0000   1.0000   1.0000
     1.0000   1.0000   1.0000   1.0000   1.0000   1.0000   1.0000   1.0000
     1.0000   1.0000   1.0000   1.0000   1.0000   1.0000   1.0000   1.0000
     1.0000   1.0000   1.0000   1.0000   1.0000   1.0000   1.0000   1.0000
     1.0000   1.0000   1.0000   1.0000   1.0000   1.0000   1.0000   1.0000
     1.0000   1.0000   1.0000   1.0000   1.0000   1.0000

          k = 0.5000-0.2887 0.3226 (  4144 PWs)   bands (ev):

    -7.7581  -7.1143  -6.9684  -6.8966  -6.4999  -5.2759   3.5242   3.5673
     3.8727   4.1734   4.2418   4.4826   4.7531   5.0369   5.2608   5.4024
     5.5675   5.6550   5.9336   6.0187   6.0845   6.4254   6.6193   6.8091
     7.2966   7.3447   7.4326   7.5096   7.6365   7.7450   7.9393   7.9883
     8.1128   8.1621   8.2307   8.2481   8.5641   8.6521   8.8509   8.9007
     9.1591   9.2688   9.9346  10.0261  10.3184  10.5929  10.7817  11.0109
    11.1038  11.4851  11.5985  11.9028  12.0777  12.1213

     occupation numbers 
     1.0000   1.0000   1.0000   1.0000   1.0000   1.0000   1.0000   1.0000
     1.0000   1.0000   1.0000   1.0000   1.0000   1.0000   1.0000   1.0000
     1.0000   1.0000   1.0000   1.0000   1.0000   1.0000   1.0000   1.0000
     1.0000   1.0000   1.0000   1.0000   1.0000   1.0000   1.0000   1.0000
     1.0000   1.0000   1.0000   1.0000   1.0000   1.0000   1.0000   1.0000
     1.0000   1.0000   1.0000   1.0000   1.0000   1.0000   1.0000   1.0000
     1.0000   1.0000   1.0000   1.0000   1.0000   1.0000

          k = 0.5000-0.2245 0.0000 (  4127 PWs)   bands (ev):

    -7.8542  -7.1121  -7.0582  -6.9692  -6.4394  -5.2813   3.8816   4.2003
     4.2999   4.3462   4.6490   4.8603   5.0862   5.2759   5.3380   5.4799
     5.5597   5.6109   5.9028   6.0289   6.1871   6.6461   6.8403   7.0452
     7.0939   7.2029   7.2558   7.4707   7.6029   7.8209   7.8805   7.9094
     8.0244   8.0763   8.2045   8.2458   8.3941   8.5093   8.7217   8.8691
     9.0755   9.1278   9.2893   9.3596   9.5082   9.7374   9.9347  10.2681
    11.1446  11.2409  11.5517  11.9863  12.0890  12.3693

     occupation numbers 
     1.0000   1.0000   1.0000   1.0000   1.0000   1.0000   1.0000   1.0000
     1.0000   1.0000   1.0000   1.0000   1.0000   1.0000   1.0000   1.0000
     1.0000   1.0000   1.0000   1.0000   1.0000   1.0000   1.0000   1.0000
     1.0000   1.0000   1.0000   1.0000   1.0000   1.0000   1.0000   1.0000
     1.0000   1.0000   1.0000   1.0000   1.0000   1.0000   1.0000   1.0000
     1.0000   1.0000   1.0000   1.0000   1.0000   1.0000   1.0000   1.0000
     1.0000   1.0000   1.0000   1.0000   1.0000   1.0000

          k = 0.5000 0.2245 0.1075 (  4135 PWs)   bands (ev):

    -7.8317  -7.1082  -7.0326  -6.9613  -6.4507  -5.2799   3.7954   4.0210
     4.1703   4.3544   4.5298   4.7863   4.9732   5.1631   5.2768   5.4312
     5.5379   5.6672   5.8800   6.0428   6.2118   6.5588   6.8062   7.0078
     7.1177   7.2818   7.3583   7.4303   7.5518   7.7419   7.9092   8.0126
     8.1181   8.1407   8.2116   8.3450   8.3960   8.4857   8.7353   8.8591
     8.9553   9.1944   9.4014   9.6584   9.8398   9.9171   9.9851  10.4700
    11.1288  11.3070  11.6696  12.0006  12.1200  12.1764

     occupation numbers 
     1.0000   1.0000   1.0000   1.0000   1.0000   1.0000   1.0000   1.0000
     1.0000   1.0000   1.0000   1.0000   1.0000   1.0000   1.0000   1.0000
     1.0000   1.0000   1.0000   1.0000   1.0000   1.0000   1.0000   1.0000
     1.0000   1.0000   1.0000   1.0000   1.0000   1.0000   1.0000   1.0000
     1.0000   1.0000   1.0000   1.0000   1.0000   1.0000   1.0000   1.0000
     1.0000   1.0000   1.0000   1.0000   1.0000   1.0000   1.0000   1.0000
     1.0000   1.0000   1.0000   1.0000   1.0000   1.0000

          k = 0.5000-0.2245-0.1075 (  4135 PWs)   bands (ev):

    -7.8314  -7.1095  -7.0356  -6.9567  -6.4513  -5.2798   3.7962   4.0239
     4.1665   4.3265   4.5173   4.8303   4.9933   5.1095   5.3400   5.4574
     5.5543   5.5919   5.8609   6.0283   6.2641   6.6020   6.7226   7.0271
     7.1204   7.2901   7.3733   7.4859   7.5701   7.7096   7.8909   7.9576
     8.0982   8.1354   8.1840   8.2758   8.4145   8.5573   8.6727   8.9154
     9.0618   9.2064   9.3962   9.5974   9.7561   9.8762  10.0781  10.4554
    11.2115  11.3810  11.5601  11.9598  12.0404  12.2962

     occupation numbers 
     1.0000   1.0000   1.0000   1.0000   1.0000   1.0000   1.0000   1.0000
     1.0000   1.0000   1.0000   1.0000   1.0000   1.0000   1.0000   1.0000
     1.0000   1.0000   1.0000   1.0000   1.0000   1.0000   1.0000   1.0000
     1.0000   1.0000   1.0000   1.0000   1.0000   1.0000   1.0000   1.0000
     1.0000   1.0000   1.0000   1.0000   1.0000   1.0000   1.0000   1.0000
     1.0000   1.0000   1.0000   1.0000   1.0000   1.0000   1.0000   1.0000
     1.0000   1.0000   1.0000   1.0000   1.0000   1.0000

          k =-0.5000 0.2245-0.1075 (  4135 PWs)   bands (ev):

    -7.8315  -7.1082  -7.0372  -6.9564  -6.4512  -5.2797   3.7897   4.0234
     4.1926   4.2936   4.6303   4.7199   4.9447   5.1273   5.3317   5.4272
     5.5539   5.6702   5.9071   6.0613   6.1909   6.5994   6.8250   6.9980
     7.0963   7.2177   7.3982   7.4343   7.5148   7.7509   7.9052   8.0087
     8.0726   8.1549   8.2085   8.3185   8.4329   8.4703   8.6830   8.8746
     9.0341   9.1509   9.4558   9.6817   9.8010   9.9086  10.0157  10.4659
    11.1335  11.2944  11.6433  11.9704  12.0798  12.2787

     occupation numbers 
     1.0000   1.0000   1.0000   1.0000   1.0000   1.0000   1.0000   1.0000
     1.0000   1.0000   1.0000   1.0000   1.0000   1.0000   1.0000   1.0000
     1.0000   1.0000   1.0000   1.0000   1.0000   1.0000   1.0000   1.0000
     1.0000   1.0000   1.0000   1.0000   1.0000   1.0000   1.0000   1.0000
     1.0000   1.0000   1.0000   1.0000   1.0000   1.0000   1.0000   1.0000
     1.0000   1.0000   1.0000   1.0000   1.0000   1.0000   1.0000   1.0000
     1.0000   1.0000   1.0000   1.0000   1.0000   1.0000

          k = 0.5000 0.2245 0.2151 (  4140 PWs)   bands (ev):

    -7.7836  -7.1113  -6.9835  -6.9276  -6.4805  -5.2772   3.6197   3.7149
     4.0090   4.1380   4.3581   4.5367   4.8835   5.1062   5.2530   5.3968
     5.5444   5.7583   5.8347   5.9642   6.1463   6.4403   6.6895   6.9221
     7.2465   7.3221   7.4501   7.4885   7.6006   7.7009   7.8756   8.0386
     8.1098   8.1590   8.2486   8.3018   8.5042   8.6390   8.7416   8.8462
     9.0299   9.4211   9.6348   9.8946  10.1866  10.3842  10.6038  10.8349
    11.1704  11.3310  11.5606  11.9562  12.0438  12.2000

     occupation numbers 
     1.0000   1.0000   1.0000   1.0000   1.0000   1.0000   1.0000   1.0000
     1.0000   1.0000   1.0000   1.0000   1.0000   1.0000   1.0000   1.0000
     1.0000   1.0000   1.0000   1.0000   1.0000   1.0000   1.0000   1.0000
     1.0000   1.0000   1.0000   1.0000   1.0000   1.0000   1.0000   1.0000
     1.0000   1.0000   1.0000   1.0000   1.0000   1.0000   1.0000   1.0000
     1.0000   1.0000   1.0000   1.0000   1.0000   1.0000   1.0000   1.0000
     1.0000   1.0000   1.0000   1.0000   1.0000   1.0000

          k = 0.5000-0.2245-0.2151 (  4140 PWs)   bands (ev):

    -7.7835  -7.1112  -6.9882  -6.9228  -6.4809  -5.2771   3.6180   3.7108
     3.9651   4.2146   4.3255   4.6042   4.8265   5.0820   5.2463   5.4364
     5.5511   5.6284   5.8811   6.0030   6.1955   6.4860   6.6414   6.8966
     7.2167   7.3511   7.4536   7.4818   7.6344   7.7425   7.8556   7.9609
     8.1352   8.1545   8.2389   8.3150   8.4415   8.6237   8.7141   8.9964
     9.1921   9.2710   9.6412   9.7835  10.2089  10.3068  10.5675  11.0273
    11.1718  11.3469  11.4838  11.9134  12.1122  12.1952

     occupation numbers 
     1.0000   1.0000   1.0000   1.0000   1.0000   1.0000   1.0000   1.0000
     1.0000   1.0000   1.0000   1.0000   1.0000   1.0000   1.0000   1.0000
     1.0000   1.0000   1.0000   1.0000   1.0000   1.0000   1.0000   1.0000
     1.0000   1.0000   1.0000   1.0000   1.0000   1.0000   1.0000   1.0000
     1.0000   1.0000   1.0000   1.0000   1.0000   1.0000   1.0000   1.0000
     1.0000   1.0000   1.0000   1.0000   1.0000   1.0000   1.0000   1.0000
     1.0000   1.0000   1.0000   1.0000   1.0000   1.0000

          k =-0.5000 0.2245-0.2151 (  4140 PWs)   bands (ev):

    -7.7835  -7.1105  -6.9894  -6.9224  -6.4808  -5.2771   3.6123   3.7090
     4.0001   4.1472   4.4181   4.5509   4.8148   5.0532   5.2808   5.3798
     5.5641   5.7242   5.8807   5.9926   6.1618   6.4709   6.6810   6.9141
     7.2256   7.2873   7.4339   7.4815   7.6301   7.7006   7.8888   8.0273
     8.0948   8.1954   8.2467   8.3001   8.4939   8.5921   8.7765   8.8931
     9.0273   9.3459   9.6366   9.9499  10.1205  10.4399  10.6184  10.8520
    11.1114  11.3123  11.5607  11.9510  12.0892  12.2133

     occupation numbers 
     1.0000   1.0000   1.0000   1.0000   1.0000   1.0000   1.0000   1.0000
     1.0000   1.0000   1.0000   1.0000   1.0000   1.0000   1.0000   1.0000
     1.0000   1.0000   1.0000   1.0000   1.0000   1.0000   1.0000   1.0000
     1.0000   1.0000   1.0000   1.0000   1.0000   1.0000   1.0000   1.0000
     1.0000   1.0000   1.0000   1.0000   1.0000   1.0000   1.0000   1.0000
     1.0000   1.0000   1.0000   1.0000   1.0000   1.0000   1.0000   1.0000
     1.0000   1.0000   1.0000   1.0000   1.0000   1.0000

          k = 0.5000-0.2245 0.3226 (  4144 PWs)   bands (ev):

    -7.7581  -7.1149  -6.9658  -6.8987  -6.4998  -5.2760   3.5280   3.5708
     3.8856   4.1047   4.2837   4.4593   4.7821   5.0654   5.2510   5.4082
     5.5605   5.6749   5.9128   5.9829   6.0905   6.4076   6.6429   6.8000
     7.3053   7.3557   7.4376   7.5189   7.6397   7.7469   7.9113   7.9849
     8.1236   8.1751   8.2259   8.2393   8.5652   8.6724   8.7443   8.9694
     9.1506   9.3099   9.9061   9.9978  10.4113  10.5817  10.7967  10.9533
    11.1070  11.4616  11.6405  11.8980  12.0700  12.1066

     occupation numbers 
     1.0000   1.0000   1.0000   1.0000   1.0000   1.0000   1.0000   1.0000
     1.0000   1.0000   1.0000   1.0000   1.0000   1.0000   1.0000   1.0000
     1.0000   1.0000   1.0000   1.0000   1.0000   1.0000   1.0000   1.0000
     1.0000   1.0000   1.0000   1.0000   1.0000   1.0000   1.0000   1.0000
     1.0000   1.0000   1.0000   1.0000   1.0000   1.0000   1.0000   1.0000
     1.0000   1.0000   1.0000   1.0000   1.0000   1.0000   1.0000   1.0000
     1.0000   1.0000   1.0000   1.0000   1.0000   1.0000

     highest occupied level (ev):    13.5023

!    total energy              =   -1083.78014395 Ry
     estimated scf accuracy    <          4.3E-10 Ry

     The total energy is the sum of the following terms:
     one-electron contribution =    -344.05459826 Ry
     hartree contribution      =     315.50075270 Ry
     xc contribution           =    -331.46727730 Ry
     ewald contribution        =    -723.75902109 Ry

     convergence has been achieved in  22 iterations

     Forces acting on atoms (cartesian axes, Ry/au):

     atom    1 type  1   force =    -0.24570687   -0.10018155    0.16212155
     atom    2 type  1   force =     0.15831118   -0.07719981   -0.14096206
     atom    3 type  2   force =    -0.15331748   -0.13060380   -0.09292479
     atom    4 type  2   force =     0.24924773    0.12706704    0.15843792
     atom    5 type  1   force =     0.14138597   -0.07208593   -0.00556107
     atom    6 type  1   force =     0.15524868    0.17485213   -0.02896798
     atom    7 type  2   force =    -0.15725748    0.05090618   -0.11737157
     atom    8 type  2   force =    -0.11672701   -0.01734395    0.02740049
     atom    9 type  1   force =    -0.00797591    0.02392521   -0.28924912
     atom   10 type  1   force =    -0.00222212    0.04851851   -0.31954646
     atom   11 type  2   force =     0.07083355   -0.05302276    0.36675033
     atom   12 type  2   force =    -0.09182024    0.02516872    0.27987277
     The non-local contrib.  to forces
     atom    1 type  1   force =    -0.34228934   -0.09240948    0.09659057
     atom    2 type  1   force =     0.28937878    0.28015966   -0.10809819
     atom    3 type  2   force =    -0.03095274    0.16412414   -0.26844768
     atom    4 type  2   force =    -0.02937840    0.33336834    0.08062536
     atom    5 type  1   force =     0.33709614   -0.14903419   -0.08597339
     atom    6 type  1   force =     0.16993322    0.13562394   -0.13871542
     atom    7 type  2   force =     0.18148554   -0.06094534   -0.03182344
     atom    8 type  2   force =     0.02562457   -0.22483336   -0.16245123
     atom    9 type  1   force =    -0.08099798    0.01087218   -0.48489919
     atom   10 type  1   force =     0.00094460   -0.04168775   -0.36299574
     atom   11 type  2   force =    -0.16916258   -0.00339511    0.03365014
     atom   12 type  2   force =     0.24259684   -0.06568453   -0.17411141
     The ionic contribution  to forces
     atom    1 type  1   force =    -3.74603474   -2.27991054    5.59810311
     atom    2 type  1   force =     2.97351080   -4.79281833   -4.51315178
     atom    3 type  2   force =    -1.91135694   -3.93333735   -1.59275236
     atom    4 type  2   force =     3.00303186   -0.87587579    3.02488634
     atom    5 type  1   force =     2.67345952   -0.50919847    0.78250821
     atom    6 type  1   force =     1.54288284    5.39348969   -1.69179865
     atom    7 type  2   force =    -1.84115375    1.75172226   -2.24929829
     atom    8 type  2   force =    -1.22683569    1.03466370    1.52428257
     atom    9 type  1   force =    -0.19842827    0.72756643   -1.72818230
     atom   10 type  1   force =    -0.74007377    2.26381679   -5.80421709
     atom   11 type  2   force =     1.76930710    0.26968083    3.33299111
     atom   12 type  2   force =    -2.29830895    0.95020077    3.31662913
     The local contribution  to forces
     atom    1 type  1   force =     3.80014770    2.25808868   -5.51063570
     atom    2 type  1   force =    -3.07250120    4.43681826    4.45770764
     atom    3 type  2   force =     1.78781039    3.63929292    1.76524514
     atom    4 type  2   force =    -2.72334263    0.67317958   -2.94543216
     atom    5 type  1   force =    -2.83457560    0.57201641   -0.71013137
     atom    6 type  1   force =    -1.53329069   -5.32529693    1.78803701
     atom    7 type  2   force =     1.50336587   -1.64015481    2.16290091
     atom    8 type  2   force =     1.08410768   -0.82921487   -1.33569418
     atom    9 type  1   force =     0.26710241   -0.71140765    1.87187056
     atom   10 type  1   force =     0.73487634   -2.16830813    5.79634551
     atom   11 type  2   force =    -1.53039977   -0.31960480   -2.99781240
     atom   12 type  2   force =     1.96558549   -0.85982875   -2.86284689
     The core correction contribution to forces
     atom    1 type  1   force =     0.04247047    0.01407819   -0.02191254
     atom    2 type  1   force =    -0.03207696   -0.00131839    0.02255897
     atom    3 type  2   force =     0.00118310   -0.00067051    0.00301994
     atom    4 type  2   force =    -0.00106518   -0.00358490   -0.00163567
     atom    5 type  1   force =    -0.03459762    0.01413631    0.00804281
     atom    6 type  1   force =    -0.02428176   -0.02897570    0.01350563
     atom    7 type  2   force =    -0.00095150    0.00028997    0.00084534
     atom    8 type  2   force =     0.00037828    0.00203181    0.00126079
     atom    9 type  1   force =     0.00434588   -0.00314070    0.05196517
     atom   10 type  1   force =     0.00203321   -0.00533204    0.05131920
     atom   11 type  2   force =     0.00108763    0.00027927   -0.00208083
     atom   12 type  2   force =    -0.00169054    0.00046937    0.00019684
     The Hubbard contrib.    to forces
     atom    1 type  1   force =     0.00000000    0.00000000    0.00000000
     atom    2 type  1   force =     0.00000000    0.00000000    0.00000000
     atom    3 type  2   force =     0.00000000    0.00000000    0.00000000
     atom    4 type  2   force =     0.00000000    0.00000000    0.00000000
     atom    5 type  1   force =     0.00000000    0.00000000    0.00000000
     atom    6 type  1   force =     0.00000000    0.00000000    0.00000000
     atom    7 type  2   force =     0.00000000    0.00000000    0.00000000
     atom    8 type  2   force =     0.00000000    0.00000000    0.00000000
     atom    9 type  1   force =     0.00000000    0.00000000    0.00000000
     atom   10 type  1   force =     0.00000000    0.00000000    0.00000000
     atom   11 type  2   force =     0.00000000    0.00000000    0.00000000
     atom   12 type  2   force =     0.00000000    0.00000000    0.00000000
     The SCF correction term to forces
     atom    1 type  1   force =    -0.00000019   -0.00002836   -0.00002590
     atom    2 type  1   force =     0.00000054   -0.00004097    0.00001930
     atom    3 type  2   force =    -0.00000053   -0.00001295    0.00000818
     atom    4 type  2   force =     0.00000285   -0.00002016   -0.00000794
     atom    5 type  1   force =     0.00000429   -0.00000596   -0.00000933
     atom    6 type  1   force =     0.00000583    0.00001117    0.00000146
     atom    7 type  2   force =    -0.00000288   -0.00000587    0.00000192
     atom    8 type  2   force =    -0.00000108    0.00000882    0.00000054
     atom    9 type  1   force =     0.00000282    0.00003500   -0.00000537
     atom   10 type  1   force =    -0.00000172    0.00002967   -0.00000035
     atom   11 type  2   force =     0.00000195    0.00001707    0.00000032
     atom   12 type  2   force =    -0.00000231    0.00001188    0.00000312

     Total force =     0.924748     Total SCF correction =     0.000085

     init_run     :      3.90s CPU      3.98s WALL (       1 calls)
     electrons    :    182.33s CPU    185.16s WALL (       1 calls)
     forces       :      1.16s CPU      1.19s WALL (       1 calls)

     Called by init_run:
     wfcinit      :      2.39s CPU      2.44s WALL (       1 calls)
     wfcinit:atom :      0.03s CPU      0.03s WALL (      28 calls)
     wfcinit:wfcr :      2.21s CPU      2.26s WALL (      28 calls)
     potinit      :      0.53s CPU      0.54s WALL (       1 calls)
     hinit0       :      0.91s CPU      0.92s WALL (       1 calls)

     Called by electrons:
     c_bands      :    166.02s CPU    168.36s WALL (      22 calls)
     sum_band     :     14.79s CPU     15.16s WALL (      22 calls)
     v_of_rho     :      0.75s CPU      0.83s WALL (      23 calls)
     v_h          :      0.05s CPU      0.05s WALL (      23 calls)
     v_xc         :      0.74s CPU      0.81s WALL (      24 calls)
     newd         :      0.64s CPU      0.66s WALL (      23 calls)
     mix_rho      :      0.09s CPU      0.10s WALL (      22 calls)

     Called by c_bands:
     init_us_2    :      1.02s CPU      1.04s WALL (    1288 calls)
     init_us_2:cp :      1.01s CPU      1.03s WALL (    1288 calls)
     cegterg      :    154.16s CPU    156.45s WALL (     616 calls)

     Called by sum_band:
     sum_band:wei :      0.00s CPU      0.00s WALL (      22 calls)
     sum_band:loo :     13.92s CPU     14.24s WALL (      22 calls)
     sum_band:buf :      0.10s CPU      0.11s WALL (     616 calls)
     sum_band:ini :      0.43s CPU      0.44s WALL (     616 calls)
     sum_band:cal :      2.04s CPU      2.17s WALL (     616 calls)
     sum_band:bec :      0.09s CPU      0.09s WALL (     616 calls)
     addusdens    :      0.71s CPU      0.73s WALL (      22 calls)
                                        0.00s GPU  (      22 calls)
     addusd:skk   :      0.01s CPU      0.01s WALL (      44 calls)
                                        0.00s GPU  (      44 calls)

     Called by *egterg:
     cdiaghg      :     29.46s CPU     29.49s WALL (    3473 calls)
     cegterg:over :      7.29s CPU      7.78s WALL (    2857 calls)
     cegterg:upda :      4.30s CPU      4.32s WALL (    2857 calls)
     cegterg:last :     10.63s CPU     10.64s WALL (    2105 calls)
     h_psi        :     93.31s CPU     94.97s WALL (    3501 calls)
     s_psi        :      8.11s CPU      8.13s WALL (    3501 calls)
     g_psi        :      0.50s CPU      0.50s WALL (    2857 calls)

     Called by h_psi:
     h_psi:calbec :      8.07s CPU      8.66s WALL (    3501 calls)
     vloc_psi     :     76.67s CPU     77.70s WALL (    3501 calls)
     add_vuspsi   :      8.24s CPU      8.28s WALL (    3501 calls)

     General routines
     calbec       :     10.45s CPU     11.19s WALL (    4229 calls)
     fft          :      0.70s CPU      0.81s WALL (     308 calls)
     ffts         :      0.12s CPU      0.12s WALL (      45 calls)
     fftw         :     77.15s CPU     78.22s WALL (  274310 calls)
     interpolate  :      0.14s CPU      0.15s WALL (      23 calls)

     Parallel routines

     PWSCF        :   3m 7.78s CPU   3m10.72s WALL


   This run was terminated on:  10:37:26  26Sep2025            

=------------------------------------------------------------------------------=
   JOB DONE.
=------------------------------------------------------------------------------=
Note: The following floating-point exceptions are signalling: IEEE_INVALID_FLAG
Note: The following floating-point exceptions are signalling: IEEE_INVALID_FLAG
Note: The following floating-point exceptions are signalling: IEEE_INVALID_FLAG
Note: The following floating-point exceptions are signalling: IEEE_INVALID_FLAG
