
     Program PWSCF v.7.5 starts on 15Dec2025 at 12:35:15 

     This program is part of the open-source Quantum ESPRESSO suite
     for quantum simulation of materials; please cite
         "P. Giannozzi et al., J. Phys.:Condens. Matter 21 395502 (2009);
         "P. Giannozzi et al., J. Phys.:Condens. Matter 29 465901 (2017);
         "P. Giannozzi et al., J. Chem. Phys. 152 154105 (2020);
          URL http://www.quantum-espresso.org", 
     in publications or presentations arising from this work. More details at
     http://www.quantum-espresso.org/quote

     Parallel version (MPI), running on    16 processors

     MPI processes distributed on     1 nodes
     57627 MiB available memory on the printing compute node when the environment starts
 
     Reading input from 02_ZnO_nscf.in

     Current dimensions of program PWSCF are:
     Max number of different atomic species (ntypx) = 10
     Max number of k-points (npk) =  40000
     Max angular momentum in pseudopotentials (lmaxx) =  4

     Atomic positions and unit cell read from directory:
     ../tmp_qe/ZnO_LDA_noU.save/
 
     Message from routine setup:
     using ibrav=0 with symmetry is DISCOURAGED, use correct ibrav instead
 
     R & G space division:  proc/nbgrp/npool/nimage =      16
     Subspace diagonalization in iterative solution of the eigenvalue problem:
     a serial algorithm will be used

 
     Parallelization info
     --------------------
     sticks:   dense  smooth     PW     G-vecs:    dense   smooth      PW
     Min          50      50     15                 1854     1854     323
     Max          51      51     16                 1859     1859     330
     Sum         805     805    253                29695    29695    5251
 
     Using Slab Decomposition
 


     bravais-lattice index     =            0
     lattice parameter (alat)  =       6.0399  a.u.
     unit-cell volume          =     306.3587 (a.u.)^3
     number of atoms/cell      =            4
     number of atomic types    =            2
     number of electrons       =        52.00
     number of Kohn-Sham states=           36
     kinetic-energy cutoff     =      80.0000  Ry
     charge density cutoff     =     320.0000  Ry
     Exchange-correlation= SLA  PW   NOGX NOGC
                           (   1   4   0   0   0   0   0)

     celldm(1)=   6.039902  celldm(2)=   0.000000  celldm(3)=   0.000000
     celldm(4)=   0.000000  celldm(5)=   0.000000  celldm(6)=   0.000000

     crystal axes: (cart. coord. in units of alat)
               a(1) = (   1.000000   0.000000   0.000000 )  
               a(2) = (  -0.500000   0.866025   0.000000 )  
               a(3) = (   0.000000   0.000000   1.605499 )  

     reciprocal axes: (cart. coord. in units 2 pi/alat)
               b(1) = (  1.000000  0.577350  0.000000 )  
               b(2) = (  0.000000  1.154701  0.000000 )  
               b(3) = (  0.000000  0.000000  0.622859 )  


     PseudoPot. # 1 for Zn read from file:
     /home/jvc/LDA_Study/pseudos/pseudo_dojo/Zn_pseudo-dojo_NC_SR_LDA.upf
     MD5 check sum: 492e12d15cacde48a98384ec5dd6fb31
     Pseudo is Norm-conserving + core correction, Zval = 20.0
     Generated using ONCVPSP code by D. R. Hamann
     Using radial grid of 1296 points,  6 beta functions with: 
                l(1) =   0
                l(2) =   0
                l(3) =   1
                l(4) =   1
                l(5) =   2
                l(6) =   2

     PseudoPot. # 2 for O  read from file:
     /home/jvc/LDA_Study/pseudos/pseudo_dojo/O_pseudo-dojo_NC_SR_LDA.upf
     MD5 check sum: 86ed389b6a5065e60c3f64c68a612de9
     Pseudo is Norm-conserving + core correction, Zval =  6.0
     Generated using ONCVPSP code by D. R. Hamann
     Using radial grid of  926 points,  5 beta functions with: 
                l(1) =   0
                l(2) =   0
                l(3) =   1
                l(4) =   1
                l(5) =   2

     atomic species   valence    mass     pseudopotential
     Zn               20.00    65.38000     Zn( 1.00)
     O                 6.00    15.99900     O ( 1.00)

     12 Sym. Ops. (no inversion) found ( 6 have fractional translation)


                                    s                        frac. trans.

      isym =  1     identity                                     

 cryst.   s( 1) = (     1          0          0      )
                  (     0          1          0      )
                  (     0          0          1      )

 cart.    s( 1) = (  1.0000000  0.0000000  0.0000000 )
                  (  0.0000000  1.0000000  0.0000000 )
                  (  0.0000000  0.0000000  1.0000000 )


      isym =  2     180 deg rotation - cart. axis [0,0,1]        

 cryst.   s( 2) = (    -1          0          0      )    f =( -0.0000000 )
                  (     0         -1          0      )       ( -0.0000000 )
                  (     0          0          1      )       ( -0.5000000 )

 cart.    s( 2) = ( -1.0000000  0.0000000  0.0000000 )    f =( -0.0000000 )
                  (  0.0000000 -1.0000000  0.0000000 )       ( -0.0000000 )
                  (  0.0000000  0.0000000  1.0000000 )       ( -0.8027493 )


      isym =  3      60 deg rotation - cryst. axis [0,0,1]       

 cryst.   s( 3) = (     1          1          0      )    f =(  0.0000000 )
                  (    -1          0          0      )       ( -0.0000000 )
                  (     0          0          1      )       ( -0.5000000 )

 cart.    s( 3) = (  0.5000000 -0.8660254  0.0000000 )    f =(  0.0000000 )
                  (  0.8660254  0.5000000  0.0000000 )       ( -0.0000000 )
                  (  0.0000000  0.0000000  1.0000000 )       ( -0.8027493 )


      isym =  4      60 deg rotation - cryst. axis [0,0,-1]      

 cryst.   s( 4) = (     0         -1          0      )    f =(  0.0000000 )
                  (     1          1          0      )       ( -0.0000000 )
                  (     0          0          1      )       ( -0.5000000 )

 cart.    s( 4) = (  0.5000000  0.8660254  0.0000000 )    f =(  0.0000000 )
                  ( -0.8660254  0.5000000  0.0000000 )       ( -0.0000000 )
                  (  0.0000000  0.0000000  1.0000000 )       ( -0.8027493 )


      isym =  5     120 deg rotation - cryst. axis [0,0,1]       

 cryst.   s( 5) = (     0          1          0      )
                  (    -1         -1          0      )
                  (     0          0          1      )

 cart.    s( 5) = ( -0.5000000 -0.8660254  0.0000000 )
                  (  0.8660254 -0.5000000  0.0000000 )
                  (  0.0000000  0.0000000  1.0000000 )


      isym =  6     120 deg rotation - cryst. axis [0,0,-1]      

 cryst.   s( 6) = (    -1         -1          0      )
                  (     1          0          0      )
                  (     0          0          1      )

 cart.    s( 6) = ( -0.5000000  0.8660254  0.0000000 )
                  ( -0.8660254 -0.5000000  0.0000000 )
                  (  0.0000000  0.0000000  1.0000000 )


      isym =  7     inv. 180 deg rotation - cart. axis [0,1,0]   

 cryst.   s( 7) = (     1          0          0      )    f =(  0.0000000 )
                  (    -1         -1          0      )       ( -0.0000000 )
                  (     0          0          1      )       ( -0.5000000 )

 cart.    s( 7) = (  1.0000000  0.0000000  0.0000000 )    f =(  0.0000000 )
                  (  0.0000000 -1.0000000  0.0000000 )       ( -0.0000000 )
                  (  0.0000000  0.0000000  1.0000000 )       ( -0.8027493 )


      isym =  8     inv. 180 deg rotation - cart. axis [1,0,0]   

 cryst.   s( 8) = (    -1          0          0      )
                  (     1          1          0      )
                  (     0          0          1      )

 cart.    s( 8) = ( -1.0000000 -0.0000000  0.0000000 )
                  (  0.0000000  1.0000000  0.0000000 )
                  (  0.0000000  0.0000000  1.0000000 )


      isym =  9     inv. 180 deg rotation - cryst. axis [1,-1,0] 

 cryst.   s( 9) = (     0          1          0      )    f =(  0.0000000 )
                  (     1          0          0      )       ( -0.0000000 )
                  (     0          0          1      )       ( -0.5000000 )

 cart.    s( 9) = ( -0.5000000  0.8660254  0.0000000 )    f =(  0.0000000 )
                  (  0.8660254  0.5000000  0.0000000 )       ( -0.0000000 )
                  (  0.0000000  0.0000000  1.0000000 )       ( -0.8027493 )


      isym = 10     inv. 180 deg rotation - cryst. axis [2,1,0]  

 cryst.   s(10) = (    -1         -1          0      )    f =( -0.0000000 )
                  (     0          1          0      )       ( -0.0000000 )
                  (     0          0          1      )       ( -0.5000000 )

 cart.    s(10) = ( -0.5000000 -0.8660254  0.0000000 )    f =(  0.0000000 )
                  ( -0.8660254  0.5000000  0.0000000 )       ( -0.0000000 )
                  (  0.0000000  0.0000000  1.0000000 )       ( -0.8027493 )


      isym = 11     inv. 180 deg rotation - cryst. axis [0,1,0]  

 cryst.   s(11) = (     1          1          0      )
                  (     0         -1          0      )
                  (     0          0          1      )

 cart.    s(11) = (  0.5000000  0.8660254  0.0000000 )
                  (  0.8660254 -0.5000000  0.0000000 )
                  (  0.0000000  0.0000000  1.0000000 )


      isym = 12     inv. 180 deg rotation - cryst. axis [1,1,0]  

 cryst.   s(12) = (     0         -1          0      )
                  (    -1          0          0      )
                  (     0          0          1      )

 cart.    s(12) = (  0.5000000 -0.8660254  0.0000000 )
                  ( -0.8660254 -0.5000000  0.0000000 )
                  (  0.0000000  0.0000000  1.0000000 )


   Cartesian axes

     site n.     atom                  positions (alat units)
         1        Zn     tau(   1) = (  -0.0000000   0.5773503  -0.0002504  )
         2        Zn     tau(   2) = (   0.5000000   0.2886751   0.8024989  )
         3        O      tau(   3) = (  -0.0000000   0.5773503   0.6103399  )
         4        O      tau(   4) = (   0.5000000   0.2886751   1.4130892  )

   Crystallographic axes

     site n.     atom                  positions (cryst. coord.)
         1        Zn     tau(   1) = (  0.3333333  0.6666667 -0.0001560  )
         2        Zn     tau(   2) = (  0.6666667  0.3333333  0.4998440  )
         3        O      tau(   3) = (  0.3333333  0.6666667  0.3801560  )
         4        O      tau(   4) = (  0.6666667  0.3333333  0.8801560  )

     number of k points=    36
                       cart. coord. in units 2pi/alat
        k(    1) = (   0.0000000   0.0000000   0.0000000), wk =   0.0555556
        k(    2) = (   0.1000000   0.0577350   0.0000000), wk =   0.0555556
        k(    3) = (   0.2000000   0.1154701   0.0000000), wk =   0.0555556
        k(    4) = (   0.3000000   0.1732051   0.0000000), wk =   0.0555556
        k(    5) = (   0.4000000   0.2309401   0.0000000), wk =   0.0555556
        k(    6) = (   0.5000000   0.2886751   0.0000000), wk =   0.0555556
        k(    7) = (   0.5000000   0.2886751   0.0622859), wk =   0.0555556
        k(    8) = (   0.5000000   0.2886751   0.1245719), wk =   0.0555556
        k(    9) = (   0.5000000   0.2886751   0.1868578), wk =   0.0555556
        k(   10) = (   0.5000000   0.2886751   0.2491438), wk =   0.0555556
        k(   11) = (   0.5000000   0.2886751   0.3114297), wk =   0.0555556
        k(   12) = (   0.4000000   0.2309401   0.3114297), wk =   0.0555556
        k(   13) = (   0.3000000   0.1732051   0.3114297), wk =   0.0555556
        k(   14) = (   0.2000000   0.1154701   0.3114297), wk =   0.0555556
        k(   15) = (   0.1000000   0.0577350   0.3114297), wk =   0.0555556
        k(   16) = (   0.0000000   0.0000000   0.3114297), wk =   0.0555556
        k(   17) = (   0.0000000   0.0000000   0.2491438), wk =   0.0555556
        k(   18) = (   0.0000000   0.0000000   0.1868578), wk =   0.0555556
        k(   19) = (   0.0000000   0.0000000   0.1245719), wk =   0.0555556
        k(   20) = (   0.0000000   0.0000000   0.0622859), wk =   0.0555556
        k(   21) = (   0.0000000   0.0000000   0.0000000), wk =   0.0555556
        k(   22) = (   0.1333000   0.1538638   0.0000000), wk =   0.0555556
        k(   23) = (   0.2666000   0.3078432   0.0000000), wk =   0.0555556
        k(   24) = (   0.3999000   0.4617070   0.0000000), wk =   0.0555556
        k(   25) = (   0.5333000   0.6157441   0.0000000), wk =   0.0555556
        k(   26) = (   0.6666000   0.7697234   0.0000000), wk =   0.0555556
        k(   27) = (   0.6666000   0.7697234   0.0622859), wk =   0.0555556
        k(   28) = (   0.6666000   0.7697234   0.1245719), wk =   0.0555556
        k(   29) = (   0.6666000   0.7697234   0.1868578), wk =   0.0555556
        k(   30) = (   0.6666000   0.7697234   0.2491438), wk =   0.0555556
        k(   31) = (   0.6666000   0.7697234   0.3114297), wk =   0.0555556
        k(   32) = (   0.5333000   0.6157441   0.3114297), wk =   0.0555556
        k(   33) = (   0.3999000   0.4617070   0.3114297), wk =   0.0555556
        k(   34) = (   0.2666000   0.3078432   0.3114297), wk =   0.0555556
        k(   35) = (   0.1333000   0.1538638   0.3114297), wk =   0.0555556
        k(   36) = (   0.0000000   0.0000000   0.3114297), wk =   0.0555556

                       cryst. coord.
        k(    1) = (   0.0000000   0.0000000   0.0000000), wk =   0.0555556
        k(    2) = (   0.1000000   0.0000000   0.0000000), wk =   0.0555556
        k(    3) = (   0.2000000   0.0000000   0.0000000), wk =   0.0555556
        k(    4) = (   0.3000000   0.0000000   0.0000000), wk =   0.0555556
        k(    5) = (   0.4000000   0.0000000   0.0000000), wk =   0.0555556
        k(    6) = (   0.5000000   0.0000000   0.0000000), wk =   0.0555556
        k(    7) = (   0.5000000   0.0000000   0.1000000), wk =   0.0555556
        k(    8) = (   0.5000000   0.0000000   0.2000000), wk =   0.0555556
        k(    9) = (   0.5000000   0.0000000   0.3000000), wk =   0.0555556
        k(   10) = (   0.5000000   0.0000000   0.4000000), wk =   0.0555556
        k(   11) = (   0.5000000   0.0000000   0.5000000), wk =   0.0555556
        k(   12) = (   0.4000000   0.0000000   0.5000000), wk =   0.0555556
        k(   13) = (   0.3000000   0.0000000   0.5000000), wk =   0.0555556
        k(   14) = (   0.2000000   0.0000000   0.5000000), wk =   0.0555556
        k(   15) = (   0.1000000   0.0000000   0.5000000), wk =   0.0555556
        k(   16) = (   0.0000000   0.0000000   0.5000000), wk =   0.0555556
        k(   17) = (   0.0000000   0.0000000   0.4000000), wk =   0.0555556
        k(   18) = (   0.0000000   0.0000000   0.3000000), wk =   0.0555556
        k(   19) = (   0.0000000   0.0000000   0.2000000), wk =   0.0555556
        k(   20) = (   0.0000000   0.0000000   0.1000000), wk =   0.0555556
        k(   21) = (   0.0000000   0.0000000   0.0000000), wk =   0.0555556
        k(   22) = (   0.1333000   0.0666000   0.0000000), wk =   0.0555556
        k(   23) = (   0.2666000   0.1333000   0.0000000), wk =   0.0555556
        k(   24) = (   0.3999000   0.1999000   0.0000000), wk =   0.0555556
        k(   25) = (   0.5333000   0.2666000   0.0000000), wk =   0.0555556
        k(   26) = (   0.6666000   0.3333000   0.0000000), wk =   0.0555556
        k(   27) = (   0.6666000   0.3333000   0.1000000), wk =   0.0555556
        k(   28) = (   0.6666000   0.3333000   0.2000000), wk =   0.0555556
        k(   29) = (   0.6666000   0.3333000   0.3000000), wk =   0.0555556
        k(   30) = (   0.6666000   0.3333000   0.4000000), wk =   0.0555556
        k(   31) = (   0.6666000   0.3333000   0.5000000), wk =   0.0555556
        k(   32) = (   0.5333000   0.2666000   0.5000000), wk =   0.0555556
        k(   33) = (   0.3999000   0.1999000   0.5000000), wk =   0.0555556
        k(   34) = (   0.2666000   0.1333000   0.5000000), wk =   0.0555556
        k(   35) = (   0.1333000   0.0666000   0.5000000), wk =   0.0555556
        k(   36) = (   0.0000000   0.0000000   0.5000000), wk =   0.0555556

     Dense  grid:    29695 G-vectors     FFT dimensions: (  36,  36,  60)

     Dynamical RAM for                 wfc:       0.13 MB

     Dynamical RAM for     wfc (w. buffer):       0.13 MB

     Dynamical RAM for           str. fact:       0.06 MB

     Dynamical RAM for           local pot:       0.00 MB

     Dynamical RAM for          nlocal pot:       0.22 MB

     Dynamical RAM for                qrad:       2.87 MB

     Dynamical RAM for          rho,v,vnew:       0.20 MB

     Dynamical RAM for           G-vectors:       0.12 MB

     Dynamical RAM for          h,s,v(r/c):       0.24 MB

     Dynamical RAM for          <psi|beta>:       0.03 MB

     Dynamical RAM for                 psi:       0.25 MB

     Dynamical RAM for                hpsi:       0.25 MB

     Dynamical RAM for      wfcinit/wfcrot:       0.28 MB

     Estimated static dynamical RAM per process >       3.88 MB

     Estimated max dynamical RAM per process >       4.66 MB

     Estimated total dynamical RAM >      74.53 MB

     The potential is recalculated from file :
     ../tmp_qe/ZnO_LDA_noU.save/charge-density

     Starting wfcs are   28 randomized atomic wfcs +    8 random wfcs

     Band Structure Calculation
     Davidson diagonalization with overlap

     Computing kpt #:     1  of    36
     total cpu time spent up to now is        0.6 secs

     Computing kpt #:     2  of    36
     total cpu time spent up to now is        0.9 secs

     Computing kpt #:     3  of    36
     total cpu time spent up to now is        1.2 secs

     Computing kpt #:     4  of    36
     total cpu time spent up to now is        1.6 secs

     Computing kpt #:     5  of    36
     total cpu time spent up to now is        1.9 secs

     Computing kpt #:     6  of    36
     total cpu time spent up to now is        2.2 secs

     Computing kpt #:     7  of    36
     total cpu time spent up to now is        2.5 secs

     Computing kpt #:     8  of    36
     total cpu time spent up to now is        2.9 secs

     Computing kpt #:     9  of    36
     total cpu time spent up to now is        3.2 secs

     Computing kpt #:    10  of    36
     total cpu time spent up to now is        3.5 secs

     Computing kpt #:    11  of    36
     total cpu time spent up to now is        3.7 secs

     Computing kpt #:    12  of    36
     total cpu time spent up to now is        4.0 secs

     Computing kpt #:    13  of    36
     total cpu time spent up to now is        4.2 secs

     Computing kpt #:    14  of    36
     total cpu time spent up to now is        4.5 secs

     Computing kpt #:    15  of    36
     total cpu time spent up to now is        4.8 secs

     Computing kpt #:    16  of    36
     total cpu time spent up to now is        5.1 secs

     Computing kpt #:    17  of    36
     total cpu time spent up to now is        5.5 secs

     Computing kpt #:    18  of    36
     total cpu time spent up to now is        5.8 secs

     Computing kpt #:    19  of    36
     total cpu time spent up to now is        6.2 secs

     Computing kpt #:    20  of    36
     total cpu time spent up to now is        6.5 secs

     Computing kpt #:    21  of    36
     total cpu time spent up to now is        6.8 secs

     Computing kpt #:    22  of    36
     total cpu time spent up to now is        7.1 secs

     Computing kpt #:    23  of    36
     total cpu time spent up to now is        7.4 secs

     Computing kpt #:    24  of    36
     total cpu time spent up to now is        7.7 secs

     Computing kpt #:    25  of    36
     total cpu time spent up to now is        8.0 secs

     Computing kpt #:    26  of    36
     total cpu time spent up to now is        8.4 secs

     Computing kpt #:    27  of    36
     total cpu time spent up to now is        8.7 secs

     Computing kpt #:    28  of    36
     total cpu time spent up to now is        9.1 secs

     Computing kpt #:    29  of    36
     total cpu time spent up to now is        9.4 secs

     Computing kpt #:    30  of    36
     total cpu time spent up to now is        9.7 secs

     Computing kpt #:    31  of    36
     total cpu time spent up to now is        9.9 secs

     Computing kpt #:    32  of    36
     total cpu time spent up to now is       10.3 secs

     Computing kpt #:    33  of    36
     total cpu time spent up to now is       10.5 secs

     Computing kpt #:    34  of    36
     total cpu time spent up to now is       10.8 secs

     Computing kpt #:    35  of    36
     total cpu time spent up to now is       11.1 secs

     Computing kpt #:    36  of    36
     total cpu time spent up to now is       11.4 secs

     ethr =  1.92E-11,  avg # of iterations = 23.6

     total cpu time spent up to now is       11.4 secs

     End of band structure calculation

          k = 0.0000 0.0000 0.0000 (  3705 PWs)   bands (ev):

  -112.5925-112.5922 -67.2463 -67.2420 -67.2405 -67.2405 -67.2398 -67.2398
    -8.0123  -7.1596   4.0850   4.0850   4.0881   4.1539   4.2873   4.2873
     5.3738   5.3738   5.6120   5.6120   5.9284   9.2553   9.2553  10.0077
    10.1075  10.1075  10.9776  15.4200  18.3877  23.0724  23.0724  24.2939
    24.4135  24.4135  26.7228  28.4675

          k = 0.1000 0.0577 0.0000 (  3713 PWs)   bands (ev):

  -112.5925-112.5922 -67.2461 -67.2421 -67.2408 -67.2406 -67.2400 -67.2398
    -7.9486  -7.1313   4.0117   4.1197   4.1709   4.1899   4.2872   4.3357
     5.3474   5.3699   5.6177   5.6560   5.9156   8.8738   9.1112   9.5031
     9.9374  10.0302  11.7083  15.8483  18.3737  22.0265  23.1795  23.6661
    24.4835  24.5566  26.2289  27.7852

          k = 0.2000 0.1155 0.0000 (  3709 PWs)   bands (ev):

  -112.5924-112.5922 -67.2458 -67.2423 -67.2414 -67.2408 -67.2408 -67.2400
    -7.7739  -7.0603   3.8612   4.1916   4.2056   4.3052   4.4721   4.4724
     5.2806   5.3770   5.6300   5.7615   5.9072   7.9715   8.7297   8.7354
     9.7202   9.8184  12.8444  16.8103  18.3145  20.4460  22.4020  23.4562
    23.9528  24.6021  25.6096  27.6537

          k = 0.3000 0.1732 0.0000 (  3701 PWs)   bands (ev):

  -112.5924-112.5922 -67.2454 -67.2426 -67.2423 -67.2417 -67.2411 -67.2402
    -7.5368  -6.9839   3.7459   4.1370   4.2951   4.4611   4.6690   4.7857
     5.2356   5.4272   5.6437   5.7788   6.0521   7.0246   7.9830   8.2588
     9.3630   9.5388  14.0639  17.6296  18.1516  19.2311  21.4852  22.7962
    23.6740  24.3811  26.0496  28.5964

          k = 0.4000 0.2309 0.0000 (  3697 PWs)   bands (ev):

  -112.5923-112.5922 -67.2449 -67.2430 -67.2429 -67.2424 -67.2413 -67.2403
    -7.3129  -6.9455   3.7496   4.0632   4.3491   4.6368   4.8544   4.8586
     5.3618   5.5140   5.6581   5.8771   6.0085   6.5532   7.3429   7.8426
     8.9496   9.2965  15.2474  17.5823  17.7374  18.8215  21.0105  22.4663
    23.5342  24.4650  26.2287  28.8841

          k = 0.5000 0.2887 0.0000 (  3706 PWs)   bands (ev):

  -112.5923-112.5922 -67.2446 -67.2432 -67.2432 -67.2427 -67.2414 -67.2404
    -7.2087  -6.9472   3.8174   3.9909   4.3648   4.7380   4.8073   4.9398
     5.4123   5.5637   5.6652   5.7526   6.2622   6.3468   7.1092   7.6693
     8.7351   9.1993  16.0332  16.9249  17.6620  18.8012  20.8335  22.5667
    23.4271  24.5553  26.2107  29.0902

          k = 0.5000 0.2887 0.0623 (  3694 PWs)   bands (ev):

  -112.5923-112.5922 -67.2447 -67.2434 -67.2431 -67.2425 -67.2414 -67.2404
    -7.2013  -6.9524   3.7964   3.9501   4.3754   4.7200   4.7941   4.9211
     5.4427   5.5648   5.6587   5.7529   6.2345   6.3318   7.2336   7.7142
     8.7749   9.1653  15.9317  16.8705  17.7775  18.8213  20.7892  22.6332
    23.4515  24.5245  25.8357  29.1343

          k = 0.5000 0.2887 0.1246 (  3684 PWs)   bands (ev):

  -112.5923-112.5922 -67.2448 -67.2438 -67.2429 -67.2423 -67.2413 -67.2405
    -7.1798  -6.9678   3.7411   3.8479   4.4067   4.6871   4.7611   4.8683
     5.5111   5.5682   5.6427   5.7521   6.1883   6.2940   7.5431   7.8402
     8.8610   9.0663  15.7363  16.7067  18.0284  18.8642  20.7145  22.7400
    23.5234  24.4360  25.2133  29.0816

          k = 0.5000 0.2887 0.1869 (  3712 PWs)   bands (ev):

  -112.5923-112.5922 -67.2448 -67.2441 -67.2426 -67.2421 -67.2412 -67.2406
    -7.1472  -6.9929   3.6724   3.7307   4.4578   4.6643   4.7222   4.7908
     5.5738   5.5850   5.6238   5.7457   6.1595   6.2476   7.9370   8.0266
     8.9106   8.9149  15.6072  16.4434  18.2912  18.8799  20.7447  22.5746
    23.6380  24.3008  25.0485  28.5013

          k = 0.5000 0.2887 0.2491 (  3702 PWs)   bands (ev):

  -112.5922-112.5922 -67.2448 -67.2444 -67.2424 -67.2421 -67.2410 -67.2407
    -7.1077  -7.0264   3.6182   3.6416   4.5267   4.6574   4.6885   4.7007
     5.5818   5.6066   5.6490   5.7288   6.1547   6.2040   8.2492   8.3326
     8.7112   8.8591  15.6326  16.1228  18.5170  18.8233  20.9889  22.0426
    23.7870  24.1354  25.5539  27.4950

          k = 0.5000 0.2887 0.3114 (  3712 PWs)   bands (ev):

  -112.5922-112.5922 -67.2447 -67.2447 -67.2422 -67.2422 -67.2409 -67.2409
    -7.0659  -7.0659   3.6033   3.6033   4.6097   4.6097   4.6660   4.6660
     5.5926   5.5926   5.6973   5.6973   6.1711   6.1711   8.4844   8.4844
     8.6585   8.6585  15.8231  15.8231  18.6962  18.6962  21.4497  21.4497
    23.9581  23.9581  26.4428  26.4428

          k = 0.4000 0.2309 0.3114 (  3714 PWs)   bands (ev):

  -112.5922-112.5922 -67.2446 -67.2446 -67.2420 -67.2420 -67.2408 -67.2408
    -7.1197  -7.1197   3.6082   3.6082   4.5673   4.5673   4.5884   4.5884
     5.5698   5.5698   5.6127   5.6127   6.5131   6.5131   8.6094   8.6094
     8.6415   8.6415  15.6846  15.6846  18.8476  18.8476  21.5311  21.5311
    23.9395  23.9395  26.4552  26.4552

          k = 0.3000 0.1732 0.3114 (  3708 PWs)   bands (ev):

  -112.5923-112.5923 -67.2443 -67.2443 -67.2416 -67.2416 -67.2406 -67.2406
    -7.2576  -7.2576   3.6434   3.6434   4.4345   4.4345   4.4531   4.4531
     5.5326   5.5326   5.5483   5.5483   7.1629   7.1629   8.6408   8.6408
     8.9215   8.9215  15.2643  15.2643  19.3181  19.3181  21.6545  21.6545
    23.8568  23.8568  26.7976  26.7976

          k = 0.2000 0.1155 0.3114 (  3712 PWs)   bands (ev):

  -112.5923-112.5923 -67.2442 -67.2442 -67.2410 -67.2410 -67.2404 -67.2404
    -7.4224  -7.4224   3.7227   3.7227   4.2906   4.2906   4.3114   4.3114
     5.5157   5.5157   5.5243   5.5243   7.6765   7.6765   8.8690   8.8690
     9.2881   9.2881  14.6213  14.6213  19.9330  19.9330  21.9002  21.9002
    23.6763  23.6763  27.7273  27.7273

          k = 0.1000 0.0577 0.3114 (  3710 PWs)   bands (ev):

  -112.5924-112.5924 -67.2442 -67.2442 -67.2404 -67.2404 -67.2402 -67.2402
    -7.5517  -7.5517   3.8104   3.8104   4.1925   4.1925   4.1997   4.1997
     5.5160   5.5160   5.5184   5.5184   7.8069   7.8069   9.3969   9.3969
     9.5766   9.5766  13.9599  13.9599  20.2160  20.2160  22.7139  22.7139
    23.4609  23.4609  28.6586  28.6586

          k = 0.0000 0.0000 0.3114 (  3736 PWs)   bands (ev):

  -112.5924-112.5924 -67.2441 -67.2441 -67.2401 -67.2401 -67.2401 -67.2401
    -7.6001  -7.6001   3.8486   3.8486   4.1580   4.1580   4.1580   4.1580
     5.5183   5.5183   5.5183   5.5183   7.8101   7.8101   9.6858   9.6858
     9.6858   9.6858  13.6516  13.6516  20.2451  20.2451  23.3622  23.3622
    23.3622  23.3622  28.5164  28.5164

          k = 0.0000 0.0000 0.2491 (  3730 PWs)   bands (ev):

  -112.5924-112.5923 -67.2448 -67.2435 -67.2403 -67.2403 -67.2400 -67.2400
    -7.7304  -7.4671   3.8321   3.9073   4.1299   4.1299   4.1914   4.1914
     5.4785   5.4785   5.5533   5.5533   7.2995   8.3182   9.5535   9.5535
     9.8172   9.8172  13.0422  14.2151  19.5723  21.0669  23.2065  23.2065
    23.5822  23.5822  28.0360  29.0335

          k = 0.0000 0.0000 0.1869 (  3712 PWs)   bands (ev):

  -112.5924-112.5923 -67.2454 -67.2429 -67.2404 -67.2404 -67.2399 -67.2399
    -7.8457  -7.3448   3.8677   3.9893   4.1088   4.1088   4.2263   4.2263
     5.4389   5.4389   5.5805   5.5805   6.8072   8.8163   9.4335   9.4335
     9.9350   9.9350  12.4164  14.7034  19.0537  22.0110  23.1163  23.1163
    23.8478  23.8478  27.6107  29.3985

          k = 0.0000 0.0000 0.1246 (  3700 PWs)   bands (ev):

  -112.5925-112.5923 -67.2459 -67.2424 -67.2404 -67.2404 -67.2398 -67.2398
    -7.9357  -7.2460   3.9491   4.0715   4.0950   4.0950   4.2576   4.2576
     5.4049   5.4049   5.5988   5.5988   6.3707   9.3025   9.3380   9.3380
    10.0279  10.0279  11.8059  15.0863  18.6850  23.0075  23.0788  23.0788
    24.1188  24.1188  27.2332  28.9061

          k = 0.0000 0.0000 0.0623 (  3711 PWs)   bands (ev):

  -112.5925-112.5923 -67.2461 -67.2421 -67.2405 -67.2405 -67.2398 -67.2398
    -7.9928  -7.1819   4.0434   4.0874   4.0874   4.1318   4.2794   4.2794
     5.3819   5.3819   5.6088   5.6088   6.0506   9.2765   9.2765   9.7560
    10.0871  10.0871  11.2622  15.3338  18.4626  23.0716  23.0716  23.8914
    24.3313  24.3313  26.8969  28.5812

          k = 0.0000 0.0000 0.0000 (  3705 PWs)   bands (ev):

  -112.5925-112.5922 -67.2463 -67.2420 -67.2405 -67.2405 -67.2398 -67.2398
    -8.0123  -7.1596   4.0850   4.0850   4.0881   4.1539   4.2873   4.2873
     5.3738   5.3738   5.6120   5.6120   5.9284   9.2553   9.2553  10.0077
    10.1075  10.1075  10.9776  15.4200  18.3877  23.0724  23.0724  24.2939
    24.4135  24.4135  26.7228  28.4675

          k = 0.1333 0.1539 0.0000 (  3709 PWs)   bands (ev):

  -112.5924-112.5922 -67.2459 -67.2422 -67.2412 -67.2408 -67.2405 -67.2399
    -7.8232  -7.0793   3.9179   4.1314   4.2281   4.2729   4.4012   4.4400
     5.3034   5.3675   5.6259   5.7396   5.9020   8.2689   8.6683   9.0240
     9.7883   9.8524  12.5735  16.5779  18.3417  20.8562  22.5518  23.4261
    23.9859  25.0174  25.7585  26.7178

          k = 0.2666 0.3078 0.0000 (  3710 PWs)   bands (ev):

  -112.5923-112.5922 -67.2451 -67.2428 -67.2425 -67.2421 -67.2413 -67.2405
    -7.4051  -6.9546   3.8337   4.1084   4.3252   4.5051   4.7955   4.8712
     5.2491   5.4314   5.6539   5.8398   6.1188   6.8866   7.5270   7.7757
     9.1373   9.2097  14.8730  17.7973  18.4964  18.9579  21.2260  22.0018
    22.6898  24.8275  26.2490  27.9337

          k = 0.3999 0.4617 0.0000 (  3700 PWs)   bands (ev):

  -112.5922-112.5922 -67.2443 -67.2435 -67.2429 -67.2424 -67.2419 -67.2410
    -7.1223  -6.9576   3.9748   4.3339   4.4073   4.5874   4.9319   5.0341
     5.3685   5.4409   5.6626   5.6845   6.3062   6.5297   6.5357   7.6285
     8.3597   8.6932  16.9848  17.6887  17.7289  18.7727  20.8825  21.6981
    22.8423  23.7192  25.7645  30.3990

          k = 0.5333 0.6157 0.0000 (  3701 PWs)   bands (ev):

  -112.5923-112.5922 -67.2448 -67.2431 -67.2426 -67.2424 -67.2415 -67.2408
    -7.2813  -6.9404   3.9669   4.0847   4.4073   4.5284   4.8936   4.9594
     5.2484   5.4143   5.6716   5.9520   6.0244   6.8697   7.2024   7.3257
     8.8405   8.9400  15.6893  17.7718  18.6495  18.8640  21.2119  21.6996
    21.9380  24.7956  25.9298  28.5581

          k = 0.6666 0.7697 0.0000 (  3713 PWs)   bands (ev):

  -112.5923-112.5922 -67.2452 -67.2427 -67.2425 -67.2420 -67.2412 -67.2402
    -7.4562  -6.9652   3.7322   4.1152   4.3178   4.5199   4.7378   4.8468
     5.2615   5.4544   5.6486   5.7863   6.0963   6.7787   7.7486   8.1045
     9.2231   9.4481  14.4694  17.7388  18.0320  18.9920  21.2919  22.5807
    23.6566  24.3763  26.1540  28.6599

          k = 0.6666 0.7697 0.0623 (  3703 PWs)   bands (ev):

  -112.5923-112.5922 -67.2452 -67.2429 -67.2425 -67.2419 -67.2412 -67.2402
    -7.4437  -6.9766   3.7183   4.0713   4.3255   4.5072   4.7241   4.7840
     5.2823   5.4587   5.6425   5.7794   6.2094   6.8365   7.7237   8.1411
     9.2377   9.4173  14.4867  17.4360  18.2749  19.0089  21.2781  22.6261
    23.6612  24.3473  25.8343  28.8333

          k = 0.6666 0.7697 0.1246 (  3702 PWs)   bands (ev):

  -112.5923-112.5922 -67.2451 -67.2432 -67.2423 -67.2417 -67.2411 -67.2403
    -7.4077  -7.0100   3.6819   3.9538   4.3484   4.4813   4.6762   4.6857
     5.3360   5.4711   5.6258   5.7489   6.4328   6.9987   7.6993   8.2456
     9.2451   9.3275  14.5581  16.9695  18.5697  19.0607  21.2226  22.7035
    23.6792  24.2664  25.3267  28.8845

          k = 0.6666 0.7697 0.1869 (  3707 PWs)   bands (ev):

  -112.5923-112.5922 -67.2449 -67.2437 -67.2422 -67.2417 -67.2410 -67.2404
    -7.3519  -7.0625   3.6390   3.8105   4.3858   4.4638   4.5903   4.6293
     5.4079   5.4905   5.6015   5.6988   6.6285   7.1169   7.8464   8.4037
     9.1715   9.1866  14.7259  16.4553  18.8147  19.1354  21.1792  22.5571
    23.7204  24.1500  25.2519  28.4187

          k = 0.6666 0.7697 0.2491 (  3700 PWs)   bands (ev):

  -112.5923-112.5922 -67.2447 -67.2441 -67.2420 -67.2417 -67.2408 -67.2406
    -7.2820  -7.1297   3.6130   3.6930   4.4363   4.4654   4.5290   4.5637
     5.4862   5.5153   5.5731   5.6357   6.7914   7.0634   8.2186   8.5967
     8.9661   9.0070  15.0205  15.9293  19.0002  19.1769  21.2848  22.1067
    23.7921  24.0192  25.7701  27.5698

          k = 0.6666 0.7697 0.3114 (  3702 PWs)   bands (ev):

  -112.5923-112.5923 -67.2444 -67.2444 -67.2418 -67.2418 -67.2407 -67.2407
    -7.2054  -7.2054   3.6265   3.6265   4.4875   4.4875   4.4971   4.4971
     5.5436   5.5436   5.5637   5.5637   6.9383   6.9383   8.6306   8.6306
     8.8044   8.8044  15.4347  15.4347  19.1280  19.1280  21.6166  21.6166
    23.8946  23.8946  26.6179  26.6179

          k = 0.5333 0.6157 0.3114 (  3692 PWs)   bands (ev):

  -112.5922-112.5922 -67.2445 -67.2445 -67.2419 -67.2419 -67.2411 -67.2411
    -7.1007  -7.1007   3.7668   3.7668   4.4023   4.4023   4.6479   4.6479
     5.5242   5.5242   5.6986   5.6986   6.6689   6.6689   7.9523   7.9523
     8.7414   8.7414  16.3306  16.3306  19.0493  19.0493  20.4141  20.4141
    24.3165  24.3165  27.1672  27.1672

          k = 0.3999 0.4617 0.3114 (  3692 PWs)   bands (ev):

  -112.5922-112.5922 -67.2446 -67.2446 -67.2421 -67.2421 -67.2413 -67.2413
    -7.0264  -7.0264   3.8387   3.8387   4.4232   4.4232   4.7880   4.7880
     5.4776   5.4776   5.8723   5.8723   6.2168   6.2168   7.6435   7.6435
     8.7632   8.7632  16.9002  16.9002  18.7306  18.7306  19.9327  19.9327
    24.9266  24.9266  26.7289  26.7289

          k = 0.2666 0.3078 0.3114 (  3692 PWs)   bands (ev):

  -112.5923-112.5923 -67.2444 -67.2444 -67.2418 -67.2418 -67.2409 -67.2409
    -7.1730  -7.1730   3.6891   3.6891   4.4041   4.4041   4.5725   4.5725
     5.5336   5.5336   5.6107   5.6107   6.9131   6.9131   8.3713   8.3713
     8.7354   8.7354  15.7877  15.7877  19.1692  19.1692  21.0779  21.0779
    23.9353  23.9353  27.1751  27.1751

          k = 0.1333 0.1539 0.3114 (  3706 PWs)   bands (ev):

  -112.5923-112.5923 -67.2442 -67.2442 -67.2408 -67.2408 -67.2404 -67.2404
    -7.4583  -7.4583   3.7491   3.7491   4.2378   4.2378   4.3007   4.3007
     5.5135   5.5135   5.5236   5.5236   7.7399   7.7399   8.9967   8.9967
     9.3411   9.3411  14.4652  14.4652  20.0552  20.0552  22.0280  22.0280
    23.5759  23.5759  28.2485  28.2485

          k = 0.0000 0.0000 0.3114 (  3736 PWs)   bands (ev):

  -112.5924-112.5924 -67.2441 -67.2441 -67.2401 -67.2401 -67.2401 -67.2401
    -7.6001  -7.6001   3.8486   3.8486   4.1580   4.1580   4.1580   4.1580
     5.5183   5.5183   5.5183   5.5183   7.8101   7.8101   9.6858   9.6858
     9.6858   9.6858  13.6516  13.6516  20.2451  20.2451  23.3622  23.3622
    23.3622  23.3622  28.5164  28.5164

     Writing all to output data dir ../tmp_qe/ZnO_LDA_noU.save/ :
     XML data file, pseudopotentials, collected wavefunctions
 
     init_run     :      0.06s CPU      0.07s WALL (       1 calls)
     electrons    :     10.89s CPU     11.21s WALL (       1 calls)

     Called by init_run:
     wfcinit      :      0.00s CPU      0.00s WALL (       1 calls)
     wfcinit:atom :      0.00s CPU      0.00s WALL (      36 calls)
     wfcinit:wfcr :      0.47s CPU      0.51s WALL (      36 calls)
     potinit      :      0.00s CPU      0.00s WALL (       1 calls)
     hinit0       :      0.03s CPU      0.04s WALL (       1 calls)

     Called by electrons:
     c_bands      :     10.89s CPU     11.21s WALL (       1 calls)
     v_of_rho     :      0.00s CPU      0.00s WALL (       1 calls)
     v_h          :      0.00s CPU      0.00s WALL (       1 calls)
     v_xc         :      0.00s CPU      0.00s WALL (       1 calls)

     Called by c_bands:
     init_us_2    :      0.01s CPU      0.01s WALL (      36 calls)
     cegterg      :     10.32s CPU     10.60s WALL (      60 calls)

     Called by sum_band:

     Called by *egterg:
     cdiaghg      :      3.30s CPU      3.31s WALL (     887 calls)
     cegterg:over :      0.56s CPU      0.57s WALL (     851 calls)
     cegterg:upda :      0.28s CPU      0.28s WALL (     851 calls)
     cegterg:last :      0.51s CPU      0.51s WALL (     484 calls)
     h_psi        :      5.86s CPU      6.13s WALL (     947 calls)
     g_psi        :      0.02s CPU      0.02s WALL (     851 calls)

     Called by h_psi:
     h_psi:calbec :      0.29s CPU      0.30s WALL (     947 calls)
     vloc_psi     :      5.25s CPU      5.50s WALL (     947 calls)
                                        0.00s GPU  (     947 calls)
     add_vuspsi   :      0.30s CPU      0.31s WALL (     947 calls)

     General routines
     calbec       :      0.29s CPU      0.30s WALL (     947 calls)
     fft          :      0.00s CPU      0.01s WALL (       4 calls)
     fftw         :      4.89s CPU      5.12s WALL (   36342 calls)
     davcio       :      0.01s CPU      0.01s WALL (      72 calls)
 
     Parallel routines
 
     PWSCF        :     11.32s CPU     11.84s WALL

 
   This run was terminated on:  12:35:27  15Dec2025            

=------------------------------------------------------------------------------=
   JOB DONE.
=------------------------------------------------------------------------------=
