
     Program PWSCF v.7.0 starts on 29Sep2025 at 20: 3:22 

     This program is part of the open-source Quantum ESPRESSO suite
     for quantum simulation of materials; please cite
         "P. Giannozzi et al., J. Phys.:Condens. Matter 21 395502 (2009);
         "P. Giannozzi et al., J. Phys.:Condens. Matter 29 465901 (2017);
         "P. Giannozzi et al., J. Chem. Phys. 152 154105 (2020);
          URL http://www.quantum-espresso.org", 
     in publications or presentations arising from this work. More details at
     http://www.quantum-espresso.org/quote

     Parallel version (MPI & OpenMP), running on      48 processor cores
     Number of MPI processes:                24
     Threads/MPI process:                     2

     MPI processes distributed on     1 nodes
     K-points division:     npool     =       8
     R & G space division:  proc/nbgrp/npool/nimage =       3
     105173 MiB available memory on the printing compute node when the environment starts

     Reading input from /home/jvc/QEspresso7.2/ZnO_database/scripts/random_3x1x1.in/ZnO-3.47-1.71-311-0.12-3.in
Warning: card &CELL ignored
Warning: card / ignored
Warning: card &FCP ignored
Warning: card / ignored
Warning: card &RISM ignored
Warning: card / ignored

     Current dimensions of program PWSCF are:
     Max number of different atomic species (ntypx) = 10
     Max number of k-points (npk) =  40000
     Max angular momentum in pseudopotentials (lmaxx) =  4
     file Zn.upf: wavefunction(s)  3D renormalized

     Subspace diagonalization in iterative solution of the eigenvalue problem:
     a serial algorithm will be used


     Parallelization info
     --------------------
     sticks:   dense  smooth     PW     G-vecs:    dense   smooth      PW
     Min        1181     587    173                56227    19869    3183
     Max        1182     589    174                56228    19871    3184
     Sum        3545    1763    521               168683    59609    9551

     Using Slab Decomposition



     bravais-lattice index     =            0
     lattice parameter (alat)  =      19.6488  a.u.
     unit-cell volume          =    1249.1054 (a.u.)^3
     number of atoms/cell      =           12
     number of atomic types    =            2
     number of electrons       =       108.00
     number of Kohn-Sham states=           54
     kinetic-energy cutoff     =      50.0000  Ry
     charge density cutoff     =     400.0000  Ry
     scf convergence threshold =      1.0E-08
     mixing beta               =       0.3000
     number of iterations used =            8  plain     mixing
     Exchange-correlation= PBE
                           (   1   4   3   4   0   0   0)

     celldm(1)=  19.648756  celldm(2)=   0.000000  celldm(3)=   0.000000
     celldm(4)=   0.000000  celldm(5)=   0.000000  celldm(6)=   0.000000

     crystal axes: (cart. coord. in units of alat)
               a(1) = (   1.000000   0.000000   0.000000 )  
               a(2) = (  -0.166667   0.288675   0.000000 )  
               a(3) = (   0.000000   0.000000   0.570407 )  

     reciprocal axes: (cart. coord. in units 2 pi/alat)
               b(1) = (  1.000000  0.577350 -0.000000 )  
               b(2) = (  0.000000  3.464102  0.000000 )  
               b(3) = (  0.000000 -0.000000  1.753135 )  


     PseudoPot. # 1 for Zn read from file:
     /home/jvc/QEspresso7.2/ZnO_database/pseudos/Zn.upf
     MD5 check sum: 7f56cabf9682ed8c977c2f7d0c5985c5
     Pseudo is Ultrasoft + core correction, Zval = 12.0
     Generated using &quot;atomic&quot; code by A. Dal Corso  v.6.2.2
     Using radial grid of 1201 points,  6 beta functions with: 
                l(1) =   0
                l(2) =   0
                l(3) =   1
                l(4) =   1
                l(5) =   2
                l(6) =   2
     Q(r) pseudized with 0 coefficients 


     PseudoPot. # 2 for O  read from file:
     /home/jvc/QEspresso7.2/ZnO_database/pseudos/O.upf
     MD5 check sum: 91400c9766925bcf19f520983a725ff0
     Pseudo is Ultrasoft + core correction, Zval =  6.0
     Generated using &quot;atomic&quot; code by A. Dal Corso  v.6.3MaX
     Using radial grid of 1095 points,  4 beta functions with: 
                l(1) =   0
                l(2) =   0
                l(3) =   1
                l(4) =   1
     Q(r) pseudized with 0 coefficients 


     atomic species   valence    mass     pseudopotential
        Zn            12.00    65.38000     Zn( 1.00)
        O              6.00    15.99900     O ( 1.00)

     No symmetry found


                                    s                        frac. trans.

      isym =  1     identity                                     

 cryst.   s( 1) = (     1          0          0      )
                  (     0          1          0      )
                  (     0          0          1      )

 cart.    s( 1) = (  1.0000000  0.0000000  0.0000000 )
                  (  0.0000000  1.0000000  0.0000000 )
                  (  0.0000000  0.0000000  1.0000000 )


   Cartesian axes

     site n.     atom                  positions (alat units)
         1           Zn  tau(   1) = (   0.1600279   0.0811622   0.2776935  )
         2           Zn  tau(   2) = (   0.0016647   0.1918741   0.0195216  )
         3           O   tau(   3) = (   0.1815315   0.1130246   0.4899301  )
         4           O   tau(   4) = (   0.0172516   0.2075009   0.2421373  )
         5           Zn  tau(   5) = (   0.4908923   0.1013012   0.2850930  )
         6           Zn  tau(   6) = (   0.3327566   0.2061828   0.0092027  )
         7           O   tau(   7) = (   0.4956143   0.0860219   0.4966749  )
         8           O   tau(   8) = (   0.3378468   0.1992026   0.2400074  )
         9           Zn  tau(   9) = (   0.8329185   0.0932684   0.2885937  )
        10           Zn  tau(  10) = (   0.6684373   0.1653440   0.0021797  )
        11           O   tau(  11) = (   0.8284191   0.1016519   0.4943884  )
        12           O   tau(  12) = (   0.6777686   0.1907388   0.2084827  )

   Crystallographic axes

     site n.     atom                  positions (cryst. coord.)
         1           Zn  tau(   1) = (  0.2068869  0.2811540  0.4868343  )
         2           Zn  tau(   2) = (  0.1124433  0.6646716  0.0342239  )
         3           O   tau(   3) = (  0.2467863  0.3915287  0.8589137  )
         4           O   tau(   4) = (  0.1370522  0.7188040  0.4244995  )
         5           Zn  tau(   5) = (  0.5493786  0.3509177  0.4998065  )
         6           Zn  tau(   6) = (  0.4517963  0.7142380  0.0161335  )
         7           O   tau(   7) = (  0.5452790  0.2979886  0.8707383  )
         8           O   tau(   8) = (  0.4528564  0.6900579  0.4207655  )
         9           Zn  tau(   9) = (  0.8867670  0.3230911  0.5059439  )
        10           Zn  tau(  10) = (  0.7638987  0.5727684  0.0038213  )
        11           O   tau(  11) = (  0.8871079  0.3521326  0.8667298  )
        12           O   tau(  12) = (  0.7878917  0.6607385  0.3654984  )

     number of k points=   112
                       cart. coord. in units 2pi/alat
        k(    1) = (   0.0000000   0.0000000   0.0000000), wk =   0.0092593
        k(    2) = (   0.0000000   0.0000000   0.2921892), wk =   0.0185185
        k(    3) = (   0.0000000   0.0000000   0.5843784), wk =   0.0185185
        k(    4) = (   0.0000000   0.0000000  -0.8765677), wk =   0.0092593
        k(    5) = (   0.0000000   0.5773503   0.0000000), wk =   0.0185185
        k(    6) = (   0.0000000   0.5773503   0.2921892), wk =   0.0185185
        k(    7) = (   0.0000000   0.5773503   0.5843784), wk =   0.0185185
        k(    8) = (   0.0000000   0.5773503  -0.8765677), wk =   0.0185185
        k(    9) = (   0.0000000   1.1547005   0.0000000), wk =   0.0185185
        k(   10) = (   0.0000000   1.1547005   0.2921892), wk =   0.0185185
        k(   11) = (   0.0000000   1.1547005   0.5843784), wk =   0.0185185
        k(   12) = (   0.0000000   1.1547005  -0.8765677), wk =   0.0185185
        k(   13) = (   0.0000000  -1.7320508   0.0000000), wk =   0.0092593
        k(   14) = (   0.0000000  -1.7320508   0.2921892), wk =   0.0185185
        k(   15) = (   0.0000000  -1.7320508   0.5843784), wk =   0.0185185
        k(   16) = (   0.0000000  -1.7320508  -0.8765677), wk =   0.0092593
        k(   17) = (   0.1666667   0.0962250   0.0000000), wk =   0.0185185
        k(   18) = (   0.1666667   0.0962250   0.2921892), wk =   0.0185185
        k(   19) = (   0.1666667   0.0962250   0.5843784), wk =   0.0185185
        k(   20) = (   0.1666667   0.0962250  -0.8765677), wk =   0.0185185
        k(   21) = (   0.1666667   0.6735753   0.0000000), wk =   0.0185185
        k(   22) = (   0.1666667   0.6735753   0.2921892), wk =   0.0185185
        k(   23) = (   0.1666667   0.6735753   0.5843784), wk =   0.0185185
        k(   24) = (   0.1666667   0.6735753  -0.8765677), wk =   0.0185185
        k(   25) = (   0.1666667   1.2509256   0.0000000), wk =   0.0185185
        k(   26) = (   0.1666667   1.2509256   0.2921892), wk =   0.0185185
        k(   27) = (   0.1666667   1.2509256   0.5843784), wk =   0.0185185
        k(   28) = (   0.1666667   1.2509256  -0.8765677), wk =   0.0185185
        k(   29) = (   0.1666667  -1.6358258   0.0000000), wk =   0.0185185
        k(   30) = (   0.1666667  -1.6358258   0.2921892), wk =   0.0185185
        k(   31) = (   0.1666667  -1.6358258   0.5843784), wk =   0.0185185
        k(   32) = (   0.1666667  -1.6358258  -0.8765677), wk =   0.0185185
        k(   33) = (   0.1666667  -0.4811252   0.0000000), wk =   0.0185185
        k(   34) = (   0.1666667  -0.4811252   0.2921892), wk =   0.0185185
        k(   35) = (   0.1666667  -0.4811252   0.5843784), wk =   0.0185185
        k(   36) = (   0.1666667  -0.4811252  -0.8765677), wk =   0.0185185
        k(   37) = (   0.3333333   0.1924501   0.0000000), wk =   0.0185185
        k(   38) = (   0.3333333   0.1924501   0.2921892), wk =   0.0185185
        k(   39) = (   0.3333333   0.1924501   0.5843784), wk =   0.0185185
        k(   40) = (   0.3333333   0.1924501  -0.8765677), wk =   0.0185185
        k(   41) = (   0.3333333   1.3471506   0.0000000), wk =   0.0185185
        k(   42) = (   0.3333333   1.3471506   0.2921892), wk =   0.0185185
        k(   43) = (   0.3333333   1.3471506   0.5843784), wk =   0.0185185
        k(   44) = (   0.3333333   1.3471506  -0.8765677), wk =   0.0185185
        k(   45) = (  -0.5000000  -0.2886751   0.0000000), wk =   0.0092593
        k(   46) = (  -0.5000000  -0.2886751   0.2921892), wk =   0.0185185
        k(   47) = (  -0.5000000  -0.2886751   0.5843784), wk =   0.0185185
        k(   48) = (  -0.5000000  -0.2886751  -0.8765677), wk =   0.0092593
        k(   49) = (  -0.5000000   0.8660254   0.0000000), wk =   0.0185185
        k(   50) = (  -0.5000000   0.8660254   0.2921892), wk =   0.0185185
        k(   51) = (  -0.5000000   0.8660254   0.5843784), wk =   0.0185185
        k(   52) = (  -0.5000000   0.8660254  -0.8765677), wk =   0.0185185
        k(   53) = (   0.5000000  -0.2886751   0.0000000), wk =   0.0185185
        k(   54) = (   0.0000000  -0.5773503   0.2921892), wk =   0.0185185
        k(   55) = (   0.5000000  -0.2886751  -0.2921892), wk =   0.0185185
        k(   56) = (  -0.5000000   0.2886751  -0.2921892), wk =   0.0185185
        k(   57) = (   0.0000000  -0.5773503   0.5843784), wk =   0.0185185
        k(   58) = (   0.5000000  -0.2886751  -0.5843784), wk =   0.0185185
        k(   59) = (  -0.5000000   0.2886751  -0.5843784), wk =   0.0185185
        k(   60) = (   0.5000000  -0.2886751   0.8765677), wk =   0.0185185
        k(   61) = (   0.0000000  -1.1547005   0.2921892), wk =   0.0185185
        k(   62) = (   0.0000000  -1.1547005   0.5843784), wk =   0.0185185
        k(   63) = (  -1.5000000   0.8660254   0.0000000), wk =   0.0092593
        k(   64) = (  -1.5000000   0.8660254  -0.2921892), wk =   0.0185185
        k(   65) = (  -1.5000000   0.8660254  -0.5843784), wk =   0.0185185
        k(   66) = (  -1.5000000   0.8660254   0.8765677), wk =   0.0092593
        k(   67) = (  -0.1666667  -0.0962250   0.2921892), wk =   0.0185185
        k(   68) = (  -0.1666667  -0.0962250   0.5843784), wk =   0.0185185
        k(   69) = (   0.6666667  -0.1924501   0.0000000), wk =   0.0185185
        k(   70) = (  -0.1666667  -0.6735753   0.2921892), wk =   0.0185185
        k(   71) = (   0.6666667  -0.1924501  -0.2921892), wk =   0.0185185
        k(   72) = (  -0.6666667   0.1924501  -0.2921892), wk =   0.0185185
        k(   73) = (  -0.1666667  -0.6735753   0.5843784), wk =   0.0185185
        k(   74) = (   0.6666667  -0.1924501  -0.5843784), wk =   0.0185185
        k(   75) = (  -0.6666667   0.1924501  -0.5843784), wk =   0.0185185
        k(   76) = (   0.6666667  -0.1924501   0.8765677), wk =   0.0185185
        k(   77) = (   1.1666667  -0.4811252   0.0000000), wk =   0.0185185
        k(   78) = (  -0.1666667  -1.2509256   0.2921892), wk =   0.0185185
        k(   79) = (   1.1666667  -0.4811252  -0.2921892), wk =   0.0185185
        k(   80) = (  -1.1666667   0.4811252  -0.2921892), wk =   0.0185185
        k(   81) = (  -0.1666667  -1.2509256   0.5843784), wk =   0.0185185
        k(   82) = (   1.1666667  -0.4811252  -0.5843784), wk =   0.0185185
        k(   83) = (  -1.1666667   0.4811252  -0.5843784), wk =   0.0185185
        k(   84) = (   1.1666667  -0.4811252   0.8765677), wk =   0.0185185
        k(   85) = (  -1.3333333   0.9622504   0.0000000), wk =   0.0185185
        k(   86) = (  -0.1666667   1.6358258   0.2921892), wk =   0.0185185
        k(   87) = (  -1.3333333   0.9622504  -0.2921892), wk =   0.0185185
        k(   88) = (   1.3333333  -0.9622504  -0.2921892), wk =   0.0185185
        k(   89) = (  -0.1666667   1.6358258   0.5843784), wk =   0.0185185
        k(   90) = (  -1.3333333   0.9622504  -0.5843784), wk =   0.0185185
        k(   91) = (   1.3333333  -0.9622504  -0.5843784), wk =   0.0185185
        k(   92) = (  -1.3333333   0.9622504   0.8765677), wk =   0.0185185
        k(   93) = (  -0.3333333   0.3849002   0.0000000), wk =   0.0185185
        k(   94) = (  -0.1666667   0.4811252   0.2921892), wk =   0.0185185
        k(   95) = (  -0.3333333   0.3849002  -0.2921892), wk =   0.0185185
        k(   96) = (   0.3333333  -0.3849002  -0.2921892), wk =   0.0185185
        k(   97) = (  -0.1666667   0.4811252   0.5843784), wk =   0.0185185
        k(   98) = (  -0.3333333   0.3849002  -0.5843784), wk =   0.0185185
        k(   99) = (   0.3333333  -0.3849002  -0.5843784), wk =   0.0185185
        k(  100) = (  -0.3333333   0.3849002   0.8765677), wk =   0.0185185
        k(  101) = (  -0.3333333  -0.1924501   0.2921892), wk =   0.0185185
        k(  102) = (  -0.3333333  -0.1924501   0.5843784), wk =   0.0185185
        k(  103) = (   1.3333333  -0.3849002   0.0000000), wk =   0.0185185
        k(  104) = (  -0.3333333  -1.3471506   0.2921892), wk =   0.0185185
        k(  105) = (   1.3333333  -0.3849002  -0.2921892), wk =   0.0185185
        k(  106) = (  -1.3333333   0.3849002  -0.2921892), wk =   0.0185185
        k(  107) = (  -0.3333333  -1.3471506   0.5843784), wk =   0.0185185
        k(  108) = (   1.3333333  -0.3849002  -0.5843784), wk =   0.0185185
        k(  109) = (  -1.3333333   0.3849002  -0.5843784), wk =   0.0185185
        k(  110) = (   1.3333333  -0.3849002   0.8765677), wk =   0.0185185
        k(  111) = (   0.5000000  -0.8660254   0.2921892), wk =   0.0185185
        k(  112) = (   0.5000000  -0.8660254   0.5843784), wk =   0.0185185

                       cryst. coord.
        k(    1) = (   0.0000000   0.0000000   0.0000000), wk =   0.0092593
        k(    2) = (   0.0000000   0.0000000   0.1666667), wk =   0.0185185
        k(    3) = (   0.0000000   0.0000000   0.3333333), wk =   0.0185185
        k(    4) = (   0.0000000   0.0000000  -0.5000000), wk =   0.0092593
        k(    5) = (   0.0000000   0.1666667   0.0000000), wk =   0.0185185
        k(    6) = (   0.0000000   0.1666667   0.1666667), wk =   0.0185185
        k(    7) = (   0.0000000   0.1666667   0.3333333), wk =   0.0185185
        k(    8) = (   0.0000000   0.1666667  -0.5000000), wk =   0.0185185
        k(    9) = (   0.0000000   0.3333333   0.0000000), wk =   0.0185185
        k(   10) = (   0.0000000   0.3333333   0.1666667), wk =   0.0185185
        k(   11) = (   0.0000000   0.3333333   0.3333333), wk =   0.0185185
        k(   12) = (   0.0000000   0.3333333  -0.5000000), wk =   0.0185185
        k(   13) = (   0.0000000  -0.5000000   0.0000000), wk =   0.0092593
        k(   14) = (   0.0000000  -0.5000000   0.1666667), wk =   0.0185185
        k(   15) = (   0.0000000  -0.5000000   0.3333333), wk =   0.0185185
        k(   16) = (   0.0000000  -0.5000000  -0.5000000), wk =   0.0092593
        k(   17) = (   0.1666667   0.0000000   0.0000000), wk =   0.0185185
        k(   18) = (   0.1666667   0.0000000   0.1666667), wk =   0.0185185
        k(   19) = (   0.1666667   0.0000000   0.3333333), wk =   0.0185185
        k(   20) = (   0.1666667   0.0000000  -0.5000000), wk =   0.0185185
        k(   21) = (   0.1666667   0.1666667   0.0000000), wk =   0.0185185
        k(   22) = (   0.1666667   0.1666667   0.1666667), wk =   0.0185185
        k(   23) = (   0.1666667   0.1666667   0.3333333), wk =   0.0185185
        k(   24) = (   0.1666667   0.1666667  -0.5000000), wk =   0.0185185
        k(   25) = (   0.1666667   0.3333333   0.0000000), wk =   0.0185185
        k(   26) = (   0.1666667   0.3333333   0.1666667), wk =   0.0185185
        k(   27) = (   0.1666667   0.3333333   0.3333333), wk =   0.0185185
        k(   28) = (   0.1666667   0.3333333  -0.5000000), wk =   0.0185185
        k(   29) = (   0.1666667  -0.5000000   0.0000000), wk =   0.0185185
        k(   30) = (   0.1666667  -0.5000000   0.1666667), wk =   0.0185185
        k(   31) = (   0.1666667  -0.5000000   0.3333333), wk =   0.0185185
        k(   32) = (   0.1666667  -0.5000000  -0.5000000), wk =   0.0185185
        k(   33) = (   0.1666667  -0.1666667   0.0000000), wk =   0.0185185
        k(   34) = (   0.1666667  -0.1666667   0.1666667), wk =   0.0185185
        k(   35) = (   0.1666667  -0.1666667   0.3333333), wk =   0.0185185
        k(   36) = (   0.1666667  -0.1666667  -0.5000000), wk =   0.0185185
        k(   37) = (   0.3333333   0.0000000   0.0000000), wk =   0.0185185
        k(   38) = (   0.3333333   0.0000000   0.1666667), wk =   0.0185185
        k(   39) = (   0.3333333   0.0000000   0.3333333), wk =   0.0185185
        k(   40) = (   0.3333333   0.0000000  -0.5000000), wk =   0.0185185
        k(   41) = (   0.3333333   0.3333333   0.0000000), wk =   0.0185185
        k(   42) = (   0.3333333   0.3333333   0.1666667), wk =   0.0185185
        k(   43) = (   0.3333333   0.3333333   0.3333333), wk =   0.0185185
        k(   44) = (   0.3333333   0.3333333  -0.5000000), wk =   0.0185185
        k(   45) = (  -0.5000000   0.0000000   0.0000000), wk =   0.0092593
        k(   46) = (  -0.5000000   0.0000000   0.1666667), wk =   0.0185185
        k(   47) = (  -0.5000000   0.0000000   0.3333333), wk =   0.0185185
        k(   48) = (  -0.5000000   0.0000000  -0.5000000), wk =   0.0092593
        k(   49) = (  -0.5000000   0.3333333   0.0000000), wk =   0.0185185
        k(   50) = (  -0.5000000   0.3333333   0.1666667), wk =   0.0185185
        k(   51) = (  -0.5000000   0.3333333   0.3333333), wk =   0.0185185
        k(   52) = (  -0.5000000   0.3333333  -0.5000000), wk =   0.0185185
        k(   53) = (   0.5000000  -0.1666667   0.0000000), wk =   0.0185185
        k(   54) = (   0.0000000  -0.1666667   0.1666667), wk =   0.0185185
        k(   55) = (   0.5000000  -0.1666667  -0.1666667), wk =   0.0185185
        k(   56) = (  -0.5000000   0.1666667  -0.1666667), wk =   0.0185185
        k(   57) = (   0.0000000  -0.1666667   0.3333333), wk =   0.0185185
        k(   58) = (   0.5000000  -0.1666667  -0.3333333), wk =   0.0185185
        k(   59) = (  -0.5000000   0.1666667  -0.3333333), wk =   0.0185185
        k(   60) = (   0.5000000  -0.1666667   0.5000000), wk =   0.0185185
        k(   61) = (   0.0000000  -0.3333333   0.1666667), wk =   0.0185185
        k(   62) = (   0.0000000  -0.3333333   0.3333333), wk =   0.0185185
        k(   63) = (  -1.5000000   0.5000000   0.0000000), wk =   0.0092593
        k(   64) = (  -1.5000000   0.5000000  -0.1666667), wk =   0.0185185
        k(   65) = (  -1.5000000   0.5000000  -0.3333333), wk =   0.0185185
        k(   66) = (  -1.5000000   0.5000000   0.5000000), wk =   0.0092593
        k(   67) = (  -0.1666667   0.0000000   0.1666667), wk =   0.0185185
        k(   68) = (  -0.1666667   0.0000000   0.3333333), wk =   0.0185185
        k(   69) = (   0.6666667  -0.1666667   0.0000000), wk =   0.0185185
        k(   70) = (  -0.1666667  -0.1666667   0.1666667), wk =   0.0185185
        k(   71) = (   0.6666667  -0.1666667  -0.1666667), wk =   0.0185185
        k(   72) = (  -0.6666667   0.1666667  -0.1666667), wk =   0.0185185
        k(   73) = (  -0.1666667  -0.1666667   0.3333333), wk =   0.0185185
        k(   74) = (   0.6666667  -0.1666667  -0.3333333), wk =   0.0185185
        k(   75) = (  -0.6666667   0.1666667  -0.3333333), wk =   0.0185185
        k(   76) = (   0.6666667  -0.1666667   0.5000000), wk =   0.0185185
        k(   77) = (   1.1666667  -0.3333333   0.0000000), wk =   0.0185185
        k(   78) = (  -0.1666667  -0.3333333   0.1666667), wk =   0.0185185
        k(   79) = (   1.1666667  -0.3333333  -0.1666667), wk =   0.0185185
        k(   80) = (  -1.1666667   0.3333333  -0.1666667), wk =   0.0185185
        k(   81) = (  -0.1666667  -0.3333333   0.3333333), wk =   0.0185185
        k(   82) = (   1.1666667  -0.3333333  -0.3333333), wk =   0.0185185
        k(   83) = (  -1.1666667   0.3333333  -0.3333333), wk =   0.0185185
        k(   84) = (   1.1666667  -0.3333333   0.5000000), wk =   0.0185185
        k(   85) = (  -1.3333333   0.5000000   0.0000000), wk =   0.0185185
        k(   86) = (  -0.1666667   0.5000000   0.1666667), wk =   0.0185185
        k(   87) = (  -1.3333333   0.5000000  -0.1666667), wk =   0.0185185
        k(   88) = (   1.3333333  -0.5000000  -0.1666667), wk =   0.0185185
        k(   89) = (  -0.1666667   0.5000000   0.3333333), wk =   0.0185185
        k(   90) = (  -1.3333333   0.5000000  -0.3333333), wk =   0.0185185
        k(   91) = (   1.3333333  -0.5000000  -0.3333333), wk =   0.0185185
        k(   92) = (  -1.3333333   0.5000000   0.5000000), wk =   0.0185185
        k(   93) = (  -0.3333333   0.1666667   0.0000000), wk =   0.0185185
        k(   94) = (  -0.1666667   0.1666667   0.1666667), wk =   0.0185185
        k(   95) = (  -0.3333333   0.1666667  -0.1666667), wk =   0.0185185
        k(   96) = (   0.3333333  -0.1666667  -0.1666667), wk =   0.0185185
        k(   97) = (  -0.1666667   0.1666667   0.3333333), wk =   0.0185185
        k(   98) = (  -0.3333333   0.1666667  -0.3333333), wk =   0.0185185
        k(   99) = (   0.3333333  -0.1666667  -0.3333333), wk =   0.0185185
        k(  100) = (  -0.3333333   0.1666667   0.5000000), wk =   0.0185185
        k(  101) = (  -0.3333333   0.0000000   0.1666667), wk =   0.0185185
        k(  102) = (  -0.3333333   0.0000000   0.3333333), wk =   0.0185185
        k(  103) = (   1.3333333  -0.3333333   0.0000000), wk =   0.0185185
        k(  104) = (  -0.3333333  -0.3333333   0.1666667), wk =   0.0185185
        k(  105) = (   1.3333333  -0.3333333  -0.1666667), wk =   0.0185185
        k(  106) = (  -1.3333333   0.3333333  -0.1666667), wk =   0.0185185
        k(  107) = (  -0.3333333  -0.3333333   0.3333333), wk =   0.0185185
        k(  108) = (   1.3333333  -0.3333333  -0.3333333), wk =   0.0185185
        k(  109) = (  -1.3333333   0.3333333  -0.3333333), wk =   0.0185185
        k(  110) = (   1.3333333  -0.3333333   0.5000000), wk =   0.0185185
        k(  111) = (   0.5000000  -0.3333333   0.1666667), wk =   0.0185185
        k(  112) = (   0.5000000  -0.3333333   0.3333333), wk =   0.0185185

     Dense  grid:   168683 G-vectors     FFT dimensions: ( 125,  45,  72)

     Smooth grid:    59609 G-vectors     FFT dimensions: (  90,  30,  54)

     Dynamical RAM for                 wfc:       2.05 MB

     Dynamical RAM for     wfc (w. buffer):      30.73 MB

     Dynamical RAM for           str. fact:       1.72 MB

     Dynamical RAM for           local pot:       0.00 MB

     Dynamical RAM for          nlocal pot:       5.92 MB

     Dynamical RAM for                qrad:       3.21 MB

     Dynamical RAM for          rho,v,vnew:       5.66 MB

     Dynamical RAM for               rhoin:       1.89 MB

     Dynamical RAM for            rho*nmix:      13.73 MB

     Dynamical RAM for           G-vectors:       3.37 MB

     Dynamical RAM for          h,s,v(r/c):       0.53 MB

     Dynamical RAM for          <psi|beta>:       0.13 MB

     Dynamical RAM for                 psi:       4.10 MB

     Dynamical RAM for                hpsi:       4.10 MB

     Dynamical RAM for                spsi:       4.10 MB

     Dynamical RAM for      wfcinit/wfcrot:       6.06 MB

     Dynamical RAM for           addusdens:      21.34 MB

     Dynamical RAM for          addusforce:      22.11 MB

     Estimated static dynamical RAM per process >      60.21 MB

     Estimated max dynamical RAM per process >      96.06 MB

     Estimated total dynamical RAM >       1.97 GB

     Check: negative core charge=   -0.000002

     Initial potential from superposition of free atoms

     starting charge     107.9776, renormalised to     108.0000
     Starting wfcs are   78 randomized atomic wfcs

     total cpu time spent up to now is        8.8 secs

     per-process dynamical memory:    75.7 Mb

     Self-consistent Calculation

     iteration #  1     ecut=    50.00 Ry     beta= 0.30
     Davidson diagonalization with overlap

---- Real-time Memory Report at c_bands before calling an iterative solver
           100 MiB given to the printing process from OS
            73 MiB allocation reported by mallinfo(arena+hblkhd)
        103312 MiB available memory on the node where the printing process lives
------------------
     ethr =  1.00E-02,  avg # of iterations =  2.0

     total cpu time spent up to now is       20.2 secs

     total energy              =   -1083.93613447 Ry
     estimated scf accuracy    <       2.68914734 Ry

     iteration #  2     ecut=    50.00 Ry     beta= 0.30
     Davidson diagonalization with overlap

---- Real-time Memory Report at c_bands before calling an iterative solver
           122 MiB given to the printing process from OS
            94 MiB allocation reported by mallinfo(arena+hblkhd)
        102983 MiB available memory on the node where the printing process lives
------------------
     ethr =  2.49E-03,  avg # of iterations =  2.0

     total cpu time spent up to now is       33.1 secs

     total energy              =   -1084.31889987 Ry
     estimated scf accuracy    <       0.30987730 Ry

     iteration #  3     ecut=    50.00 Ry     beta= 0.30
     Davidson diagonalization with overlap

---- Real-time Memory Report at c_bands before calling an iterative solver
           123 MiB given to the printing process from OS
            94 MiB allocation reported by mallinfo(arena+hblkhd)
        102998 MiB available memory on the node where the printing process lives
------------------
     ethr =  2.87E-04,  avg # of iterations =  7.3

     total cpu time spent up to now is       56.4 secs

     total energy              =   -1084.50087894 Ry
     estimated scf accuracy    <       0.65748005 Ry

     iteration #  4     ecut=    50.00 Ry     beta= 0.30
     Davidson diagonalization with overlap

---- Real-time Memory Report at c_bands before calling an iterative solver
           123 MiB given to the printing process from OS
            95 MiB allocation reported by mallinfo(arena+hblkhd)
        102999 MiB available memory on the node where the printing process lives
------------------
     ethr =  2.87E-04,  avg # of iterations =  5.6

     total cpu time spent up to now is       72.4 secs

     total energy              =   -1084.52485596 Ry
     estimated scf accuracy    <       0.07798768 Ry

     iteration #  5     ecut=    50.00 Ry     beta= 0.30
     Davidson diagonalization with overlap

---- Real-time Memory Report at c_bands before calling an iterative solver
           124 MiB given to the printing process from OS
            95 MiB allocation reported by mallinfo(arena+hblkhd)
        102987 MiB available memory on the node where the printing process lives
------------------
     ethr =  7.22E-05,  avg # of iterations = 11.1

     total cpu time spent up to now is      109.0 secs

     total energy              =   -1084.64193898 Ry
     estimated scf accuracy    <       0.91832257 Ry

     iteration #  6     ecut=    50.00 Ry     beta= 0.30
     Davidson diagonalization with overlap

---- Real-time Memory Report at c_bands before calling an iterative solver
           124 MiB given to the printing process from OS
            96 MiB allocation reported by mallinfo(arena+hblkhd)
        102985 MiB available memory on the node where the printing process lives
------------------
     ethr =  7.22E-05,  avg # of iterations =  4.9

     total cpu time spent up to now is      124.3 secs

     total energy              =   -1084.40949555 Ry
     estimated scf accuracy    <       0.48342752 Ry

     iteration #  7     ecut=    50.00 Ry     beta= 0.30
     Davidson diagonalization with overlap

---- Real-time Memory Report at c_bands before calling an iterative solver
           125 MiB given to the printing process from OS
            97 MiB allocation reported by mallinfo(arena+hblkhd)
        102985 MiB available memory on the node where the printing process lives
------------------
     c_bands:  3 eigenvalues not converged
     ethr =  7.22E-05,  avg # of iterations = 11.0

     total cpu time spent up to now is      154.6 secs

     total energy              =   -1084.59390917 Ry
     estimated scf accuracy    <       0.18203383 Ry

     iteration #  8     ecut=    50.00 Ry     beta= 0.30
     Davidson diagonalization with overlap

---- Real-time Memory Report at c_bands before calling an iterative solver
           126 MiB given to the printing process from OS
            97 MiB allocation reported by mallinfo(arena+hblkhd)
        102985 MiB available memory on the node where the printing process lives
------------------
     ethr =  7.22E-05,  avg # of iterations =  2.1

     total cpu time spent up to now is      166.4 secs

     total energy              =   -1084.56032498 Ry
     estimated scf accuracy    <       0.09459885 Ry

     iteration #  9     ecut=    50.00 Ry     beta= 0.30
     Davidson diagonalization with overlap

---- Real-time Memory Report at c_bands before calling an iterative solver
           127 MiB given to the printing process from OS
            98 MiB allocation reported by mallinfo(arena+hblkhd)
        102988 MiB available memory on the node where the printing process lives
------------------
     ethr =  7.22E-05,  avg # of iterations =  5.0

     total cpu time spent up to now is      184.2 secs

     total energy              =   -1084.59754003 Ry
     estimated scf accuracy    <       0.01027787 Ry

     iteration # 10     ecut=    50.00 Ry     beta= 0.30
     Davidson diagonalization with overlap

---- Real-time Memory Report at c_bands before calling an iterative solver
           127 MiB given to the printing process from OS
            98 MiB allocation reported by mallinfo(arena+hblkhd)
        102986 MiB available memory on the node where the printing process lives
------------------
     ethr =  9.52E-06,  avg # of iterations =  3.2

     total cpu time spent up to now is      197.3 secs

     total energy              =   -1084.59452717 Ry
     estimated scf accuracy    <       0.00685189 Ry

     iteration # 11     ecut=    50.00 Ry     beta= 0.30
     Davidson diagonalization with overlap

---- Real-time Memory Report at c_bands before calling an iterative solver
           127 MiB given to the printing process from OS
            98 MiB allocation reported by mallinfo(arena+hblkhd)
        102986 MiB available memory on the node where the printing process lives
------------------
     ethr =  6.34E-06,  avg # of iterations =  5.3

     total cpu time spent up to now is      214.7 secs

     total energy              =   -1084.59715562 Ry
     estimated scf accuracy    <       0.00143711 Ry

     iteration # 12     ecut=    50.00 Ry     beta= 0.30
     Davidson diagonalization with overlap

---- Real-time Memory Report at c_bands before calling an iterative solver
           127 MiB given to the printing process from OS
            98 MiB allocation reported by mallinfo(arena+hblkhd)
        102986 MiB available memory on the node where the printing process lives
------------------
     ethr =  1.33E-06,  avg # of iterations =  2.2

     total cpu time spent up to now is      227.5 secs

     total energy              =   -1084.59689682 Ry
     estimated scf accuracy    <       0.00049228 Ry

     iteration # 13     ecut=    50.00 Ry     beta= 0.30
     Davidson diagonalization with overlap

---- Real-time Memory Report at c_bands before calling an iterative solver
           127 MiB given to the printing process from OS
            98 MiB allocation reported by mallinfo(arena+hblkhd)
        102986 MiB available memory on the node where the printing process lives
------------------
     ethr =  4.56E-07,  avg # of iterations =  8.4

     total cpu time spent up to now is      254.2 secs

     total energy              =   -1084.59739542 Ry
     estimated scf accuracy    <       0.00189740 Ry

     iteration # 14     ecut=    50.00 Ry     beta= 0.30
     Davidson diagonalization with overlap

---- Real-time Memory Report at c_bands before calling an iterative solver
           127 MiB given to the printing process from OS
            98 MiB allocation reported by mallinfo(arena+hblkhd)
        102989 MiB available memory on the node where the printing process lives
------------------
     ethr =  4.56E-07,  avg # of iterations =  2.0

     total cpu time spent up to now is      266.0 secs

     total energy              =   -1084.59682922 Ry
     estimated scf accuracy    <       0.00114908 Ry

     iteration # 15     ecut=    50.00 Ry     beta= 0.30
     Davidson diagonalization with overlap

---- Real-time Memory Report at c_bands before calling an iterative solver
           127 MiB given to the printing process from OS
            98 MiB allocation reported by mallinfo(arena+hblkhd)
        102990 MiB available memory on the node where the printing process lives
------------------
     c_bands:  2 eigenvalues not converged
     ethr =  4.56E-07,  avg # of iterations =  6.9

     total cpu time spent up to now is      289.7 secs

     total energy              =   -1084.59759328 Ry
     estimated scf accuracy    <       0.00053855 Ry

     iteration # 16     ecut=    50.00 Ry     beta= 0.30
     Davidson diagonalization with overlap

---- Real-time Memory Report at c_bands before calling an iterative solver
           127 MiB given to the printing process from OS
            98 MiB allocation reported by mallinfo(arena+hblkhd)
        102990 MiB available memory on the node where the printing process lives
------------------
     ethr =  4.56E-07,  avg # of iterations =  2.2

     total cpu time spent up to now is      302.3 secs

     total energy              =   -1084.59746886 Ry
     estimated scf accuracy    <       0.00096009 Ry

     iteration # 17     ecut=    50.00 Ry     beta= 0.30
     Davidson diagonalization with overlap

---- Real-time Memory Report at c_bands before calling an iterative solver
           127 MiB given to the printing process from OS
            98 MiB allocation reported by mallinfo(arena+hblkhd)
        102991 MiB available memory on the node where the printing process lives
------------------
     ethr =  4.56E-07,  avg # of iterations =  1.0

     total cpu time spent up to now is      313.1 secs

     total energy              =   -1084.59724040 Ry
     estimated scf accuracy    <       0.00071325 Ry

     iteration # 18     ecut=    50.00 Ry     beta= 0.30
     Davidson diagonalization with overlap

---- Real-time Memory Report at c_bands before calling an iterative solver
           127 MiB given to the printing process from OS
            98 MiB allocation reported by mallinfo(arena+hblkhd)
        102991 MiB available memory on the node where the printing process lives
------------------
     ethr =  4.56E-07,  avg # of iterations =  4.2

     total cpu time spent up to now is      327.0 secs

     total energy              =   -1084.59723398 Ry
     estimated scf accuracy    <       0.00018714 Ry

     iteration # 19     ecut=    50.00 Ry     beta= 0.30
     Davidson diagonalization with overlap

---- Real-time Memory Report at c_bands before calling an iterative solver
           127 MiB given to the printing process from OS
            98 MiB allocation reported by mallinfo(arena+hblkhd)
        102991 MiB available memory on the node where the printing process lives
------------------
     ethr =  1.73E-07,  avg # of iterations =  6.4

     total cpu time spent up to now is      345.5 secs

     total energy              =   -1084.59731725 Ry
     estimated scf accuracy    <       0.00005359 Ry

     iteration # 20     ecut=    50.00 Ry     beta= 0.30
     Davidson diagonalization with overlap

---- Real-time Memory Report at c_bands before calling an iterative solver
           127 MiB given to the printing process from OS
            98 MiB allocation reported by mallinfo(arena+hblkhd)
        102991 MiB available memory on the node where the printing process lives
------------------
     ethr =  4.96E-08,  avg # of iterations =  6.7

     total cpu time spent up to now is      364.4 secs

     total energy              =   -1084.59734176 Ry
     estimated scf accuracy    <       0.00004951 Ry

     iteration # 21     ecut=    50.00 Ry     beta= 0.30
     Davidson diagonalization with overlap

---- Real-time Memory Report at c_bands before calling an iterative solver
           127 MiB given to the printing process from OS
            98 MiB allocation reported by mallinfo(arena+hblkhd)
        102991 MiB available memory on the node where the printing process lives
------------------
     ethr =  4.58E-08,  avg # of iterations =  1.0

     total cpu time spent up to now is      375.4 secs

     total energy              =   -1084.59733418 Ry
     estimated scf accuracy    <       0.00003741 Ry

     iteration # 22     ecut=    50.00 Ry     beta= 0.30
     Davidson diagonalization with overlap

---- Real-time Memory Report at c_bands before calling an iterative solver
           127 MiB given to the printing process from OS
            98 MiB allocation reported by mallinfo(arena+hblkhd)
        102991 MiB available memory on the node where the printing process lives
------------------
     ethr =  3.46E-08,  avg # of iterations =  2.0

     total cpu time spent up to now is      387.5 secs

     total energy              =   -1084.59732934 Ry
     estimated scf accuracy    <       0.00001858 Ry

     iteration # 23     ecut=    50.00 Ry     beta= 0.30
     Davidson diagonalization with overlap

---- Real-time Memory Report at c_bands before calling an iterative solver
           127 MiB given to the printing process from OS
            98 MiB allocation reported by mallinfo(arena+hblkhd)
        102991 MiB available memory on the node where the printing process lives
------------------
     ethr =  1.72E-08,  avg # of iterations =  5.2

     total cpu time spent up to now is      404.5 secs

     total energy              =   -1084.59733719 Ry
     estimated scf accuracy    <       0.00000341 Ry

     iteration # 24     ecut=    50.00 Ry     beta= 0.30
     Davidson diagonalization with overlap

---- Real-time Memory Report at c_bands before calling an iterative solver
           127 MiB given to the printing process from OS
            98 MiB allocation reported by mallinfo(arena+hblkhd)
        102991 MiB available memory on the node where the printing process lives
------------------
     c_bands:  2 eigenvalues not converged
     ethr =  3.16E-09,  avg # of iterations =  6.7

     total cpu time spent up to now is      423.0 secs

     total energy              =   -1084.59733662 Ry
     estimated scf accuracy    <       0.00001211 Ry

     iteration # 25     ecut=    50.00 Ry     beta= 0.30
     Davidson diagonalization with overlap

---- Real-time Memory Report at c_bands before calling an iterative solver
           127 MiB given to the printing process from OS
            98 MiB allocation reported by mallinfo(arena+hblkhd)
        102991 MiB available memory on the node where the printing process lives
------------------
     ethr =  3.16E-09,  avg # of iterations =  1.1

     total cpu time spent up to now is      434.0 secs

     total energy              =   -1084.59733297 Ry
     estimated scf accuracy    <       0.00000834 Ry

     iteration # 26     ecut=    50.00 Ry     beta= 0.30
     Davidson diagonalization with overlap

---- Real-time Memory Report at c_bands before calling an iterative solver
           127 MiB given to the printing process from OS
            98 MiB allocation reported by mallinfo(arena+hblkhd)
        102991 MiB available memory on the node where the printing process lives
------------------
     ethr =  3.16E-09,  avg # of iterations =  6.0

     total cpu time spent up to now is      454.5 secs

     total energy              =   -1084.59733611 Ry
     estimated scf accuracy    <       0.00000119 Ry

     iteration # 27     ecut=    50.00 Ry     beta= 0.30
     Davidson diagonalization with overlap

---- Real-time Memory Report at c_bands before calling an iterative solver
           127 MiB given to the printing process from OS
            98 MiB allocation reported by mallinfo(arena+hblkhd)
        102991 MiB available memory on the node where the printing process lives
------------------
     ethr =  1.10E-09,  avg # of iterations =  1.8

     total cpu time spent up to now is      466.3 secs

     total energy              =   -1084.59733609 Ry
     estimated scf accuracy    <       0.00000120 Ry

     iteration # 28     ecut=    50.00 Ry     beta= 0.30
     Davidson diagonalization with overlap

---- Real-time Memory Report at c_bands before calling an iterative solver
           127 MiB given to the printing process from OS
            98 MiB allocation reported by mallinfo(arena+hblkhd)
        102991 MiB available memory on the node where the printing process lives
------------------
     ethr =  1.10E-09,  avg # of iterations =  1.1

     total cpu time spent up to now is      477.3 secs

     total energy              =   -1084.59733572 Ry
     estimated scf accuracy    <       0.00000117 Ry

     iteration # 29     ecut=    50.00 Ry     beta= 0.30
     Davidson diagonalization with overlap

---- Real-time Memory Report at c_bands before calling an iterative solver
           127 MiB given to the printing process from OS
            98 MiB allocation reported by mallinfo(arena+hblkhd)
        102991 MiB available memory on the node where the printing process lives
------------------
     ethr =  1.08E-09,  avg # of iterations =  1.9

     total cpu time spent up to now is      488.9 secs

     total energy              =   -1084.59733565 Ry
     estimated scf accuracy    <       0.00000044 Ry

     iteration # 30     ecut=    50.00 Ry     beta= 0.30
     Davidson diagonalization with overlap

---- Real-time Memory Report at c_bands before calling an iterative solver
           127 MiB given to the printing process from OS
            98 MiB allocation reported by mallinfo(arena+hblkhd)
        102991 MiB available memory on the node where the printing process lives
------------------
     ethr =  4.11E-10,  avg # of iterations =  5.7

     total cpu time spent up to now is      506.0 secs

     total energy              =   -1084.59733583 Ry
     estimated scf accuracy    <       0.00000007 Ry

     iteration # 31     ecut=    50.00 Ry     beta= 0.30
     Davidson diagonalization with overlap

---- Real-time Memory Report at c_bands before calling an iterative solver
           127 MiB given to the printing process from OS
            98 MiB allocation reported by mallinfo(arena+hblkhd)
        102991 MiB available memory on the node where the printing process lives
------------------
     ethr =  6.26E-11,  avg # of iterations =  4.2

     total cpu time spent up to now is      521.2 secs

     total energy              =   -1084.59733582 Ry
     estimated scf accuracy    <       0.00000008 Ry

     iteration # 32     ecut=    50.00 Ry     beta= 0.30
     Davidson diagonalization with overlap

---- Real-time Memory Report at c_bands before calling an iterative solver
           127 MiB given to the printing process from OS
            98 MiB allocation reported by mallinfo(arena+hblkhd)
        102991 MiB available memory on the node where the printing process lives
------------------
     ethr =  6.26E-11,  avg # of iterations =  2.0

     total cpu time spent up to now is      532.8 secs

     total energy              =   -1084.59733583 Ry
     estimated scf accuracy    <       0.00000004 Ry

     iteration # 33     ecut=    50.00 Ry     beta= 0.30
     Davidson diagonalization with overlap

---- Real-time Memory Report at c_bands before calling an iterative solver
           127 MiB given to the printing process from OS
            98 MiB allocation reported by mallinfo(arena+hblkhd)
        102991 MiB available memory on the node where the printing process lives
------------------
     ethr =  4.03E-11,  avg # of iterations =  1.4

     total cpu time spent up to now is      544.1 secs

     total energy              =   -1084.59733581 Ry
     estimated scf accuracy    <       0.00000006 Ry

     iteration # 34     ecut=    50.00 Ry     beta= 0.30
     Davidson diagonalization with overlap

---- Real-time Memory Report at c_bands before calling an iterative solver
           127 MiB given to the printing process from OS
            98 MiB allocation reported by mallinfo(arena+hblkhd)
        102991 MiB available memory on the node where the printing process lives
------------------
     ethr =  4.03E-11,  avg # of iterations =  7.2

     total cpu time spent up to now is      560.5 secs

     End of self-consistent calculation

          k = 0.0000 0.0000 0.0000 (  7505 PWs)   bands (ev):

   -13.3456 -12.4230 -12.2392 -12.0894 -11.9960 -11.4407  -1.7515  -1.4759
    -1.2030  -1.1893  -1.1343  -1.0782  -1.0596  -1.0245  -0.9942  -0.9561
    -0.9307  -0.9096  -0.9023  -0.7887  -0.7667  -0.7457  -0.6910  -0.6836
    -0.6130  -0.5942  -0.5568  -0.4651  -0.4604  -0.4268  -0.3984  -0.3415
    -0.2845  -0.2331  -0.1803  -0.1498   0.2794   0.8370   1.1225   1.3651
     1.4998   2.0001   2.0742   2.4988   2.8529   3.3189   3.3444   3.4742
     3.6057   3.7176   3.7782   3.9267   4.0040   4.1953

     occupation numbers 
     1.0000   1.0000   1.0000   1.0000   1.0000   1.0000   1.0000   1.0000
     1.0000   1.0000   1.0000   1.0000   1.0000   1.0000   1.0000   1.0000
     1.0000   1.0000   1.0000   1.0000   1.0000   1.0000   1.0000   1.0000
     1.0000   1.0000   1.0000   1.0000   1.0000   1.0000   1.0000   1.0000
     1.0000   1.0000   1.0000   1.0000   1.0000   1.0000   1.0000   1.0000
     1.0000   1.0000   1.0000   1.0000   1.0000   1.0000   1.0000   1.0000
     1.0000   1.0000   1.0000   1.0000   1.0000   1.0000

          k = 0.0000 0.0000 0.2922 (  7491 PWs)   bands (ev):

   -13.3434 -12.4044 -12.2309 -12.1053 -12.0080 -11.4430  -1.7514  -1.4825
    -1.2161  -1.1935  -1.1440  -1.0848  -1.0581  -1.0278  -1.0002  -0.9725
    -0.9419  -0.9133  -0.9031  -0.8222  -0.7857  -0.7574  -0.7066  -0.6841
    -0.6189  -0.6004  -0.5489  -0.5005  -0.4655  -0.4287  -0.3960  -0.3760
    -0.2808  -0.2489  -0.2031  -0.1562   0.4941   0.8931   1.1473   1.4397
     1.5743   1.9938   2.1314   2.5165   2.8907   3.1321   3.3350   3.3975
     3.4988   3.6004   3.7436   3.8212   4.0144   4.1859

     occupation numbers 
     1.0000   1.0000   1.0000   1.0000   1.0000   1.0000   1.0000   1.0000
     1.0000   1.0000   1.0000   1.0000   1.0000   1.0000   1.0000   1.0000
     1.0000   1.0000   1.0000   1.0000   1.0000   1.0000   1.0000   1.0000
     1.0000   1.0000   1.0000   1.0000   1.0000   1.0000   1.0000   1.0000
     1.0000   1.0000   1.0000   1.0000   1.0000   1.0000   1.0000   1.0000
     1.0000   1.0000   1.0000   1.0000   1.0000   1.0000   1.0000   1.0000
     1.0000   1.0000   1.0000   1.0000   1.0000   1.0000

          k = 0.0000 0.0000 0.5844 (  7461 PWs)   bands (ev):

   -13.3391 -12.3547 -12.2270 -12.1305 -12.0388 -11.4476  -1.7512  -1.4967
    -1.2399  -1.2006  -1.1639  -1.1028  -1.0829  -1.0497  -1.0167  -1.0050
    -0.9494  -0.9369  -0.9049  -0.8503  -0.7938  -0.7718  -0.7331  -0.6873
    -0.6376  -0.5966  -0.5662  -0.4983  -0.4777  -0.4508  -0.4267  -0.3810
    -0.2906  -0.2631  -0.2384  -0.1694   0.9233   1.0237   1.2497   1.4313
     1.5713   2.1916   2.3963   2.5038   2.5835   3.0054   3.1737   3.3599
     3.4243   3.5248   3.6955   3.8090   3.9809   4.1642

     occupation numbers 
     1.0000   1.0000   1.0000   1.0000   1.0000   1.0000   1.0000   1.0000
     1.0000   1.0000   1.0000   1.0000   1.0000   1.0000   1.0000   1.0000
     1.0000   1.0000   1.0000   1.0000   1.0000   1.0000   1.0000   1.0000
     1.0000   1.0000   1.0000   1.0000   1.0000   1.0000   1.0000   1.0000
     1.0000   1.0000   1.0000   1.0000   1.0000   1.0000   1.0000   1.0000
     1.0000   1.0000   1.0000   1.0000   1.0000   1.0000   1.0000   1.0000
     1.0000   1.0000   1.0000   1.0000   1.0000   1.0000

          k = 0.0000 0.0000-0.8766 (  7458 PWs)   bands (ev):

   -13.3370 -12.3064 -12.2569 -12.1262 -12.0626 -11.4499  -1.7511  -1.5044
    -1.2498  -1.1941  -1.1842  -1.1436  -1.0906  -1.0576  -1.0226  -1.0093
    -0.9561  -0.9476  -0.9022  -0.8446  -0.7991  -0.7784  -0.7435  -0.6938
    -0.6472  -0.5951  -0.5876  -0.4905  -0.4791  -0.4516  -0.4239  -0.3971
    -0.3106  -0.2604  -0.2428  -0.1771   1.1003   1.1910   1.3139   1.3348
     1.7185   1.9311   2.5323   2.5686   2.7331   2.8875   3.0765   3.2646
     3.3774   3.5353   3.6238   3.8466   3.9423   4.1527

     occupation numbers 
     1.0000   1.0000   1.0000   1.0000   1.0000   1.0000   1.0000   1.0000
     1.0000   1.0000   1.0000   1.0000   1.0000   1.0000   1.0000   1.0000
     1.0000   1.0000   1.0000   1.0000   1.0000   1.0000   1.0000   1.0000
     1.0000   1.0000   1.0000   1.0000   1.0000   1.0000   1.0000   1.0000
     1.0000   1.0000   1.0000   1.0000   1.0000   1.0000   1.0000   1.0000
     1.0000   1.0000   1.0000   1.0000   1.0000   1.0000   1.0000   1.0000
     1.0000   1.0000   1.0000   1.0000   1.0000   1.0000

          k = 0.0000 0.5774 0.0000 (  7456 PWs)   bands (ev):

   -13.2827 -12.3678 -12.1938 -12.0600 -11.9849 -11.4155  -1.8946  -1.2902
    -1.2085  -1.1475  -1.1267  -1.0678  -1.0319  -1.0069  -0.9788  -0.9368
    -0.9253  -0.8998  -0.8307  -0.7996  -0.7611  -0.7288  -0.6976  -0.6540
    -0.6035  -0.5647  -0.5417  -0.4667  -0.4416  -0.4071  -0.3720  -0.3337
    -0.2929  -0.2309  -0.1842  -0.1072   0.4372   0.8278   1.0596   1.3203
     1.7194   1.8660   2.0657   2.1188   2.5032   2.7900   2.9831   3.1521
     3.2608   3.4623   3.5289   3.7138   3.8863   3.9692

     occupation numbers 
     1.0000   1.0000   1.0000   1.0000   1.0000   1.0000   1.0000   1.0000
     1.0000   1.0000   1.0000   1.0000   1.0000   1.0000   1.0000   1.0000
     1.0000   1.0000   1.0000   1.0000   1.0000   1.0000   1.0000   1.0000
     1.0000   1.0000   1.0000   1.0000   1.0000   1.0000   1.0000   1.0000
     1.0000   1.0000   1.0000   1.0000   1.0000   1.0000   1.0000   1.0000
     1.0000   1.0000   1.0000   1.0000   1.0000   1.0000   1.0000   1.0000
     1.0000   1.0000   1.0000   1.0000   1.0000   1.0000

          k = 0.0000 0.5774 0.2922 (  7469 PWs)   bands (ev):

   -13.2809 -12.3508 -12.1869 -12.0745 -11.9945 -11.4175  -1.8988  -1.2885
    -1.2321  -1.1499  -1.1223  -1.0783  -1.0318  -0.9992  -0.9873  -0.9513
    -0.9338  -0.8979  -0.8626  -0.8159  -0.7835  -0.7496  -0.6963  -0.6782
    -0.6095  -0.5720  -0.5347  -0.4899  -0.4621  -0.4146  -0.3680  -0.3335
    -0.2857  -0.2424  -0.2238  -0.1224   0.6768   0.9271   1.0404   1.2788
     1.7287   1.9723   2.0727   2.2020   2.4915   2.7446   2.9649   3.1684
     3.2291   3.4849   3.5258   3.6450   3.8413   3.9536

     occupation numbers 
     1.0000   1.0000   1.0000   1.0000   1.0000   1.0000   1.0000   1.0000
     1.0000   1.0000   1.0000   1.0000   1.0000   1.0000   1.0000   1.0000
     1.0000   1.0000   1.0000   1.0000   1.0000   1.0000   1.0000   1.0000
     1.0000   1.0000   1.0000   1.0000   1.0000   1.0000   1.0000   1.0000
     1.0000   1.0000   1.0000   1.0000   1.0000   1.0000   1.0000   1.0000
     1.0000   1.0000   1.0000   1.0000   1.0000   1.0000   1.0000   1.0000
     1.0000   1.0000   1.0000   1.0000   1.0000   1.0000

          k = 0.0000 0.5774 0.5844 (  7461 PWs)   bands (ev):

   -13.2773 -12.3061 -12.1852 -12.0954 -12.0205 -11.4213  -1.9017  -1.2982
    -1.2603  -1.1745  -1.1179  -1.0890  -1.0559  -1.0211  -1.0005  -0.9724
    -0.9576  -0.9388  -0.8749  -0.8197  -0.7964  -0.7621  -0.7226  -0.6751
    -0.6354  -0.5933  -0.5323  -0.5037  -0.4739  -0.4285  -0.3761  -0.3328
    -0.3003  -0.2532  -0.2338  -0.1530   0.9179   1.0749   1.2093   1.2753
     1.6355   1.9908   2.1780   2.4231   2.5025   2.7699   2.9551   3.1206
     3.2123   3.4151   3.4695   3.5844   3.7862   3.8886

     occupation numbers 
     1.0000   1.0000   1.0000   1.0000   1.0000   1.0000   1.0000   1.0000
     1.0000   1.0000   1.0000   1.0000   1.0000   1.0000   1.0000   1.0000
     1.0000   1.0000   1.0000   1.0000   1.0000   1.0000   1.0000   1.0000
     1.0000   1.0000   1.0000   1.0000   1.0000   1.0000   1.0000   1.0000
     1.0000   1.0000   1.0000   1.0000   1.0000   1.0000   1.0000   1.0000
     1.0000   1.0000   1.0000   1.0000   1.0000   1.0000   1.0000   1.0000
     1.0000   1.0000   1.0000   1.0000   1.0000   1.0000

          k = 0.0000 0.5774-0.8766 (  7468 PWs)   bands (ev):

   -13.2756 -12.2663 -12.2094 -12.0898 -12.0421 -11.4231  -1.9005  -1.3194
    -1.2571  -1.1895  -1.1389  -1.0883  -1.0637  -1.0408  -1.0142  -0.9810
    -0.9656  -0.9433  -0.8708  -0.8261  -0.7974  -0.7612  -0.7355  -0.6754
    -0.6396  -0.6147  -0.5417  -0.4939  -0.4697  -0.4329  -0.3632  -0.3600
    -0.3130  -0.2437  -0.2225  -0.1757   0.9139   1.0894   1.3362   1.4788
     1.5842   1.9593   2.0375   2.5184   2.7725   2.8298   2.9224   3.0452
     3.1709   3.3352   3.3989   3.6397   3.7409   3.8366

     occupation numbers 
     1.0000   1.0000   1.0000   1.0000   1.0000   1.0000   1.0000   1.0000
     1.0000   1.0000   1.0000   1.0000   1.0000   1.0000   1.0000   1.0000
     1.0000   1.0000   1.0000   1.0000   1.0000   1.0000   1.0000   1.0000
     1.0000   1.0000   1.0000   1.0000   1.0000   1.0000   1.0000   1.0000
     1.0000   1.0000   1.0000   1.0000   1.0000   1.0000   1.0000   1.0000
     1.0000   1.0000   1.0000   1.0000   1.0000   1.0000   1.0000   1.0000
     1.0000   1.0000   1.0000   1.0000   1.0000   1.0000

          k = 0.0000 1.1547 0.0000 (  7468 PWs)   bands (ev):

   -13.1537 -12.2387 -12.0987 -12.0079 -11.9714 -11.3665  -1.9956  -1.2912
    -1.1722  -1.1395  -1.1011  -1.0332  -0.9850  -0.9435  -0.9348  -0.8921
    -0.8772  -0.8232  -0.7935  -0.7550  -0.7033  -0.6642  -0.6330  -0.6104
    -0.5867  -0.5283  -0.4848  -0.4384  -0.3939  -0.3746  -0.3319  -0.3140
    -0.2728  -0.2573  -0.1786  -0.0333   0.6803   0.8565   0.9942   1.1220
     1.3095   1.4474   1.5754   1.9233   2.2890   2.3955   2.5873   2.7770
     2.9153   3.1129   3.2608   3.5626   3.6462   3.8287

     occupation numbers 
     1.0000   1.0000   1.0000   1.0000   1.0000   1.0000   1.0000   1.0000
     1.0000   1.0000   1.0000   1.0000   1.0000   1.0000   1.0000   1.0000
     1.0000   1.0000   1.0000   1.0000   1.0000   1.0000   1.0000   1.0000
     1.0000   1.0000   1.0000   1.0000   1.0000   1.0000   1.0000   1.0000
     1.0000   1.0000   1.0000   1.0000   1.0000   1.0000   1.0000   1.0000
     1.0000   1.0000   1.0000   1.0000   1.0000   1.0000   1.0000   1.0000
     1.0000   1.0000   1.0000   1.0000   1.0000   1.0000

          k = 0.0000 1.1547 0.2922 (  7454 PWs)   bands (ev):

   -13.1526 -12.2265 -12.0982 -12.0150 -11.9754 -11.3679  -1.9996  -1.3156
    -1.1632  -1.1330  -1.1085  -1.0484  -0.9826  -0.9488  -0.9368  -0.8999
    -0.8741  -0.8359  -0.7996  -0.7630  -0.7254  -0.6852  -0.6481  -0.6289
    -0.5820  -0.5557  -0.4852  -0.4565  -0.3918  -0.3798  -0.3349  -0.3073
    -0.2714  -0.2592  -0.1817  -0.0547   0.6792   0.8390   0.9673   1.2231
     1.2793   1.5000   1.6696   1.9842   2.2982   2.4510   2.6435   2.8134
     2.9547   3.1320   3.2605   3.5433   3.6264   3.8010

     occupation numbers 
     1.0000   1.0000   1.0000   1.0000   1.0000   1.0000   1.0000   1.0000
     1.0000   1.0000   1.0000   1.0000   1.0000   1.0000   1.0000   1.0000
     1.0000   1.0000   1.0000   1.0000   1.0000   1.0000   1.0000   1.0000
     1.0000   1.0000   1.0000   1.0000   1.0000   1.0000   1.0000   1.0000
     1.0000   1.0000   1.0000   1.0000   1.0000   1.0000   1.0000   1.0000
     1.0000   1.0000   1.0000   1.0000   1.0000   1.0000   1.0000   1.0000
     1.0000   1.0000   1.0000   1.0000   1.0000   1.0000

          k = 0.0000 1.1547 0.5844 (  7445 PWs)   bands (ev):

   -13.1505 -12.1977 -12.1024 -12.0236 -11.9878 -11.3704  -2.0037  -1.3524
    -1.1721  -1.1424  -1.1084  -1.0667  -0.9973  -0.9700  -0.9511  -0.9062
    -0.8810  -0.8500  -0.8147  -0.7705  -0.7510  -0.7114  -0.6581  -0.6357
    -0.5982  -0.5653  -0.5067  -0.4649  -0.4264  -0.4042  -0.3444  -0.2959
    -0.2679  -0.2531  -0.1774  -0.0859   0.6533   0.7944   0.9725   1.1590
     1.4221   1.5279   1.7369   2.2732   2.3976   2.5404   2.7986   2.8846
     3.0736   3.1281   3.2936   3.4724   3.5360   3.7173

     occupation numbers 
     1.0000   1.0000   1.0000   1.0000   1.0000   1.0000   1.0000   1.0000
     1.0000   1.0000   1.0000   1.0000   1.0000   1.0000   1.0000   1.0000
     1.0000   1.0000   1.0000   1.0000   1.0000   1.0000   1.0000   1.0000
     1.0000   1.0000   1.0000   1.0000   1.0000   1.0000   1.0000   1.0000
     1.0000   1.0000   1.0000   1.0000   1.0000   1.0000   1.0000   1.0000
     1.0000   1.0000   1.0000   1.0000   1.0000   1.0000   1.0000   1.0000
     1.0000   1.0000   1.0000   1.0000   1.0000   1.0000

          k = 0.0000 1.1547-0.8766 (  7462 PWs)   bands (ev):

   -13.1495 -12.1787 -12.1105 -12.0224 -11.9982 -11.3716  -2.0036  -1.3683
    -1.1900  -1.1445  -1.1264  -1.0480  -1.0147  -0.9806  -0.9687  -0.9121
    -0.8920  -0.8389  -0.8132  -0.7803  -0.7606  -0.7164  -0.6718  -0.6226
    -0.6084  -0.5642  -0.5155  -0.4643  -0.4527  -0.4176  -0.3387  -0.2987
    -0.2805  -0.2401  -0.1683  -0.0997   0.6312   0.7543   1.0027   1.1252
     1.4489   1.6100   1.6693   2.3125   2.5918   2.7803   2.8355   2.9380
     3.0182   3.1787   3.2756   3.4206   3.4635   3.6638

     occupation numbers 
     1.0000   1.0000   1.0000   1.0000   1.0000   1.0000   1.0000   1.0000
     1.0000   1.0000   1.0000   1.0000   1.0000   1.0000   1.0000   1.0000
     1.0000   1.0000   1.0000   1.0000   1.0000   1.0000   1.0000   1.0000
     1.0000   1.0000   1.0000   1.0000   1.0000   1.0000   1.0000   1.0000
     1.0000   1.0000   1.0000   1.0000   1.0000   1.0000   1.0000   1.0000
     1.0000   1.0000   1.0000   1.0000   1.0000   1.0000   1.0000   1.0000
     1.0000   1.0000   1.0000   1.0000   1.0000   1.0000

          k = 0.0000-1.7321 0.0000 (  7436 PWs)   bands (ev):

   -13.0871 -12.1610 -12.0357 -11.9932 -11.9790 -11.3419  -1.9985  -1.3282
    -1.1560  -1.1109  -1.0658  -0.9935  -0.9648  -0.9391  -0.9168  -0.8944
    -0.8558  -0.7990  -0.7824  -0.7244  -0.6896  -0.6419  -0.6109  -0.5776
    -0.5300  -0.4874  -0.4638  -0.4535  -0.3882  -0.3760  -0.3359  -0.2873
    -0.2606  -0.2135  -0.1683  -0.1084   0.4169   0.6850   0.8319   1.1422
     1.2736   1.5909   1.7291   1.8781   2.1599   2.3358   2.4136   2.6186
     2.8078   2.9706   3.0562   3.4324   3.4493   3.6250

     occupation numbers 
     1.0000   1.0000   1.0000   1.0000   1.0000   1.0000   1.0000   1.0000
     1.0000   1.0000   1.0000   1.0000   1.0000   1.0000   1.0000   1.0000
     1.0000   1.0000   1.0000   1.0000   1.0000   1.0000   1.0000   1.0000
     1.0000   1.0000   1.0000   1.0000   1.0000   1.0000   1.0000   1.0000
     1.0000   1.0000   1.0000   1.0000   1.0000   1.0000   1.0000   1.0000
     1.0000   1.0000   1.0000   1.0000   1.0000   1.0000   1.0000   1.0000
     1.0000   1.0000   1.0000   1.0000   1.0000   1.0000

          k = 0.0000-1.7321 0.2922 (  7450 PWs)   bands (ev):

   -13.0864 -12.1553 -12.0381 -11.9935 -11.9791 -11.3429  -2.0007  -1.3479
    -1.1543  -1.1224  -1.0658  -1.0155  -0.9730  -0.9496  -0.9190  -0.8922
    -0.8514  -0.8099  -0.7815  -0.7264  -0.6981  -0.6490  -0.6223  -0.5838
    -0.5343  -0.5012  -0.4650  -0.4583  -0.3917  -0.3746  -0.3404  -0.2918
    -0.2513  -0.2082  -0.1741  -0.1123   0.3867   0.6346   0.7596   1.1206
     1.2024   1.5484   1.9102   2.0196   2.2480   2.4159   2.4697   2.6812
     2.8827   3.0161   3.0595   3.3958   3.4511   3.6061

     occupation numbers 
     1.0000   1.0000   1.0000   1.0000   1.0000   1.0000   1.0000   1.0000
     1.0000   1.0000   1.0000   1.0000   1.0000   1.0000   1.0000   1.0000
     1.0000   1.0000   1.0000   1.0000   1.0000   1.0000   1.0000   1.0000
     1.0000   1.0000   1.0000   1.0000   1.0000   1.0000   1.0000   1.0000
     1.0000   1.0000   1.0000   1.0000   1.0000   1.0000   1.0000   1.0000
     1.0000   1.0000   1.0000   1.0000   1.0000   1.0000   1.0000   1.0000
     1.0000   1.0000   1.0000   1.0000   1.0000   1.0000

          k = 0.0000-1.7321 0.5844 (  7448 PWs)   bands (ev):

   -13.0851 -12.1423 -12.0454 -11.9932 -11.9794 -11.3449  -2.0050  -1.3871
    -1.1674  -1.1307  -1.0785  -1.0349  -0.9906  -0.9747  -0.9252  -0.9005
    -0.8575  -0.8036  -0.7779  -0.7426  -0.7079  -0.6638  -0.6413  -0.5947
    -0.5563  -0.5147  -0.4780  -0.4613  -0.4024  -0.3719  -0.3399  -0.2977
    -0.2368  -0.2033  -0.1842  -0.1177   0.3483   0.5551   0.6643   1.0397
     1.1165   1.5076   2.0947   2.3534   2.4710   2.5389   2.6269   2.8688
     2.9630   3.0272   3.1201   3.3285   3.4177   3.5513

     occupation numbers 
     1.0000   1.0000   1.0000   1.0000   1.0000   1.0000   1.0000   1.0000
     1.0000   1.0000   1.0000   1.0000   1.0000   1.0000   1.0000   1.0000
     1.0000   1.0000   1.0000   1.0000   1.0000   1.0000   1.0000   1.0000
     1.0000   1.0000   1.0000   1.0000   1.0000   1.0000   1.0000   1.0000
     1.0000   1.0000   1.0000   1.0000   1.0000   1.0000   1.0000   1.0000
     1.0000   1.0000   1.0000   1.0000   1.0000   1.0000   1.0000   1.0000
     1.0000   1.0000   1.0000   1.0000   1.0000   1.0000

          k = 0.0000-1.7321-0.8766 (  7436 PWs)   bands (ev):

   -13.0844 -12.1346 -12.0507 -11.9925 -11.9796 -11.3459  -2.0073  -1.4064
    -1.1840  -1.1238  -1.0944  -1.0300  -1.0020  -0.9877  -0.9323  -0.9108
    -0.8632  -0.7891  -0.7680  -0.7458  -0.7285  -0.6704  -0.6566  -0.5882
    -0.5772  -0.5143  -0.4791  -0.4669  -0.4123  -0.3740  -0.3324  -0.2995
    -0.2289  -0.2110  -0.1836  -0.1193   0.3392   0.5225   0.6262   0.9916
     1.0903   1.4886   2.1885   2.4412   2.6126   2.6673   2.7558   2.8777
     2.9370   3.0793   3.2395   3.3109   3.3856   3.4311

     occupation numbers 
     1.0000   1.0000   1.0000   1.0000   1.0000   1.0000   1.0000   1.0000
     1.0000   1.0000   1.0000   1.0000   1.0000   1.0000   1.0000   1.0000
     1.0000   1.0000   1.0000   1.0000   1.0000   1.0000   1.0000   1.0000
     1.0000   1.0000   1.0000   1.0000   1.0000   1.0000   1.0000   1.0000
     1.0000   1.0000   1.0000   1.0000   1.0000   1.0000   1.0000   1.0000
     1.0000   1.0000   1.0000   1.0000   1.0000   1.0000   1.0000   1.0000
     1.0000   1.0000   1.0000   1.0000   1.0000   1.0000

          k = 0.1667 0.0962 0.0000 (  7502 PWs)   bands (ev):

   -13.3453 -12.4245 -12.2382 -12.0884 -11.9972 -11.4402  -1.7514  -1.4756
    -1.2032  -1.1886  -1.1298  -1.0839  -1.0553  -1.0249  -0.9955  -0.9555
    -0.9302  -0.9105  -0.8987  -0.7901  -0.7814  -0.7460  -0.7068  -0.6602
    -0.6125  -0.5940  -0.5433  -0.4678  -0.4530  -0.4260  -0.3946  -0.3414
    -0.2844  -0.2366  -0.1758  -0.1495   0.2883   0.7581   1.0826   1.2211
     1.7933   1.8641   2.2799   2.4894   2.8804   3.2614   3.3205   3.4689
     3.5907   3.6173   3.7282   3.8065   3.9736   4.1845

     occupation numbers 
     1.0000   1.0000   1.0000   1.0000   1.0000   1.0000   1.0000   1.0000
     1.0000   1.0000   1.0000   1.0000   1.0000   1.0000   1.0000   1.0000
     1.0000   1.0000   1.0000   1.0000   1.0000   1.0000   1.0000   1.0000
     1.0000   1.0000   1.0000   1.0000   1.0000   1.0000   1.0000   1.0000
     1.0000   1.0000   1.0000   1.0000   1.0000   1.0000   1.0000   1.0000
     1.0000   1.0000   1.0000   1.0000   1.0000   1.0000   1.0000   1.0000
     1.0000   1.0000   1.0000   1.0000   1.0000   1.0000

          k = 0.1667 0.0962 0.2922 (  7482 PWs)   bands (ev):

   -13.3432 -12.4062 -12.2289 -12.1054 -12.0089 -11.4424  -1.7512  -1.4822
    -1.2153  -1.1952  -1.1404  -1.0894  -1.0521  -1.0244  -0.9976  -0.9821
    -0.9445  -0.9175  -0.8971  -0.8166  -0.7882  -0.7775  -0.7100  -0.6684
    -0.6188  -0.5971  -0.5341  -0.4932  -0.4645  -0.4284  -0.4010  -0.3696
    -0.2791  -0.2536  -0.2040  -0.1561   0.5071   0.8804   1.0246   1.3008
     1.8273   1.9298   2.3147   2.5092   2.9283   3.0754   3.2652   3.3530
     3.5542   3.6202   3.6661   3.7998   3.9475   4.1774

     occupation numbers 
     1.0000   1.0000   1.0000   1.0000   1.0000   1.0000   1.0000   1.0000
     1.0000   1.0000   1.0000   1.0000   1.0000   1.0000   1.0000   1.0000
     1.0000   1.0000   1.0000   1.0000   1.0000   1.0000   1.0000   1.0000
     1.0000   1.0000   1.0000   1.0000   1.0000   1.0000   1.0000   1.0000
     1.0000   1.0000   1.0000   1.0000   1.0000   1.0000   1.0000   1.0000
     1.0000   1.0000   1.0000   1.0000   1.0000   1.0000   1.0000   1.0000
     1.0000   1.0000   1.0000   1.0000   1.0000   1.0000

          k = 0.1667 0.0962 0.5844 (  7451 PWs)   bands (ev):

   -13.3389 -12.3565 -12.2238 -12.1315 -12.0399 -11.4469  -1.7510  -1.4965
    -1.2405  -1.2011  -1.1622  -1.1026  -1.0816  -1.0506  -1.0143  -1.0050
    -0.9533  -0.9432  -0.9016  -0.8420  -0.8048  -0.7902  -0.7138  -0.6933
    -0.6280  -0.5996  -0.5532  -0.4928  -0.4775  -0.4502  -0.4258  -0.3766
    -0.2844  -0.2640  -0.2409  -0.1693   0.8674   1.0680   1.1579   1.3058
     1.7555   2.2361   2.4361   2.5072   2.6061   3.0279   3.1333   3.3681
     3.4334   3.5237   3.6836   3.7437   3.9224   4.1555

     occupation numbers 
     1.0000   1.0000   1.0000   1.0000   1.0000   1.0000   1.0000   1.0000
     1.0000   1.0000   1.0000   1.0000   1.0000   1.0000   1.0000   1.0000
     1.0000   1.0000   1.0000   1.0000   1.0000   1.0000   1.0000   1.0000
     1.0000   1.0000   1.0000   1.0000   1.0000   1.0000   1.0000   1.0000
     1.0000   1.0000   1.0000   1.0000   1.0000   1.0000   1.0000   1.0000
     1.0000   1.0000   1.0000   1.0000   1.0000   1.0000   1.0000   1.0000
     1.0000   1.0000   1.0000   1.0000   1.0000   1.0000

          k = 0.1667 0.0962-0.8766 (  7432 PWs)   bands (ev):

   -13.3368 -12.3084 -12.2547 -12.1248 -12.0651 -11.4491  -1.7509  -1.5041
    -1.2506  -1.1937  -1.1837  -1.1413  -1.0864  -1.0630  -1.0267  -1.0082
    -0.9534  -0.9432  -0.9046  -0.8555  -0.8048  -0.7787  -0.7388  -0.7024
    -0.6440  -0.5993  -0.5706  -0.4838  -0.4707  -0.4439  -0.4227  -0.3923
    -0.3123  -0.2603  -0.2411  -0.1769   0.9659   1.0707   1.4163   1.4490
     1.7202   1.9520   2.5504   2.5655   2.7525   2.9106   3.0958   3.2670
     3.3690   3.5272   3.6397   3.7732   3.8881   4.1426

     occupation numbers 
     1.0000   1.0000   1.0000   1.0000   1.0000   1.0000   1.0000   1.0000
     1.0000   1.0000   1.0000   1.0000   1.0000   1.0000   1.0000   1.0000
     1.0000   1.0000   1.0000   1.0000   1.0000   1.0000   1.0000   1.0000
     1.0000   1.0000   1.0000   1.0000   1.0000   1.0000   1.0000   1.0000
     1.0000   1.0000   1.0000   1.0000   1.0000   1.0000   1.0000   1.0000
     1.0000   1.0000   1.0000   1.0000   1.0000   1.0000   1.0000   1.0000
     1.0000   1.0000   1.0000   1.0000   1.0000   1.0000

          k = 0.1667 0.6736 0.0000 (  7465 PWs)   bands (ev):

   -13.2824 -12.3696 -12.1926 -12.0588 -11.9864 -11.4149  -1.8949  -1.2937
    -1.2146  -1.1518  -1.1280  -1.0618  -1.0333  -1.0036  -0.9817  -0.9346
    -0.9271  -0.8853  -0.8249  -0.8102  -0.7659  -0.7324  -0.6870  -0.6506
    -0.5897  -0.5705  -0.5190  -0.4861  -0.4334  -0.4072  -0.3706  -0.3306
    -0.2886  -0.2359  -0.1810  -0.1068   0.4783   0.7567   0.9241   1.3286
     1.7646   1.8227   2.1624   2.3430   2.4276   2.7570   2.8910   3.1560
     3.2696   3.3488   3.5759   3.7980   3.8327   3.9649

     occupation numbers 
     1.0000   1.0000   1.0000   1.0000   1.0000   1.0000   1.0000   1.0000
     1.0000   1.0000   1.0000   1.0000   1.0000   1.0000   1.0000   1.0000
     1.0000   1.0000   1.0000   1.0000   1.0000   1.0000   1.0000   1.0000
     1.0000   1.0000   1.0000   1.0000   1.0000   1.0000   1.0000   1.0000
     1.0000   1.0000   1.0000   1.0000   1.0000   1.0000   1.0000   1.0000
     1.0000   1.0000   1.0000   1.0000   1.0000   1.0000   1.0000   1.0000
     1.0000   1.0000   1.0000   1.0000   1.0000   1.0000

          k = 0.1667 0.6736 0.2922 (  7473 PWs)   bands (ev):

   -13.2806 -12.3523 -12.1862 -12.0730 -11.9963 -11.4168  -1.8990  -1.2918
    -1.2384  -1.1522  -1.1213  -1.0751  -1.0344  -0.9994  -0.9931  -0.9437
    -0.9303  -0.8912  -0.8485  -0.8220  -0.7989  -0.7515  -0.6945  -0.6658
    -0.6019  -0.5812  -0.5301  -0.4849  -0.4575  -0.4135  -0.3608  -0.3297
    -0.2845  -0.2460  -0.2136  -0.1255   0.6860   0.9074   0.9258   1.2565
     1.7312   1.9647   2.2001   2.3323   2.4493   2.7817   2.8280   3.1765
     3.2338   3.3812   3.5594   3.7129   3.8209   3.9422

     occupation numbers 
     1.0000   1.0000   1.0000   1.0000   1.0000   1.0000   1.0000   1.0000
     1.0000   1.0000   1.0000   1.0000   1.0000   1.0000   1.0000   1.0000
     1.0000   1.0000   1.0000   1.0000   1.0000   1.0000   1.0000   1.0000
     1.0000   1.0000   1.0000   1.0000   1.0000   1.0000   1.0000   1.0000
     1.0000   1.0000   1.0000   1.0000   1.0000   1.0000   1.0000   1.0000
     1.0000   1.0000   1.0000   1.0000   1.0000   1.0000   1.0000   1.0000
     1.0000   1.0000   1.0000   1.0000   1.0000   1.0000

          k = 0.1667 0.6736 0.5844 (  7459 PWs)   bands (ev):

   -13.2771 -12.3072 -12.1844 -12.0937 -12.0230 -11.4205  -1.9019  -1.2984
    -1.2693  -1.1752  -1.1204  -1.0867  -1.0560  -1.0219  -1.0073  -0.9602
    -0.9521  -0.9332  -0.8677  -0.8341  -0.8059  -0.7660  -0.7109  -0.6729
    -0.6361  -0.5967  -0.5399  -0.4866  -0.4681  -0.4280  -0.3601  -0.3292
    -0.3001  -0.2536  -0.2186  -0.1543   0.8168   1.0474   1.1918   1.3039
     1.6690   2.0031   2.1505   2.4687   2.5759   2.7886   2.8756   3.1411
     3.2422   3.3599   3.5174   3.5347   3.7869   3.8794

     occupation numbers 
     1.0000   1.0000   1.0000   1.0000   1.0000   1.0000   1.0000   1.0000
     1.0000   1.0000   1.0000   1.0000   1.0000   1.0000   1.0000   1.0000
     1.0000   1.0000   1.0000   1.0000   1.0000   1.0000   1.0000   1.0000
     1.0000   1.0000   1.0000   1.0000   1.0000   1.0000   1.0000   1.0000
     1.0000   1.0000   1.0000   1.0000   1.0000   1.0000   1.0000   1.0000
     1.0000   1.0000   1.0000   1.0000   1.0000   1.0000   1.0000   1.0000
     1.0000   1.0000   1.0000   1.0000   1.0000   1.0000

          k = 0.1667 0.6736-0.8766 (  7454 PWs)   bands (ev):

   -13.2754 -12.2685 -12.2064 -12.0883 -12.0454 -11.4222  -1.9007  -1.3190
    -1.2668  -1.1896  -1.1450  -1.0880  -1.0595  -1.0326  -1.0243  -0.9787
    -0.9590  -0.9367  -0.8622  -0.8334  -0.8133  -0.7648  -0.7235  -0.6739
    -0.6413  -0.6113  -0.5476  -0.4851  -0.4647  -0.4333  -0.3557  -0.3517
    -0.3023  -0.2449  -0.2081  -0.1746   0.8293   1.0058   1.3804   1.5238
     1.6059   1.9345   2.0367   2.5289   2.7792   2.8547   2.9366   3.1035
     3.1685   3.3057   3.3998   3.5887   3.7232   3.8497

     occupation numbers 
     1.0000   1.0000   1.0000   1.0000   1.0000   1.0000   1.0000   1.0000
     1.0000   1.0000   1.0000   1.0000   1.0000   1.0000   1.0000   1.0000
     1.0000   1.0000   1.0000   1.0000   1.0000   1.0000   1.0000   1.0000
     1.0000   1.0000   1.0000   1.0000   1.0000   1.0000   1.0000   1.0000
     1.0000   1.0000   1.0000   1.0000   1.0000   1.0000   1.0000   1.0000
     1.0000   1.0000   1.0000   1.0000   1.0000   1.0000   1.0000   1.0000
     1.0000   1.0000   1.0000   1.0000   1.0000   1.0000

          k = 0.1667 1.2509 0.0000 (  7438 PWs)   bands (ev):

   -13.1538 -12.2384 -12.0989 -12.0082 -11.9710 -11.3665  -1.9950  -1.2887
    -1.1731  -1.1300  -1.0963  -1.0300  -0.9785  -0.9537  -0.9387  -0.8946
    -0.8759  -0.8379  -0.7916  -0.7641  -0.6955  -0.6502  -0.6317  -0.6135
    -0.5904  -0.5448  -0.4851  -0.4379  -0.4002  -0.3735  -0.3324  -0.2998
    -0.2696  -0.2541  -0.1927  -0.0338   0.6796   0.8199   0.9497   1.1851
     1.2752   1.5041   1.6636   1.9497   2.2824   2.3454   2.5403   2.8071
     2.9139   3.1181   3.2623   3.5271   3.6487   3.7988

     occupation numbers 
     1.0000   1.0000   1.0000   1.0000   1.0000   1.0000   1.0000   1.0000
     1.0000   1.0000   1.0000   1.0000   1.0000   1.0000   1.0000   1.0000
     1.0000   1.0000   1.0000   1.0000   1.0000   1.0000   1.0000   1.0000
     1.0000   1.0000   1.0000   1.0000   1.0000   1.0000   1.0000   1.0000
     1.0000   1.0000   1.0000   1.0000   1.0000   1.0000   1.0000   1.0000
     1.0000   1.0000   1.0000   1.0000   1.0000   1.0000   1.0000   1.0000
     1.0000   1.0000   1.0000   1.0000   1.0000   1.0000

          k = 0.1667 1.2509 0.2922 (  7452 PWs)   bands (ev):

   -13.1527 -12.2262 -12.0986 -12.0151 -11.9751 -11.3679  -1.9990  -1.3120
    -1.1619  -1.1257  -1.1072  -1.0411  -0.9776  -0.9579  -0.9426  -0.9072
    -0.8775  -0.8339  -0.8103  -0.7764  -0.7204  -0.6732  -0.6489  -0.6182
    -0.5796  -0.5731  -0.4808  -0.4608  -0.3922  -0.3779  -0.3307  -0.3056
    -0.2703  -0.2572  -0.1913  -0.0579   0.6853   0.8280   0.9129   1.2107
     1.3069   1.5481   1.7537   2.0177   2.2579   2.4716   2.5731   2.8174
     2.9717   3.1562   3.2247   3.5184   3.6225   3.7725

     occupation numbers 
     1.0000   1.0000   1.0000   1.0000   1.0000   1.0000   1.0000   1.0000
     1.0000   1.0000   1.0000   1.0000   1.0000   1.0000   1.0000   1.0000
     1.0000   1.0000   1.0000   1.0000   1.0000   1.0000   1.0000   1.0000
     1.0000   1.0000   1.0000   1.0000   1.0000   1.0000   1.0000   1.0000
     1.0000   1.0000   1.0000   1.0000   1.0000   1.0000   1.0000   1.0000
     1.0000   1.0000   1.0000   1.0000   1.0000   1.0000   1.0000   1.0000
     1.0000   1.0000   1.0000   1.0000   1.0000   1.0000

          k = 0.1667 1.2509 0.5844 (  7435 PWs)   bands (ev):

   -13.1505 -12.1973 -12.1030 -12.0235 -11.9875 -11.3705  -2.0031  -1.3483
    -1.1668  -1.1434  -1.1067  -1.0599  -0.9931  -0.9750  -0.9587  -0.9187
    -0.8926  -0.8503  -0.8079  -0.7831  -0.7450  -0.7067  -0.6604  -0.6191
    -0.5961  -0.5742  -0.5086  -0.4628  -0.4247  -0.3976  -0.3463  -0.2954
    -0.2689  -0.2499  -0.1827  -0.0945   0.6361   0.7920   0.9555   1.1326
     1.4349   1.5888   1.7823   2.3003   2.4281   2.5616   2.7413   2.8545
     3.0702   3.1453   3.2637   3.4669   3.5199   3.6870

     occupation numbers 
     1.0000   1.0000   1.0000   1.0000   1.0000   1.0000   1.0000   1.0000
     1.0000   1.0000   1.0000   1.0000   1.0000   1.0000   1.0000   1.0000
     1.0000   1.0000   1.0000   1.0000   1.0000   1.0000   1.0000   1.0000
     1.0000   1.0000   1.0000   1.0000   1.0000   1.0000   1.0000   1.0000
     1.0000   1.0000   1.0000   1.0000   1.0000   1.0000   1.0000   1.0000
     1.0000   1.0000   1.0000   1.0000   1.0000   1.0000   1.0000   1.0000
     1.0000   1.0000   1.0000   1.0000   1.0000   1.0000

          k = 0.1667 1.2509-0.8766 (  7444 PWs)   bands (ev):

   -13.1496 -12.1785 -12.1108 -12.0227 -11.9976 -11.3717  -2.0030  -1.3649
    -1.1870  -1.1475  -1.1175  -1.0482  -1.0126  -0.9846  -0.9670  -0.9271
    -0.8989  -0.8463  -0.8109  -0.7882  -0.7543  -0.7099  -0.6662  -0.6163
    -0.6010  -0.5661  -0.5271  -0.4664  -0.4451  -0.4093  -0.3397  -0.2974
    -0.2768  -0.2442  -0.1682  -0.1136   0.5919   0.7599   1.0037   1.1218
     1.3982   1.6670   1.7606   2.3538   2.5897   2.7861   2.8108   2.9242
     3.0034   3.1856   3.2699   3.4138   3.4253   3.6337

     occupation numbers 
     1.0000   1.0000   1.0000   1.0000   1.0000   1.0000   1.0000   1.0000
     1.0000   1.0000   1.0000   1.0000   1.0000   1.0000   1.0000   1.0000
     1.0000   1.0000   1.0000   1.0000   1.0000   1.0000   1.0000   1.0000
     1.0000   1.0000   1.0000   1.0000   1.0000   1.0000   1.0000   1.0000
     1.0000   1.0000   1.0000   1.0000   1.0000   1.0000   1.0000   1.0000
     1.0000   1.0000   1.0000   1.0000   1.0000   1.0000   1.0000   1.0000
     1.0000   1.0000   1.0000   1.0000   1.0000   1.0000

          k = 0.1667-1.6358 0.0000 (  7429 PWs)   bands (ev):

   -13.0871 -12.1609 -12.0358 -11.9931 -11.9790 -11.3419  -1.9985  -1.3282
    -1.1557  -1.1113  -1.0647  -1.0004  -0.9620  -0.9370  -0.9131  -0.8933
    -0.8577  -0.8062  -0.7744  -0.7241  -0.6977  -0.6368  -0.6144  -0.5712
    -0.5313  -0.4867  -0.4648  -0.4527  -0.4023  -0.3685  -0.3334  -0.2887
    -0.2569  -0.2137  -0.1676  -0.1094   0.4234   0.6676   0.8588   1.1215
     1.2803   1.5546   1.7843   1.8597   2.1448   2.3360   2.4378   2.6314
     2.7817   2.9745   3.0632   3.4005   3.4550   3.6417

     occupation numbers 
     1.0000   1.0000   1.0000   1.0000   1.0000   1.0000   1.0000   1.0000
     1.0000   1.0000   1.0000   1.0000   1.0000   1.0000   1.0000   1.0000
     1.0000   1.0000   1.0000   1.0000   1.0000   1.0000   1.0000   1.0000
     1.0000   1.0000   1.0000   1.0000   1.0000   1.0000   1.0000   1.0000
     1.0000   1.0000   1.0000   1.0000   1.0000   1.0000   1.0000   1.0000
     1.0000   1.0000   1.0000   1.0000   1.0000   1.0000   1.0000   1.0000
     1.0000   1.0000   1.0000   1.0000   1.0000   1.0000

          k = 0.1667-1.6358 0.2922 (  7449 PWs)   bands (ev):

   -13.0864 -12.1552 -12.0382 -11.9935 -11.9791 -11.3429  -2.0007  -1.3469
    -1.1541  -1.1231  -1.0664  -1.0194  -0.9773  -0.9458  -0.9098  -0.8902
    -0.8560  -0.8150  -0.7764  -0.7275  -0.7068  -0.6457  -0.6069  -0.5932
    -0.5390  -0.5010  -0.4623  -0.4579  -0.4063  -0.3630  -0.3424  -0.2882
    -0.2499  -0.2083  -0.1719  -0.1141   0.3950   0.6065   0.7997   1.0901
     1.1975   1.5762   1.8870   2.0269   2.2147   2.4397   2.5031   2.6915
     2.8444   3.0194   3.0734   3.3688   3.4480   3.6257

     occupation numbers 
     1.0000   1.0000   1.0000   1.0000   1.0000   1.0000   1.0000   1.0000
     1.0000   1.0000   1.0000   1.0000   1.0000   1.0000   1.0000   1.0000
     1.0000   1.0000   1.0000   1.0000   1.0000   1.0000   1.0000   1.0000
     1.0000   1.0000   1.0000   1.0000   1.0000   1.0000   1.0000   1.0000
     1.0000   1.0000   1.0000   1.0000   1.0000   1.0000   1.0000   1.0000
     1.0000   1.0000   1.0000   1.0000   1.0000   1.0000   1.0000   1.0000
     1.0000   1.0000   1.0000   1.0000   1.0000   1.0000

          k = 0.1667-1.6358 0.5844 (  7449 PWs)   bands (ev):

   -13.0851 -12.1423 -12.0455 -11.9932 -11.9794 -11.3449  -2.0050  -1.3866
    -1.1662  -1.1293  -1.0824  -1.0382  -1.0005  -0.9665  -0.9157  -0.9009
    -0.8577  -0.8038  -0.7702  -0.7489  -0.7115  -0.6656  -0.6419  -0.5979
    -0.5526  -0.5189  -0.4749  -0.4611  -0.4076  -0.3722  -0.3380  -0.2941
    -0.2366  -0.2025  -0.1833  -0.1190   0.3598   0.5315   0.6909   1.0169
     1.1148   1.5288   2.0762   2.3433   2.4546   2.5648   2.6582   2.8578
     2.9576   3.0121   3.1425   3.2955   3.4228   3.5664

     occupation numbers 
     1.0000   1.0000   1.0000   1.0000   1.0000   1.0000   1.0000   1.0000
     1.0000   1.0000   1.0000   1.0000   1.0000   1.0000   1.0000   1.0000
     1.0000   1.0000   1.0000   1.0000   1.0000   1.0000   1.0000   1.0000
     1.0000   1.0000   1.0000   1.0000   1.0000   1.0000   1.0000   1.0000
     1.0000   1.0000   1.0000   1.0000   1.0000   1.0000   1.0000   1.0000
     1.0000   1.0000   1.0000   1.0000   1.0000   1.0000   1.0000   1.0000
     1.0000   1.0000   1.0000   1.0000   1.0000   1.0000

          k = 0.1667-1.6358-0.8766 (  7452 PWs)   bands (ev):

   -13.0844 -12.1346 -12.0507 -11.9926 -11.9796 -11.3459  -2.0073  -1.4070
    -1.1811  -1.1270  -1.0983  -1.0284  -1.0037  -0.9804  -0.9297  -0.9112
    -0.8590  -0.7952  -0.7697  -0.7533  -0.7215  -0.6759  -0.6588  -0.5836
    -0.5730  -0.5176  -0.4820  -0.4619  -0.4136  -0.3802  -0.3264  -0.3019
    -0.2290  -0.2111  -0.1838  -0.1199   0.3504   0.5086   0.6385   0.9855
     1.0882   1.4963   2.1639   2.4644   2.6190   2.6598   2.7514   2.8913
     2.9298   3.0840   3.2316   3.2824   3.3912   3.4521

     occupation numbers 
     1.0000   1.0000   1.0000   1.0000   1.0000   1.0000   1.0000   1.0000
     1.0000   1.0000   1.0000   1.0000   1.0000   1.0000   1.0000   1.0000
     1.0000   1.0000   1.0000   1.0000   1.0000   1.0000   1.0000   1.0000
     1.0000   1.0000   1.0000   1.0000   1.0000   1.0000   1.0000   1.0000
     1.0000   1.0000   1.0000   1.0000   1.0000   1.0000   1.0000   1.0000
     1.0000   1.0000   1.0000   1.0000   1.0000   1.0000   1.0000   1.0000
     1.0000   1.0000   1.0000   1.0000   1.0000   1.0000

          k = 0.1667-0.4811 0.0000 (  7461 PWs)   bands (ev):

   -13.2831 -12.3659 -12.1951 -12.0611 -11.9834 -11.4161  -1.8944  -1.2880
    -1.2061  -1.1406  -1.1156  -1.0712  -1.0355  -1.0140  -0.9816  -0.9391
    -0.9285  -0.9019  -0.8306  -0.7909  -0.7670  -0.7178  -0.6997  -0.6642
    -0.6285  -0.5674  -0.5491  -0.4544  -0.4399  -0.4027  -0.3760  -0.3362
    -0.3000  -0.2290  -0.1866  -0.1101   0.4097   0.9125   1.2069   1.3449
     1.5913   1.8148   1.9557   2.1612   2.5085   2.7339   3.0166   3.2328
     3.3030   3.4606   3.5480   3.6374   3.9257   3.9676

     occupation numbers 
     1.0000   1.0000   1.0000   1.0000   1.0000   1.0000   1.0000   1.0000
     1.0000   1.0000   1.0000   1.0000   1.0000   1.0000   1.0000   1.0000
     1.0000   1.0000   1.0000   1.0000   1.0000   1.0000   1.0000   1.0000
     1.0000   1.0000   1.0000   1.0000   1.0000   1.0000   1.0000   1.0000
     1.0000   1.0000   1.0000   1.0000   1.0000   1.0000   1.0000   1.0000
     1.0000   1.0000   1.0000   1.0000   1.0000   1.0000   1.0000   1.0000
     1.0000   1.0000   1.0000   1.0000   1.0000   1.0000

          k = 0.1667-0.4811 0.2922 (  7463 PWs)   bands (ev):

   -13.2814 -12.3495 -12.1887 -12.0739 -11.9937 -11.4179  -1.8932  -1.2985
    -1.2118  -1.1560  -1.1209  -1.0784  -1.0427  -1.0216  -0.9918  -0.9524
    -0.9277  -0.9146  -0.8402  -0.7896  -0.7696  -0.7420  -0.7175  -0.6585
    -0.6174  -0.5666  -0.5379  -0.5013  -0.4498  -0.4172  -0.3889  -0.3402
    -0.3009  -0.2389  -0.2053  -0.1291   0.5750   0.9163   1.2139   1.4132
     1.5761   1.9054   2.0844   2.1589   2.5428   2.7101   2.9422   3.1899
     3.2693   3.4752   3.5590   3.6391   3.8610   3.9492

     occupation numbers 
     1.0000   1.0000   1.0000   1.0000   1.0000   1.0000   1.0000   1.0000
     1.0000   1.0000   1.0000   1.0000   1.0000   1.0000   1.0000   1.0000
     1.0000   1.0000   1.0000   1.0000   1.0000   1.0000   1.0000   1.0000
     1.0000   1.0000   1.0000   1.0000   1.0000   1.0000   1.0000   1.0000
     1.0000   1.0000   1.0000   1.0000   1.0000   1.0000   1.0000   1.0000
     1.0000   1.0000   1.0000   1.0000   1.0000   1.0000   1.0000   1.0000
     1.0000   1.0000   1.0000   1.0000   1.0000   1.0000

          k = 0.1667-0.4811 0.5844 (  7477 PWs)   bands (ev):

   -13.2778 -12.3053 -12.1872 -12.0943 -12.0194 -11.4219  -1.8960  -1.3166
    -1.2321  -1.1787  -1.1286  -1.0875  -1.0503  -1.0415  -1.0039  -0.9837
    -0.9494  -0.9282  -0.8609  -0.8211  -0.7932  -0.7571  -0.7225  -0.6669
    -0.6164  -0.6039  -0.5458  -0.4971  -0.4649  -0.4407  -0.3864  -0.3541
    -0.3100  -0.2460  -0.2304  -0.1590   0.9011   1.0158   1.2620   1.4296
     1.5239   2.0041   2.1999   2.4307   2.5165   2.6645   2.9682   3.1025
     3.1829   3.4254   3.4999   3.6532   3.7650   3.8982

     occupation numbers 
     1.0000   1.0000   1.0000   1.0000   1.0000   1.0000   1.0000   1.0000
     1.0000   1.0000   1.0000   1.0000   1.0000   1.0000   1.0000   1.0000
     1.0000   1.0000   1.0000   1.0000   1.0000   1.0000   1.0000   1.0000
     1.0000   1.0000   1.0000   1.0000   1.0000   1.0000   1.0000   1.0000
     1.0000   1.0000   1.0000   1.0000   1.0000   1.0000   1.0000   1.0000
     1.0000   1.0000   1.0000   1.0000   1.0000   1.0000   1.0000   1.0000
     1.0000   1.0000   1.0000   1.0000   1.0000   1.0000

          k = 0.1667-0.4811-0.8766 (  7462 PWs)   bands (ev):

   -13.2759 -12.2639 -12.2121 -12.0916 -12.0389 -11.4239  -1.9002  -1.3191
    -1.2504  -1.1853  -1.1347  -1.0875  -1.0666  -1.0455  -1.0100  -0.9960
    -0.9717  -0.9414  -0.8666  -0.8338  -0.7857  -0.7581  -0.7310  -0.6742
    -0.6405  -0.6157  -0.5333  -0.5062  -0.4753  -0.4329  -0.3795  -0.3678
    -0.3173  -0.2468  -0.2317  -0.1756   1.0279   1.1906   1.2632   1.3822
     1.5773   1.9568   2.0976   2.5325   2.6759   2.8137   2.9365   3.0607
     3.1857   3.3014   3.3690   3.6824   3.7536   3.8523

     occupation numbers 
     1.0000   1.0000   1.0000   1.0000   1.0000   1.0000   1.0000   1.0000
     1.0000   1.0000   1.0000   1.0000   1.0000   1.0000   1.0000   1.0000
     1.0000   1.0000   1.0000   1.0000   1.0000   1.0000   1.0000   1.0000
     1.0000   1.0000   1.0000   1.0000   1.0000   1.0000   1.0000   1.0000
     1.0000   1.0000   1.0000   1.0000   1.0000   1.0000   1.0000   1.0000
     1.0000   1.0000   1.0000   1.0000   1.0000   1.0000   1.0000   1.0000
     1.0000   1.0000   1.0000   1.0000   1.0000   1.0000

          k = 0.3333 0.1925 0.0000 (  7494 PWs)   bands (ev):

   -13.3447 -12.4274 -12.2362 -12.0866 -11.9996 -11.4391  -1.7511  -1.4750
    -1.2035  -1.1866  -1.1210  -1.0926  -1.0506  -1.0240  -0.9987  -0.9565
    -0.9297  -0.9065  -0.8917  -0.8159  -0.7876  -0.7474  -0.7097  -0.6388
    -0.6146  -0.5978  -0.5168  -0.4710  -0.4400  -0.4218  -0.3864  -0.3396
    -0.2845  -0.2418  -0.1702  -0.1488   0.3125   0.6428   0.8782   1.2784
     1.7619   2.1996   2.4248   2.5764   2.9282   3.1117   3.2256   3.2981
     3.4214   3.5851   3.7054   3.8131   3.9805   4.1699

     occupation numbers 
     1.0000   1.0000   1.0000   1.0000   1.0000   1.0000   1.0000   1.0000
     1.0000   1.0000   1.0000   1.0000   1.0000   1.0000   1.0000   1.0000
     1.0000   1.0000   1.0000   1.0000   1.0000   1.0000   1.0000   1.0000
     1.0000   1.0000   1.0000   1.0000   1.0000   1.0000   1.0000   1.0000
     1.0000   1.0000   1.0000   1.0000   1.0000   1.0000   1.0000   1.0000
     1.0000   1.0000   1.0000   1.0000   1.0000   1.0000   1.0000   1.0000
     1.0000   1.0000   1.0000   1.0000   1.0000   1.0000

          k = 0.3333 0.1925 0.2922 (  7478 PWs)   bands (ev):

   -13.3426 -12.4088 -12.2271 -12.1036 -12.0115 -11.4413  -1.7510  -1.4816
    -1.2163  -1.1925  -1.1356  -1.0913  -1.0531  -1.0223  -1.0032  -0.9772
    -0.9439  -0.9185  -0.8931  -0.8224  -0.8040  -0.7815  -0.7154  -0.6474
    -0.6242  -0.5942  -0.5202  -0.4799  -0.4604  -0.4295  -0.4004  -0.3505
    -0.2789  -0.2566  -0.2081  -0.1560   0.5286   0.8146   0.8608   1.2348
     1.9255   2.1674   2.4358   2.6034   2.9016   3.0012   3.1623   3.3202
     3.4375   3.5571   3.6876   3.7847   3.8965   4.1607

     occupation numbers 
     1.0000   1.0000   1.0000   1.0000   1.0000   1.0000   1.0000   1.0000
     1.0000   1.0000   1.0000   1.0000   1.0000   1.0000   1.0000   1.0000
     1.0000   1.0000   1.0000   1.0000   1.0000   1.0000   1.0000   1.0000
     1.0000   1.0000   1.0000   1.0000   1.0000   1.0000   1.0000   1.0000
     1.0000   1.0000   1.0000   1.0000   1.0000   1.0000   1.0000   1.0000
     1.0000   1.0000   1.0000   1.0000   1.0000   1.0000   1.0000   1.0000
     1.0000   1.0000   1.0000   1.0000   1.0000   1.0000

          k = 0.3333 0.1925 0.5844 (  7454 PWs)   bands (ev):

   -13.3385 -12.3588 -12.2216 -12.1298 -12.0433 -11.4455  -1.7509  -1.4959
    -1.2418  -1.1992  -1.1604  -1.0994  -1.0806  -1.0528  -1.0225  -0.9988
    -0.9524  -0.9388  -0.9039  -0.8591  -0.8096  -0.7938  -0.7170  -0.6901
    -0.6294  -0.5985  -0.5439  -0.4867  -0.4615  -0.4307  -0.4140  -0.3696
    -0.2877  -0.2644  -0.2385  -0.1692   0.7503   1.0297   1.0892   1.2864
     1.9787   2.2607   2.4423   2.5158   2.7189   3.0712   3.1055   3.3455
     3.4506   3.5102   3.5293   3.7331   3.8216   4.1374

     occupation numbers 
     1.0000   1.0000   1.0000   1.0000   1.0000   1.0000   1.0000   1.0000
     1.0000   1.0000   1.0000   1.0000   1.0000   1.0000   1.0000   1.0000
     1.0000   1.0000   1.0000   1.0000   1.0000   1.0000   1.0000   1.0000
     1.0000   1.0000   1.0000   1.0000   1.0000   1.0000   1.0000   1.0000
     1.0000   1.0000   1.0000   1.0000   1.0000   1.0000   1.0000   1.0000
     1.0000   1.0000   1.0000   1.0000   1.0000   1.0000   1.0000   1.0000
     1.0000   1.0000   1.0000   1.0000   1.0000   1.0000

          k = 0.3333 0.1925-0.8766 (  7464 PWs)   bands (ev):

   -13.3364 -12.3122 -12.2504 -12.1221 -12.0701 -11.4476  -1.7508  -1.5037
    -1.2522  -1.1932  -1.1821  -1.1378  -1.0760  -1.0709  -1.0393  -1.0038
    -0.9482  -0.9352  -0.9110  -0.8794  -0.8119  -0.7771  -0.7349  -0.7134
    -0.6382  -0.6015  -0.5529  -0.4822  -0.4512  -0.4282  -0.4138  -0.3735
    -0.3176  -0.2605  -0.2376  -0.1768   0.8016   0.9394   1.5023   1.5805
     1.7172   1.9877   2.5393   2.6165   2.8125   2.9727   3.1364   3.2643
     3.3709   3.5000   3.5886   3.6766   3.7782   4.1239

     occupation numbers 
     1.0000   1.0000   1.0000   1.0000   1.0000   1.0000   1.0000   1.0000
     1.0000   1.0000   1.0000   1.0000   1.0000   1.0000   1.0000   1.0000
     1.0000   1.0000   1.0000   1.0000   1.0000   1.0000   1.0000   1.0000
     1.0000   1.0000   1.0000   1.0000   1.0000   1.0000   1.0000   1.0000
     1.0000   1.0000   1.0000   1.0000   1.0000   1.0000   1.0000   1.0000
     1.0000   1.0000   1.0000   1.0000   1.0000   1.0000   1.0000   1.0000
     1.0000   1.0000   1.0000   1.0000   1.0000   1.0000

          k = 0.3333 1.3472 0.0000 (  7451 PWs)   bands (ev):

   -13.1539 -12.2380 -12.0993 -12.0087 -11.9703 -11.3667  -1.9942  -1.2797
    -1.1731  -1.1203  -1.0876  -1.0213  -0.9699  -0.9632  -0.9414  -0.9032
    -0.8759  -0.8584  -0.7951  -0.7740  -0.7026  -0.6440  -0.6227  -0.6141
    -0.5877  -0.5706  -0.4830  -0.4355  -0.4089  -0.3696  -0.3336  -0.2895
    -0.2693  -0.2460  -0.2119  -0.0335   0.6693   0.7707   0.9061   1.2062
     1.3225   1.5816   1.8400   1.9829   2.2033   2.2859   2.4803   2.8448
     2.9518   3.1418   3.2312   3.4015   3.6639   3.7587

     occupation numbers 
     1.0000   1.0000   1.0000   1.0000   1.0000   1.0000   1.0000   1.0000
     1.0000   1.0000   1.0000   1.0000   1.0000   1.0000   1.0000   1.0000
     1.0000   1.0000   1.0000   1.0000   1.0000   1.0000   1.0000   1.0000
     1.0000   1.0000   1.0000   1.0000   1.0000   1.0000   1.0000   1.0000
     1.0000   1.0000   1.0000   1.0000   1.0000   1.0000   1.0000   1.0000
     1.0000   1.0000   1.0000   1.0000   1.0000   1.0000   1.0000   1.0000
     1.0000   1.0000   1.0000   1.0000   1.0000   1.0000

          k = 0.3333 1.3472 0.2922 (  7447 PWs)   bands (ev):

   -13.1528 -12.2258 -12.0990 -12.0155 -11.9743 -11.3681  -1.9982  -1.3022
    -1.1616  -1.1186  -1.1022  -1.0281  -0.9794  -0.9592  -0.9445  -0.9167
    -0.8827  -0.8433  -0.8191  -0.7848  -0.7277  -0.6704  -0.6457  -0.6092
    -0.5935  -0.5727  -0.4853  -0.4545  -0.3984  -0.3745  -0.3271  -0.3040
    -0.2641  -0.2516  -0.2135  -0.0592   0.6476   0.8096   0.8992   1.1947
     1.3600   1.6387   1.8493   2.1009   2.2352   2.3772   2.5343   2.8491
     3.0051   3.1385   3.2154   3.3997   3.6313   3.7326

     occupation numbers 
     1.0000   1.0000   1.0000   1.0000   1.0000   1.0000   1.0000   1.0000
     1.0000   1.0000   1.0000   1.0000   1.0000   1.0000   1.0000   1.0000
     1.0000   1.0000   1.0000   1.0000   1.0000   1.0000   1.0000   1.0000
     1.0000   1.0000   1.0000   1.0000   1.0000   1.0000   1.0000   1.0000
     1.0000   1.0000   1.0000   1.0000   1.0000   1.0000   1.0000   1.0000
     1.0000   1.0000   1.0000   1.0000   1.0000   1.0000   1.0000   1.0000
     1.0000   1.0000   1.0000   1.0000   1.0000   1.0000

          k = 0.3333 1.3472 0.5844 (  7453 PWs)   bands (ev):

   -13.1506 -12.1970 -12.1038 -12.0238 -11.9865 -11.3707  -2.0023  -1.3403
    -1.1592  -1.1426  -1.1015  -1.0546  -0.9895  -0.9788  -0.9626  -0.9304
    -0.9014  -0.8480  -0.8261  -0.7773  -0.7437  -0.7063  -0.6721  -0.6261
    -0.5901  -0.5600  -0.5219  -0.4604  -0.4252  -0.3827  -0.3447  -0.2990
    -0.2686  -0.2457  -0.2002  -0.1012   0.5779   0.7950   0.9863   1.1147
     1.3900   1.7308   1.8603   2.3227   2.4669   2.5710   2.7202   2.8230
     3.0503   3.1316   3.2440   3.3773   3.5326   3.6330

     occupation numbers 
     1.0000   1.0000   1.0000   1.0000   1.0000   1.0000   1.0000   1.0000
     1.0000   1.0000   1.0000   1.0000   1.0000   1.0000   1.0000   1.0000
     1.0000   1.0000   1.0000   1.0000   1.0000   1.0000   1.0000   1.0000
     1.0000   1.0000   1.0000   1.0000   1.0000   1.0000   1.0000   1.0000
     1.0000   1.0000   1.0000   1.0000   1.0000   1.0000   1.0000   1.0000
     1.0000   1.0000   1.0000   1.0000   1.0000   1.0000   1.0000   1.0000
     1.0000   1.0000   1.0000   1.0000   1.0000   1.0000

          k = 0.3333 1.3472-0.8766 (  7438 PWs)   bands (ev):

   -13.1496 -12.1780 -12.1119 -12.0231 -11.9962 -11.3719  -2.0023  -1.3592
    -1.1798  -1.1454  -1.1054  -1.0475  -1.0132  -0.9897  -0.9669  -0.9399
    -0.9033  -0.8505  -0.8259  -0.7896  -0.7419  -0.7103  -0.6720  -0.6324
    -0.5807  -0.5675  -0.5415  -0.4630  -0.4353  -0.3944  -0.3423  -0.3001
    -0.2760  -0.2457  -0.1698  -0.1325   0.5370   0.7725   1.0034   1.1490
     1.3300   1.7198   1.9359   2.4620   2.5097   2.7531   2.8432   2.8974
     3.0150   3.1824   3.2273   3.3277   3.4241   3.5767

     occupation numbers 
     1.0000   1.0000   1.0000   1.0000   1.0000   1.0000   1.0000   1.0000
     1.0000   1.0000   1.0000   1.0000   1.0000   1.0000   1.0000   1.0000
     1.0000   1.0000   1.0000   1.0000   1.0000   1.0000   1.0000   1.0000
     1.0000   1.0000   1.0000   1.0000   1.0000   1.0000   1.0000   1.0000
     1.0000   1.0000   1.0000   1.0000   1.0000   1.0000   1.0000   1.0000
     1.0000   1.0000   1.0000   1.0000   1.0000   1.0000   1.0000   1.0000
     1.0000   1.0000   1.0000   1.0000   1.0000   1.0000

          k =-0.5000-0.2887 0.0000 (  7442 PWs)   bands (ev):

   -13.3444 -12.4289 -12.2351 -12.0857 -12.0008 -11.4386  -1.7509  -1.4746
    -1.2036  -1.1852  -1.1165  -1.0963  -1.0493  -1.0223  -1.0004  -0.9576
    -0.9317  -0.8987  -0.8871  -0.8347  -0.7866  -0.7484  -0.7085  -0.6245
    -0.6215  -0.6000  -0.5068  -0.4725  -0.4344  -0.4142  -0.3837  -0.3371
    -0.2848  -0.2435  -0.1689  -0.1483   0.3307   0.5892   0.7990   1.2923
     1.7513   2.3859   2.5299   2.7021   2.8111   3.0104   3.1361   3.2833
     3.3165   3.5764   3.7231   3.8163   3.9843   4.1619

     occupation numbers 
     1.0000   1.0000   1.0000   1.0000   1.0000   1.0000   1.0000   1.0000
     1.0000   1.0000   1.0000   1.0000   1.0000   1.0000   1.0000   1.0000
     1.0000   1.0000   1.0000   1.0000   1.0000   1.0000   1.0000   1.0000
     1.0000   1.0000   1.0000   1.0000   1.0000   1.0000   1.0000   1.0000
     1.0000   1.0000   1.0000   1.0000   1.0000   1.0000   1.0000   1.0000
     1.0000   1.0000   1.0000   1.0000   1.0000   1.0000   1.0000   1.0000
     1.0000   1.0000   1.0000   1.0000   1.0000   1.0000

          k =-0.5000-0.2887 0.2922 (  7464 PWs)   bands (ev):

   -13.3424 -12.4097 -12.2272 -12.1017 -12.0132 -11.4407  -1.7509  -1.4813
    -1.2171  -1.1900  -1.1325  -1.0909  -1.0570  -1.0247  -1.0091  -0.9668
    -0.9397  -0.9110  -0.8949  -0.8449  -0.8030  -0.7759  -0.7156  -0.6394
    -0.6308  -0.5943  -0.5234  -0.4772  -0.4526  -0.4281  -0.3850  -0.3515
    -0.2817  -0.2504  -0.2106  -0.1559   0.5341   0.7396   0.8392   1.2214
     1.9358   2.4110   2.4878   2.6279   2.7105   3.0361   3.1368   3.3016
     3.3502   3.5442   3.7119   3.7618   3.8925   4.1502

     occupation numbers 
     1.0000   1.0000   1.0000   1.0000   1.0000   1.0000   1.0000   1.0000
     1.0000   1.0000   1.0000   1.0000   1.0000   1.0000   1.0000   1.0000
     1.0000   1.0000   1.0000   1.0000   1.0000   1.0000   1.0000   1.0000
     1.0000   1.0000   1.0000   1.0000   1.0000   1.0000   1.0000   1.0000
     1.0000   1.0000   1.0000   1.0000   1.0000   1.0000   1.0000   1.0000
     1.0000   1.0000   1.0000   1.0000   1.0000   1.0000   1.0000   1.0000
     1.0000   1.0000   1.0000   1.0000   1.0000   1.0000

          k =-0.5000-0.2887 0.5844 (  7474 PWs)   bands (ev):

   -13.3383 -12.3592 -12.2226 -12.1269 -12.0457 -11.4448  -1.7509  -1.4956
    -1.2422  -1.1980  -1.1590  -1.0980  -1.0808  -1.0493  -1.0350  -0.9917
    -0.9466  -0.9294  -0.9109  -0.8783  -0.8140  -0.7852  -0.7179  -0.6941
    -0.6352  -0.5981  -0.5449  -0.4842  -0.4499  -0.4264  -0.3857  -0.3691
    -0.2992  -0.2632  -0.2338  -0.1692   0.6886   0.9658   1.0933   1.3227
     2.0859   2.2595   2.4367   2.5090   2.7628   3.0908   3.1367   3.3288
     3.3860   3.4600   3.5427   3.7133   3.7908   4.1267

     occupation numbers 
     1.0000   1.0000   1.0000   1.0000   1.0000   1.0000   1.0000   1.0000
     1.0000   1.0000   1.0000   1.0000   1.0000   1.0000   1.0000   1.0000
     1.0000   1.0000   1.0000   1.0000   1.0000   1.0000   1.0000   1.0000
     1.0000   1.0000   1.0000   1.0000   1.0000   1.0000   1.0000   1.0000
     1.0000   1.0000   1.0000   1.0000   1.0000   1.0000   1.0000   1.0000
     1.0000   1.0000   1.0000   1.0000   1.0000   1.0000   1.0000   1.0000
     1.0000   1.0000   1.0000   1.0000   1.0000   1.0000

          k =-0.5000-0.2887-0.8766 (  7460 PWs)   bands (ev):

   -13.3362 -12.3140 -12.2482 -12.1208 -12.0726 -11.4469  -1.7508  -1.5034
    -1.2530  -1.1928  -1.1811  -1.1365  -1.0764  -1.0638  -1.0497  -1.0011
    -0.9455  -0.9310  -0.9153  -0.8915  -0.8148  -0.7759  -0.7333  -0.7178
    -0.6355  -0.6022  -0.5468  -0.4817  -0.4454  -0.4255  -0.4033  -0.3545
    -0.3232  -0.2608  -0.2354  -0.1768   0.7346   0.8884   1.5290   1.6385
     1.7064   2.0015   2.5312   2.6445   2.8636   3.0221   3.1601   3.2541
     3.4066   3.4284   3.5097   3.6654   3.7366   4.1144

     occupation numbers 
     1.0000   1.0000   1.0000   1.0000   1.0000   1.0000   1.0000   1.0000
     1.0000   1.0000   1.0000   1.0000   1.0000   1.0000   1.0000   1.0000
     1.0000   1.0000   1.0000   1.0000   1.0000   1.0000   1.0000   1.0000
     1.0000   1.0000   1.0000   1.0000   1.0000   1.0000   1.0000   1.0000
     1.0000   1.0000   1.0000   1.0000   1.0000   1.0000   1.0000   1.0000
     1.0000   1.0000   1.0000   1.0000   1.0000   1.0000   1.0000   1.0000
     1.0000   1.0000   1.0000   1.0000   1.0000   1.0000

          k =-0.5000 0.8660 0.0000 (  7453 PWs)   bands (ev):

   -13.1540 -12.2378 -12.0994 -12.0089 -11.9700 -11.3668  -1.9940  -1.2725
    -1.1727  -1.1206  -1.0839  -1.0144  -0.9781  -0.9506  -0.9381  -0.9097
    -0.8890  -0.8565  -0.7996  -0.7761  -0.7157  -0.6495  -0.6307  -0.6029
    -0.5828  -0.5705  -0.4828  -0.4342  -0.4115  -0.3675  -0.3342  -0.2924
    -0.2731  -0.2451  -0.2104  -0.0332   0.6565   0.7556   0.8979   1.1893
     1.3934   1.6005   1.9086   2.0376   2.1386   2.2349   2.4547   2.9400
     2.9957   3.0627   3.2445   3.2953   3.6730   3.7487

     occupation numbers 
     1.0000   1.0000   1.0000   1.0000   1.0000   1.0000   1.0000   1.0000
     1.0000   1.0000   1.0000   1.0000   1.0000   1.0000   1.0000   1.0000
     1.0000   1.0000   1.0000   1.0000   1.0000   1.0000   1.0000   1.0000
     1.0000   1.0000   1.0000   1.0000   1.0000   1.0000   1.0000   1.0000
     1.0000   1.0000   1.0000   1.0000   1.0000   1.0000   1.0000   1.0000
     1.0000   1.0000   1.0000   1.0000   1.0000   1.0000   1.0000   1.0000
     1.0000   1.0000   1.0000   1.0000   1.0000   1.0000

          k =-0.5000 0.8660 0.2922 (  7462 PWs)   bands (ev):

   -13.1528 -12.2257 -12.0990 -12.0158 -11.9739 -11.3682  -1.9980  -1.2953
    -1.1632  -1.1211  -1.0964  -1.0256  -0.9842  -0.9456  -0.9402  -0.9213
    -0.8911  -0.8469  -0.8202  -0.7822  -0.7391  -0.6718  -0.6512  -0.6214
    -0.5884  -0.5628  -0.4929  -0.4422  -0.4060  -0.3730  -0.3324  -0.3031
    -0.2616  -0.2388  -0.2305  -0.0584   0.6147   0.7966   0.9261   1.2000
     1.3758   1.6597   1.9277   2.0898   2.2718   2.3067   2.5053   2.9521
     3.0155   3.0680   3.2331   3.3033   3.6367   3.7215

     occupation numbers 
     1.0000   1.0000   1.0000   1.0000   1.0000   1.0000   1.0000   1.0000
     1.0000   1.0000   1.0000   1.0000   1.0000   1.0000   1.0000   1.0000
     1.0000   1.0000   1.0000   1.0000   1.0000   1.0000   1.0000   1.0000
     1.0000   1.0000   1.0000   1.0000   1.0000   1.0000   1.0000   1.0000
     1.0000   1.0000   1.0000   1.0000   1.0000   1.0000   1.0000   1.0000
     1.0000   1.0000   1.0000   1.0000   1.0000   1.0000   1.0000   1.0000
     1.0000   1.0000   1.0000   1.0000   1.0000   1.0000

          k =-0.5000 0.8660 0.5844 (  7448 PWs)   bands (ev):

   -13.1507 -12.1970 -12.1040 -12.0241 -11.9859 -11.3708  -2.0022  -1.3363
    -1.1592  -1.1397  -1.0960  -1.0581  -0.9948  -0.9707  -0.9569  -0.9283
    -0.9065  -0.8513  -0.8332  -0.7636  -0.7507  -0.7081  -0.6836  -0.6445
    -0.5788  -0.5559  -0.5270  -0.4568  -0.4279  -0.3779  -0.3421  -0.3033
    -0.2669  -0.2428  -0.2105  -0.1006   0.5457   0.7969   1.0237   1.1267
     1.3447   1.7570   1.9798   2.2347   2.4656   2.6308   2.6974   2.8817
     3.0162   3.1272   3.1976   3.3406   3.5365   3.6112

     occupation numbers 
     1.0000   1.0000   1.0000   1.0000   1.0000   1.0000   1.0000   1.0000
     1.0000   1.0000   1.0000   1.0000   1.0000   1.0000   1.0000   1.0000
     1.0000   1.0000   1.0000   1.0000   1.0000   1.0000   1.0000   1.0000
     1.0000   1.0000   1.0000   1.0000   1.0000   1.0000   1.0000   1.0000
     1.0000   1.0000   1.0000   1.0000   1.0000   1.0000   1.0000   1.0000
     1.0000   1.0000   1.0000   1.0000   1.0000   1.0000   1.0000   1.0000
     1.0000   1.0000   1.0000   1.0000   1.0000   1.0000

          k =-0.5000 0.8660-0.8766 (  7456 PWs)   bands (ev):

   -13.1497 -12.1778 -12.1126 -12.0232 -11.9955 -11.3720  -2.0022  -1.3570
    -1.1759  -1.1410  -1.1017  -1.0455  -1.0139  -0.9913  -0.9742  -0.9352
    -0.8998  -0.8519  -0.8356  -0.7810  -0.7469  -0.7085  -0.6822  -0.6509
    -0.5825  -0.5659  -0.5372  -0.4610  -0.4321  -0.3872  -0.3439  -0.3036
    -0.2817  -0.2405  -0.1710  -0.1373   0.5160   0.7838   1.0107   1.1663
     1.3006   1.7307   2.0364   2.4106   2.5441   2.7967   2.8194   2.8877
     3.0450   3.1112   3.2256   3.2934   3.4297   3.5458

     occupation numbers 
     1.0000   1.0000   1.0000   1.0000   1.0000   1.0000   1.0000   1.0000
     1.0000   1.0000   1.0000   1.0000   1.0000   1.0000   1.0000   1.0000
     1.0000   1.0000   1.0000   1.0000   1.0000   1.0000   1.0000   1.0000
     1.0000   1.0000   1.0000   1.0000   1.0000   1.0000   1.0000   1.0000
     1.0000   1.0000   1.0000   1.0000   1.0000   1.0000   1.0000   1.0000
     1.0000   1.0000   1.0000   1.0000   1.0000   1.0000   1.0000   1.0000
     1.0000   1.0000   1.0000   1.0000   1.0000   1.0000

          k = 0.5000-0.2887 0.0000 (  7456 PWs)   bands (ev):

   -13.2827 -12.3677 -12.1940 -12.0599 -11.9849 -11.4154  -1.8946  -1.2922
    -1.2152  -1.1473  -1.1104  -1.0611  -1.0416  -0.9995  -0.9943  -0.9385
    -0.9238  -0.8948  -0.8303  -0.7857  -0.7658  -0.7344  -0.6886  -0.6556
    -0.6239  -0.5686  -0.5476  -0.4559  -0.4366  -0.3973  -0.3754  -0.3286
    -0.2990  -0.2370  -0.1827  -0.1086   0.4392   0.8377   1.0665   1.2950
     1.6573   1.8826   2.0839   2.2048   2.5550   2.6938   2.9382   3.1418
     3.3289   3.4351   3.5687   3.6346   3.9049   4.0017

     occupation numbers 
     1.0000   1.0000   1.0000   1.0000   1.0000   1.0000   1.0000   1.0000
     1.0000   1.0000   1.0000   1.0000   1.0000   1.0000   1.0000   1.0000
     1.0000   1.0000   1.0000   1.0000   1.0000   1.0000   1.0000   1.0000
     1.0000   1.0000   1.0000   1.0000   1.0000   1.0000   1.0000   1.0000
     1.0000   1.0000   1.0000   1.0000   1.0000   1.0000   1.0000   1.0000
     1.0000   1.0000   1.0000   1.0000   1.0000   1.0000   1.0000   1.0000
     1.0000   1.0000   1.0000   1.0000   1.0000   1.0000

          k = 0.0000-0.5774 0.2922 (  7469 PWs)   bands (ev):

   -13.2810 -12.3510 -12.1880 -12.0722 -11.9955 -11.4173  -1.8934  -1.3000
    -1.2162  -1.1594  -1.1316  -1.0741  -1.0413  -1.0191  -0.9865  -0.9488
    -0.9307  -0.9092  -0.8256  -0.8023  -0.7694  -0.7505  -0.7153  -0.6447
    -0.6106  -0.5672  -0.5386  -0.4972  -0.4509  -0.4171  -0.3894  -0.3356
    -0.3019  -0.2394  -0.1926  -0.1298   0.5935   0.8626   1.1012   1.3440
     1.7103   1.9113   2.1251   2.2049   2.5310   2.8077   2.8629   3.1468
     3.2523   3.4485   3.5505   3.6885   3.8657   3.9177

     occupation numbers 
     1.0000   1.0000   1.0000   1.0000   1.0000   1.0000   1.0000   1.0000
     1.0000   1.0000   1.0000   1.0000   1.0000   1.0000   1.0000   1.0000
     1.0000   1.0000   1.0000   1.0000   1.0000   1.0000   1.0000   1.0000
     1.0000   1.0000   1.0000   1.0000   1.0000   1.0000   1.0000   1.0000
     1.0000   1.0000   1.0000   1.0000   1.0000   1.0000   1.0000   1.0000
     1.0000   1.0000   1.0000   1.0000   1.0000   1.0000   1.0000   1.0000
     1.0000   1.0000   1.0000   1.0000   1.0000   1.0000

          k = 0.5000-0.2887-0.2922 (  7469 PWs)   bands (ev):

   -13.2809 -12.3500 -12.1889 -12.0728 -11.9952 -11.4174  -1.8986  -1.2898
    -1.2373  -1.1502  -1.1002  -1.0744  -1.0437  -1.0097  -0.9924  -0.9470
    -0.9269  -0.8864  -0.8682  -0.8218  -0.7842  -0.7497  -0.6989  -0.6647
    -0.6388  -0.5820  -0.5393  -0.4667  -0.4364  -0.4244  -0.3730  -0.3276
    -0.3054  -0.2499  -0.1987  -0.1248   0.6512   0.8998   1.1133   1.2870
     1.6099   1.9709   2.1630   2.2956   2.5741   2.6487   2.8276   3.1205
     3.3430   3.4474   3.5148   3.6252   3.8559   3.9879

     occupation numbers 
     1.0000   1.0000   1.0000   1.0000   1.0000   1.0000   1.0000   1.0000
     1.0000   1.0000   1.0000   1.0000   1.0000   1.0000   1.0000   1.0000
     1.0000   1.0000   1.0000   1.0000   1.0000   1.0000   1.0000   1.0000
     1.0000   1.0000   1.0000   1.0000   1.0000   1.0000   1.0000   1.0000
     1.0000   1.0000   1.0000   1.0000   1.0000   1.0000   1.0000   1.0000
     1.0000   1.0000   1.0000   1.0000   1.0000   1.0000   1.0000   1.0000
     1.0000   1.0000   1.0000   1.0000   1.0000   1.0000

          k =-0.5000 0.2887-0.2922 (  7469 PWs)   bands (ev):

   -13.2810 -12.3515 -12.1863 -12.0740 -11.9949 -11.4173  -1.8933  -1.3008
    -1.2258  -1.1574  -1.1253  -1.0688  -1.0392  -1.0110  -0.9913  -0.9667
    -0.9249  -0.9050  -0.8411  -0.7883  -0.7773  -0.7462  -0.7074  -0.6445
    -0.6113  -0.5642  -0.5335  -0.4998  -0.4599  -0.4244  -0.3655  -0.3309
    -0.2985  -0.2419  -0.2199  -0.1279   0.5981   0.9229   1.0702   1.2558
     1.7117   1.9632   2.0996   2.2678   2.5650   2.6451   2.9793   3.1495
     3.2789   3.4271   3.5499   3.6548   3.8136   3.9870

     occupation numbers 
     1.0000   1.0000   1.0000   1.0000   1.0000   1.0000   1.0000   1.0000
     1.0000   1.0000   1.0000   1.0000   1.0000   1.0000   1.0000   1.0000
     1.0000   1.0000   1.0000   1.0000   1.0000   1.0000   1.0000   1.0000
     1.0000   1.0000   1.0000   1.0000   1.0000   1.0000   1.0000   1.0000
     1.0000   1.0000   1.0000   1.0000   1.0000   1.0000   1.0000   1.0000
     1.0000   1.0000   1.0000   1.0000   1.0000   1.0000   1.0000   1.0000
     1.0000   1.0000   1.0000   1.0000   1.0000   1.0000

          k = 0.0000-0.5774 0.5844 (  7461 PWs)   bands (ev):

   -13.2775 -12.3064 -12.1867 -12.0922 -12.0220 -11.4211  -1.8962  -1.3170
    -1.2386  -1.1800  -1.1375  -1.0846  -1.0484  -1.0416  -1.0045  -0.9711
    -0.9455  -0.9297  -0.8496  -0.8141  -0.7984  -0.7736  -0.7267  -0.6668
    -0.6171  -0.6021  -0.5446  -0.4981  -0.4627  -0.4332  -0.3758  -0.3380
    -0.3212  -0.2412  -0.2149  -0.1612   0.8468   1.0057   1.1672   1.4337
     1.6442   1.9466   2.1868   2.4341   2.5716   2.7695   2.8954   3.0859
     3.1998   3.4253   3.5238   3.6058   3.7872   3.8635

     occupation numbers 
     1.0000   1.0000   1.0000   1.0000   1.0000   1.0000   1.0000   1.0000
     1.0000   1.0000   1.0000   1.0000   1.0000   1.0000   1.0000   1.0000
     1.0000   1.0000   1.0000   1.0000   1.0000   1.0000   1.0000   1.0000
     1.0000   1.0000   1.0000   1.0000   1.0000   1.0000   1.0000   1.0000
     1.0000   1.0000   1.0000   1.0000   1.0000   1.0000   1.0000   1.0000
     1.0000   1.0000   1.0000   1.0000   1.0000   1.0000   1.0000   1.0000
     1.0000   1.0000   1.0000   1.0000   1.0000   1.0000

          k = 0.5000-0.2887-0.5844 (  7461 PWs)   bands (ev):

   -13.2773 -12.3047 -12.1886 -12.0923 -12.0217 -11.4212  -1.9015  -1.2975
    -1.2654  -1.1705  -1.1174  -1.0720  -1.0553  -1.0393  -1.0089  -0.9774
    -0.9592  -0.9256  -0.8622  -0.8369  -0.8017  -0.7459  -0.7309  -0.6691
    -0.6503  -0.5898  -0.5377  -0.4872  -0.4594  -0.4372  -0.3737  -0.3321
    -0.3151  -0.2551  -0.2144  -0.1585   0.8742   1.0589   1.2238   1.3392
     1.5633   2.0214   2.2270   2.4759   2.5813   2.6634   2.9149   3.0189
     3.3207   3.3745   3.4629   3.5533   3.7729   3.9478

     occupation numbers 
     1.0000   1.0000   1.0000   1.0000   1.0000   1.0000   1.0000   1.0000
     1.0000   1.0000   1.0000   1.0000   1.0000   1.0000   1.0000   1.0000
     1.0000   1.0000   1.0000   1.0000   1.0000   1.0000   1.0000   1.0000
     1.0000   1.0000   1.0000   1.0000   1.0000   1.0000   1.0000   1.0000
     1.0000   1.0000   1.0000   1.0000   1.0000   1.0000   1.0000   1.0000
     1.0000   1.0000   1.0000   1.0000   1.0000   1.0000   1.0000   1.0000
     1.0000   1.0000   1.0000   1.0000   1.0000   1.0000

          k =-0.5000 0.2887-0.5844 (  7461 PWs)   bands (ev):

   -13.2775 -12.3075 -12.1831 -12.0957 -12.0210 -11.4210  -1.8960  -1.3162
    -1.2492  -1.1749  -1.1363  -1.0844  -1.0383  -1.0320  -1.0136  -0.9951
    -0.9436  -0.9212  -0.8606  -0.8240  -0.7984  -0.7656  -0.6974  -0.6504
    -0.6279  -0.5930  -0.5328  -0.5006  -0.4875  -0.4331  -0.3805  -0.3337
    -0.3072  -0.2555  -0.2330  -0.1525   0.8557   1.0748   1.1255   1.3105
     1.6940   2.0258   2.1077   2.4769   2.5680   2.7281   2.9993   3.1124
     3.2003   3.3589   3.4920   3.6345   3.6868   3.9512

     occupation numbers 
     1.0000   1.0000   1.0000   1.0000   1.0000   1.0000   1.0000   1.0000
     1.0000   1.0000   1.0000   1.0000   1.0000   1.0000   1.0000   1.0000
     1.0000   1.0000   1.0000   1.0000   1.0000   1.0000   1.0000   1.0000
     1.0000   1.0000   1.0000   1.0000   1.0000   1.0000   1.0000   1.0000
     1.0000   1.0000   1.0000   1.0000   1.0000   1.0000   1.0000   1.0000
     1.0000   1.0000   1.0000   1.0000   1.0000   1.0000   1.0000   1.0000
     1.0000   1.0000   1.0000   1.0000   1.0000   1.0000

          k = 0.5000-0.2887 0.8766 (  7468 PWs)   bands (ev):

   -13.2756 -12.2663 -12.2089 -12.0901 -12.0423 -11.4230  -1.9003  -1.3182
    -1.2641  -1.1817  -1.1448  -1.0867  -1.0539  -1.0444  -1.0215  -1.0017
    -0.9651  -0.9285  -0.8549  -0.8430  -0.8071  -0.7624  -0.7013  -0.6710
    -0.6499  -0.6086  -0.5409  -0.4941  -0.4710  -0.4322  -0.3805  -0.3505
    -0.3086  -0.2568  -0.2176  -0.1736   0.9310   1.0476   1.3038   1.5238
     1.5689   1.9415   2.0899   2.5434   2.7301   2.8489   2.9309   3.1197
     3.1771   3.2502   3.3769   3.5938   3.7033   3.9250

     occupation numbers 
     1.0000   1.0000   1.0000   1.0000   1.0000   1.0000   1.0000   1.0000
     1.0000   1.0000   1.0000   1.0000   1.0000   1.0000   1.0000   1.0000
     1.0000   1.0000   1.0000   1.0000   1.0000   1.0000   1.0000   1.0000
     1.0000   1.0000   1.0000   1.0000   1.0000   1.0000   1.0000   1.0000
     1.0000   1.0000   1.0000   1.0000   1.0000   1.0000   1.0000   1.0000
     1.0000   1.0000   1.0000   1.0000   1.0000   1.0000   1.0000   1.0000
     1.0000   1.0000   1.0000   1.0000   1.0000   1.0000

          k = 0.0000-1.1547 0.2922 (  7454 PWs)   bands (ev):

   -13.1527 -12.2284 -12.0954 -12.0144 -11.9767 -11.3677  -1.9955  -1.3050
    -1.1808  -1.1407  -1.1137  -1.0392  -1.0063  -0.9572  -0.9344  -0.8957
    -0.8686  -0.8301  -0.7799  -0.7577  -0.7280  -0.6689  -0.6450  -0.6103
    -0.5920  -0.5313  -0.4809  -0.4529  -0.4294  -0.3699  -0.3446  -0.3263
    -0.2746  -0.2456  -0.1737  -0.0557   0.6249   0.8348   0.9796   1.1412
     1.3984   1.4646   1.6313   2.0002   2.2849   2.4725   2.6733   2.8396
     2.9465   3.1067   3.3177   3.5280   3.6262   3.7904

     occupation numbers 
     1.0000   1.0000   1.0000   1.0000   1.0000   1.0000   1.0000   1.0000
     1.0000   1.0000   1.0000   1.0000   1.0000   1.0000   1.0000   1.0000
     1.0000   1.0000   1.0000   1.0000   1.0000   1.0000   1.0000   1.0000
     1.0000   1.0000   1.0000   1.0000   1.0000   1.0000   1.0000   1.0000
     1.0000   1.0000   1.0000   1.0000   1.0000   1.0000   1.0000   1.0000
     1.0000   1.0000   1.0000   1.0000   1.0000   1.0000   1.0000   1.0000
     1.0000   1.0000   1.0000   1.0000   1.0000   1.0000

          k = 0.0000-1.1547 0.5844 (  7445 PWs)   bands (ev):

   -13.1506 -12.2008 -12.0975 -12.0241 -11.9890 -11.3702  -1.9994  -1.3459
    -1.1788  -1.1540  -1.1255  -1.0471  -1.0234  -0.9726  -0.9425  -0.9035
    -0.8710  -0.8435  -0.8035  -0.7649  -0.7560  -0.6944  -0.6745  -0.6223
    -0.5889  -0.5529  -0.5052  -0.4748  -0.4344  -0.4018  -0.3434  -0.3144
    -0.2799  -0.2363  -0.1698  -0.0880   0.6118   0.7807   0.9693   1.1667
     1.4635   1.5138   1.6763   2.3019   2.3538   2.5842   2.8282   2.9318
     3.0376   3.1334   3.3317   3.4470   3.5373   3.7109

     occupation numbers 
     1.0000   1.0000   1.0000   1.0000   1.0000   1.0000   1.0000   1.0000
     1.0000   1.0000   1.0000   1.0000   1.0000   1.0000   1.0000   1.0000
     1.0000   1.0000   1.0000   1.0000   1.0000   1.0000   1.0000   1.0000
     1.0000   1.0000   1.0000   1.0000   1.0000   1.0000   1.0000   1.0000
     1.0000   1.0000   1.0000   1.0000   1.0000   1.0000   1.0000   1.0000
     1.0000   1.0000   1.0000   1.0000   1.0000   1.0000   1.0000   1.0000
     1.0000   1.0000   1.0000   1.0000   1.0000   1.0000

          k =-1.5000 0.8660 0.0000 (  7436 PWs)   bands (ev):

   -13.0871 -12.1608 -12.0362 -11.9928 -11.9790 -11.3419  -1.9985  -1.3286
    -1.1546  -1.1118  -1.0610  -1.0185  -0.9556  -0.9263  -0.9098  -0.8837
    -0.8717  -0.8119  -0.7672  -0.7185  -0.7062  -0.6477  -0.6085  -0.5603
    -0.5369  -0.4811  -0.4615  -0.4604  -0.4210  -0.3631  -0.3302  -0.2879
    -0.2486  -0.2143  -0.1657  -0.1133   0.4362   0.6571   0.9076   1.0474
     1.3010   1.5102   1.7804   1.9864   2.0594   2.3511   2.4283   2.6704
     2.7496   3.0026   3.1703   3.1902   3.4521   3.7159

     occupation numbers 
     1.0000   1.0000   1.0000   1.0000   1.0000   1.0000   1.0000   1.0000
     1.0000   1.0000   1.0000   1.0000   1.0000   1.0000   1.0000   1.0000
     1.0000   1.0000   1.0000   1.0000   1.0000   1.0000   1.0000   1.0000
     1.0000   1.0000   1.0000   1.0000   1.0000   1.0000   1.0000   1.0000
     1.0000   1.0000   1.0000   1.0000   1.0000   1.0000   1.0000   1.0000
     1.0000   1.0000   1.0000   1.0000   1.0000   1.0000   1.0000   1.0000
     1.0000   1.0000   1.0000   1.0000   1.0000   1.0000

          k =-1.5000 0.8660-0.2922 (  7450 PWs)   bands (ev):

   -13.0864 -12.1551 -12.0385 -11.9933 -11.9791 -11.3429  -2.0007  -1.3487
    -1.1538  -1.1183  -1.0645  -1.0390  -0.9757  -0.9287  -0.9044  -0.8820
    -0.8633  -0.8134  -0.7836  -0.7262  -0.7076  -0.6562  -0.6149  -0.5750
    -0.5456  -0.5001  -0.4679  -0.4541  -0.4209  -0.3589  -0.3339  -0.2919
    -0.2451  -0.2083  -0.1722  -0.1151   0.4200   0.6057   0.7875   1.0545
     1.2259   1.5544   1.8966   2.0692   2.1775   2.4294   2.5307   2.7355
     2.8107   3.0341   3.1435   3.1734   3.4780   3.6841

     occupation numbers 
     1.0000   1.0000   1.0000   1.0000   1.0000   1.0000   1.0000   1.0000
     1.0000   1.0000   1.0000   1.0000   1.0000   1.0000   1.0000   1.0000
     1.0000   1.0000   1.0000   1.0000   1.0000   1.0000   1.0000   1.0000
     1.0000   1.0000   1.0000   1.0000   1.0000   1.0000   1.0000   1.0000
     1.0000   1.0000   1.0000   1.0000   1.0000   1.0000   1.0000   1.0000
     1.0000   1.0000   1.0000   1.0000   1.0000   1.0000   1.0000   1.0000
     1.0000   1.0000   1.0000   1.0000   1.0000   1.0000

          k =-1.5000 0.8660-0.5844 (  7448 PWs)   bands (ev):

   -13.0851 -12.1422 -12.0457 -11.9932 -11.9793 -11.3449  -2.0050  -1.3889
    -1.1619  -1.1300  -1.0890  -1.0415  -1.0002  -0.9485  -0.9209  -0.8848
    -0.8407  -0.8150  -0.7937  -0.7621  -0.7044  -0.6675  -0.6498  -0.5841
    -0.5515  -0.5181  -0.4844  -0.4537  -0.4196  -0.3731  -0.3267  -0.3001
    -0.2361  -0.2021  -0.1851  -0.1192   0.3906   0.5302   0.6760   0.9977
     1.1261   1.5408   2.0404   2.3326   2.4578   2.5919   2.7632   2.8600
     2.9329   2.9920   3.0703   3.2138   3.4831   3.6037

     occupation numbers 
     1.0000   1.0000   1.0000   1.0000   1.0000   1.0000   1.0000   1.0000
     1.0000   1.0000   1.0000   1.0000   1.0000   1.0000   1.0000   1.0000
     1.0000   1.0000   1.0000   1.0000   1.0000   1.0000   1.0000   1.0000
     1.0000   1.0000   1.0000   1.0000   1.0000   1.0000   1.0000   1.0000
     1.0000   1.0000   1.0000   1.0000   1.0000   1.0000   1.0000   1.0000
     1.0000   1.0000   1.0000   1.0000   1.0000   1.0000   1.0000   1.0000
     1.0000   1.0000   1.0000   1.0000   1.0000   1.0000

          k =-1.5000 0.8660 0.8766 (  7436 PWs)   bands (ev):

   -13.0844 -12.1345 -12.0509 -11.9926 -11.9794 -11.3460  -2.0072  -1.4088
    -1.1722  -1.1367  -1.1033  -1.0265  -0.9987  -0.9771  -0.9341  -0.8916
    -0.8381  -0.8104  -0.7826  -0.7757  -0.7093  -0.6860  -0.6621  -0.5762
    -0.5651  -0.5195  -0.4840  -0.4555  -0.4231  -0.3878  -0.3168  -0.3053
    -0.2294  -0.2114  -0.1841  -0.1215   0.3781   0.5010   0.6452   0.9559
     1.0936   1.5212   2.1025   2.5033   2.6167   2.7129   2.7959   2.8299
     2.9637   3.0331   3.1684   3.2416   3.4027   3.5334

     occupation numbers 
     1.0000   1.0000   1.0000   1.0000   1.0000   1.0000   1.0000   1.0000
     1.0000   1.0000   1.0000   1.0000   1.0000   1.0000   1.0000   1.0000
     1.0000   1.0000   1.0000   1.0000   1.0000   1.0000   1.0000   1.0000
     1.0000   1.0000   1.0000   1.0000   1.0000   1.0000   1.0000   1.0000
     1.0000   1.0000   1.0000   1.0000   1.0000   1.0000   1.0000   1.0000
     1.0000   1.0000   1.0000   1.0000   1.0000   1.0000   1.0000   1.0000
     1.0000   1.0000   1.0000   1.0000   1.0000   1.0000

          k =-0.1667-0.0962 0.2922 (  7482 PWs)   bands (ev):

   -13.3432 -12.4054 -12.2310 -12.1034 -12.0096 -11.4424  -1.7514  -1.4821
    -1.2174  -1.1904  -1.1411  -1.0820  -1.0655  -1.0296  -1.0053  -0.9585
    -0.9380  -0.9131  -0.9067  -0.8279  -0.7895  -0.7647  -0.7151  -0.6605
    -0.6228  -0.5988  -0.5577  -0.4895  -0.4584  -0.4290  -0.4080  -0.3563
    -0.2837  -0.2491  -0.1999  -0.1561   0.5002   0.8203   1.0948   1.3298
     1.8341   1.9439   2.2413   2.5096   2.8893   3.1077   3.3094   3.3601
     3.5070   3.5745   3.7099   3.8208   3.9597   4.1740

     occupation numbers 
     1.0000   1.0000   1.0000   1.0000   1.0000   1.0000   1.0000   1.0000
     1.0000   1.0000   1.0000   1.0000   1.0000   1.0000   1.0000   1.0000
     1.0000   1.0000   1.0000   1.0000   1.0000   1.0000   1.0000   1.0000
     1.0000   1.0000   1.0000   1.0000   1.0000   1.0000   1.0000   1.0000
     1.0000   1.0000   1.0000   1.0000   1.0000   1.0000   1.0000   1.0000
     1.0000   1.0000   1.0000   1.0000   1.0000   1.0000   1.0000   1.0000
     1.0000   1.0000   1.0000   1.0000   1.0000   1.0000

          k =-0.1667-0.0962 0.5844 (  7451 PWs)   bands (ev):

   -13.3389 -12.3550 -12.2281 -12.1275 -12.0412 -11.4469  -1.7511  -1.4964
    -1.2405  -1.1989  -1.1629  -1.1016  -1.0783  -1.0556  -1.0255  -0.9982
    -0.9445  -0.9288  -0.9090  -0.8633  -0.7994  -0.7673  -0.7382  -0.6849
    -0.6492  -0.5953  -0.5598  -0.4928  -0.4648  -0.4417  -0.4235  -0.3698
    -0.3024  -0.2621  -0.2338  -0.1692   0.8685   0.9509   1.2475   1.3888
     1.7498   2.1903   2.4253   2.5181   2.5596   3.0248   3.2062   3.3277
     3.4236   3.5063   3.7119   3.7519   3.9254   4.1527

     occupation numbers 
     1.0000   1.0000   1.0000   1.0000   1.0000   1.0000   1.0000   1.0000
     1.0000   1.0000   1.0000   1.0000   1.0000   1.0000   1.0000   1.0000
     1.0000   1.0000   1.0000   1.0000   1.0000   1.0000   1.0000   1.0000
     1.0000   1.0000   1.0000   1.0000   1.0000   1.0000   1.0000   1.0000
     1.0000   1.0000   1.0000   1.0000   1.0000   1.0000   1.0000   1.0000
     1.0000   1.0000   1.0000   1.0000   1.0000   1.0000   1.0000   1.0000
     1.0000   1.0000   1.0000   1.0000   1.0000   1.0000

          k = 0.6667-0.1925 0.0000 (  7465 PWs)   bands (ev):

   -13.2824 -12.3696 -12.1927 -12.0588 -11.9864 -11.4149  -1.8948  -1.2948
    -1.2172  -1.1518  -1.1215  -1.0583  -1.0373  -1.0010  -0.9882  -0.9361
    -0.9244  -0.8866  -0.8246  -0.7953  -0.7747  -0.7352  -0.6826  -0.6518
    -0.6009  -0.5678  -0.5304  -0.4742  -0.4304  -0.4037  -0.3714  -0.3285
    -0.2908  -0.2393  -0.1801  -0.1083   0.4786   0.7621   0.9277   1.3130
     1.7304   1.8400   2.1995   2.3265   2.5382   2.6352   2.8879   3.1584
     3.2725   3.3633   3.5881   3.7278   3.8763   3.9790

     occupation numbers 
     1.0000   1.0000   1.0000   1.0000   1.0000   1.0000   1.0000   1.0000
     1.0000   1.0000   1.0000   1.0000   1.0000   1.0000   1.0000   1.0000
     1.0000   1.0000   1.0000   1.0000   1.0000   1.0000   1.0000   1.0000
     1.0000   1.0000   1.0000   1.0000   1.0000   1.0000   1.0000   1.0000
     1.0000   1.0000   1.0000   1.0000   1.0000   1.0000   1.0000   1.0000
     1.0000   1.0000   1.0000   1.0000   1.0000   1.0000   1.0000   1.0000
     1.0000   1.0000   1.0000   1.0000   1.0000   1.0000

          k =-0.1667-0.6736 0.2922 (  7473 PWs)   bands (ev):

   -13.2807 -12.3528 -12.1863 -12.0715 -11.9971 -11.4166  -1.8936  -1.3020
    -1.2252  -1.1625  -1.1339  -1.0683  -1.0418  -1.0173  -0.9830  -0.9518
    -0.9311  -0.8969  -0.8224  -0.8096  -0.7835  -0.7310  -0.7201  -0.6410
    -0.5989  -0.5652  -0.5346  -0.4903  -0.4613  -0.4231  -0.3695  -0.3354
    -0.3026  -0.2356  -0.1932  -0.1325   0.6203   0.8342   0.9857   1.2965
     1.7297   1.9196   2.2525   2.3391   2.4453   2.7344   2.9043   3.1742
     3.2304   3.3499   3.5747   3.7407   3.8303   3.9134

     occupation numbers 
     1.0000   1.0000   1.0000   1.0000   1.0000   1.0000   1.0000   1.0000
     1.0000   1.0000   1.0000   1.0000   1.0000   1.0000   1.0000   1.0000
     1.0000   1.0000   1.0000   1.0000   1.0000   1.0000   1.0000   1.0000
     1.0000   1.0000   1.0000   1.0000   1.0000   1.0000   1.0000   1.0000
     1.0000   1.0000   1.0000   1.0000   1.0000   1.0000   1.0000   1.0000
     1.0000   1.0000   1.0000   1.0000   1.0000   1.0000   1.0000   1.0000
     1.0000   1.0000   1.0000   1.0000   1.0000   1.0000

          k = 0.6667-0.1925-0.2922 (  7473 PWs)   bands (ev):

   -13.2806 -12.3519 -12.1871 -12.0721 -11.9967 -11.4168  -1.8989  -1.2925
    -1.2403  -1.1530  -1.1110  -1.0741  -1.0391  -1.0037  -0.9964  -0.9412
    -0.9252  -0.8891  -0.8472  -0.8229  -0.8060  -0.7483  -0.6952  -0.6618
    -0.6169  -0.5811  -0.5383  -0.4710  -0.4469  -0.4165  -0.3583  -0.3328
    -0.2930  -0.2506  -0.1987  -0.1276   0.6707   0.8642   0.9945   1.2553
     1.6731   1.9721   2.2708   2.3652   2.5300   2.6222   2.8129   3.1584
     3.2830   3.3761   3.5407   3.7109   3.8184   3.9654

     occupation numbers 
     1.0000   1.0000   1.0000   1.0000   1.0000   1.0000   1.0000   1.0000
     1.0000   1.0000   1.0000   1.0000   1.0000   1.0000   1.0000   1.0000
     1.0000   1.0000   1.0000   1.0000   1.0000   1.0000   1.0000   1.0000
     1.0000   1.0000   1.0000   1.0000   1.0000   1.0000   1.0000   1.0000
     1.0000   1.0000   1.0000   1.0000   1.0000   1.0000   1.0000   1.0000
     1.0000   1.0000   1.0000   1.0000   1.0000   1.0000   1.0000   1.0000
     1.0000   1.0000   1.0000   1.0000   1.0000   1.0000

          k =-0.6667 0.1925-0.2922 (  7473 PWs)   bands (ev):

   -13.2807 -12.3530 -12.1855 -12.0724 -11.9968 -11.4166  -1.8936  -1.3024
    -1.2292  -1.1617  -1.1314  -1.0654  -1.0402  -1.0161  -0.9819  -0.9627
    -0.9275  -0.8958  -0.8283  -0.8031  -0.7868  -0.7326  -0.7137  -0.6411
    -0.6048  -0.5592  -0.5216  -0.4992  -0.4660  -0.4235  -0.3664  -0.3286
    -0.2999  -0.2336  -0.2120  -0.1311   0.6214   0.8807   0.9535   1.2561
     1.7410   1.9358   2.2267   2.3266   2.5681   2.6244   2.9414   3.1684
     3.2299   3.3557   3.6028   3.6789   3.8221   3.9497

     occupation numbers 
     1.0000   1.0000   1.0000   1.0000   1.0000   1.0000   1.0000   1.0000
     1.0000   1.0000   1.0000   1.0000   1.0000   1.0000   1.0000   1.0000
     1.0000   1.0000   1.0000   1.0000   1.0000   1.0000   1.0000   1.0000
     1.0000   1.0000   1.0000   1.0000   1.0000   1.0000   1.0000   1.0000
     1.0000   1.0000   1.0000   1.0000   1.0000   1.0000   1.0000   1.0000
     1.0000   1.0000   1.0000   1.0000   1.0000   1.0000   1.0000   1.0000
     1.0000   1.0000   1.0000   1.0000   1.0000   1.0000

          k =-0.1667-0.6736 0.5844 (  7459 PWs)   bands (ev):

   -13.2772 -12.3081 -12.1843 -12.0919 -12.0240 -11.4203  -1.8964  -1.3170
    -1.2498  -1.1795  -1.1426  -1.0828  -1.0469  -1.0369  -1.0074  -0.9687
    -0.9440  -0.9237  -0.8378  -0.8222  -0.8105  -0.7685  -0.7266  -0.6579
    -0.6203  -0.5966  -0.5437  -0.4963  -0.4680  -0.4302  -0.3546  -0.3391
    -0.3188  -0.2373  -0.2107  -0.1593   0.7922   1.0286   1.0850   1.3958
     1.7197   1.9448   2.1626   2.4649   2.6276   2.7629   2.9276   3.1224
     3.1997   3.3519   3.5296   3.6027   3.7553   3.8715

     occupation numbers 
     1.0000   1.0000   1.0000   1.0000   1.0000   1.0000   1.0000   1.0000
     1.0000   1.0000   1.0000   1.0000   1.0000   1.0000   1.0000   1.0000
     1.0000   1.0000   1.0000   1.0000   1.0000   1.0000   1.0000   1.0000
     1.0000   1.0000   1.0000   1.0000   1.0000   1.0000   1.0000   1.0000
     1.0000   1.0000   1.0000   1.0000   1.0000   1.0000   1.0000   1.0000
     1.0000   1.0000   1.0000   1.0000   1.0000   1.0000   1.0000   1.0000
     1.0000   1.0000   1.0000   1.0000   1.0000   1.0000

          k = 0.6667-0.1925-0.5844 (  7459 PWs)   bands (ev):

   -13.2771 -12.3065 -12.1861 -12.0921 -12.0237 -11.4204  -1.9018  -1.2980
    -1.2714  -1.1737  -1.1198  -1.0800  -1.0559  -1.0311  -1.0087  -0.9607
    -0.9564  -0.9253  -0.8589  -0.8401  -0.8167  -0.7560  -0.7143  -0.6706
    -0.6417  -0.5946  -0.5422  -0.4827  -0.4604  -0.4310  -0.3531  -0.3381
    -0.3035  -0.2554  -0.2065  -0.1583   0.8021   1.0355   1.1945   1.3361
     1.6267   2.0230   2.1802   2.5036   2.6239   2.7110   2.8458   3.1065
     3.2813   3.3557   3.5037   3.5357   3.7595   3.9204

     occupation numbers 
     1.0000   1.0000   1.0000   1.0000   1.0000   1.0000   1.0000   1.0000
     1.0000   1.0000   1.0000   1.0000   1.0000   1.0000   1.0000   1.0000
     1.0000   1.0000   1.0000   1.0000   1.0000   1.0000   1.0000   1.0000
     1.0000   1.0000   1.0000   1.0000   1.0000   1.0000   1.0000   1.0000
     1.0000   1.0000   1.0000   1.0000   1.0000   1.0000   1.0000   1.0000
     1.0000   1.0000   1.0000   1.0000   1.0000   1.0000   1.0000   1.0000
     1.0000   1.0000   1.0000   1.0000   1.0000   1.0000

          k =-0.6667 0.1925-0.5844 (  7459 PWs)   bands (ev):

   -13.2772 -12.3086 -12.1825 -12.0938 -12.0234 -11.4203  -1.8963  -1.3166
    -1.2543  -1.1778  -1.1418  -1.0827  -1.0409  -1.0354  -1.0111  -0.9797
    -0.9447  -0.9162  -0.8520  -0.8187  -0.8083  -0.7687  -0.7128  -0.6487
    -0.6267  -0.5904  -0.5402  -0.4929  -0.4807  -0.4303  -0.3665  -0.3253
    -0.3143  -0.2388  -0.2284  -0.1536   0.7998   1.0586   1.0662   1.3389
     1.7474   1.9820   2.1049   2.4955   2.6473   2.7349   2.9767   3.1248
     3.1975   3.3245   3.5167   3.6181   3.6980   3.9178

     occupation numbers 
     1.0000   1.0000   1.0000   1.0000   1.0000   1.0000   1.0000   1.0000
     1.0000   1.0000   1.0000   1.0000   1.0000   1.0000   1.0000   1.0000
     1.0000   1.0000   1.0000   1.0000   1.0000   1.0000   1.0000   1.0000
     1.0000   1.0000   1.0000   1.0000   1.0000   1.0000   1.0000   1.0000
     1.0000   1.0000   1.0000   1.0000   1.0000   1.0000   1.0000   1.0000
     1.0000   1.0000   1.0000   1.0000   1.0000   1.0000   1.0000   1.0000
     1.0000   1.0000   1.0000   1.0000   1.0000   1.0000

          k = 0.6667-0.1925 0.8766 (  7454 PWs)   bands (ev):

   -13.2754 -12.2686 -12.2061 -12.0885 -12.0455 -11.4221  -1.9005  -1.3185
    -1.2700  -1.1863  -1.1476  -1.0870  -1.0560  -1.0371  -1.0234  -0.9893
    -0.9616  -0.9265  -0.8546  -0.8372  -0.8222  -0.7641  -0.7108  -0.6694
    -0.6462  -0.6093  -0.5477  -0.4825  -0.4672  -0.4332  -0.3646  -0.3461
    -0.2989  -0.2521  -0.2068  -0.1730   0.8333   0.9926   1.3596   1.5506
     1.5953   1.9289   2.0563   2.5458   2.7510   2.8810   2.9445   3.1142
     3.1888   3.2547   3.3887   3.5841   3.6862   3.8971

     occupation numbers 
     1.0000   1.0000   1.0000   1.0000   1.0000   1.0000   1.0000   1.0000
     1.0000   1.0000   1.0000   1.0000   1.0000   1.0000   1.0000   1.0000
     1.0000   1.0000   1.0000   1.0000   1.0000   1.0000   1.0000   1.0000
     1.0000   1.0000   1.0000   1.0000   1.0000   1.0000   1.0000   1.0000
     1.0000   1.0000   1.0000   1.0000   1.0000   1.0000   1.0000   1.0000
     1.0000   1.0000   1.0000   1.0000   1.0000   1.0000   1.0000   1.0000
     1.0000   1.0000   1.0000   1.0000   1.0000   1.0000

          k = 1.1667-0.4811 0.0000 (  7438 PWs)   bands (ev):

   -13.1538 -12.2385 -12.0988 -12.0081 -11.9711 -11.3666  -1.9954  -1.2845
    -1.1718  -1.1396  -1.0974  -1.0287  -0.9878  -0.9383  -0.9320  -0.8961
    -0.8837  -0.8198  -0.8020  -0.7542  -0.7213  -0.6601  -0.6363  -0.6080
    -0.5832  -0.5307  -0.4837  -0.4377  -0.3955  -0.3719  -0.3319  -0.3225
    -0.2730  -0.2549  -0.1786  -0.0328   0.6693   0.8310   0.9649   1.1427
     1.3556   1.4864   1.6351   1.8912   2.2419   2.4277   2.5942   2.8085
     2.9063   3.1085   3.2236   3.5016   3.6602   3.8205

     occupation numbers 
     1.0000   1.0000   1.0000   1.0000   1.0000   1.0000   1.0000   1.0000
     1.0000   1.0000   1.0000   1.0000   1.0000   1.0000   1.0000   1.0000
     1.0000   1.0000   1.0000   1.0000   1.0000   1.0000   1.0000   1.0000
     1.0000   1.0000   1.0000   1.0000   1.0000   1.0000   1.0000   1.0000
     1.0000   1.0000   1.0000   1.0000   1.0000   1.0000   1.0000   1.0000
     1.0000   1.0000   1.0000   1.0000   1.0000   1.0000   1.0000   1.0000
     1.0000   1.0000   1.0000   1.0000   1.0000   1.0000

          k =-0.1667-1.2509 0.2922 (  7452 PWs)   bands (ev):

   -13.1528 -12.2282 -12.0954 -12.0150 -11.9762 -11.3677  -1.9949  -1.3028
    -1.1847  -1.1304  -1.1078  -1.0372  -1.0022  -0.9625  -0.9409  -0.8926
    -0.8684  -0.8433  -0.7966  -0.7584  -0.7176  -0.6531  -0.6428  -0.6120
    -0.5943  -0.5448  -0.4835  -0.4665  -0.4167  -0.3755  -0.3383  -0.3166
    -0.2667  -0.2414  -0.1931  -0.0579   0.6036   0.7897   0.9788   1.2030
     1.3699   1.5001   1.6908   2.0264   2.3180   2.4222   2.6474   2.8395
     2.9439   3.1037   3.3393   3.4793   3.6291   3.7600

     occupation numbers 
     1.0000   1.0000   1.0000   1.0000   1.0000   1.0000   1.0000   1.0000
     1.0000   1.0000   1.0000   1.0000   1.0000   1.0000   1.0000   1.0000
     1.0000   1.0000   1.0000   1.0000   1.0000   1.0000   1.0000   1.0000
     1.0000   1.0000   1.0000   1.0000   1.0000   1.0000   1.0000   1.0000
     1.0000   1.0000   1.0000   1.0000   1.0000   1.0000   1.0000   1.0000
     1.0000   1.0000   1.0000   1.0000   1.0000   1.0000   1.0000   1.0000
     1.0000   1.0000   1.0000   1.0000   1.0000   1.0000

          k = 1.1667-0.4811-0.2922 (  7452 PWs)   bands (ev):

   -13.1527 -12.2264 -12.0982 -12.0153 -11.9750 -11.3680  -1.9994  -1.3094
    -1.1650  -1.1335  -1.1039  -1.0467  -0.9860  -0.9423  -0.9316  -0.9026
    -0.8758  -0.8439  -0.7980  -0.7562  -0.7362  -0.6959  -0.6522  -0.6265
    -0.5827  -0.5527  -0.4918  -0.4454  -0.4006  -0.3770  -0.3390  -0.3067
    -0.2657  -0.2600  -0.1880  -0.0541   0.6386   0.8356   0.9833   1.2338
     1.3041   1.5366   1.6889   1.9757   2.2958   2.4667   2.6651   2.7916
     2.9710   3.0967   3.2685   3.4697   3.6398   3.7904

     occupation numbers 
     1.0000   1.0000   1.0000   1.0000   1.0000   1.0000   1.0000   1.0000
     1.0000   1.0000   1.0000   1.0000   1.0000   1.0000   1.0000   1.0000
     1.0000   1.0000   1.0000   1.0000   1.0000   1.0000   1.0000   1.0000
     1.0000   1.0000   1.0000   1.0000   1.0000   1.0000   1.0000   1.0000
     1.0000   1.0000   1.0000   1.0000   1.0000   1.0000   1.0000   1.0000
     1.0000   1.0000   1.0000   1.0000   1.0000   1.0000   1.0000   1.0000
     1.0000   1.0000   1.0000   1.0000   1.0000   1.0000

          k =-1.1667 0.4811-0.2922 (  7452 PWs)   bands (ev):

   -13.1528 -12.2281 -12.0958 -12.0144 -11.9765 -11.3678  -1.9952  -1.3010
    -1.1727  -1.1440  -1.1102  -1.0370  -1.0038  -0.9579  -0.9315  -0.9021
    -0.8773  -0.8230  -0.7877  -0.7609  -0.7335  -0.6793  -0.6428  -0.6061
    -0.5899  -0.5302  -0.4781  -0.4662  -0.4233  -0.3711  -0.3447  -0.3257
    -0.2801  -0.2472  -0.1704  -0.0544   0.6355   0.8020   0.9547   1.1614
     1.3926   1.5073   1.6936   2.0078   2.2789   2.5199   2.5992   2.8491
     2.9609   3.1275   3.2575   3.4806   3.6352   3.7806

     occupation numbers 
     1.0000   1.0000   1.0000   1.0000   1.0000   1.0000   1.0000   1.0000
     1.0000   1.0000   1.0000   1.0000   1.0000   1.0000   1.0000   1.0000
     1.0000   1.0000   1.0000   1.0000   1.0000   1.0000   1.0000   1.0000
     1.0000   1.0000   1.0000   1.0000   1.0000   1.0000   1.0000   1.0000
     1.0000   1.0000   1.0000   1.0000   1.0000   1.0000   1.0000   1.0000
     1.0000   1.0000   1.0000   1.0000   1.0000   1.0000   1.0000   1.0000
     1.0000   1.0000   1.0000   1.0000   1.0000   1.0000

          k =-0.1667-1.2509 0.5844 (  7435 PWs)   bands (ev):

   -13.1507 -12.2007 -12.0975 -12.0248 -11.9884 -11.3703  -1.9989  -1.3435
    -1.1800  -1.1539  -1.1140  -1.0458  -1.0205  -0.9740  -0.9429  -0.9096
    -0.8791  -0.8537  -0.8158  -0.7755  -0.7425  -0.6843  -0.6635  -0.6170
    -0.5866  -0.5580  -0.5187  -0.4761  -0.4285  -0.3974  -0.3408  -0.3048
    -0.2781  -0.2369  -0.1816  -0.0952   0.5727   0.7645   0.9859   1.1843
     1.3951   1.5815   1.7647   2.3058   2.3576   2.6099   2.8178   2.9233
     3.0020   3.1302   3.3429   3.4106   3.5304   3.6806

     occupation numbers 
     1.0000   1.0000   1.0000   1.0000   1.0000   1.0000   1.0000   1.0000
     1.0000   1.0000   1.0000   1.0000   1.0000   1.0000   1.0000   1.0000
     1.0000   1.0000   1.0000   1.0000   1.0000   1.0000   1.0000   1.0000
     1.0000   1.0000   1.0000   1.0000   1.0000   1.0000   1.0000   1.0000
     1.0000   1.0000   1.0000   1.0000   1.0000   1.0000   1.0000   1.0000
     1.0000   1.0000   1.0000   1.0000   1.0000   1.0000   1.0000   1.0000
     1.0000   1.0000   1.0000   1.0000   1.0000   1.0000

          k = 1.1667-0.4811-0.5844 (  7435 PWs)   bands (ev):

   -13.1505 -12.1977 -12.1026 -12.0239 -11.9871 -11.3706  -2.0035  -1.3488
    -1.1700  -1.1420  -1.1039  -1.0683  -0.9999  -0.9662  -0.9462  -0.9051
    -0.8852  -0.8488  -0.8160  -0.7738  -0.7444  -0.7188  -0.6797  -0.6367
    -0.5958  -0.5571  -0.5142  -0.4616  -0.4314  -0.3956  -0.3428  -0.2977
    -0.2663  -0.2550  -0.1828  -0.0868   0.5971   0.8229   1.0046   1.1762
     1.3503   1.6076   1.7652   2.2494   2.4273   2.5819   2.7881   2.8660
     3.0663   3.1138   3.3086   3.4027   3.5386   3.7010

     occupation numbers 
     1.0000   1.0000   1.0000   1.0000   1.0000   1.0000   1.0000   1.0000
     1.0000   1.0000   1.0000   1.0000   1.0000   1.0000   1.0000   1.0000
     1.0000   1.0000   1.0000   1.0000   1.0000   1.0000   1.0000   1.0000
     1.0000   1.0000   1.0000   1.0000   1.0000   1.0000   1.0000   1.0000
     1.0000   1.0000   1.0000   1.0000   1.0000   1.0000   1.0000   1.0000
     1.0000   1.0000   1.0000   1.0000   1.0000   1.0000   1.0000   1.0000
     1.0000   1.0000   1.0000   1.0000   1.0000   1.0000

          k =-1.1667 0.4811-0.5844 (  7435 PWs)   bands (ev):

   -13.1507 -12.2005 -12.0983 -12.0238 -11.9886 -11.3703  -1.9992  -1.3436
    -1.1727  -1.1443  -1.1312  -1.0452  -1.0177  -0.9774  -0.9500  -0.9050
    -0.8677  -0.8392  -0.7952  -0.7744  -0.7668  -0.7031  -0.6798  -0.6183
    -0.5874  -0.5590  -0.5086  -0.4752  -0.4288  -0.3930  -0.3519  -0.3132
    -0.2842  -0.2356  -0.1675  -0.0904   0.6060   0.7745   0.9577   1.1969
     1.4480   1.5007   1.7381   2.3411   2.4213   2.5862   2.7529   2.8772
     3.0721   3.1538   3.3014   3.4080   3.5314   3.6975

     occupation numbers 
     1.0000   1.0000   1.0000   1.0000   1.0000   1.0000   1.0000   1.0000
     1.0000   1.0000   1.0000   1.0000   1.0000   1.0000   1.0000   1.0000
     1.0000   1.0000   1.0000   1.0000   1.0000   1.0000   1.0000   1.0000
     1.0000   1.0000   1.0000   1.0000   1.0000   1.0000   1.0000   1.0000
     1.0000   1.0000   1.0000   1.0000   1.0000   1.0000   1.0000   1.0000
     1.0000   1.0000   1.0000   1.0000   1.0000   1.0000   1.0000   1.0000
     1.0000   1.0000   1.0000   1.0000   1.0000   1.0000

          k = 1.1667-0.4811 0.8766 (  7444 PWs)   bands (ev):

   -13.1495 -12.1785 -12.1112 -12.0225 -11.9974 -11.3717  -2.0034  -1.3662
    -1.1855  -1.1405  -1.1248  -1.0442  -1.0151  -0.9847  -0.9728  -0.9093
    -0.8846  -0.8372  -0.8219  -0.7798  -0.7611  -0.7179  -0.6914  -0.6249
    -0.6071  -0.5692  -0.5159  -0.4591  -0.4473  -0.4142  -0.3395  -0.3022
    -0.2812  -0.2389  -0.1686  -0.1048   0.5855   0.7940   1.0027   1.1454
     1.3927   1.6492   1.7190   2.3708   2.5868   2.7433   2.8575   2.9143
     3.0347   3.1693   3.2673   3.3986   3.4314   3.6449

     occupation numbers 
     1.0000   1.0000   1.0000   1.0000   1.0000   1.0000   1.0000   1.0000
     1.0000   1.0000   1.0000   1.0000   1.0000   1.0000   1.0000   1.0000
     1.0000   1.0000   1.0000   1.0000   1.0000   1.0000   1.0000   1.0000
     1.0000   1.0000   1.0000   1.0000   1.0000   1.0000   1.0000   1.0000
     1.0000   1.0000   1.0000   1.0000   1.0000   1.0000   1.0000   1.0000
     1.0000   1.0000   1.0000   1.0000   1.0000   1.0000   1.0000   1.0000
     1.0000   1.0000   1.0000   1.0000   1.0000   1.0000

          k =-1.3333 0.9623 0.0000 (  7429 PWs)   bands (ev):

   -13.0871 -12.1609 -12.0360 -11.9929 -11.9790 -11.3419  -1.9985  -1.3285
    -1.1550  -1.1117  -1.0622  -1.0128  -0.9577  -0.9300  -0.9093  -0.8895
    -0.8648  -0.8118  -0.7673  -0.7212  -0.7058  -0.6418  -0.6112  -0.5624
    -0.5353  -0.4837  -0.4641  -0.4552  -0.4168  -0.3640  -0.3305  -0.2889
    -0.2510  -0.2141  -0.1663  -0.1119   0.4333   0.6548   0.8945   1.0749
     1.2938   1.5204   1.7884   1.9220   2.1033   2.3450   2.4386   2.6701
     2.7440   2.9878   3.0993   3.3025   3.4537   3.6899

     occupation numbers 
     1.0000   1.0000   1.0000   1.0000   1.0000   1.0000   1.0000   1.0000
     1.0000   1.0000   1.0000   1.0000   1.0000   1.0000   1.0000   1.0000
     1.0000   1.0000   1.0000   1.0000   1.0000   1.0000   1.0000   1.0000
     1.0000   1.0000   1.0000   1.0000   1.0000   1.0000   1.0000   1.0000
     1.0000   1.0000   1.0000   1.0000   1.0000   1.0000   1.0000   1.0000
     1.0000   1.0000   1.0000   1.0000   1.0000   1.0000   1.0000   1.0000
     1.0000   1.0000   1.0000   1.0000   1.0000   1.0000

          k =-0.1667 1.6358 0.2922 (  7449 PWs)   bands (ev):

   -13.0864 -12.1553 -12.0381 -11.9935 -11.9791 -11.3429  -2.0007  -1.3492
    -1.1549  -1.1189  -1.0651  -1.0247  -0.9691  -0.9442  -0.9207  -0.8864
    -0.8513  -0.8108  -0.7845  -0.7274  -0.6991  -0.6474  -0.6300  -0.5772
    -0.5343  -0.4990  -0.4701  -0.4569  -0.3989  -0.3730  -0.3334  -0.2967
    -0.2492  -0.2084  -0.1753  -0.1116   0.3976   0.6296   0.7550   1.1177
     1.2172   1.5182   1.9422   2.0128   2.2468   2.4047   2.4848   2.6910
     2.8735   2.9831   3.0830   3.3754   3.4666   3.6103

     occupation numbers 
     1.0000   1.0000   1.0000   1.0000   1.0000   1.0000   1.0000   1.0000
     1.0000   1.0000   1.0000   1.0000   1.0000   1.0000   1.0000   1.0000
     1.0000   1.0000   1.0000   1.0000   1.0000   1.0000   1.0000   1.0000
     1.0000   1.0000   1.0000   1.0000   1.0000   1.0000   1.0000   1.0000
     1.0000   1.0000   1.0000   1.0000   1.0000   1.0000   1.0000   1.0000
     1.0000   1.0000   1.0000   1.0000   1.0000   1.0000   1.0000   1.0000
     1.0000   1.0000   1.0000   1.0000   1.0000   1.0000

          k =-1.3333 0.9623-0.2922 (  7449 PWs)   bands (ev):

   -13.0864 -12.1552 -12.0384 -11.9933 -11.9791 -11.3429  -2.0006  -1.3474
    -1.1540  -1.1209  -1.0655  -1.0317  -0.9787  -0.9348  -0.9018  -0.8831
    -0.8647  -0.8182  -0.7751  -0.7298  -0.7091  -0.6490  -0.6078  -0.5863
    -0.5444  -0.4980  -0.4667  -0.4558  -0.4172  -0.3580  -0.3384  -0.2894
    -0.2468  -0.2083  -0.1707  -0.1157   0.4125   0.5910   0.8163   1.0597
     1.2057   1.5733   1.8832   2.0501   2.1927   2.4495   2.5123   2.7502
     2.7855   3.0157   3.1122   3.2675   3.4675   3.6640

     occupation numbers 
     1.0000   1.0000   1.0000   1.0000   1.0000   1.0000   1.0000   1.0000
     1.0000   1.0000   1.0000   1.0000   1.0000   1.0000   1.0000   1.0000
     1.0000   1.0000   1.0000   1.0000   1.0000   1.0000   1.0000   1.0000
     1.0000   1.0000   1.0000   1.0000   1.0000   1.0000   1.0000   1.0000
     1.0000   1.0000   1.0000   1.0000   1.0000   1.0000   1.0000   1.0000
     1.0000   1.0000   1.0000   1.0000   1.0000   1.0000   1.0000   1.0000
     1.0000   1.0000   1.0000   1.0000   1.0000   1.0000

          k = 1.3333-0.9623-0.2922 (  7449 PWs)   bands (ev):

   -13.0864 -12.1552 -12.0383 -11.9933 -11.9791 -11.3429  -2.0007  -1.3496
    -1.1544  -1.1168  -1.0646  -1.0359  -0.9707  -0.9354  -0.9109  -0.8846
    -0.8558  -0.8105  -0.7870  -0.7271  -0.7045  -0.6538  -0.6223  -0.5725
    -0.5405  -0.5013  -0.4689  -0.4544  -0.4151  -0.3644  -0.3311  -0.2955
    -0.2460  -0.2084  -0.1748  -0.1129   0.4142   0.6176   0.7650   1.0806
     1.2331   1.5263   1.9207   2.0531   2.2009   2.4072   2.5285   2.7120
     2.8399   2.9949   3.1081   3.2740   3.4796   3.6550

     occupation numbers 
     1.0000   1.0000   1.0000   1.0000   1.0000   1.0000   1.0000   1.0000
     1.0000   1.0000   1.0000   1.0000   1.0000   1.0000   1.0000   1.0000
     1.0000   1.0000   1.0000   1.0000   1.0000   1.0000   1.0000   1.0000
     1.0000   1.0000   1.0000   1.0000   1.0000   1.0000   1.0000   1.0000
     1.0000   1.0000   1.0000   1.0000   1.0000   1.0000   1.0000   1.0000
     1.0000   1.0000   1.0000   1.0000   1.0000   1.0000   1.0000   1.0000
     1.0000   1.0000   1.0000   1.0000   1.0000   1.0000

          k =-0.1667 1.6358 0.5844 (  7449 PWs)   bands (ev):

   -13.0851 -12.1423 -12.0454 -11.9932 -11.9794 -11.3449  -2.0050  -1.3885
    -1.1658  -1.1308  -1.0823  -1.0368  -0.9824  -0.9696  -0.9284  -0.8935
    -0.8565  -0.8062  -0.7899  -0.7481  -0.7057  -0.6624  -0.6414  -0.5891
    -0.5561  -0.5088  -0.4891  -0.4583  -0.4003  -0.3797  -0.3304  -0.3038
    -0.2366  -0.2036  -0.1856  -0.1173   0.3600   0.5500   0.6602   1.0488
     1.1150   1.4982   2.0881   2.3485   2.5007   2.5469   2.6222   2.8810
     2.9257   3.0201   3.1280   3.3128   3.4410   3.5489

     occupation numbers 
     1.0000   1.0000   1.0000   1.0000   1.0000   1.0000   1.0000   1.0000
     1.0000   1.0000   1.0000   1.0000   1.0000   1.0000   1.0000   1.0000
     1.0000   1.0000   1.0000   1.0000   1.0000   1.0000   1.0000   1.0000
     1.0000   1.0000   1.0000   1.0000   1.0000   1.0000   1.0000   1.0000
     1.0000   1.0000   1.0000   1.0000   1.0000   1.0000   1.0000   1.0000
     1.0000   1.0000   1.0000   1.0000   1.0000   1.0000   1.0000   1.0000
     1.0000   1.0000   1.0000   1.0000   1.0000   1.0000

          k =-1.3333 0.9623-0.5844 (  7449 PWs)   bands (ev):

   -13.0851 -12.1422 -12.0456 -11.9932 -11.9793 -11.3449  -2.0050  -1.3875
    -1.1634  -1.1292  -1.0871  -1.0413  -1.0053  -0.9542  -0.9125  -0.8920
    -0.8537  -0.8086  -0.7782  -0.7570  -0.7085  -0.6685  -0.6456  -0.5934
    -0.5507  -0.5185  -0.4810  -0.4552  -0.4158  -0.3727  -0.3316  -0.2958
    -0.2364  -0.2018  -0.1836  -0.1198   0.3824   0.5170   0.6981   0.9978
     1.1176   1.5463   2.0345   2.3720   2.4438   2.5677   2.7252   2.8577
     2.9330   2.9842   3.1484   3.2220   3.4621   3.5896

     occupation numbers 
     1.0000   1.0000   1.0000   1.0000   1.0000   1.0000   1.0000   1.0000
     1.0000   1.0000   1.0000   1.0000   1.0000   1.0000   1.0000   1.0000
     1.0000   1.0000   1.0000   1.0000   1.0000   1.0000   1.0000   1.0000
     1.0000   1.0000   1.0000   1.0000   1.0000   1.0000   1.0000   1.0000
     1.0000   1.0000   1.0000   1.0000   1.0000   1.0000   1.0000   1.0000
     1.0000   1.0000   1.0000   1.0000   1.0000   1.0000   1.0000   1.0000
     1.0000   1.0000   1.0000   1.0000   1.0000   1.0000

          k = 1.3333-0.9623-0.5844 (  7449 PWs)   bands (ev):

   -13.0851 -12.1422 -12.0455 -11.9932 -11.9793 -11.3449  -2.0050  -1.3894
    -1.1631  -1.1299  -1.0883  -1.0400  -0.9878  -0.9561  -0.9263  -0.8860
    -0.8478  -0.8107  -0.7958  -0.7606  -0.7050  -0.6623  -0.6469  -0.5827
    -0.5538  -0.5126  -0.4889  -0.4569  -0.4109  -0.3775  -0.3243  -0.3047
    -0.2362  -0.2031  -0.1862  -0.1180   0.3810   0.5394   0.6638   1.0230
     1.1248   1.5134   2.0774   2.3092   2.4866   2.5871   2.6841   2.8833
     2.9302   2.9991   3.1029   3.2398   3.4776   3.5783

     occupation numbers 
     1.0000   1.0000   1.0000   1.0000   1.0000   1.0000   1.0000   1.0000
     1.0000   1.0000   1.0000   1.0000   1.0000   1.0000   1.0000   1.0000
     1.0000   1.0000   1.0000   1.0000   1.0000   1.0000   1.0000   1.0000
     1.0000   1.0000   1.0000   1.0000   1.0000   1.0000   1.0000   1.0000
     1.0000   1.0000   1.0000   1.0000   1.0000   1.0000   1.0000   1.0000
     1.0000   1.0000   1.0000   1.0000   1.0000   1.0000   1.0000   1.0000
     1.0000   1.0000   1.0000   1.0000   1.0000   1.0000

          k =-1.3333 0.9623 0.8766 (  7452 PWs)   bands (ev):

   -13.0844 -12.1345 -12.0509 -11.9926 -11.9794 -11.3460  -2.0072  -1.4082
    -1.1751  -1.1334  -1.1028  -1.0266  -1.0025  -0.9737  -0.9347  -0.8974
    -0.8503  -0.8026  -0.7762  -0.7691  -0.7122  -0.6843  -0.6608  -0.5785
    -0.5661  -0.5206  -0.4838  -0.4568  -0.4192  -0.3865  -0.3186  -0.3051
    -0.2293  -0.2113  -0.1841  -0.1210   0.3706   0.4977   0.6475   0.9672
     1.0903   1.5123   2.1215   2.5072   2.5984   2.6823   2.7718   2.8757
     2.9415   3.0713   3.1861   3.2492   3.3995   3.5053

     occupation numbers 
     1.0000   1.0000   1.0000   1.0000   1.0000   1.0000   1.0000   1.0000
     1.0000   1.0000   1.0000   1.0000   1.0000   1.0000   1.0000   1.0000
     1.0000   1.0000   1.0000   1.0000   1.0000   1.0000   1.0000   1.0000
     1.0000   1.0000   1.0000   1.0000   1.0000   1.0000   1.0000   1.0000
     1.0000   1.0000   1.0000   1.0000   1.0000   1.0000   1.0000   1.0000
     1.0000   1.0000   1.0000   1.0000   1.0000   1.0000   1.0000   1.0000
     1.0000   1.0000   1.0000   1.0000   1.0000   1.0000

          k =-0.3333 0.3849 0.0000 (  7461 PWs)   bands (ev):

   -13.2831 -12.3659 -12.1952 -12.0611 -11.9834 -11.4160  -1.8944  -1.2889
    -1.2102  -1.1411  -1.1037  -1.0678  -1.0437  -1.0115  -0.9876  -0.9406
    -0.9272  -0.8975  -0.8328  -0.7857  -0.7686  -0.7163  -0.6952  -0.6661
    -0.6390  -0.5729  -0.5480  -0.4514  -0.4382  -0.3936  -0.3802  -0.3336
    -0.3039  -0.2317  -0.1859  -0.1102   0.4110   0.9189   1.1947   1.3677
     1.5337   1.8388   1.9605   2.1975   2.5164   2.7121   2.9857   3.2189
     3.3587   3.4595   3.5230   3.6223   3.9238   3.9902

     occupation numbers 
     1.0000   1.0000   1.0000   1.0000   1.0000   1.0000   1.0000   1.0000
     1.0000   1.0000   1.0000   1.0000   1.0000   1.0000   1.0000   1.0000
     1.0000   1.0000   1.0000   1.0000   1.0000   1.0000   1.0000   1.0000
     1.0000   1.0000   1.0000   1.0000   1.0000   1.0000   1.0000   1.0000
     1.0000   1.0000   1.0000   1.0000   1.0000   1.0000   1.0000   1.0000
     1.0000   1.0000   1.0000   1.0000   1.0000   1.0000   1.0000   1.0000
     1.0000   1.0000   1.0000   1.0000   1.0000   1.0000

          k =-0.1667 0.4811 0.2922 (  7463 PWs)   bands (ev):

   -13.2812 -12.3490 -12.1886 -12.0752 -11.9930 -11.4182  -1.8985  -1.2864
    -1.2279  -1.1461  -1.1136  -1.0788  -1.0309  -1.0094  -0.9889  -0.9540
    -0.9364  -0.8965  -0.8701  -0.8075  -0.7882  -0.7398  -0.7016  -0.6855
    -0.6244  -0.5780  -0.5418  -0.4728  -0.4602  -0.4185  -0.3645  -0.3469
    -0.2972  -0.2400  -0.2209  -0.1222   0.6511   0.9767   1.1581   1.3582
     1.5789   1.9305   2.0821   2.1651   2.5413   2.6418   2.9843   3.2009
     3.3047   3.4403   3.5423   3.6141   3.8668   3.9619

     occupation numbers 
     1.0000   1.0000   1.0000   1.0000   1.0000   1.0000   1.0000   1.0000
     1.0000   1.0000   1.0000   1.0000   1.0000   1.0000   1.0000   1.0000
     1.0000   1.0000   1.0000   1.0000   1.0000   1.0000   1.0000   1.0000
     1.0000   1.0000   1.0000   1.0000   1.0000   1.0000   1.0000   1.0000
     1.0000   1.0000   1.0000   1.0000   1.0000   1.0000   1.0000   1.0000
     1.0000   1.0000   1.0000   1.0000   1.0000   1.0000   1.0000   1.0000
     1.0000   1.0000   1.0000   1.0000   1.0000   1.0000

          k =-0.3333 0.3849-0.2922 (  7463 PWs)   bands (ev):

   -13.2814 -12.3497 -12.1879 -12.0747 -11.9934 -11.4179  -1.8931  -1.2989
    -1.2176  -1.1546  -1.1167  -1.0761  -1.0424  -1.0152  -0.9970  -0.9595
    -0.9258  -0.9113  -0.8490  -0.7820  -0.7708  -0.7457  -0.7105  -0.6575
    -0.6146  -0.5715  -0.5385  -0.4986  -0.4543  -0.4241  -0.3655  -0.3456
    -0.3005  -0.2390  -0.2178  -0.1281   0.5778   0.9396   1.2035   1.3618
     1.5695   1.9530   2.0822   2.1816   2.5415   2.6482   2.9922   3.1940
     3.2920   3.4569   3.5279   3.6573   3.8248   3.9844

     occupation numbers 
     1.0000   1.0000   1.0000   1.0000   1.0000   1.0000   1.0000   1.0000
     1.0000   1.0000   1.0000   1.0000   1.0000   1.0000   1.0000   1.0000
     1.0000   1.0000   1.0000   1.0000   1.0000   1.0000   1.0000   1.0000
     1.0000   1.0000   1.0000   1.0000   1.0000   1.0000   1.0000   1.0000
     1.0000   1.0000   1.0000   1.0000   1.0000   1.0000   1.0000   1.0000
     1.0000   1.0000   1.0000   1.0000   1.0000   1.0000   1.0000   1.0000
     1.0000   1.0000   1.0000   1.0000   1.0000   1.0000

          k = 0.3333-0.3849-0.2922 (  7463 PWs)   bands (ev):

   -13.2812 -12.3486 -12.1896 -12.0744 -11.9933 -11.4181  -1.8985  -1.2869
    -1.2313  -1.1457  -1.1025  -1.0736  -1.0400  -1.0152  -0.9902  -0.9534
    -0.9334  -0.8873  -0.8768  -0.8101  -0.7840  -0.7453  -0.7031  -0.6756
    -0.6400  -0.5847  -0.5382  -0.4674  -0.4447  -0.4233  -0.3716  -0.3397
    -0.3060  -0.2442  -0.2095  -0.1230   0.6407   0.9664   1.1831   1.3944
     1.5123   1.9154   2.0874   2.2453   2.5412   2.6484   2.9063   3.1729
     3.3781   3.4234   3.5170   3.6036   3.8827   3.9744

     occupation numbers 
     1.0000   1.0000   1.0000   1.0000   1.0000   1.0000   1.0000   1.0000
     1.0000   1.0000   1.0000   1.0000   1.0000   1.0000   1.0000   1.0000
     1.0000   1.0000   1.0000   1.0000   1.0000   1.0000   1.0000   1.0000
     1.0000   1.0000   1.0000   1.0000   1.0000   1.0000   1.0000   1.0000
     1.0000   1.0000   1.0000   1.0000   1.0000   1.0000   1.0000   1.0000
     1.0000   1.0000   1.0000   1.0000   1.0000   1.0000   1.0000   1.0000
     1.0000   1.0000   1.0000   1.0000   1.0000   1.0000

          k =-0.1667 0.4811 0.5844 (  7477 PWs)   bands (ev):

   -13.2776 -12.3044 -12.1876 -12.0957 -12.0186 -11.4221  -1.9015  -1.2980
    -1.2530  -1.1713  -1.1155  -1.0833  -1.0537  -1.0304  -1.0038  -0.9852
    -0.9595  -0.9397  -0.8714  -0.8182  -0.7878  -0.7569  -0.7349  -0.6733
    -0.6410  -0.5884  -0.5338  -0.5077  -0.4736  -0.4324  -0.3860  -0.3414
    -0.3073  -0.2511  -0.2386  -0.1545   1.0116   1.0890   1.2144   1.3297
     1.5042   2.0330   2.2260   2.3883   2.4836   2.6738   2.9935   3.1073
     3.2353   3.3754   3.4553   3.6286   3.8032   3.9027

     occupation numbers 
     1.0000   1.0000   1.0000   1.0000   1.0000   1.0000   1.0000   1.0000
     1.0000   1.0000   1.0000   1.0000   1.0000   1.0000   1.0000   1.0000
     1.0000   1.0000   1.0000   1.0000   1.0000   1.0000   1.0000   1.0000
     1.0000   1.0000   1.0000   1.0000   1.0000   1.0000   1.0000   1.0000
     1.0000   1.0000   1.0000   1.0000   1.0000   1.0000   1.0000   1.0000
     1.0000   1.0000   1.0000   1.0000   1.0000   1.0000   1.0000   1.0000
     1.0000   1.0000   1.0000   1.0000   1.0000   1.0000

          k =-0.3333 0.3849-0.5844 (  7477 PWs)   bands (ev):

   -13.2777 -12.3059 -12.1854 -12.0960 -12.0190 -11.4218  -1.8959  -1.3162
    -1.2385  -1.1751  -1.1282  -1.0876  -1.0464  -1.0341  -1.0057  -0.9997
    -0.9458  -0.9274  -0.8629  -0.8284  -0.7916  -0.7580  -0.7015  -0.6622
    -0.6177  -0.6029  -0.5409  -0.4978  -0.4807  -0.4386  -0.3834  -0.3560
    -0.3040  -0.2552  -0.2348  -0.1556   0.8990   1.0586   1.2337   1.3513
     1.5644   2.0487   2.1835   2.4167   2.5178   2.6588   3.0205   3.1124
     3.1912   3.3670   3.5095   3.6645   3.7089   3.9416

     occupation numbers 
     1.0000   1.0000   1.0000   1.0000   1.0000   1.0000   1.0000   1.0000
     1.0000   1.0000   1.0000   1.0000   1.0000   1.0000   1.0000   1.0000
     1.0000   1.0000   1.0000   1.0000   1.0000   1.0000   1.0000   1.0000
     1.0000   1.0000   1.0000   1.0000   1.0000   1.0000   1.0000   1.0000
     1.0000   1.0000   1.0000   1.0000   1.0000   1.0000   1.0000   1.0000
     1.0000   1.0000   1.0000   1.0000   1.0000   1.0000   1.0000   1.0000
     1.0000   1.0000   1.0000   1.0000   1.0000   1.0000

          k = 0.3333-0.3849-0.5844 (  7477 PWs)   bands (ev):

   -13.2776 -12.3036 -12.1893 -12.0942 -12.0192 -11.4220  -1.9014  -1.2976
    -1.2561  -1.1686  -1.1158  -1.0722  -1.0522  -1.0398  -1.0135  -0.9857
    -0.9596  -0.9339  -0.8659  -0.8284  -0.7823  -0.7552  -0.7385  -0.6688
    -0.6509  -0.5874  -0.5345  -0.4970  -0.4671  -0.4381  -0.3859  -0.3389
    -0.3158  -0.2522  -0.2301  -0.1566   0.9710   1.0905   1.2490   1.3537
     1.4678   2.0325   2.2532   2.4181   2.5199   2.6271   2.9837   3.0347
     3.3140   3.3540   3.4327   3.6083   3.8091   3.9285

     occupation numbers 
     1.0000   1.0000   1.0000   1.0000   1.0000   1.0000   1.0000   1.0000
     1.0000   1.0000   1.0000   1.0000   1.0000   1.0000   1.0000   1.0000
     1.0000   1.0000   1.0000   1.0000   1.0000   1.0000   1.0000   1.0000
     1.0000   1.0000   1.0000   1.0000   1.0000   1.0000   1.0000   1.0000
     1.0000   1.0000   1.0000   1.0000   1.0000   1.0000   1.0000   1.0000
     1.0000   1.0000   1.0000   1.0000   1.0000   1.0000   1.0000   1.0000
     1.0000   1.0000   1.0000   1.0000   1.0000   1.0000

          k =-0.3333 0.3849 0.8766 (  7462 PWs)   bands (ev):

   -13.2759 -12.2640 -12.2118 -12.0917 -12.0390 -11.4239  -1.9001  -1.3185
    -1.2544  -1.1805  -1.1383  -1.0873  -1.0615  -1.0428  -1.0205  -1.0045
    -0.9676  -0.9369  -0.8558  -0.8465  -0.7891  -0.7604  -0.7114  -0.6729
    -0.6457  -0.6113  -0.5291  -0.5125  -0.4738  -0.4324  -0.3891  -0.3627
    -0.3160  -0.2535  -0.2280  -0.1748   1.0659   1.1108   1.2713   1.4038
     1.5760   1.9494   2.1273   2.5381   2.6674   2.8073   2.9354   3.1309
     3.1710   3.2568   3.3566   3.6477   3.7396   3.9024

     occupation numbers 
     1.0000   1.0000   1.0000   1.0000   1.0000   1.0000   1.0000   1.0000
     1.0000   1.0000   1.0000   1.0000   1.0000   1.0000   1.0000   1.0000
     1.0000   1.0000   1.0000   1.0000   1.0000   1.0000   1.0000   1.0000
     1.0000   1.0000   1.0000   1.0000   1.0000   1.0000   1.0000   1.0000
     1.0000   1.0000   1.0000   1.0000   1.0000   1.0000   1.0000   1.0000
     1.0000   1.0000   1.0000   1.0000   1.0000   1.0000   1.0000   1.0000
     1.0000   1.0000   1.0000   1.0000   1.0000   1.0000

          k =-0.3333-0.1925 0.2922 (  7478 PWs)   bands (ev):

   -13.3427 -12.4080 -12.2292 -12.1015 -12.0123 -11.4412  -1.7511  -1.4815
    -1.2175  -1.1896  -1.1343  -1.0876  -1.0622  -1.0289  -1.0095  -0.9575
    -0.9324  -0.9155  -0.9014  -0.8407  -0.8003  -0.7707  -0.7153  -0.6451
    -0.6281  -0.5959  -0.5434  -0.4801  -0.4478  -0.4279  -0.4017  -0.3488
    -0.2853  -0.2497  -0.2015  -0.1560   0.5203   0.7391   0.9411   1.2612
     1.9204   2.2152   2.4083   2.5370   2.8293   3.0390   3.2065   3.3274
     3.4612   3.5499   3.6671   3.8048   3.8970   4.1569

     occupation numbers 
     1.0000   1.0000   1.0000   1.0000   1.0000   1.0000   1.0000   1.0000
     1.0000   1.0000   1.0000   1.0000   1.0000   1.0000   1.0000   1.0000
     1.0000   1.0000   1.0000   1.0000   1.0000   1.0000   1.0000   1.0000
     1.0000   1.0000   1.0000   1.0000   1.0000   1.0000   1.0000   1.0000
     1.0000   1.0000   1.0000   1.0000   1.0000   1.0000   1.0000   1.0000
     1.0000   1.0000   1.0000   1.0000   1.0000   1.0000   1.0000   1.0000
     1.0000   1.0000   1.0000   1.0000   1.0000   1.0000

          k =-0.3333-0.1925 0.5844 (  7454 PWs)   bands (ev):

   -13.3385 -12.3573 -12.2260 -12.1256 -12.0447 -11.4455  -1.7510  -1.4958
    -1.2414  -1.1982  -1.1597  -1.1002  -1.0769  -1.0536  -1.0353  -0.9908
    -0.9442  -0.9239  -0.9132  -0.8759  -0.8133  -0.7764  -0.7214  -0.6949
    -0.6437  -0.5970  -0.5502  -0.4860  -0.4460  -0.4305  -0.4153  -0.3513
    -0.3112  -0.2617  -0.2313  -0.1691   0.7391   0.9489   1.1407   1.3697
     1.9739   2.2431   2.4512   2.5197   2.6207   3.0670   3.1912   3.3261
     3.4173   3.4663   3.6102   3.7381   3.8163   4.1344

     occupation numbers 
     1.0000   1.0000   1.0000   1.0000   1.0000   1.0000   1.0000   1.0000
     1.0000   1.0000   1.0000   1.0000   1.0000   1.0000   1.0000   1.0000
     1.0000   1.0000   1.0000   1.0000   1.0000   1.0000   1.0000   1.0000
     1.0000   1.0000   1.0000   1.0000   1.0000   1.0000   1.0000   1.0000
     1.0000   1.0000   1.0000   1.0000   1.0000   1.0000   1.0000   1.0000
     1.0000   1.0000   1.0000   1.0000   1.0000   1.0000   1.0000   1.0000
     1.0000   1.0000   1.0000   1.0000   1.0000   1.0000

          k = 1.3333-0.3849 0.0000 (  7451 PWs)   bands (ev):

   -13.1539 -12.2381 -12.0992 -12.0086 -11.9704 -11.3667  -1.9946  -1.2749
    -1.1725  -1.1306  -1.0887  -1.0192  -0.9861  -0.9400  -0.9328  -0.9034
    -0.8941  -0.8366  -0.8024  -0.7672  -0.7245  -0.6516  -0.6392  -0.6080
    -0.5783  -0.5482  -0.4839  -0.4367  -0.4040  -0.3690  -0.3338  -0.3117
    -0.2723  -0.2504  -0.1922  -0.0331   0.6561   0.7809   0.9221   1.1710
     1.4003   1.5627   1.8056   1.9066   2.1821   2.3468   2.5517   2.8872
     2.9380   3.1245   3.1604   3.3915   3.6739   3.7797

     occupation numbers 
     1.0000   1.0000   1.0000   1.0000   1.0000   1.0000   1.0000   1.0000
     1.0000   1.0000   1.0000   1.0000   1.0000   1.0000   1.0000   1.0000
     1.0000   1.0000   1.0000   1.0000   1.0000   1.0000   1.0000   1.0000
     1.0000   1.0000   1.0000   1.0000   1.0000   1.0000   1.0000   1.0000
     1.0000   1.0000   1.0000   1.0000   1.0000   1.0000   1.0000   1.0000
     1.0000   1.0000   1.0000   1.0000   1.0000   1.0000   1.0000   1.0000
     1.0000   1.0000   1.0000   1.0000   1.0000   1.0000

          k =-0.3333-1.3472 0.2922 (  7447 PWs)   bands (ev):

   -13.1529 -12.2278 -12.0958 -12.0154 -11.9755 -11.3679  -1.9941  -1.2966
    -1.1826  -1.1197  -1.0978  -1.0321  -0.9955  -0.9692  -0.9445  -0.8947
    -0.8766  -0.8599  -0.8086  -0.7654  -0.7133  -0.6586  -0.6329  -0.6036
    -0.5938  -0.5645  -0.4852  -0.4771  -0.4083  -0.3805  -0.3294  -0.3085
    -0.2636  -0.2384  -0.2126  -0.0580   0.5933   0.7361   0.9580   1.2613
     1.3400   1.5437   1.8939   2.0666   2.3033   2.3641   2.5610   2.8616
     2.9584   3.1661   3.2855   3.3625   3.6395   3.7175

     occupation numbers 
     1.0000   1.0000   1.0000   1.0000   1.0000   1.0000   1.0000   1.0000
     1.0000   1.0000   1.0000   1.0000   1.0000   1.0000   1.0000   1.0000
     1.0000   1.0000   1.0000   1.0000   1.0000   1.0000   1.0000   1.0000
     1.0000   1.0000   1.0000   1.0000   1.0000   1.0000   1.0000   1.0000
     1.0000   1.0000   1.0000   1.0000   1.0000   1.0000   1.0000   1.0000
     1.0000   1.0000   1.0000   1.0000   1.0000   1.0000   1.0000   1.0000
     1.0000   1.0000   1.0000   1.0000   1.0000   1.0000

          k = 1.3333-0.3849-0.2922 (  7447 PWs)   bands (ev):

   -13.1528 -12.2260 -12.0986 -12.0157 -11.9742 -11.3681  -1.9986  -1.2990
    -1.1653  -1.1282  -1.0971  -1.0370  -0.9863  -0.9401  -0.9295  -0.9136
    -0.8904  -0.8452  -0.8085  -0.7690  -0.7423  -0.6856  -0.6559  -0.6260
    -0.5796  -0.5588  -0.4954  -0.4351  -0.4098  -0.3740  -0.3392  -0.3045
    -0.2627  -0.2527  -0.2068  -0.0564   0.6109   0.8108   0.9599   1.2237
     1.3462   1.6071   1.8534   1.9845   2.2698   2.4196   2.6049   2.8441
     3.0015   3.1194   3.2048   3.3674   3.6439   3.7494

     occupation numbers 
     1.0000   1.0000   1.0000   1.0000   1.0000   1.0000   1.0000   1.0000
     1.0000   1.0000   1.0000   1.0000   1.0000   1.0000   1.0000   1.0000
     1.0000   1.0000   1.0000   1.0000   1.0000   1.0000   1.0000   1.0000
     1.0000   1.0000   1.0000   1.0000   1.0000   1.0000   1.0000   1.0000
     1.0000   1.0000   1.0000   1.0000   1.0000   1.0000   1.0000   1.0000
     1.0000   1.0000   1.0000   1.0000   1.0000   1.0000   1.0000   1.0000
     1.0000   1.0000   1.0000   1.0000   1.0000   1.0000

          k =-1.3333 0.3849-0.2922 (  7447 PWs)   bands (ev):

   -13.1529 -12.2278 -12.0962 -12.0149 -11.9757 -11.3679  -1.9945  -1.2947
    -1.1724  -1.1320  -1.1001  -1.0337  -0.9938  -0.9625  -0.9376  -0.9085
    -0.8880  -0.8326  -0.8029  -0.7715  -0.7254  -0.6797  -0.6391  -0.5991
    -0.5876  -0.5442  -0.4851  -0.4774  -0.4126  -0.3801  -0.3268  -0.3194
    -0.2841  -0.2463  -0.1825  -0.0554   0.6234   0.7393   0.9418   1.2003
     1.4126   1.5412   1.8385   2.0761   2.2853   2.4052   2.5780   2.8779
     2.9949   3.1137   3.2201   3.3800   3.6481   3.7356

     occupation numbers 
     1.0000   1.0000   1.0000   1.0000   1.0000   1.0000   1.0000   1.0000
     1.0000   1.0000   1.0000   1.0000   1.0000   1.0000   1.0000   1.0000
     1.0000   1.0000   1.0000   1.0000   1.0000   1.0000   1.0000   1.0000
     1.0000   1.0000   1.0000   1.0000   1.0000   1.0000   1.0000   1.0000
     1.0000   1.0000   1.0000   1.0000   1.0000   1.0000   1.0000   1.0000
     1.0000   1.0000   1.0000   1.0000   1.0000   1.0000   1.0000   1.0000
     1.0000   1.0000   1.0000   1.0000   1.0000   1.0000

          k =-0.3333-1.3472 0.5844 (  7453 PWs)   bands (ev):

   -13.1508 -12.2004 -12.0981 -12.0251 -11.9874 -11.3705  -1.9982  -1.3389
    -1.1769  -1.1456  -1.1033  -1.0401  -1.0168  -0.9784  -0.9457  -0.9239
    -0.8862  -0.8614  -0.8214  -0.7915  -0.7323  -0.6899  -0.6512  -0.6229
    -0.5791  -0.5625  -0.5350  -0.4768  -0.4207  -0.3883  -0.3378  -0.3032
    -0.2743  -0.2385  -0.1947  -0.1028   0.5392   0.7404   0.9875   1.2460
     1.3168   1.6152   1.9682   2.3004   2.3999   2.6350   2.7298   2.9143
     2.9896   3.1592   3.2764   3.3415   3.5328   3.6322

     occupation numbers 
     1.0000   1.0000   1.0000   1.0000   1.0000   1.0000   1.0000   1.0000
     1.0000   1.0000   1.0000   1.0000   1.0000   1.0000   1.0000   1.0000
     1.0000   1.0000   1.0000   1.0000   1.0000   1.0000   1.0000   1.0000
     1.0000   1.0000   1.0000   1.0000   1.0000   1.0000   1.0000   1.0000
     1.0000   1.0000   1.0000   1.0000   1.0000   1.0000   1.0000   1.0000
     1.0000   1.0000   1.0000   1.0000   1.0000   1.0000   1.0000   1.0000
     1.0000   1.0000   1.0000   1.0000   1.0000   1.0000

          k = 1.3333-0.3849-0.5844 (  7453 PWs)   bands (ev):

   -13.1506 -12.1973 -12.1034 -12.0241 -11.9862 -11.3707  -2.0028  -1.3407
    -1.1640  -1.1410  -1.0966  -1.0646  -1.0006  -0.9636  -0.9477  -0.9156
    -0.9025  -0.8520  -0.8230  -0.7642  -0.7451  -0.7217  -0.6872  -0.6462
    -0.5828  -0.5581  -0.5217  -0.4549  -0.4331  -0.3841  -0.3431  -0.3011
    -0.2674  -0.2490  -0.1971  -0.0948   0.5525   0.8140   1.0281   1.1655
     1.3179   1.7040   1.8983   2.2170   2.4687   2.6530   2.7344   2.8250
     3.0561   3.1351   3.2313   3.3488   3.5343   3.6500

     occupation numbers 
     1.0000   1.0000   1.0000   1.0000   1.0000   1.0000   1.0000   1.0000
     1.0000   1.0000   1.0000   1.0000   1.0000   1.0000   1.0000   1.0000
     1.0000   1.0000   1.0000   1.0000   1.0000   1.0000   1.0000   1.0000
     1.0000   1.0000   1.0000   1.0000   1.0000   1.0000   1.0000   1.0000
     1.0000   1.0000   1.0000   1.0000   1.0000   1.0000   1.0000   1.0000
     1.0000   1.0000   1.0000   1.0000   1.0000   1.0000   1.0000   1.0000
     1.0000   1.0000   1.0000   1.0000   1.0000   1.0000

          k =-1.3333 0.3849-0.5844 (  7453 PWs)   bands (ev):

   -13.1508 -12.2002 -12.0989 -12.0242 -11.9876 -11.3705  -1.9985  -1.3390
    -1.1694  -1.1380  -1.1187  -1.0418  -1.0064  -0.9835  -0.9618  -0.9158
    -0.8722  -0.8453  -0.8097  -0.7887  -0.7579  -0.7047  -0.6689  -0.6145
    -0.5902  -0.5616  -0.5223  -0.4764  -0.4232  -0.3775  -0.3541  -0.3052
    -0.2905  -0.2340  -0.1763  -0.0999   0.5644   0.7522   0.9704   1.2207
     1.3806   1.5730   1.8873   2.3868   2.5017   2.5679   2.7292   2.7956
     3.0721   3.1367   3.2708   3.3382   3.5368   3.6449

     occupation numbers 
     1.0000   1.0000   1.0000   1.0000   1.0000   1.0000   1.0000   1.0000
     1.0000   1.0000   1.0000   1.0000   1.0000   1.0000   1.0000   1.0000
     1.0000   1.0000   1.0000   1.0000   1.0000   1.0000   1.0000   1.0000
     1.0000   1.0000   1.0000   1.0000   1.0000   1.0000   1.0000   1.0000
     1.0000   1.0000   1.0000   1.0000   1.0000   1.0000   1.0000   1.0000
     1.0000   1.0000   1.0000   1.0000   1.0000   1.0000   1.0000   1.0000
     1.0000   1.0000   1.0000   1.0000   1.0000   1.0000

          k = 1.3333-0.3849 0.8766 (  7438 PWs)   bands (ev):

   -13.1496 -12.1780 -12.1123 -12.0229 -11.9960 -11.3719  -2.0027  -1.3605
    -1.1784  -1.1399  -1.1119  -1.0416  -1.0136  -0.9889  -0.9800  -0.9204
    -0.8867  -0.8495  -0.8297  -0.7728  -0.7611  -0.7138  -0.6952  -0.6408
    -0.5959  -0.5682  -0.5248  -0.4597  -0.4365  -0.3989  -0.3418  -0.3039
    -0.2831  -0.2381  -0.1694  -0.1238   0.5342   0.8000   1.0131   1.1586
     1.3256   1.7005   1.8930   2.4415   2.5822   2.7127   2.8634   2.8874
     3.0424   3.1384   3.2522   3.3180   3.4237   3.5870

     occupation numbers 
     1.0000   1.0000   1.0000   1.0000   1.0000   1.0000   1.0000   1.0000
     1.0000   1.0000   1.0000   1.0000   1.0000   1.0000   1.0000   1.0000
     1.0000   1.0000   1.0000   1.0000   1.0000   1.0000   1.0000   1.0000
     1.0000   1.0000   1.0000   1.0000   1.0000   1.0000   1.0000   1.0000
     1.0000   1.0000   1.0000   1.0000   1.0000   1.0000   1.0000   1.0000
     1.0000   1.0000   1.0000   1.0000   1.0000   1.0000   1.0000   1.0000
     1.0000   1.0000   1.0000   1.0000   1.0000   1.0000

          k = 0.5000-0.8660 0.2922 (  7462 PWs)   bands (ev):

   -13.1530 -12.2276 -12.0962 -12.0154 -11.9752 -11.3680  -1.9939  -1.2925
    -1.1776  -1.1187  -1.0936  -1.0308  -0.9897  -0.9677  -0.9442  -0.9055
    -0.8899  -0.8541  -0.8088  -0.7719  -0.7174  -0.6719  -0.6347  -0.5950
    -0.5856  -0.5682  -0.4887  -0.4786  -0.4073  -0.3829  -0.3213  -0.3085
    -0.2781  -0.2435  -0.2022  -0.0569   0.6022   0.7151   0.9430   1.2360
     1.3841   1.5618   1.9890   2.1655   2.2150   2.3153   2.5197   2.9330
     3.0124   3.0943   3.2592   3.2990   3.6477   3.7035

     occupation numbers 
     1.0000   1.0000   1.0000   1.0000   1.0000   1.0000   1.0000   1.0000
     1.0000   1.0000   1.0000   1.0000   1.0000   1.0000   1.0000   1.0000
     1.0000   1.0000   1.0000   1.0000   1.0000   1.0000   1.0000   1.0000
     1.0000   1.0000   1.0000   1.0000   1.0000   1.0000   1.0000   1.0000
     1.0000   1.0000   1.0000   1.0000   1.0000   1.0000   1.0000   1.0000
     1.0000   1.0000   1.0000   1.0000   1.0000   1.0000   1.0000   1.0000
     1.0000   1.0000   1.0000   1.0000   1.0000   1.0000

          k = 0.5000-0.8660 0.5844 (  7448 PWs)   bands (ev):

   -13.1508 -12.2002 -12.0988 -12.0249 -11.9870 -11.3706  -1.9980  -1.3365
    -1.1724  -1.1378  -1.1035  -1.0379  -1.0096  -0.9832  -0.9552  -0.9291
    -0.8826  -0.8584  -0.8186  -0.7967  -0.7406  -0.6974  -0.6536  -0.6252
    -0.5858  -0.5554  -0.5376  -0.4770  -0.4197  -0.3798  -0.3399  -0.3064
    -0.2822  -0.2347  -0.1919  -0.1051   0.5361   0.7348   0.9832   1.2503
     1.3191   1.6184   2.0538   2.3193   2.4368   2.6171   2.6970   2.8962
     3.0146   3.1232   3.2330   3.3275   3.5426   3.6067

     occupation numbers 
     1.0000   1.0000   1.0000   1.0000   1.0000   1.0000   1.0000   1.0000
     1.0000   1.0000   1.0000   1.0000   1.0000   1.0000   1.0000   1.0000
     1.0000   1.0000   1.0000   1.0000   1.0000   1.0000   1.0000   1.0000
     1.0000   1.0000   1.0000   1.0000   1.0000   1.0000   1.0000   1.0000
     1.0000   1.0000   1.0000   1.0000   1.0000   1.0000   1.0000   1.0000
     1.0000   1.0000   1.0000   1.0000   1.0000   1.0000   1.0000   1.0000
     1.0000   1.0000   1.0000   1.0000   1.0000   1.0000

     highest occupied level (ev):     4.1953

!    total energy              =   -1084.59733582 Ry
     estimated scf accuracy    <          1.7E-09 Ry

     The total energy is the sum of the following terms:
     one-electron contribution =    -548.08100495 Ry
     hartree contribution      =     386.19204586 Ry
     xc contribution           =    -327.39727664 Ry
     ewald contribution        =    -595.31110009 Ry

     convergence has been achieved in  34 iterations

     Forces acting on atoms (cartesian axes, Ry/au):

     atom    1 type  1   force =     0.01576560    0.14339883    0.06753089
     atom    2 type  1   force =     0.01758971    0.00918635   -0.05606406
     atom    3 type  2   force =    -0.04201914   -0.02518658    0.06559460
     atom    4 type  2   force =    -0.01465903   -0.14126763   -0.07549545
     atom    5 type  1   force =     0.01021124   -0.01928547    0.01746340
     atom    6 type  1   force =    -0.00899599   -0.03393519   -0.02313989
     atom    7 type  2   force =     0.02792866    0.04638253    0.02964298
     atom    8 type  2   force =    -0.00906732    0.00755995   -0.04690009
     atom    9 type  1   force =    -0.00716700   -0.00359094    0.00884733
     atom   10 type  1   force =    -0.01315666    0.01449533   -0.00443796
     atom   11 type  2   force =     0.02576346   -0.00556453    0.00922798
     atom   12 type  2   force =    -0.00219352    0.00780736    0.00773027
     The non-local contrib.  to forces
     atom    1 type  1   force =    -0.09589460    0.32447338   -0.00926089
     atom    2 type  1   force =    -0.09607370   -0.00990193    0.25049675
     atom    3 type  2   force =    -0.08583305   -0.00631242    0.44010142
     atom    4 type  2   force =    -0.05455714    0.22860734   -0.14863608
     atom    5 type  1   force =     0.28316024    0.08248708    0.05437547
     atom    6 type  1   force =     0.19827321   -0.15193247    0.42566788
     atom    7 type  2   force =     0.32528838   -0.07427921    0.38554089
     atom    8 type  2   force =     0.32379961    0.04300481   -0.08657743
     atom    9 type  1   force =     0.18872352   -0.01223608   -0.01527499
     atom   10 type  1   force =    -0.16535176    0.17857930    0.14735284
     atom   11 type  2   force =    -0.21019687    0.20525081    0.07207747
     atom   12 type  2   force =     0.14426391    0.03187463    0.07753833
     The ionic contribution  to forces
     atom    1 type  1   force =    -1.12198751    2.47799578    1.61422775
     atom    2 type  1   force =    -1.46298244   -0.76382062   -1.06413021
     atom    3 type  2   force =    -1.74600331   -1.38228906   -0.56988263
     atom    4 type  2   force =    -0.65639941   -3.64282287   -0.95226803
     atom    5 type  1   force =     2.69965089    1.28797670    0.28928020
     atom    6 type  1   force =     0.20044235   -2.37387801    3.29329069
     atom    7 type  2   force =    -0.91101310    1.98078715   -1.60803354
     atom    8 type  2   force =    -1.52172740    0.06679777   -1.29535054
     atom    9 type  1   force =     1.03636586   -0.58116627    0.65845768
     atom   10 type  1   force =     0.80218041    3.06799686    0.55790465
     atom   11 type  2   force =     2.86757118   -0.84707097   -0.21290864
     atom   12 type  2   force =    -0.18609753    0.70949354   -0.71058738
     The local contribution  to forces
     atom    1 type  1   force =     1.23218408   -2.62623915   -1.52995039
     atom    2 type  1   force =     1.57335703    0.78345810    0.76565280
     atom    3 type  2   force =     1.78865516    1.36313408    0.19988340
     atom    4 type  2   force =     0.69574268    3.27410553    1.02353891
     atom    5 type  1   force =    -2.95400384   -1.38552432   -0.32106115
     atom    6 type  1   force =    -0.39699169    2.47934443   -3.71809942
     atom    7 type  2   force =     0.61684575   -1.86038889    1.25581685
     atom    8 type  2   force =     1.19183217   -0.10174652    1.33383945
     atom    9 type  1   force =    -1.22197919    0.58867236   -0.63432860
     atom   10 type  1   force =    -0.66108053   -3.21928093   -0.70218737
     atom   11 type  2   force =    -2.63324909    0.63812897    0.15070047
     atom   12 type  2   force =     0.04093551   -0.73315450    0.64150291
     The core correction contribution to forces
     atom    1 type  1   force =     0.00144867   -0.03284629   -0.00747933
     atom    2 type  1   force =     0.00328114   -0.00055052   -0.00809832
     atom    3 type  2   force =     0.00116602    0.00028632   -0.00452100
     atom    4 type  2   force =     0.00055818   -0.00115620    0.00188800
     atom    5 type  1   force =    -0.01855945   -0.00420481   -0.00514632
     atom    6 type  1   force =    -0.01068128    0.01253950   -0.02397320
     atom    7 type  2   force =    -0.00318097    0.00027061   -0.00368060
     atom    8 type  2   force =    -0.00295615   -0.00048494    0.00118848
     atom    9 type  1   force =    -0.01030560    0.00112260    0.00002974
     atom   10 type  1   force =     0.01108691   -0.01281345   -0.00752371
     atom   11 type  2   force =     0.00161284   -0.00188623   -0.00064565
     atom   12 type  2   force =    -0.00132431   -0.00042071   -0.00071835
     The Hubbard contrib.    to forces
     atom    1 type  1   force =     0.00000000    0.00000000    0.00000000
     atom    2 type  1   force =     0.00000000    0.00000000    0.00000000
     atom    3 type  2   force =     0.00000000    0.00000000    0.00000000
     atom    4 type  2   force =     0.00000000    0.00000000    0.00000000
     atom    5 type  1   force =     0.00000000    0.00000000    0.00000000
     atom    6 type  1   force =     0.00000000    0.00000000    0.00000000
     atom    7 type  2   force =     0.00000000    0.00000000    0.00000000
     atom    8 type  2   force =     0.00000000    0.00000000    0.00000000
     atom    9 type  1   force =     0.00000000    0.00000000    0.00000000
     atom   10 type  1   force =     0.00000000    0.00000000    0.00000000
     atom   11 type  2   force =     0.00000000    0.00000000    0.00000000
     atom   12 type  2   force =     0.00000000    0.00000000    0.00000000
     The SCF correction term to forces
     atom    1 type  1   force =     0.00001286    0.00001555   -0.00000566
     atom    2 type  1   force =     0.00000558    0.00000175    0.00001551
     atom    3 type  2   force =    -0.00000607   -0.00000507    0.00001400
     atom    4 type  2   force =    -0.00000544   -0.00000101   -0.00001767
     atom    5 type  1   force =    -0.00003871   -0.00001968    0.00001578
     atom    6 type  1   force =    -0.00004069   -0.00000821   -0.00002524
     atom    7 type  2   force =    -0.00001349   -0.00000670   -0.00000003
     atom    8 type  2   force =    -0.00001766   -0.00001074    0.00000053
     atom    9 type  1   force =     0.00002631    0.00001687   -0.00003591
     atom   10 type  1   force =     0.00000620    0.00001398    0.00001621
     atom   11 type  2   force =     0.00002329    0.00001332    0.00000491
     atom   12 type  2   force =     0.00002678    0.00001485   -0.00000465

     Total force =     0.267641     Total SCF correction =     0.000105

     init_run     :     13.48s CPU      8.39s WALL (       1 calls)
     electrons    :    971.58s CPU    551.71s WALL (       1 calls)
     forces       :      5.37s CPU      3.08s WALL (       1 calls)

     Called by init_run:
     wfcinit      :      9.12s CPU      5.07s WALL (       1 calls)
     wfcinit:atom :      0.08s CPU      0.04s WALL (      14 calls)
     wfcinit:wfcr :      8.58s CPU      4.65s WALL (      14 calls)
     potinit      :      1.51s CPU      1.02s WALL (       1 calls)
     hinit0       :      2.58s CPU      2.08s WALL (       1 calls)

     Called by electrons:
     c_bands      :    835.63s CPU    474.42s WALL (      34 calls)
     sum_band     :    119.38s CPU     66.63s WALL (      34 calls)
     v_of_rho     :      8.57s CPU      5.58s WALL (      35 calls)
     v_h          :      0.49s CPU      0.32s WALL (      35 calls)
     v_xc         :      8.30s CPU      5.41s WALL (      36 calls)
     newd         :      6.09s CPU      3.71s WALL (      35 calls)
     mix_rho      :      1.17s CPU      0.83s WALL (      34 calls)

     Called by c_bands:
     init_us_2    :      6.26s CPU      3.45s WALL (     980 calls)
     init_us_2:cp :      6.25s CPU      3.44s WALL (     980 calls)
     cegterg      :    746.41s CPU    403.85s WALL (     476 calls)

     Called by sum_band:
     sum_band:wei :      0.02s CPU      0.03s WALL (      34 calls)
     sum_band:loo :    105.33s CPU     56.19s WALL (      34 calls)
     sum_band:buf :      0.82s CPU      0.48s WALL (     476 calls)
     sum_band:ini :      2.49s CPU      1.28s WALL (     476 calls)
     sum_band:cal :     14.40s CPU      7.58s WALL (     476 calls)
     sum_band:bec :      1.31s CPU      1.09s WALL (     476 calls)
     addusdens    :      7.00s CPU      4.27s WALL (      34 calls)
     addusd:skk   :      0.04s CPU      0.02s WALL (      68 calls)
     addusd:dgemm :      1.16s CPU      0.60s WALL (      68 calls)
     addusd:qvan2 :      3.95s CPU      2.19s WALL (      68 calls)

     Called by *egterg:
     cdiaghg      :     33.79s CPU     26.66s WALL (    2697 calls)
     cegterg:over :     50.60s CPU     28.67s WALL (    2221 calls)
     cegterg:upda :     24.05s CPU     11.91s WALL (    2221 calls)
     cegterg:last :     46.02s CPU     24.52s WALL (    1250 calls)
     h_psi        :    534.38s CPU    280.07s WALL (    2711 calls)
     s_psi        :     39.07s CPU     19.49s WALL (    2711 calls)
     g_psi        :      2.60s CPU      1.88s WALL (    2221 calls)

     Called by h_psi:
     h_psi:calbec :     50.24s CPU     26.04s WALL (    2711 calls)
     vloc_psi     :    445.80s CPU    233.19s WALL (    2711 calls)
     add_vuspsi   :     36.51s CPU     19.68s WALL (    2711 calls)

     General routines
     calbec       :     66.39s CPU     34.52s WALL (    3243 calls)
     fft          :      5.64s CPU      4.11s WALL (     464 calls)
     ffts         :      0.47s CPU      0.37s WALL (      69 calls)
     fftw         :    473.52s CPU    247.91s WALL (  179824 calls)
     interpolate  :      0.72s CPU      0.55s WALL (      35 calls)

     Parallel routines

     PWSCF        :  16m30.86s CPU   9m23.63s WALL


   This run was terminated on:  20:12:45  29Sep2025            

=------------------------------------------------------------------------------=
   JOB DONE.
=------------------------------------------------------------------------------=
