# total energy = -24538.481556845472 eV

CRYSTAL
PRIMVEC
3.387949124333044 0.0 0.0
-1.693974562166522 2.934048640400525 0.0
0.0 0.0 11.0962685671507
PRIMCOORD
8 1
Zn  -0.030014857677  2.028926523908  5.570177296963  0.243137398888 -0.193327674455 -0.411706635452
Zn   1.662134277501  0.963616413304  2.686382105924  0.178448443350  0.357275353086  0.687908935215
O    0.026305053386  2.018580743667  2.106792775017 -0.151603555243 -0.417297756386 -0.413775602166
O    1.726075380120  1.011041941531  4.884789429597 -0.142819124182  0.030421549715 -0.093952223278
Zn   0.000501755265  1.928744529507  11.102014867660 -0.028967333767  0.086788615650 -0.823805878356
Zn   1.743940035852  0.929190107072  8.185968094932  0.330089536700 -0.108361970946  0.661264850265
O    0.137097426855  1.890253700710  7.626210801815 -0.583054977422  0.289884425236 -0.355446270297
O    1.671463673005  0.964324494671  10.310976517211  0.154769611676 -0.045382541900  0.749512566959