# total energy = -49060.49034382188 eV

CRYSTAL
PRIMVEC
5.753120944853822 0.0 0.0
-2.876560472426911 4.982346566267031 0.0
0.0 0.0 4.341213015051577
PRIMCOORD
16 1
Zn  -0.094868389069  1.638271952435  4.286436399911  2.016440876074  0.021356354189  0.538414455895
Zn   1.385711093580  0.795196376998  2.160760041029  3.110606222259  0.020353881066 -1.026240657319
O    0.051555442723  1.650835042642  1.719525005475 -2.246267416786  2.493265841291 -1.521414557357
O    1.470709428355  0.804449696725  3.851221430115 -4.496638057107 -0.023392410782  0.724015194019
Zn  -1.461491777978  4.150123102868  4.330855671415  1.166712621425 -1.701006884504 -2.954888387737
Zn   0.005085758915  3.347179573206  2.238975446210 -1.708885773031 -0.139843072273 -6.226245121846
O   -1.482866348224  4.159190021477  1.641608187271  2.124565277088 -1.176193307222  2.528891046694
O    0.060450918328  3.311689720722  3.832773472493 -1.833054371992 -0.512411604073  6.050507135448
Zn   2.817982194966  1.573584435843  4.336351627853  1.860381084831  3.874240573331 -3.959306549864
Zn   4.328664882959  0.852706299899  2.132220533958 -0.720016357272 -0.278851307350 -3.375831197075
O    2.849746901639  1.661346569920  1.603062852252 -0.001352914483  0.131493414757  5.797348604878
O    4.252946907579  0.832513420694  3.791239391144  0.128853663141 -0.453741343925  2.058478669871
Zn   1.436481810606  4.173262730621  4.341628965696  0.981700151704  0.314551588965 -2.949870622807
Zn   2.905502122652  3.316358378368  2.191063454981 -1.925862711474 -0.904656017035 -4.991075593200
O    1.392342140781  4.142233848117  1.634565791922  1.523450099730  0.337035629000  4.002951540247
O    2.855464353234  3.351354613076  3.799416877255  0.019367863004 -2.002201078325  5.304266297262