# total energy = -36808.588436201 eV

CRYSTAL
PRIMVEC
10.163846843821924 0.0 0.0
-1.6939778619192687 2.934048487640294 0.0
0.0 0.0 5.221777954481952
PRIMCOORD
12 1
Zn  -0.003373380767  2.044382580168  5.206826935775 -0.086086704487 -0.471607939793  0.001055694958
Zn   1.687785030037  1.070797854845  2.674629509953  0.103469418740 -0.218684408052 -1.186665924619
O    0.037790198950  1.952647764095  1.946096148419 -0.468879485118  0.038290410940  0.268753299684
O    1.741175717508  0.981186266377  4.575748603318 -0.400715683658  0.168676451565  0.398047907018
Zn   3.326718546605  2.053890858891  5.116921612133  0.683381479658 -0.020124024443  0.534848335810
Zn   5.082000667147  0.949691554162  2.580437075712 -0.391600608730 -0.097324996405 -0.083499917597
O    3.345516581342  1.921602293910  1.915774344130  0.099720750331  0.162197014488  0.440286761082
O    5.152881302266  1.048557325182  4.620186974489 -0.798020284751 -0.301207820668 -0.315865165570
Zn   6.750704091120  2.087788304499  5.171321569595 -0.021219828611 -0.907987138291  0.403650855027
Zn   8.453740989731  1.047000223845  2.573034746056 -0.133082613621 -0.335292678167 -0.413889502036
O    6.692328036772  1.866615882485  2.069289086859  0.933010399808  0.854111728428 -0.950116463361
O    8.446865147341  0.932325605445  4.497662817171  0.480022903330  1.128953400399  0.903394119603