# total energy = -12269.244813326735 eV

CRYSTAL
PRIMVEC
3.387949124333044 0.0 0.0
-1.693974562166522 2.934048640400525 0.0
0.0 0.0 5.221774838402911
PRIMCOORD
4 1
Zn  -0.181970813007  1.949136256491  5.177900219653  0.711678012610 -0.201832112382 -0.046820302788
Zn   1.741647071885  1.125820575940  2.584006414464 -0.562119512821 -0.618855274950  0.173313436117
O   -0.011275094686  1.752056884364  1.841074570016  0.598480310838  0.332641613698  1.284389184904
O    1.836993785296  0.785963541456  4.634838062231 -0.748038553517  0.488045773634 -1.410882061122