# total energy = -110414.01290701708 eV

CRYSTAL
PRIMVEC
9.204993617601557 0.0 0.0
-1.5341686712647988 2.65725153256113 0.0
0.0 0.0 13.596318667820938
PRIMCOORD
36 1
Zn   0.070766149933  1.732524317232  4.568798247666 -1.348336377180  0.867102227151 -2.342528490703
Zn   1.405546374947  0.862403885541  2.268812768390  3.937065993298 -1.743349096915 -1.282266482134
O    0.055866947264  1.707590751020  1.751696477939 -3.374205745656  1.918804776186 -0.064300461850
O    1.554266854329  0.933988359407  4.000247214378  1.075871175862 -1.313872281965  2.500405023439
Zn   0.019324043101  1.715454577068  9.033745757338 -1.354508310318  1.671390604299 -1.060821223507
Zn   1.574574911249  0.920278441913  6.772469117223 -1.463391700985 -0.958891124229 -3.114487045371
O   -0.098895689929  1.733323310678  6.302745656912  0.366116862637  0.355903155329  2.097290500532
O    1.486584377258  0.927112229175  8.484476424181 -0.452875653491 -2.629057883424  2.211863228274
Zn  -0.001308029593  1.710060450808  13.576387095141 -0.095838127447 -1.100909863998 -1.670171901401
Zn   1.483242044075  0.992726344181  11.357842796896  3.058471706347 -1.568360072869 -1.255631138934
O    0.045890575181  1.710944130195  10.808291790935 -2.605847249635  2.248751102440  0.789335612493
O    1.652304638854  0.797825332318  13.109013669700 -1.394798268187  0.003841742344  0.991192921686
Zn   3.164928102057  1.765729490709  4.564985539310 -1.287238481427  1.134194079972 -5.521304427960
Zn   4.656568782309  0.913400470682  2.195243697900 -1.433896005519 -1.805328366832  0.460637813935
O    3.075241087743  1.689861933313  1.786332107424 -0.914955342078  0.622747410916 -0.030581729442
O    4.590474166637  0.909212198586  4.031625196622  2.355014538985 -0.816294657581  0.168993468585
Zn   2.939014546197  1.761335026756  8.933777685653  1.453419677374  0.279088363062  0.238105492891
Zn   4.708149884545  0.869087631407  6.807909263150 -1.129135177392 -0.414039397350 -0.227146165666
O    3.067543872080  1.717747540978  6.213841987554  1.288743605218  0.639412273166  5.805548624191
O    4.520612867576  0.871638335139  8.652207976882  1.003659172474  1.077572217713 -1.097994490123
Zn   3.105463843287  1.761458373671  13.513042011062  0.077312043619 -0.411355422760  1.399262731716
Zn   4.539294402123  1.018467188333  11.369928953516  2.709548324770 -2.193390109171 -2.319028607809
O    3.173429834162  1.749692550829  10.720458662335 -3.729497235543  2.152572818044  0.910482393909
O    4.615275180941  0.824719562170  13.077996523206 -0.255787740662 -0.072567586955  1.654320279080
Zn   6.222361209147  1.815214615898  4.585143554833 -0.228886288286 -0.557459131231 -7.899511603011
Zn   7.604456021854  0.949619359069  2.201679829438  1.760986093271 -1.265549169379 -4.314008485796
O    6.137442381527  1.670546174706  1.654020449664 -0.189742528207  2.653555868565  1.876327066638
O    7.668090142733  0.813868715694  3.844008096208  0.752686079591  0.689438484485  5.681020585008
Zn   6.076743733113  1.812268097441  9.148938888468 -0.108229044912 -1.587710709481 -7.729481465632
Zn   7.567765837794  0.801107833042  6.755587158928  1.728284746383 -0.297799823428  0.032019747440
O    6.198612325614  1.724212207996  6.187772525130 -1.552483510848  0.160027774751  6.426321170768
O    7.718407399345  0.824503244820  8.527038473670 -1.343169231156  1.244930721798  0.887599575773
Zn   6.094231379988  1.720039584389  13.542338744249  0.542294764786  1.660482699137 -2.558585488435
Zn   7.607772581055  0.874664937040  11.242630335280  1.447625439290  0.442605896134 -1.703293109435
O    6.178629204969  1.798907969704  10.743749137186 -0.762683300013 -0.604747374794  7.165295042980
O    7.592951620831  0.881544749270  12.971006882389  1.468404837929 -0.481740400241  2.895120266539