# total energy = -36806.19197806022 eV

CRYSTAL
PRIMVEC
3.068331382259589 0.0 0.0
-1.5341656911297945 2.6572516853213606 0.0
0.0 0.0 13.596316381115516
PRIMCOORD
12 1
Zn   0.024055104371  1.761992671427  4.496144718849 -0.374121478109  0.696193800931 -0.602538282958
Zn   1.482327152926  0.813655820284  2.243335929687 -0.079299763473  1.105610097687 -0.709096882146
O   -0.057063906548  1.765642758439  1.736515702294 -0.059897704797 -1.266364209081  1.824368671293
O    1.539770305233  0.921440165080  4.040268917896  0.419128896058 -0.603406287385  0.435516593387
Zn  -0.012231289389  1.766793382708  9.101815674221 -0.451583159932 -0.638943046839 -2.092697481845
Zn   1.564439075880  0.961134861339  6.763151597818 -0.540548471518 -0.811240125876 -1.049480344573
O   -0.001166886425  1.783499833418  6.292589535536  0.604961033467  0.976522464158  0.651756653664
O    1.481359094375  0.839028772983  8.529704730178  0.370348898440  0.484253396471  1.846620540712
Zn   0.038976093049  1.793759719894  13.581146243928 -0.411459552438 -1.027291210070 -1.731117587846
Zn   1.542610659593  0.917917106987  11.353036601893 -0.092601622788  0.293568044735 -3.045732918624
O   -0.001390260949  1.809822127847  10.862691166191  0.134883157165 -0.150283550880  1.384989509626
O    1.523370687661  0.845101921288  13.064829530908  0.480189767925  0.941380883260  3.087411272200