# total energy = -36809.803786402 eV

CRYSTAL
PRIMVEC
3.2601020275036623 0.0 0.0
-1.6300510137518311 2.8233298583688593 0.0
0.0 0.0 15.38822274675385
PRIMCOORD
12 1
Zn  -0.053088479446  1.941257745216  5.126092167159 -0.103617257172 -0.440557498245  0.140438796876
Zn   1.515841163463  1.004286817960  2.597274709792  0.312441998821 -0.145984409284 -0.224372973797
O   -0.079435646002  1.932706823608  2.063045702667 -0.232073170654  0.001190934984 -1.012186750329
O    1.554792536478  0.948408343199  4.551077979630  0.150916042258  0.392094517648  0.427899443161
Zn   0.013939218239  1.820923467258  10.183522021477 -0.023521994381  0.657920873493  0.661091815022
Zn   1.587306186018  0.823328008709  7.796328286337  0.199873445993  0.710219682897 -1.103854805559
O    0.021007771455  1.868609631635  7.133106496280 -0.249105957767 -0.625828106724  0.303322553019
O    1.645397944046  0.975448281435  9.721423097721 -0.048842475424 -0.652457536386 -0.127296345957
Zn  -0.036066182720  1.805609790004  15.302191588340  0.064643189902  0.503366720262  1.188092629763
Zn   1.562820863730  0.890938286627  12.764341366285  0.199552829429  0.577286193259  0.216780249051
O   -0.030630288599  1.907535575853  12.173925152737 -0.122138713015 -0.611037064457  0.192777972599
O    1.604556037866  0.922068674878  14.806272040140 -0.148127937990 -0.366214307447 -0.662692326740