# total energy = -73611.07659933253 eV

CRYSTAL
PRIMVEC
9.013222972357486 0.0 0.0
-1.5022068331339051 2.6018921415452976 0.0
0.0 0.0 9.45420391950305
PRIMCOORD
24 1
Zn  -0.024364544339  1.661607484045  4.836104273090  0.600708685948 -0.535509109322 -4.285066348840
Zn   1.507502101630  0.947177069108  2.384353498496 -2.059994335185 -2.203248747133  0.412777242808
O   -0.002847277137  1.692509319005  1.796841881522 -0.193377296746  1.004549288388  0.459866482986
O    1.504650317882  0.769554385314  4.179207964352  0.899424850543  1.223586451794  1.169115060219
Zn  -0.072781775502  1.771375921336  9.461682190603  2.491748376206 -0.915387801630  0.364127600121
Zn   1.412405388693  0.870917090861  7.112191838564  0.998205091338  0.804484295209 -0.841257755284
O   -0.081230770716  1.745692742476  6.509711962200  1.740980082463  1.074815480904  3.146768531112
O    1.573997154109  0.802829401883  8.892266421391 -1.146656988326  2.005296429421  0.360259889636
Zn   3.052186451988  1.892622698082  4.665515508504 -1.186193612968 -1.362966211278  0.962268782452
Zn   4.461344376445  0.755717285407  2.314243242283  0.775274249304  0.379788189477 -1.321824704042
O    2.948962515897  1.618940689138  1.788090943338  2.417123135391  1.094998640720 -1.283880877809
O    4.605747024329  1.025198231123  4.088069858945 -4.697012353996 -1.849747259267 -0.111868698548
Zn   3.077190033836  1.715582268492  9.378422543396 -0.171257067808  0.355494092816  0.489930649362
Zn   4.561412783173  0.880467501922  7.040752131963  0.237677918436  2.033406043173 -0.971336034861
O    3.006392068710  1.793799918769  6.612810614492 -0.645232993613 -2.286196134660 -2.130213990733
O    4.522894774801  0.830769491775  8.811474594633  1.911281728336  0.771282868757  1.816942039811
Zn   6.024038948946  1.705761460742  4.622708107319  2.996313487651  1.228269459092  2.142326200616
Zn   7.495934313224  0.958002851220  2.412322430701 -0.270326557709 -1.348905876530 -2.406772131174
O    5.976998938253  1.657782272215  1.737258168419 -0.599229016079  1.144641500558  0.140180401008
O    7.481089534988  0.809238704739  4.133734451812  1.453997661365  0.736803604033  1.690563320573
Zn   6.178704052507  1.852568836515  9.366886519314 -2.472417022867 -2.901494031276  1.434356747206
Zn   7.518453850820  0.882324225855  7.074031655144 -0.525094598857 -1.817909545931  0.174842728277
O    6.130592369603  1.755326976511  6.475569873581 -2.003024345558  0.502835787459 -0.290237951920
O    7.556623948786  0.869194663951  8.879237807584 -0.552919334379  0.861112071006 -1.121867182976