# total energy = -24538.241935848175 eV

CRYSTAL
PRIMVEC
6.520203525830115 0.0 0.0
-1.6300508814575287 2.8233328893302754 0.0
0.0 0.0 5.548132462978206
PRIMCOORD
8 1
Zn  -0.090104648585  1.945305330013  5.424183393952 -0.579085708362 -2.592672659927  0.707388898316
Zn   1.635473734730  0.941220719869  2.788549559581 -0.309209093706 -0.221956908156 -0.567709605314
O   -0.034345172072  1.772235655705  1.930575538228  0.913324234233  0.679970397094  1.325100032360
O    1.659923845931  0.871311749686  5.110171696189 -2.391188160692  0.752199626873 -2.486547805841
Zn   3.089222224971  1.709492389196  5.648977842831  3.353610695114  2.112175388064  0.168321639329
Zn   4.841328708351  1.085179641496  2.598501927312  1.093956572608 -1.282591469573  1.184367101282
O    3.268479572425  1.852125101425  2.150719777952 -1.790959242594  0.609357105652 -0.445958614656
O    4.872544182731  0.876507699876  4.874987955012 -0.290449296600 -0.056481222916  0.115038354525