# total energy = -49073.8332597745 eV

CRYSTAL
PRIMVEC
6.775898248666088 0.0 0.0
-3.387949124333044 5.86809728080105 0.0
0.0 0.0 5.656919635983122
PRIMCOORD
16 1
Zn   0.028955445986  1.906674751321  5.406066396560 -0.281494658510 -0.294218276724  0.308273212156
Zn   1.807882832445  1.042159576648  2.631713481264 -1.736654458504 -0.372196750282  0.435787073440
O   -0.073231875502  1.983478880380  2.276407737568  0.592858850886  0.325414242711  0.125399900265
O    1.724929575726  1.158964543428  5.008746695773  0.325318083453 -0.788469150728 -0.131968040401
Zn  -1.465155188668  4.686049284809  5.582741845085 -9.273540499861  4.468426627670  3.140869134909
Zn   0.021810938873  4.075883713056  2.860033471061 -0.241474409364 -0.918103143679 -0.888008638286
O   -1.901353638426  4.898114572298  2.089284531533  1.692872942543  0.257998375160 -0.003453248656
O   -0.121984463401  4.002098924257  5.144946316110  7.930779302777 -4.323986937165 -3.309271249766
Zn   3.442392111581  1.807852340903  5.761921665604 -0.242583069047  0.613033011841 -0.837601646589
Zn   5.003559068074  1.094928239439  2.735125885155  2.424052772631 -1.364022934677  0.863744880643
O    3.474351990851  1.830605129632  2.149132652814 -1.525071180273  1.069808771718 -0.890856649258
O    5.082313978239  1.015873834572  4.948372087198 -0.005047846837 -0.526008368921  0.195982338469
Zn   1.604358564699  4.781638236583  5.463347807585  1.534761410978  0.466637740272  0.264049980671
Zn   3.493691759632  3.834569583187  2.917924035338 -0.807634410802  0.435462086000 -0.440584751939
O    1.720582159409  4.764980368328  2.262050964359 -0.400997219454  0.520164508545 -0.130731854001
O    3.368565989803  3.779551322178  4.827735349958  0.013854646495  0.430059941148  1.298369558343