# total energy = -110429.62208048912 eV

CRYSTAL
PRIMVEC
9.780305553333779 0.0 0.0
-4.8901527766668895 8.469989116825886 0.0
0.0 0.0 5.0247297810807625
PRIMCOORD
36 1
Zn  -0.025365222453  1.945660733741  5.039499020497  0.470603152678 -1.100437038126 -0.077338011761
Zn   1.646418592909  0.914048774434  2.489723483184 -0.094703756732  0.269796910457 -0.099393963119
O   -0.011021426328  1.854013402523  1.970133992327  0.377081846289  0.524389345260 -0.250623679963
O    1.699835687750  0.970989713366  4.402297443239 -1.145539072671 -0.624746186513  0.599226959196
Zn  -1.670534870343  4.647212920814  4.943711685938  0.355479694638  0.582522759068  0.606784716939
Zn   0.059131727375  3.802232664197  2.502597299384 -0.296465677998 -0.577405749556 -0.172741108553
O   -1.547621858332  4.724096880799  1.934600186191 -0.850255587907 -0.451990936893 -0.249852091904
O   -0.038607756172  3.744012461299  4.455382007691  0.385115258116  0.574118594164 -0.073210105635
Zn  -3.208493786788  7.459372539450  5.065323917310 -0.657767121524  0.994755442226 -1.424309390272
Zn  -1.659919326695  6.556217069341  2.450531842771  0.330317079330  0.452387143890  0.258871264684
O   -3.284348858629  7.530294425170  1.864325756699  0.239996282156 -0.213169905992  1.717842210894
O   -1.663577160972  6.584731550182  4.465013652600  0.641962293281 -0.537622041900 -0.650507868858
Zn   3.262141696840  1.883173383531  4.978482628241 -0.345675821174 -0.056996729100  0.666138376307
Zn   4.875942970728  0.905646513933  2.591424968511 -0.071842021643  0.290432584430 -1.194561011096
O    3.237325149528  1.852124825521  1.923985620574  0.477376981066  0.298550585551  0.101261612456
O    4.820275427580  0.953597396000  4.462893282356  1.216815451619 -0.288438693928  0.528857151223
Zn   1.633361884996  4.645629489345  4.964451801894 -0.053945086758  0.435755963091  0.392443673457
Zn   3.294347264996  3.783681380624  2.522662574257 -0.825340312723 -0.930565537812 -0.443462073486
O    1.647614724278  4.707517306825  1.963195843568  0.193798700554  0.118093596411 -0.548726636454
O    3.236975992620  3.700819697884  4.419185096838  0.232340308273  0.921204151202  0.627251469434
Zn  -0.050471266808  7.526630722710  4.987073648639  0.381926318865 -0.054308126524  0.105349152261
Zn   1.687792219492  6.591925942947  2.496038626480 -0.545185198959 -0.018815075824 -0.300517736580
O    0.017002083174  7.532264178708  1.916076287473 -0.055752058060 -0.199001070691  0.254712762431
O    1.666157205577  6.613683210681  4.421868812682 -0.982873860297 -0.674966773232  0.338424024707
Zn   6.512904986198  1.871363664575  5.057846873715 -0.074499770981  0.009910574245 -0.219053361356
Zn   8.188223403987  0.938311756451  2.506914326256 -0.395206838024 -0.050812454666 -0.057852135122
O    6.530890968111  1.902017098240  1.981654214239 -0.165819955953 -0.253137447524 -0.159909761116
O    8.154134148981  0.962236339895  4.437988712295 -0.229918586205 -0.289058072680  0.580308782136
Zn   4.869114361391  4.716043777206  5.026222255708 -0.253780737535 -0.380471588697  0.132889009553
Zn   6.494354680655  3.766536504989  2.540064671929  0.231160171922  0.151353386906 -1.036398057468
O    4.818404455128  4.671940467344  1.973924838760  1.298196265990  0.861683113018 -0.349975734101
O    6.496706844141  3.816657636858  4.407101529327 -0.326499505356 -0.678996977437  1.000722715553
Zn   3.200963929542  7.477553149443  5.039242776491  0.915872968797  0.737648725642 -0.035445228181
Zn   4.909806300676  6.646972436693  2.526918963234  0.020603535183 -0.661742304122  0.330165641353
O    3.297109223284  7.505250974770  1.963218338271 -0.166321578180  0.394741468352 -0.074643238537
O    4.901833395589  6.561732183643  4.551721929513 -0.231253245856  0.425337853082 -0.822728329021