# total energy = -73616.9166243594 eV

CRYSTAL
PRIMVEC
6.264509332171351 0.0 0.0
-1.5661273330428378 2.7126139794515134 0.0
0.0 0.0 14.181301794230892
PRIMCOORD
24 1
Zn   0.011024909974  1.758932642563  4.817526702117 -0.436155512523  0.349978819425 -2.537323750843
Zn   1.542655469477  0.895207153880  2.355651588039  0.205350152837  0.202268428588 -0.292471726347
O    0.046873564627  1.845317720450  1.744923946794 -0.481701576584 -0.504212870312  1.804814917530
O    1.563218094909  0.934686091692  4.199672555056 -0.080447246813 -0.795674153117  0.427329429591
Zn   0.030104726047  1.749922398790  9.458029646624 -0.113366109029  0.307617323739 -2.341861803653
Zn   1.572142514904  0.907670395197  7.079300859107 -0.451742568328  1.093752427017 -0.810079529909
O   -0.020704203343  1.891431400095  6.574746627828 -0.049294475360 -1.383040870540  1.575304879618
O    1.609469593759  0.892071766960  8.881501214726 -0.313186847407 -0.565543193791  1.329033820196
Zn   0.017702876922  1.892153698021  14.142083460008 -0.120794026062 -1.164701504532 -1.182885374530
Zn   1.609710777369  0.863300128499  11.830029098216 -0.625297945252 -0.163183289661 -2.253107579636
O    0.009920476978  1.776629881426  11.210257384848  0.112281617715 -0.083429983591  2.658338634666
O    1.603200699271  0.914531285817  13.597093700342 -0.721890948587  0.776564428871  1.436679996022
Zn   3.120514975597  1.832058886448  4.712138235171  0.171967720722  0.147303128096 -0.812243370329
Zn   4.610160793556  0.931935345644  2.300049056108  2.675739089530 -0.756657919755 -0.005500360993
O    3.194367276114  1.823390684885  1.842292588893 -2.386744780209  0.974794682833 -0.274176270472
O    4.674984683224  0.924845173982  4.142049718866  0.535429662235  0.160734056790  0.951835245824
Zn   3.078928030396  1.853648891411  9.446633251247  0.855202133279 -0.370266623139 -0.600707143286
Zn   4.659429280101  0.914793768758  7.063084550250  0.404438383925  0.031167940962 -1.135498400606
O    3.119203187343  1.813775915962  6.550811190572 -0.007051507530  0.381381502106  0.342694627058
O    4.715162113826  0.893883463058  8.856839720838 -0.399467413073  0.650863195315  1.703853352814
Zn   3.047907433085  1.870105757426  14.179564645793  1.247045197038  0.409303939547 -0.586205350126
Zn   4.655460086988  0.900729945308  11.792048004586  0.877479199510  0.072968421938 -0.612591553429
O    3.142006001312  1.808130966603  11.296201441278 -0.384283249133  0.194060181746  0.054854485946
O    4.720307155340  0.968028316161  13.617761569531 -0.513509465123  0.033951417245  1.159912824894