# total energy = -12269.732353432835 eV

CRYSTAL
PRIMVEC
3.196178479088971 0.0 0.0
-1.5980892395444855 2.767970467353026 0.0
0.0 0.0 5.439346028711025
PRIMCOORD
4 1
Zn  -0.051753800405  1.806912838947  5.507187793490 -0.641677672161  1.016609304876  0.003486930107
Zn   1.533035820870  0.965413380437  2.677861885963  0.605045879871  0.070905111651  0.936974012441
O    0.015694514804  1.907587027535  2.080671278802 -0.714368672068 -0.002305251094 -0.046945772622
O    1.505566584550  1.085367556847  4.864797149896  0.751000464359 -1.085209165433 -0.893514912816