# total energy = -36809.369609860514 eV

CRYSTAL
PRIMVEC
3.196178479088971 0.0 0.0
-1.5980892395444855 2.767970467353026 0.0
0.0 0.0 14.47071724114619
PRIMCOORD
12 1
Zn  -0.078296144967  1.832803802335  4.818248965380  0.298495306833 -0.338799405769 -2.125840287145
Zn   1.697387473297  0.957081262760  2.386441044215 -1.154501938292 -0.485262554462 -0.133569066339
O   -0.008230798819  1.847446454801  1.827544490648  1.113540408278  0.476812366812 -0.011594132596
O    1.570666667430  0.869029102604  4.256412247230 -0.393832583385  0.378796514987  0.135911084209
Zn   0.011651029410  1.868752819778  9.593476729196 -0.279089134393 -0.628168324821 -0.267093395483
Zn   1.606103976699  0.929239032411  7.241689291287  0.157381338267 -0.062189843265 -2.005489776379
O    0.025877859056  1.835899940428  6.587231475844 -0.046082653291  0.073692701698  2.776355355093
O    1.568145521845  0.880034503961  9.045095922442  0.294771835235  0.638302842152  1.292913677435
Zn   0.028097285392  1.925303764462  14.415948485582 -0.368248564268 -0.405177833194 -0.110495729459
Zn   1.627836392267  0.970597262312  12.038680793220  0.103548094497 -0.617054988517 -1.513638512956
O    0.032555634752  1.800461033069  11.455498077479 -0.110032930890  0.645749271128  0.460133620605
O    1.568699419576  0.953955080590  13.844223430453  0.384050564297  0.323299253251  1.502407163017