# total energy = -24538.922167790788 eV

CRYSTAL
PRIMVEC
6.520203525830115 0.0 0.0
-1.6300508814575287 2.8233328893302754 0.0
0.0 0.0 5.443450595371004
PRIMCOORD
8 1
Zn   0.259586254892  1.763789384057  5.640796943467 -0.916419842439  0.214556501927 -1.681782746167
Zn   1.662767306689  0.899424259208  2.715311373477  1.226701343274  0.976573372000  1.070654150437
O    0.093902015118  1.928085472501  2.093044665644  1.064677878249 -0.118223694231 -0.019172202053
O    1.740990188388  0.836746194734  4.819860286222 -0.037693915006 -0.045528323449 -0.023146356209
Zn   3.383355778245  1.788240799299  5.539622945357 -1.133653376977  1.154680887072  0.091204228220
Zn   5.138279641568  1.022546566427  2.720243255424 -1.994486997511 -1.395335885858  1.147662546772
O    3.440620769752  1.824727858230  2.097757468752 -0.610161603831  0.394004590186  0.240960960062
O    4.869518808295  1.019538796540  4.869749623500  2.401036771352 -1.180727190537 -0.826380323951