# total energy = -73618.40094983802 eV

CRYSTAL
PRIMVEC
9.780305553333779 0.0 0.0
-3.2600985910094087 5.646659411217257 0.0
0.0 0.0 4.920041390437877
PRIMCOORD
24 1
Zn   0.048140619995  1.952010108107  4.787533898679 -0.846909554253 -2.094735595321  1.542965801165
Zn   1.598519546462  0.974705251445  2.431981537228 -0.213795455391 -0.635077650346  0.083688379459
O    0.085047581031  1.891409378837  1.837960008988 -1.413717216578 -0.053861268795  0.217439994122
O    1.514153652728  1.017628078427  4.337880438742  2.377209329915 -1.784251491557  0.011107679877
Zn  -1.586242328901  4.614722745766  4.939907147078 -0.364229415806  0.957524325789 -2.397579666041
Zn  -0.036418923789  3.706475648586  2.433992368050  0.248947834922 -0.024936101120 -0.176752543705
O   -1.539907153311  4.738899373254  1.782658249267 -0.444481001669 -0.111175786246  2.680442408543
O   -0.012218535728  3.647374240158  4.386099301181  0.131489558102  3.481168779372 -0.961751990717
Zn   3.270732717238  1.930384874498  4.872839679776 -1.177880465117 -0.757550606772  0.262128852389
Zn   4.909004315621  0.914903573139  2.433175712536  0.021196688682  0.301596828577 -0.730582048603
O    3.195011635583  1.703134584813  1.867910238684  1.482742337598  1.774017729644  0.183125280001
O    4.730554816556  0.922612409977  4.315142206361  1.884219839122 -0.667742744679  0.547054648068
Zn   1.612064291623  4.642520330209  4.906166070949  0.138549293163  0.380617884467 -0.268591577295
Zn   3.274020855965  3.750792169109  2.466140232404 -0.285177506678 -0.579631553563 -0.270798098028
O    1.583552744874  4.675038868144  1.913096228371  0.849901804112 -0.219911595591  0.238741069593
O    3.388412287747  3.755871081783  4.445433480882 -1.456737686004  0.548026782173 -0.648116485808
Zn   6.513845851592  1.936283376777  4.841088895828  0.128750819015 -1.176575630262 -0.005190028841
Zn   8.119616516592  0.849102655407  2.474379161802  0.556001572849  1.226933256779 -1.152993729177
O    6.610318785571  1.907088186670  1.846300653564 -0.689967874626  0.025076740463  0.437208893488
O    8.297782386796  0.935228026110  4.305242581080 -1.670402015134 -0.282195027011  1.278020048153
Zn   4.930158138502  4.699930723807  4.920127457127  0.383626589386  0.885696702324  0.273466388889
Zn   6.642773751519  3.873184868865  2.452765664559 -0.345322294489 -0.614201835339 -0.530905549112
O    4.908884017863  4.690779291901  1.988708748634  0.094075122010 -0.841016328697 -0.664334490329
O    6.500298172340  3.754757104980  4.350448131378  0.611910211091  0.262204185712  0.052206763911