# total energy = -24539.36389930089 eV

CRYSTAL
PRIMVEC
3.068331382259589 0.0 0.0
-1.5341656911297945 2.6572516853213606 0.0
0.0 0.0 10.246499346178815
PRIMCOORD
8 1
Zn  -0.027078944948  1.749533405016  5.207807976654  0.200907800795 -0.218341680001 -1.208444196836
Zn   1.482960456523  0.922722420764  2.502921980789  1.268357842472 -1.199130632745  1.633762766644
O    0.008407534821  1.720240045310  1.960847853147 -1.237769685273  1.224987960127 -1.818171541343
O    1.529107546846  0.847663671159  4.509987802714 -0.192297690529  0.237765335943 -0.412164806035
Zn   0.050105237806  1.824573744633  10.162598892862 -0.275018306757 -1.224225370930  1.727055501962
Zn   1.587096555306  0.881418077862  7.699300423044 -0.422068438302  1.340753422626  0.006235182276
O   -0.005019176475  1.861621084576  7.069164264232  0.442825211233 -1.399547095726  0.365123902596
O    1.558315300107  0.865215140332  9.599535844400  0.215063266360  1.237738317814 -0.293396809264