# total energy = -49078.79535956987 eV

CRYSTAL
PRIMVEC
6.264509332171351 0.0 0.0
-1.5661273330428378 2.7126139794515134 0.0
0.0 0.0 10.057663468291771
PRIMCOORD
16 1
Zn   0.035197772134  1.845114123896  5.084524475011 -0.601798833688 -2.032943244604 -0.726430231218
Zn   1.562086098073  0.872765175649  2.421348750307 -1.061489196108 -0.487867853295  1.588212845928
O   -0.010757415425  1.787000150175  1.883144080699 -0.576541601784 -0.334399219819  2.129537276381
O    1.559974958428  0.804887337682  4.441413079225 -0.466662165752  1.512501828248 -1.020138143965
Zn   0.119624564403  1.829489811171  10.184204677449 -1.458302973608  0.867717749248 -2.729600358325
Zn   1.541593008694  0.958478071684  7.487202481704 -0.178408334141  0.720846566483  1.196770360042
O   -0.084875331138  1.906659169379  6.941909519787  0.895552512072 -0.635853866391  0.210212366025
O    1.536148523634  0.983618174085  9.485055992785  1.496643263950 -1.218383053216 -1.042652008797
Zn   3.023639350383  1.810129345080  5.044544376453  1.235454921097 -0.288567763307  0.017122775723
Zn   4.715667033278  0.851958860804  2.465533587529 -0.691637034799 -0.092780314458 -0.142797012695
O    3.022489812920  1.724499767019  1.884345613589  2.246790379169  0.925963263153 -0.373847398512
O    4.705657600267  0.817521600103  4.330821310827 -0.110546123081  0.952232224152  1.210475368333
Zn   3.231200711635  1.842385303631  10.028891829831 -0.053624984414 -1.845240629646  0.100388980043
Zn   4.703213815176  0.900066533769  7.524385476845  0.753149649491 -0.523779736701  0.598859805665
O    3.212618924053  1.790779528655  7.019699690870 -1.528610560885  0.282849886987 -1.331895200904
O    4.776233562403  0.803903809717  9.418811938852  0.100031339593  2.197704163165  0.315780576276