# total energy = -110428.91744918705 eV

CRYSTAL
PRIMVEC
9.396764262845632 0.0 0.0
-4.698382131422816 8.13783277073089 0.0
0.0 0.0 5.330558843970019
PRIMCOORD
36 1
Zn  -0.001262925117  1.754331723081  5.301080254801 -0.104453637030  0.624930277500  0.463017627021
Zn   1.531012921993  0.906716335956  2.687366516385  0.417914564035  0.211542654801  0.023801987516
O   -0.033456239481  1.874768171285  1.996493855546  0.328619379912 -0.441354283115 -0.193956566288
O    1.597928219985  0.894659347731  4.720125304251 -0.739954490957 -0.227525403383 -0.860705579596
Zn  -1.603142484474  4.565059900385  5.325553187647  1.162897618554  0.517812977594  0.467256090582
Zn   0.015748037228  3.665328179306  2.664770117362 -1.050672050888 -0.067680948287  0.611719435236
O   -1.647140014106  4.554795814781  2.001906391762  0.723400186143 -0.180076465872 -0.266735497923
O    0.060394883270  3.668481733392  4.722039425131 -2.598849478161 -1.458666527595 -1.190634165238
Zn  -3.121279960074  7.185529912306  5.317716286252 -0.459041158872  0.571007816450  0.752951417437
Zn  -1.642756423577  6.361136748704  2.650824379519  0.939771629791 -0.082627799405  0.443570316929
O   -3.144560443535  7.227810653107  1.997753021957 -0.917786126659  0.404560254215 -0.200686428813
O   -1.575143885677  6.423566031437  4.643784112026  0.345856312616 -1.099764951760 -0.314694799411
Zn   3.126261184810  1.793202378131  5.321366929168  0.332828532898  0.714253229536  0.481193783709
Zn   4.761839420166  0.972233395426  2.621429421552 -1.466874517328 -1.317996845656  1.002457438856
O    3.156951956568  1.823937314682  2.015004541468 -0.540296760519 -0.300730109701 -0.228665687635
O    4.687277975093  0.912749058613  4.665936983776  0.559080983105  0.522700901814 -0.156250567097
Zn   1.508645804018  4.497871156553  5.278148391294  1.383969553002  1.397316663733  1.320394656464
Zn   3.133173444601  3.673098363674  2.595157948026 -1.246484696548 -1.273357352570  1.263869467684
O    1.537928000814  4.456663526231  2.002491810175  0.315631966514  1.198320735249 -0.536301009096
O    3.059676652919  3.670715344257  4.706954799460  1.475417007581 -0.608278270765 -0.545271845136
Zn   0.000810940756  7.252374734567  5.290382038688 -0.065803528758  0.160529911199  0.865126334371
Zn   1.553711745746  6.290147953404  2.688709313998  0.369685810935  0.176400045462  0.058870549084
O    0.014425912496  7.207032527969  2.066354099458 -0.190630844349  0.415389226510 -0.736950928244
O    1.551241336421  6.366351013194  4.690813977486  0.118239120850 -0.540678826449 -0.578725753919
Zn   6.264698696751  1.825569532634  5.449869559815 -0.262172561143 -0.235113757253 -0.463648061516
Zn   7.901743767009  0.901292523624  2.724376612110 -0.490913839210 -0.021555357573  0.269475522562
O    6.258595498362  1.814132730850  2.071002678739  1.503754421073 -0.316905948130 -0.870735195918
O    7.781770579283  0.859691168879  4.723847362575  0.347689252059  0.855997375487 -0.661264336044
Zn   4.748156791723  4.502854260642  5.309008304810 -0.552897222892 -0.648906842920  0.412896541995
Zn   6.259814258687  3.570835257555  2.625989671249 -0.003561749209  0.848366341304  0.959526700931
O    4.644795203861  4.466261381249  2.093892256807  1.790257588541  1.015914335692 -1.189357869628
O    6.363877784840  3.606760027008  4.689457084726 -1.258452924654 -0.448679098911 -0.548423246281
Zn   3.085688775752  7.237262858279  5.353868457400  0.432119651890 -0.556700141578  0.505796412749
Zn   4.652980725210  6.288276117963  2.704675356157  0.565710058386  0.105264305857  0.366320494007
O    3.206502973879  7.266093070714  1.986821766090 -0.937583878111 -0.277821066313  0.252008476126
O    4.692197181185  6.296719110653  4.766778359463 -0.226414172596  0.364113459054 -0.977245458367