# total energy = -49074.67018901533 eV

CRYSTAL
PRIMVEC
6.648050622659499 0.0 0.0
-3.3240253113297493 5.7573780404886925 0.0
0.0 0.0 4.909778178302097
PRIMCOORD
16 1
Zn   0.126689241496  2.148275675993  5.091849005510 -0.086482911485 -1.249936402542 -7.263367716184
Zn   1.763925277295  0.938184870361  2.588958996448 -0.519862918145  1.259557470572 -1.712727258264
O    0.053355924687  2.142842224220  1.786851079867 -0.613734151673 -0.745636371833  7.852450644968
O    1.485274894667  1.121675721182  4.340180513808  1.920935449376 -0.838481220980  1.389451402052
Zn  -1.517234068425  4.637939388342  4.818642711536 -2.629083594455  1.563471120207  0.390685296005
Zn   0.040906785091  3.996392531179  2.305752039923  0.957662908249 -0.454813493943  0.630631955870
O   -1.613191366307  4.940648401368  1.992483928092  0.774138850148 -0.982880288055 -1.551350939905
O    0.088218966958  3.917609142470  4.370876557948 -0.728426435713 -0.126883683899 -1.672733748591
Zn   3.476050938554  1.891567184445  4.939542165745 -0.804420788961  0.326789268682 -2.347526458138
Zn   4.874392599253  0.891387912418  2.431359643582  2.161482718939 -1.032402306045 -2.599686115130
O    3.499481992973  1.909560798260  1.827909440513 -1.436328011999 -0.113768743784  0.487044328953
O    5.013599455266  0.939796357832  4.146803346907 -0.219764271380  0.176816307064  3.859529235263
Zn   1.610160520028  4.790458300922  4.890656390296  1.877303571618  1.115717104214 -1.939952871018
Zn   3.503737410177  3.733390330106  2.426150231114  1.036306011974 -0.423677948881 -5.801029396164
O    2.008713814077  4.577217423564  1.698317660115 -2.146129633522  1.492467278195  1.844683728701
O    3.248897020853  3.949120237616  4.018327774208  0.456403464138  0.033661653919  8.433897397363