# total energy = -24538.68091247778 eV

CRYSTAL
PRIMVEC
3.3240255759183532 0.0 0.0
-1.6620127879591766 2.878689249384692 0.0
0.0 0.0 11.313842919653535
PRIMCOORD
8 1
Zn   0.055171844107  1.902397342741  5.726601345962 -0.237642437212  0.094567745375 -0.544634982883
Zn   1.651766479121  0.914956654315  2.791631025136 -0.080260327614  0.481577649411  0.244313164364
O   -0.046884383541  1.966159798545  2.130052541579  0.145399226205 -0.555285520618 -0.078032723835
O    1.637346523771  0.956882256501  4.946695861966  0.265583129486 -0.105346066938  0.524682708131
Zn   0.008817975048  1.826184084336  11.327343117128  0.252937415698  0.542450059417  0.090670467203
Zn   1.638053876413  1.008177289579  8.488602007114  0.686975367657 -0.387733669576  0.581285544226
O    0.068926661940  1.900022658869  7.886192176016 -0.680371746297  0.426738332974 -0.605300933304
O    1.706077068201  1.041305525676  10.650423590732 -0.352620370812 -0.496968272935 -0.212983501013