# total energy = -49078.61471162792 eV

CRYSTAL
PRIMVEC
6.136662235341968 0.0 0.0
-1.534165558835492 2.6572545245121315 0.0
0.0 0.0 10.049453306556126
PRIMCOORD
16 1
Zn  -0.045287953631  1.845682171221  5.000854423516  0.899863737853 -0.765334364483  0.278202360912
Zn   1.575268922488  0.912019695424  2.519234240511 -0.656815813354 -0.850309323963 -0.316120733225
O   -0.004480377098  1.726484871294  1.911892461076  0.141921294959  0.689536186405 -0.411716919864
O    1.466974016688  0.866190488185  4.378344656035  0.844226093884  1.787859006402  0.359103407434
Zn   0.023841546451  1.700560541681  10.009469883762  0.053470975335  1.661950284822  1.702830053755
Zn   1.534053871583  0.890613790215  7.546854943699 -0.498580097506 -0.194128830200  0.414343558854
O   -0.032860598938  1.769976623888  6.875449478859  0.294996549651  0.000645861114  0.784061508579
O    1.491086189943  0.868100217472  9.482466217981  2.316906162149 -0.405485851353 -1.191077680533
Zn   3.093128756098  1.760829315160  5.083905555545 -0.815189854552  0.102172040085 -2.186463043034
Zn   4.581933335022  0.910621150101  2.539445337583  0.093317932129  0.188935458925  0.115960609229
O    3.049905789309  1.807239664314  1.905467989382  0.438460763617  0.007445914755 -0.120412474353
O    4.624099568574  0.923915001501  4.431924467678 -0.909450095989 -1.177895634625 -0.230306308562
Zn   3.103678292147  1.790583535674  10.082525006675 -0.455566827170 -0.585430419633 -0.185672214792
Zn   4.591402204851  0.815633596359  7.483168663021  0.221976962761  1.025980975899  1.303298877324
O    3.059547099347  1.762891847337  6.868444478917 -0.003360174721 -0.815721815796  1.602351342212
O    4.662783246306  0.900156913657  9.499770378152 -1.966177351933 -0.670219745465 -1.918383115268