# total energy = -12267.935646301521 eV

CRYSTAL
PRIMVEC
3.004407833844898 0.0 0.0
-1.502203916922449 2.601892294305528 0.0
0.0 0.0 5.209456910601355
PRIMCOORD
4 1
Zn   0.072668513600  1.628636308709  5.180701422783 -6.319878528332  3.664500004736  4.095403781941
Zn   1.591193275198  0.744012457296  2.743643560755 -0.057509921291  5.499998467393  0.479562675864
O    0.008575180839  1.830147950940  2.155741937151  0.087779004588 -5.809295235717 -3.698482018108
O    1.372114259480  0.937466578158  4.563871557909  6.289609702145 -3.355203493522 -0.876484439697