# total energy = -24538.43444305545 eV

CRYSTAL
PRIMVEC
3.196178479088971 0.0 0.0
-1.5980892395444855 2.767970467353026 0.0
0.0 0.0 10.673436671673436
PRIMCOORD
8 1
Zn  -0.157538678381  1.972447077411  5.407671899983  0.383051433609 -1.946813345584 -2.633395848678
Zn   1.451002064790  0.831785313258  2.714102714502  0.593946684634  1.073136036319  1.259392919970
O    0.023898465724  1.894842585468  2.057884443954 -0.551410353934 -1.102185388276 -0.969588713153
O    1.497787405749  0.926066825270  4.918454594203 -0.292364254235  1.814417987838 -2.657745224056
Zn   0.054634835686  1.823058654152  10.633020355570 -0.231161457473 -1.715616406887  1.418575573112
Zn   1.673775385165  0.908037821706  8.123721406797  0.026379261324  0.587225563860 -2.034664598171
O   -0.205146396062  2.071713988615  7.130443422761 -0.097322939523 -0.688812163755  5.680108100496
O    1.579396709327  0.744016014898  10.020246140998  0.168881625597  1.978647459375 -0.062682209521