# total energy = -49074.34408098824 eV

CRYSTAL
PRIMVEC
6.775898248666088 0.0 0.0
-3.387949124333044 5.86809728080105 0.0
0.0 0.0 5.983280775130124
PRIMCOORD
16 1
Zn  -0.046004961159  1.964324093621  6.012189467418 -0.016403895279 -0.367713517700 -0.342881546258
Zn   1.765610036041  1.008115431077  2.970885811229 -0.320764659754 -0.063256336856 -0.469660586259
O   -0.060639546197  1.867350148245  2.235746927357  0.560633672304  0.708204709349  0.180329976644
O    1.688561974645  0.955262747148  5.359995709188 -0.040784381006  0.279955853268 -0.098158033830
Zn  -1.604782058340  4.864665350593  5.978834430699 -0.005332725067  0.387298381811 -0.145434193208
Zn   0.041771379934  3.930443800277  2.934556155179  0.046295797743 -0.066144714148 -0.281714487831
O   -1.592654555654  4.964598330734  2.160008647093 -0.229867421252 -0.478087891090  0.619856719631
O    0.048406339499  3.926765165118  5.209757105269 -0.098118181731 -0.273342718827  0.310982640667
Zn   3.314146040609  2.079652592172  5.918211146658  0.258594356873 -1.078785007074 -0.331458134913
Zn   5.026645908587  1.001179621630  2.933414416324  0.373120547648 -0.235059764086  0.058812699263
O    3.425814876516  1.963350397042  2.308481451928 -0.450599970083  0.501092579516  0.169068544797
O    5.013374634277  0.961842144347  5.219853193660  0.330935686750  0.143622593920  0.419318643471
Zn   1.739907021215  4.856950312847  5.947470830476 -0.204863443009  0.523396899440 -0.279152383530
Zn   3.458164369935  3.945425311305  2.990477643426 -0.134393619123  0.017032015782 -0.350033326812
O    1.738741566716  4.937006873066  2.209653620791 -0.018039116890 -0.559151688442  0.284521361152
O    3.433407270504  3.876833570923  5.178260019850 -0.050412648125  0.560939119360  0.255602364124