# total energy = -36807.17903005681 eV

CRYSTAL
PRIMVEC
3.4518726727477356 0.0 0.0
-1.7259363363738678 2.989408031416358 0.0
0.0 0.0 16.625930920798776
PRIMCOORD
12 1
Zn  -0.000000000000  1.992939723173  5.541112394557  0.000000000000  0.000000000000  0.012876598852
Zn   1.725936336374  0.996469688993  2.770124022820  0.000000000000  0.000000000000  0.012827747892
O   -0.000000000000  1.992939723173  2.106815621898  0.000000000000  0.000000000000 -0.012886111934
O    1.725936336374  0.996469688993  4.877803993635  0.000000000000  0.000000000000 -0.012817463480
Zn  -0.000000000000  1.992939723173  11.083088792845  0.000000000000  0.000000000000  0.012850630710
Zn   1.725936336374  0.996469688993  8.312100421108  0.000000000000  0.000000000000  0.012786353131
O   -0.000000000000  1.992939723173  7.648792020185  0.000000000000  0.000000000000 -0.012852687593
O    1.725936336374  0.996469688993  10.419780391922  0.000000000000  0.000000000000 -0.012869656874
Zn  -0.000000000000  1.992939723173  16.625065536320  0.000000000000 -0.000000000000  0.012847802497
Zn   1.725936336374  0.996469688993  13.854077164582  0.000000000000 -0.000000000000  0.012929563577
O   -0.000000000000  1.992939723173  13.190768763660  0.000000000000  0.000000000000 -0.012838032305
O    1.725936336374  0.996469688993  15.961757135397  0.000000000000  0.000000000000 -0.012854230255