# total energy = -24539.724374897633 eV

CRYSTAL
PRIMVEC
6.136662235341968 0.0 0.0
-1.534165558835492 2.6572545245121315 0.0
0.0 0.0 5.418820033700607
PRIMCOORD
8 1
Zn  -0.000000000000  1.771501584454  5.417976242643 -0.000001285552 -0.000000771331  0.790750233453
Zn   1.534165558835  0.885751099060  2.708565612127 -0.000000000000 -0.000000000000  0.790749205011
O   -0.000000000000  1.771501584454  2.059997122129  0.000000257110  0.000000257110 -0.790749976342
O    1.534165558835  0.885751099060  4.769407752646 -0.000000257110 -0.000000257110 -0.790749462122
Zn   3.068331117671  1.771501584454  5.417976242643  0.000001028441  0.000000514221  0.790749205011
Zn   4.602496676506  0.885751099060  2.708565612127 -0.000000000000 -0.000000000000  0.790749205011
O    3.068331117671  1.771501584454  2.059997122129  0.000001028441  0.000000514221 -0.790750490563
O    4.602496676506  0.885751099060  4.769407752646 -0.000000514221 -0.000000257110 -0.790747662349