# total energy = -36809.08466667071 eV

CRYSTAL
PRIMVEC
9.97207619857785 0.0 0.0
-1.6620160237883748 2.8786890966244614 0.0
0.0 0.0 5.229984999334735
PRIMCOORD
12 1
Zn  -0.005391901601  1.998790986752  5.286868713594 -0.336870821288 -0.772167842465 -0.546686980316
Zn   1.669296636621  0.973536902585  2.636009647463 -0.367738714511 -0.243812313468 -0.225089540248
O   -0.079555229497  1.834690500828  2.023027120745  1.483887764056  0.931347924504 -0.399320860193
O    1.700285860616  0.934276838591  4.553105397166 -0.306520748241  0.247219796488  0.846373736354
Zn   3.269923562123  1.970316720374  5.340525463996  0.402217465014 -0.004910549928 -1.983434339241
Zn   4.950763874152  0.944274842188  2.532470577501  0.472696287761  0.549710854744  0.638509301736
O    3.273348970297  1.951780625136  1.966663948863 -0.046236405260 -0.553679609584  0.742502454190
O    4.954881344414  0.943746322150  4.530233443197 -0.274191954201  0.006799796531  0.484257510236
Zn   6.613999482859  1.912271259237  5.186277389356  0.168965186450 -0.629707387173 -0.078623306231
Zn   8.292792527644  1.037340240519  2.551736628717 -0.403153860786 -1.246449986656  0.844953716078
O    6.690701701356  1.804514998251  1.943848835728 -1.076269182631  0.545695562937 -0.043516178115
O    8.303295118296  0.843446182537  4.606929678448  0.283215497856  1.169953496960 -0.279925514251