# total energy = -24536.675935264804 eV

CRYSTAL
PRIMVEC
3.2601020275036623 0.0 0.0
-1.6300510137518311 2.8233298583688593 0.0
0.0 0.0 9.840086573389321
PRIMCOORD
8 1
Zn  -0.029659104205  1.989692429018  4.785702632396  0.393587557253 -2.172777832237  3.094236265541
Zn   1.548354486994  0.957498811692  2.640601139727 -0.066510067907  0.030846810178 -2.312472808968
O   -0.073812622025  1.885981411299  1.790688303024 -1.198948598641  0.771040156618  15.098448245305
O    1.716647147847  0.897238759806  4.447136472697 -0.489370405983  1.925657023221 -0.468973330384
Zn   0.062287835348  1.785327065240  10.131516547924  1.157462049361 -1.237270377039 -15.339116613827
Zn   1.643403739636  0.907589909753  7.526642540306 -0.676901014140 -0.134808338063 -3.434609186445
O   -0.128316637772  1.775098169119  6.793090243199  1.053792084574  0.557218733085 -0.719624778261
O    1.573345777116  0.716611176921  9.239407884669 -0.173111861629  0.260094081347  4.082112464149