# total energy = -49047.45856228816 eV

CRYSTAL
PRIMVEC
5.753120944853822 0.0 0.0
-1.4382802362134555 2.4911761596939876 0.0
0.0 0.0 8.312966356145585
PRIMCOORD
16 1
Zn   0.087579760144  1.607349502668  4.416972412902 -0.525370992447  0.589274990190 -39.647724323634
Zn   1.412002856298  0.965978922870  2.090486243999 -1.758336571463 -1.791270346077 -11.733391256027
O   -0.046505353158  1.703794246876  1.602091150125 -3.392095224342  2.401662577861  11.650783768338
O    1.424009619710  0.825930699709  3.571562220985  0.698580041775 -3.013186095037  14.946270305615
Zn   0.053234203415  1.565162442092  8.413541841191 -2.418658083978  0.450671446751 -11.385538738917
Zn   1.425577345167  0.856325588285  6.260216558360  3.174327671677 -2.178248882654 -2.898647048746
O    0.075269807258  1.634150991902  5.739438297311 -2.843976910896  3.584373888707  36.203848624285
O    1.437587560452  0.829445281295  7.875968494168  0.021628891124 -3.867297823465  2.934371498731
Zn   2.902994337232  1.678879781312  4.135246107417 -0.910102641972 -1.106488900747 -4.861025852868
Zn   4.239474824263  0.754650681827  2.036577774810  0.008641220615  5.413627398896 -3.688090904682
O    2.778828755064  1.717600586519  1.524854350816  3.178234977152 -3.176842981900  5.847370445322
O    4.344023414633  0.842016425871  3.647203679856  1.771478765272  1.737689070416  5.157752497837
Zn   2.847140162539  1.651439120341  8.270176368494  0.250105088455  1.549349850315 -6.784704412206
Zn   4.381441137946  0.800010588604  6.187493082432 -0.961837865563  1.909735466895 -0.840643518739
O    2.888843960956  1.676902433643  5.761423273689  0.356819239385 -2.601919889556  4.180277182847
O    4.232483056379  0.848997838138  7.868324322369  3.350562395206  0.098870229405  0.919091989955