# total energy = -12268.505665200575 eV

CRYSTAL
PRIMVEC
2.9404842854302067 0.0 0.0
-1.4702421427151033 2.546532903289695 0.0
0.0 0.0 4.815363530179075
PRIMCOORD
4 1
Zn  -0.005726593146  1.694832215758  4.820500850274  0.135424888601  0.376750945312  0.221490252932
Zn   1.399421460846  0.868199156760  2.458254566218  1.602703326235 -1.353823625546 -0.892483643338
O    0.003867913029  1.634854275643  1.796371842909 -1.712662980685  1.378256047557  0.011960514796
O    1.473703680816  0.860486560528  4.215154230224 -0.025465491261 -0.401183367323  0.659032875610