# total energy = -49073.2934664643 eV

CRYSTAL
PRIMVEC
7.031592442324853 0.0 0.0
-1.7578981105812133 3.0447709382284116 0.0
0.0 0.0 11.514999067883162
PRIMCOORD
16 1
Zn   0.014871114856  1.964965851141  5.804832698467 -0.278817111678 -0.029984462177  0.380741297418
Zn   1.767329585524  1.009622059761  3.002752251271  0.251149727670  0.209355674452 -0.613374454341
O    0.137556933471  1.989269144100  2.159181247035 -0.672677720087  0.011026175907  0.476927038013
O    1.748482105142  1.100361244433  5.113106823546 -0.015241756650 -0.266805689039 -0.137268369568
Zn   0.022476485242  2.096170444000  11.512693408721  0.207611180957 -0.031957012523  0.157996603254
Zn   1.721290937167  1.011022752976  8.670739613422 -0.011591561492 -0.004000636519 -0.119200713433
O   -0.082179627192  2.034497049848  7.983303009890  0.577663631203  0.209563162477 -0.011685149647
O    1.776601443319  1.043933418243  10.845552793615  0.068513214380  0.028930052771 -0.149574697739
Zn   3.474543977781  2.008719935114  5.694153323947  0.371974349859  0.282245934854  0.415005360808
Zn   5.344965146421  1.040454889461  2.922808670476 -0.272829526636 -0.225109337742 -0.233409115857
O    3.488116357513  1.992904477392  2.251794351093  0.556094646783  0.262618390431  0.111290457447
O    5.294331352403  1.017787848064  5.137941001734  0.001145169348  0.044726653483 -0.394831456963
Zn   3.579688082730  2.042449780900  11.465004445618 -0.270664657774 -0.071285892029  0.239695205976
Zn   5.216971178671  1.018223103636  8.754293213777  0.131992208770  0.097068400310 -0.701257588607
O    3.591610850876  2.104886805992  7.985673359702 -0.561442284248 -0.332889468042  0.273854882577
O    5.297606668162  1.095992516049  10.813319270701 -0.082878739073 -0.183502203724  0.305090443552