# total energy = -36803.157705082 eV

CRYSTAL
PRIMVEC
10.54738813431007 0.0 0.0
-1.7579015381810565 3.0447672696719597 0.0
0.0 0.0 5.98328015127888
PRIMCOORD
12 1
Zn   0.073784253694  2.065765031478  6.094665843671 -0.416136389088 -0.248152592715 -0.138562405789
Zn   1.677989251981  1.105828252076  3.155777475047  0.522777263578 -0.433365094262  0.018752340907
O    0.175980006805  1.967913747540  2.376025946098 -0.636570947062  0.552942474307 -0.428404922043
O    1.820756588290  1.266303598323  5.354790825042 -0.995605448931 -0.766126778477 -0.342965107111
Zn   3.504929773934  1.909610950150  5.933890951601  1.346551260255  0.518260863765 -0.132834502166
Zn   5.207502878179  0.773696273421  2.960445120493  0.495618957996  0.564193364631  0.461281103946
O    3.787229562610  1.979294379337  2.255268899349 -0.843577918777  0.057604280777  0.015578828275
O    5.236100011628  1.138491403650  5.112497279560 -0.175333294760 -0.213544772833  0.757340290534
Zn   6.997675205096  2.095522377622  5.991895257907  0.042177661809  0.077640630603 -1.057598345694
Zn   8.818886385815  0.899615211923  2.743056067874 -0.256852691592  0.603150205510  0.507098419390
O    7.214609665287  2.069340596056  2.488436844617  0.099495521694 -0.472486228633 -0.967264435895
O    8.657209692059  1.210842267296  5.284382790290  0.817455767768 -0.240116352674  1.307578992757