# total energy = -73618.95467605705 eV

CRYSTAL
PRIMVEC
6.264509332171351 0.0 0.0
-1.5661273330428378 2.7126139794515134 0.0
0.0 0.0 14.784761978198958
PRIMCOORD
24 1
Zn  -0.064218111615  1.842892102436  4.934738803977  0.770364727818 -0.867275005283 -0.631402258377
Zn   1.514492741323  0.869230113033  2.434743524161  0.859899538755  0.581932948002  0.364924127880
O    0.022407523430  1.817406199120  1.828486863227 -0.436586429412 -0.251501197472  1.068735079037
O    1.601494246929  0.858641212908  4.370159297179 -0.875892571749  0.947948509175 -0.734633850075
Zn  -0.056497730314  1.861125583299  9.842718756341  0.608211679193 -0.144727139838 -0.225336623261
Zn   1.608518014792  0.877217362431  7.368568962677 -0.453450552158 -0.220928724002  0.091598121224
O   -0.012421269104  1.745829168393  6.765237201150  0.892537636505  0.437706659060  0.992542236625
O    1.554615044243  0.941257561981  9.282472410648 -0.368887483404  0.216917803070 -0.320705010161
Zn   0.064318970215  1.825668460478  14.781383528316 -1.129977470788 -0.553223238773 -0.868354868611
Zn   1.589186365444  0.826613908948  12.348283184953 -0.427660073457  1.010771872259 -1.052841033515
O   -0.074206871745  1.818590817835  11.715389830339  0.837358420229 -0.893474289386  0.520494638191
O    1.563521297161  0.891455965692  14.186491940213 -0.047598832825  0.033432568627  0.330379042916
Zn   3.122579757873  1.794582085819  4.889711390250 -0.027091456900  0.186946967740  0.310527812518
Zn   4.650251147479  0.957268394932  2.498590150373  0.407000745336 -0.166288925170 -0.788355250858
O    3.155328733309  1.872500679344  1.868763899527 -0.909934491825 -0.222752407474  0.548208816277
O    4.687832565413  0.895874950575  4.363557130794  0.150132884235 -0.179158582043  0.080545720065
Zn   3.138145810662  1.802724068598  9.835916125657 -0.280741839505  0.385670873510 -0.719865176406
Zn   4.735575017485  0.896691842592  7.369148429790 -0.463911599590 -0.666900708394  0.212557983440
O    3.153732536331  1.753537647126  6.803102401358  0.027877186026  0.488264317403 -0.023691687190
O    4.690761849977  0.936047996021  9.275972982216  0.035332099642 -0.604168105252 -0.294770549684
Zn   3.101042374789  1.810463869878  14.761852667571  0.126302614585  0.557724211967  0.154734130453
Zn   4.652340361341  0.858217105627  12.259758150678  0.379800273661  0.104498631336  0.969756863299
O    3.140322101204  1.789518482926  11.681518881282 -0.739895098474 -0.188134046069  0.943959185510
O    4.637412035602  0.922121991775  14.252512351162  1.066810094101  0.006716749899 -0.929007449296