# total energy = -36807.698883137025 eV

CRYSTAL
PRIMVEC
3.2601020275036623 0.0 0.0
-1.6300510137518311 2.8233298583688593 0.0
0.0 0.0 15.38822274675385
PRIMCOORD
12 1
Zn  -0.015077319857  1.651203533737  4.974498400911  2.599165466740  1.552203003493  1.864447284481
Zn   1.505964684371  0.773379985546  2.493890680306  1.228344535304 -0.394315950779  1.085457019778
O   -0.010468513621  1.697513283038  1.991893323897 -0.992631968125  0.489056731397 -0.962185478710
O    1.893926605950  0.682985180568  4.498697268334 -2.960248880718 -1.411699157707 -1.664447854433
Zn  -0.182656996397  1.973464945166  10.417368813899  1.215058616829  0.784157153616 -3.298918445777
Zn   1.728287668147  1.010203903140  7.678458319502 -1.762601003166 -1.055032898960 -0.215668761154
O   -0.026931376839  1.727577291915  7.027395405967  1.911346520136  1.072352364075 -0.836095237246
O    1.735152790996  1.064558606214  9.571313003905 -1.451834078055 -0.992939214953  1.222854715834
Zn   0.113780820862  1.740443936587  15.370633192275 -5.685626716321  2.677186106390  2.400695071742
Zn   1.637071969478  0.737923441905  12.882103423743 -0.104976856524  1.798709575964  0.144656177391
O   -0.112484278286  1.894490603601  12.190032338824  0.259764465922 -1.626816160123  2.419288261363
O    1.491481355103  1.069126335165  14.807148029555  5.744239383758 -2.892862066633 -2.160082496158