# total energy = -24539.718379413425 eV

CRYSTAL
PRIMVEC
6.648050622659499 0.0 0.0
-1.6620126556648747 2.8786923442696573 0.0
0.0 0.0 5.016512631048895
PRIMCOORD
8 1
Zn   0.010890836530  1.890491529854  5.014307472657 -0.217856255724  0.067308138328 -0.322412222660
Zn   1.682896841891  0.901634552843  2.475073900452  0.116129787817  0.394728612836 -0.739985087085
O   -0.039812515959  1.893862091520  1.972150865263  0.660527457878 -0.033161574354 -0.605479110754
O    1.681247460531  0.987419668467  4.345510920798 -0.410457593536 -0.333437113016  1.353671673350
Zn   3.266070265222  1.954851972737  5.007543745954  0.335022969446 -0.087284324340 -0.624381604085
Zn   5.018953130432  0.908763922330  2.523943720579 -0.329634708551 -0.153347534518 -0.731200398913
O    3.397716293262  1.886000771659  1.870688316660 -0.527800684934 -0.102945170806  0.834854422861
O    4.933580858751  0.959352928348  4.404007118226  0.374069284715  0.248138708758  0.834932070176