# total energy = -49078.828402761465 eV

CRYSTAL
PRIMVEC
6.136662235341968 0.0 0.0
-1.534165558835492 2.6572545245121315 0.0
0.0 0.0 10.246501530932957
PRIMCOORD
16 1
Zn   0.025171361157  1.789127919392  5.109543916698 -0.944713547177 -0.008484126212  0.628733710406
Zn   1.499427754920  0.888758677221  2.544403147003 -0.503763441480  1.093692777424  1.159947277677
O   -0.036908955014  1.874960186745  1.881568758307  0.137530622090 -1.486464523644  0.328269195662
O    1.583401840948  0.960795114203  4.533367176425 -1.991540770398 -1.596008430713 -1.628616189446
Zn  -0.042443610685  1.788332607966  10.251648963216  1.647019888764  0.253782537307  0.161866113512
Zn   1.524916381514  0.923548642766  7.690563913593  0.603868828844  0.227366252097  0.529883792716
O    0.091986112243  1.861907506171  7.087689010599 -1.663003665787 -0.944438953360 -1.040413349275
O    1.544205138253  0.859933547370  9.604633662430  0.135719279913  0.949014231435  0.149404490709
Zn   3.039100968112  1.767683966877  5.096003985142  1.558858818246  1.008218252599  1.233712741595
Zn   4.581379194422  0.891811666684  2.513736404814  0.453191127849  0.583105628154  1.157197739956
O    3.037504208598  1.793324169029  2.004969671865  0.036299348652 -0.237832441736 -1.269419708078
O    4.547305377360  0.880131143785  4.488421034881  1.384180640572  0.630536053722 -0.676948322438
Zn   3.022236806623  1.823957773241  10.287306039134  0.258944284014 -0.876559515909  0.191170004682
Zn   4.627324384578  0.825108602850  7.738010131331  0.220954177923  1.015718417631 -0.501935644242
O    3.087669581373  1.779646162572  7.026339570900  0.739102684480 -0.352826573286  0.132127191686
O    4.680068996491  0.894625939985  9.646014403215 -2.072648019393 -0.258819842621 -0.554979045121