# total energy = -110417.97273167926 eV

CRYSTAL
PRIMVEC
10.163846843821924 0.0 0.0
-1.6939778619192687 2.934048487640294 0.0
0.0 0.0 17.94984139083802
PRIMCOORD
36 1
Zn  -0.000000000000  1.956033341478  5.982348777652  0.000006684868  0.000003856655 -0.278642790884
Zn   1.693974812765  0.978016162547  2.990707868256 -0.000003342434 -0.000001799772 -0.278687013858
O   -0.000000000000  1.956033341478  2.274580498180  0.000002828213  0.000001799772  0.278705782911
O    1.693974812765  0.978016162547  5.266221407576 -0.000002313993 -0.000001285552  0.278671587239
Zn  -0.000000000000  1.956033341478  11.965630596444 -0.000010541523 -0.000005913537 -0.278695498499
Zn   1.693974812765  0.978016162547  8.973989687048  0.000000771331  0.000000514221 -0.278671073019
O   -0.000000000000  1.956033341478  8.257862316972 -0.000002056883 -0.000001028441  0.278672615680
O    1.693974812765  0.978016162547  11.249503226368 -0.000008227530 -0.000004627986  0.278689584961
Zn  -0.000000000000  1.956033341478  17.948912415236 -0.000007970420 -0.000004627986 -0.278668501915
Zn   1.693974812765  0.978016162547  14.957271505840 -0.000010027302 -0.000005656427 -0.278657189061
O   -0.000000000000  1.956033341478  14.241144135764 -0.000005913537 -0.000003342434  0.278634306243
O    1.693974812765  0.978016162547  17.232785045160 -0.000005142206 -0.000002828213  0.278666959253
Zn   3.387948609146  1.956033341478  5.982348777652 -0.000008741751 -0.000005142206 -0.278634049133
Zn   5.081923421911  0.978016162547  2.990707868256 -0.000005656427 -0.000003342434 -0.278689070741
O    3.387948609146  1.956033341478  2.274580498180 -0.000007456199 -0.000004113765  0.278694470057
O    5.081923421911  0.978016162547  5.266221407576 -0.000002056883 -0.000001285552  0.278649218642
Zn   3.387948609146  1.956033341478  11.965630596444  0.000000514221  0.000000257110 -0.278706040021
Zn   5.081923421911  0.978016162547  8.973989687048  0.000002313993  0.000001285552 -0.278669273246
O    3.387948609146  1.956033341478  8.257862316972 -0.000000514221 -0.000000257110  0.278681614541
O    5.081923421911  0.978016162547  11.249503226368  0.000007456199  0.000004113765  0.278683928534
Zn   3.387948609146  1.956033341478  17.948912415236 -0.000002313993 -0.000001285552 -0.278669016136
Zn   5.081923421911  0.978016162547  14.957271505840  0.000000257110  0.000000000000 -0.278649989973
O    3.387948609146  1.956033341478  14.241144135764 -0.000004370875 -0.000002571103  0.278624021831
O    5.081923421911  0.978016162547  17.232785045160  0.000002828213  0.000001542662  0.278668759026
Zn   6.775898234676  1.956033341478  5.982348777652  0.000001285552  0.000000771331 -0.278636363126
Zn   8.469872031057  0.978016162547  2.990707868256  0.000009770192  0.000005656427 -0.278688556520
O    6.775898234676  1.956033341478  2.274580498180  0.000003085324  0.000001799772  0.278678529218
O    8.469872031057  0.978016162547  5.266221407576  0.000004885096  0.000002828213  0.278649989973
Zn   6.775898234676  1.956033341478  11.965630596444  0.000008484640  0.000004885096 -0.278713753331
Zn   8.469872031057  0.978016162547  8.973989687048 -0.000003856655 -0.000002313993 -0.278664645261
O    6.775898234676  1.956033341478  8.257862316972  0.000001028441  0.000000514221  0.278690356292
O    8.469872031057  0.978016162547  11.249503226368  0.000003599544  0.000002056883  0.278698583822
Zn   6.775898234676  1.956033341478  17.948912415236  0.000008227530  0.000004885096 -0.278676215225
Zn   8.469872031057  0.978016162547  14.957271505840  0.000011312854  0.000006684868 -0.278643562215
O    6.775898234676  1.956033341478  14.241144135764  0.000008227530  0.000004627986  0.278625050272
O    8.469872031057  0.978016162547  17.232785045160  0.000006684868  0.000003856655  0.278676986556