# total energy = -110370.72110252551 eV

CRYSTAL
PRIMVEC
8.82145232711341 0.0 0.0
-1.470244995003011 2.546532750529464 0.0
0.0 0.0 12.746548718610196
PRIMCOORD
36 1
Zn   0.109519212786  1.525527272447  4.241086106725 -7.207714388486  8.059754064877 -10.575790109985
Zn   1.382475955074  0.973051181087  2.034473025152  9.654860295491 -5.626860039805  1.959449803401
O    0.161445809765  1.753666790385  1.562328607265 -9.640035828884  5.640190181255 -2.132313039354
O    1.402505944728  0.923186157518  3.777596415716  6.247461608022 -10.486925328532 -5.639691130132
Zn   0.032767284669  1.625986853693  8.271972883110 -3.836350226044  6.431939545396 -0.343878362954
Zn   1.388392503150  0.956795008739  6.372633921866  5.452202688066 -5.628746972415 -15.994212359167
O    0.074931180357  1.529035564037  5.729273053617 -10.064384064359  3.882689475430  13.795356084675
O    1.382125743417  0.991477430708  7.818407325969  6.810751487002 -5.304975921734  17.871280931956
Zn   0.050397839290  1.703508012453  12.511981890506 -2.376644715661 -7.228541866754  0.699777661628
Zn   1.656614054027  0.832884478626  10.619852702249 -1.373863317806 -0.480453820219 -4.570927254739
O   -0.057023632133  1.597857006512  9.966083402399  14.477430415486  7.770126492847 -0.253483775120
O    1.476997816759  0.729413253555  12.328583014480 -8.514393238026  2.503005180066 -2.912653133217
Zn   2.724733144699  1.702937264488  4.214706435686  5.062885733164  3.485349907333 -12.986324022194
Zn   4.429663175267  0.808337023236  2.152586978941  1.698274058954 -2.027323327314 -1.078724329040
O    3.128026127173  1.672260664020  1.499910657034 -1.681484241090  3.240231987680  8.999234645790
O    4.319077448895  0.811977636611  3.842439383192  2.205553741117  3.864534916008  2.067668049680
Zn   2.891934952107  1.729710372300  8.257281636404  0.892739982324 -10.437161112625 -0.227982288414
Zn   4.487496616724  0.965332410301  6.526824087092 -4.388062427488 -1.776360518844 -7.407026305549
O    2.864591096329  1.482355084758  5.672657854726  5.571551239930 -0.515666877785  17.445632746723
O    4.459181519044  0.708941309140  8.107256960968  0.716911235984  10.264532104170  4.815837943477
Zn   2.810876390964  1.364741307316  12.742601118694  5.183474328083  5.205460602546 -5.141996006333
Zn   4.377016747779  0.760914659816  10.594521019747  1.886071290509  5.951636648932  2.559413897873
O    3.008630416362  1.808871439048  9.983917732569  0.461952676091 -5.311603454353  1.148002703720
O    4.402784210027  0.955383576367  12.432896688248 -0.553617388887 -5.182606066545 -4.185641532483
Zn   5.996379572920  1.744840045187  4.278686665124 -2.555912826699 -0.323419837989 -11.108053458677
Zn   7.352944276074  0.945254784805  2.010194624058  1.127838827178  4.462153393066  0.640077417554
O    5.842307615155  1.864215466658  1.727752009884  1.389938626101 -2.759747314222  8.111510628624
O    7.435863281513  0.949609053673  3.849104872570 -3.209100042161 -2.266968139668 -2.610475235326
Zn   5.915948217037  1.827918718913  8.533179615097 -2.685141870902 -2.703637615713 -7.077028814342
Zn   7.163807045309  0.781376018488  6.300249494796  2.849863194474  4.223594357577  2.537882194449
O    5.786705118992  1.742207723812  5.815095199017  0.541888273376 -1.367950294756  7.841101538504
O    7.359407754194  0.908977444255  8.229141203481 -2.979035674407  1.206766809134 -4.911072890123
Zn   5.745613911907  1.752603805380  12.905357796274  4.379083621028  0.271545003497 -8.592974121055
Zn   7.541536341085  0.941219852510  10.514323432351 -10.584671728745 -6.229990447821  1.854071083453
O    6.019205962961  1.718667678277  10.102114608009 -3.217747947644 -1.719431152647  9.220678361755
O    7.353349180735  0.812257276650  12.146869035849 -1.742573652202  0.914859954151  6.183272732049