# total energy = -24539.03652608051 eV

CRYSTAL
PRIMVEC
3.4518726727477356 0.0 0.0
-1.7259363363738678 2.989408031416358 0.0
0.0 0.0 10.197235744399523
PRIMCOORD
8 1
Zn  -0.000000000000  1.992939723173  5.097823251110  0.000000000000  0.000000000000 -0.410108180616
Zn   1.725936336374  0.996469688993  2.548514142417  0.000000000000 -0.000000000000 -0.410108180616
O   -0.000000000000  1.992939723173  1.938270344531  0.000000000000  0.000000000000  0.410108437727
O    1.725936336374  0.996469688993  4.487579453224  0.000000000000  0.000000000000  0.410108180616
Zn  -0.000000000000  1.992939723173  10.196441813685  0.000000000000 -0.000000000000 -0.410109209058
Zn   1.725936336374  0.996469688993  7.647132359804  0.000000000000  0.000000000000 -0.410108694837
O   -0.000000000000  1.992939723173  7.036888907105  0.000000000000  0.000000000000  0.410109723278
O    1.725936336374  0.996469688993  9.586198015799  0.000000000000  0.000000000000  0.410107409285