# total energy = -73608.90093136718 eV

CRYSTAL
PRIMVEC
10.355617489065997 0.0 0.0
-3.451869044482836 5.978815757312254 0.0
0.0 0.0 6.096175970315838
PRIMCOORD
24 1
Zn   0.000000000000  1.992939621333  6.095223253507  0.000004627986 -0.000006427758 -0.388956486239
Zn   1.725936593365  0.996469292885  3.047136303911  0.000004113765 -0.000006941979 -0.388952115364
O    0.000000000000  1.992939621333  2.317497100181 -0.000005656427 -0.000003856655  0.388958543122
O    1.725936593365  0.996469292885  5.365584049777  0.000000257110 -0.000003599544  0.388950315592
Zn  -1.725936593365  4.982348535550  6.095223253507 -0.000001285552  0.000008484640 -0.388953658026
Zn   0.000000000000  3.985879242665  3.047136303911 -0.000008998861  0.000004370875 -0.388954943577
O   -1.725936593365  4.982348535550  2.317497100181 -0.000002828213 -0.000002828213  0.388952886695
O    0.000000000000  3.985879242665  5.365584049777 -0.000001542662  0.000003599544  0.388953915136
Zn   3.451872151168  1.992939621333  6.095223253507  0.000004113765  0.000001285552 -0.388957000460
Zn   5.177808744533  0.996469292885  3.047136303911  0.000003599544 -0.000006170648 -0.388958028901
O    3.451872151168  1.992939621333  2.317497100181  0.000005399317 -0.000002056883  0.388962142666
O    5.177808744533  0.996469292885  5.365584049777  0.000003599544  0.000004113765  0.388955200688
Zn   1.725936593365  4.982348535550  6.095223253507 -0.000000771331  0.000000257110 -0.388955972019
Zn   3.451872151168  3.985879242665  3.047136303911 -0.000007199089  0.000004113765 -0.388951858254
O    1.725936593365  4.982348535550  2.317497100181  0.000002828213  0.000005913537  0.388961628446
O    3.451872151168  3.985879242665  5.365584049777  0.000006170648  0.000001285552  0.388942345172
Zn   6.903745337898  1.992939621333  6.095223253507  0.000010541523 -0.000011827075 -0.388959057342
Zn   8.629680895701  0.996469292885  3.047136303911  0.000008741751 -0.000004113765 -0.388953143805
O    6.903745337898  1.992939621333  2.317497100181 -0.000008484640 -0.000002571103  0.388962399777
O    8.629680895701  0.996469292885  5.365584049777 -0.000002313993  0.000003342434  0.388946973158
Zn   5.177808744533  4.982348535550  6.095223253507 -0.000016455060  0.000007970420 -0.388958028901
Zn   6.903745337898  3.985879242665  3.047136303911 -0.000003342434  0.000007199089 -0.388961885556
O    5.177808744533  4.982348535550  2.317497100181  0.000000771331 -0.000002571103  0.388963942438
O    6.903745337898  3.985879242665  5.365584049777  0.000004627986  0.000000257110  0.388961628446