# total energy = -36798.78678226115 eV

CRYSTAL
PRIMVEC
9.013222972357486 0.0 0.0
-1.5022068331339051 2.6018921415452976 0.0
0.0 0.0 4.534155895582267
PRIMCOORD
12 1
Zn  -0.108222669551  1.694722966567  4.487469203230  0.492410478361 -0.029301062957 -7.630250253343
Zn   1.543937154174  0.763749869719  2.141928445498  1.840267087690  1.125622279143 -0.893089909464
O    0.122642924985  1.683136468436  1.536572449683  0.175730015978 -0.537732856447  6.032180312114
O    1.635131141563  0.839885465489  3.883274110534 -2.231086338170 -0.547268049630  2.029266309973
Zn   3.044335934779  1.795059066018  4.521563521768  0.590546400703 -5.268971735726  0.834764948471
Zn   4.699789190178  0.860821379809  2.326529166517 -1.762215080582  3.555385986115 -1.566229656789
O    3.002553337046  1.912897041836  1.762661036044  0.056458597208 -5.198216005168 -0.061975927482
O    4.474209850915  0.733938634738  3.992654077915  0.504846133021  6.278499965385  2.118331380363
Zn   6.126420148689  1.621260692731  4.668576399025 -1.037584107356 -0.738793380769 -9.920986441965
Zn   7.680287170611  0.858018267465  2.283356729802  2.869456286114  1.138990215809 -16.397242807001
O    5.970747366800  1.845620542926  1.649574831377  0.760039948853  0.886241261973  7.908064120567
O    7.391827081282  0.907806409842  3.710213920209 -2.258869421821 -0.664456103508  17.547167667444