# total energy = -49079.48334335546 eV

CRYSTAL
PRIMVEC
6.648050622659499 0.0 0.0
-3.3240253113297493 5.7573780404886925 0.0
0.0 0.0 5.123247083795693
PRIMCOORD
16 1
Zn   0.003053449651  1.959373976771  5.147077686058  0.041747259140 -0.299038066711 -0.410031818852
Zn   1.656454220539  0.981763506997  2.548157250557  0.002774220311 -0.259312208876 -0.111907522205
O   -0.030335719796  1.893275068650  1.951615701694  0.184711907762  0.135137182157  0.458125074815
O    1.657027947308  0.963000048920  4.521438284425  0.057599652791 -0.083691979003  0.059349545603
Zn  -1.689618021070  4.794346745731  5.132931963943  0.088678376474 -0.037672574850 -0.068997353105
Zn   0.017870624879  3.801538832234  2.548175865098 -0.327396563249  0.256333071643 -0.154899709496
O   -1.730746186247  4.795125232459  1.995746126533  0.470672058242 -0.056947106809 -0.057806112375
O    0.042927792481  3.815219190805  4.522442140069 -0.481906236395  0.408820572153  0.071352483601
Zn   3.305367557257  1.897118306715  5.146610328099  0.118337079881  0.091453625226 -1.033509937287
Zn   4.978396697609  0.911820031201  2.571804366621 -0.009821099855  0.198858631576 -0.176549426555
O    3.346739041087  1.948967118326  1.882711316211 -0.195955856106 -0.407529621256  1.496798815691
O    5.018322895233  0.976318088732  4.549394666903 -0.351994307193  0.044277995982 -0.198365236879
Zn   1.695328696555  4.807755199032  5.053020401043 -0.654350896754  0.326855088923  0.503847002332
Zn   3.252145258387  3.795306949580  2.599218932974  0.430203151594  0.235748048403 -0.424907964633
O    1.671710167108  4.781375734161  1.946475428953 -0.418691294300  0.050302347799  0.111740143389
O    3.246346828634  3.867163069540  4.542676146944  1.045392547657 -0.603595006357 -0.064237726933