# total energy = -24536.049191514943 eV

CRYSTAL
PRIMVEC
6.136662235341968 0.0 0.0
-1.534165558835492 2.6572545245121315 0.0
0.0 0.0 4.827675360570114
PRIMCOORD
8 1
Zn  -0.054664773526  1.612299997081  4.745908631948 -0.984876235439  2.783586582734  0.901227450969
Zn   1.465002307112  0.917320544263  2.226349762005  4.563417319515 -2.613919228010  2.789737947047
O    0.087985008465  1.720091082911  1.835421671963 -4.077162062122  3.195173147668 -1.685356322451
O    1.494820348914  1.060441621915  4.348051022910  2.680908035326 -2.404435512621 -2.179205333030
Zn   3.140490901564  1.763882918288  4.903104144436 -1.976452765717  1.595879104224 -5.599495531749
Zn   4.782959957526  0.893867448532  2.490489500934 -1.857018853227 -1.988357744684 -5.007428580637
O    3.039741021983  1.663565059729  1.686673275042  1.598211609012  0.937264032878  7.589956438820
O    4.518459382857  1.074960351097  4.117450597761  0.052973209763 -1.505190639299  3.190563931031