# total energy = -73619.47601188556 eV

CRYSTAL
PRIMVEC
9.396764262845632 0.0 0.0
-3.1322516220271233 5.425221847153926 0.0
0.0 0.0 5.129411708159545
PRIMCOORD
24 1
Zn   0.051642737036  1.798745529370  5.119132587732 -1.688997775858  0.358478372255  0.474429211292
Zn   1.580528231599  0.892575145417  2.516432796709  0.299346856200  0.570966164578  0.804286063156
O    0.039068926776  1.766243061461  1.955778615672 -0.931021908623  0.142739934205 -0.623186812446
O    1.497375324961  0.941996487381  4.467404967460  1.490973467258 -0.747716137180 -0.330410924595
Zn  -1.490870884738  4.569244279511  5.155246232147 -0.604670241699 -0.214567557670 -0.404305457892
Zn  -0.009070696543  3.548507605990  2.523944570060  0.030967394916  0.565551678431  0.189371260910
O   -1.527569947567  4.590259203109  1.929958186830  0.056145693954 -1.423643731663 -0.138225848385
O   -0.012547499320  3.609982177474  4.441904968280  0.185080346845  0.013989372301  0.363736792441
Zn   3.133212911011  1.773679660698  5.098563070761 -0.029570000348  0.300544476053  0.134780827259
Zn   4.734249580614  0.966023073925  2.540640740803 -0.308702586384 -0.465404896306  0.028959620457
O    3.119296303138  1.847039259622  1.935816129672  0.573826002625 -0.679337648606 -0.360725259308
O    4.704495666252  0.913466971403  4.465557563606 -0.124040043803 -0.625847647108  0.276066545516
Zn   1.555213348675  4.447114534387  5.213450729668 -0.216509511888  0.731289873303 -1.082638833603
Zn   3.042419495351  3.610921853900  2.560155940824  2.183706820445 -0.172185750270  1.244897811677
O    1.617691494582  4.468679168694  1.938780808797 -1.924635523935  1.641553209223  0.181417296171
O    3.129305736431  3.638975893607  4.589977300181 -0.012823119907 -0.637117306484 -1.077763507788
Zn   6.266416425258  1.816895379543  5.119460534805 -0.075295270299 -0.089562578851  0.216408210424
Zn   7.767004503921  0.904264720160  2.561853936126  1.244095627491 -0.526791526944  0.672415981785
O    6.329341857144  1.837145406530  1.949250683538 -1.038449540680  0.445697133464 -0.546331910969
O    7.785092335450  0.840487941432  4.543949129792  0.709823475900  1.612094794752 -0.792002103582
Zn   4.700758573105  4.549750692048  5.122342522405  0.368897767816 -1.159132752195  0.471677873799
Zn   6.294089896012  3.636428430815  2.582954370278 -0.260184584179  0.449031082934  0.158021800065
O    4.705915517332  4.542480415538  1.926975653853 -0.073605541301 -0.617943047549  0.474892524082
O    6.300463721212  3.607792731401  4.538400340495  0.145642195454  0.527314489327 -0.335771160466