# total energy = -110425.11216259976 eV

CRYSTAL
PRIMVEC
10.355617489065997 0.0 0.0
-1.7259397000501626 2.989407878656127 0.0
0.0 0.0 15.29585801278233
PRIMCOORD
36 1
Zn   0.073874904043  2.009320137077  5.076322657578 -0.443175652594 -0.171281750399 -0.168649712092
Zn   1.786520062361  1.022162615437  2.495102153489 -0.727933555237 -0.426127953083  0.131349690090
O    0.045774935987  2.010628051566  1.930448647595 -0.151456745253 -0.090191727795  0.310812947858
O    1.710453909657  0.972262001443  4.507193453806  0.337717485559  0.221719081113 -0.041616647100
Zn  -0.038385167347  2.020620186881  10.155056102908  0.393498597084 -0.064474011314 -0.201294494711
Zn   1.724079831149  0.993339825280  7.594066333145  0.061200225658 -0.016932771200 -0.239871840763
O   -0.026886289687  1.962995317801  7.032262693184  0.240031763380  0.049411717664  0.058292307983
O    1.735890412895  0.896464059232  9.504579381512 -0.081970111216  0.523625727621  0.778230503719
Zn   0.019089545279  1.980029273009  15.262210540437 -0.299297233909 -0.019764584221 -0.106550371658
Zn   1.653351999261  1.019164664174  12.757623676890  0.386515738008  0.071949750865 -0.708287498871
O    0.028638460166  2.057010862299  12.130015265594 -0.324535439651 -0.361415857617  0.265095648327
O    1.729628371000  1.015149791274  14.688051613250 -0.079045481370 -0.155952319130  0.389650426983
Zn   3.413076901369  2.010776136896  5.096630023474  0.380471845807  0.095008689567 -0.182496902388
Zn   5.116045770705  0.927954456454  2.564785103573  0.520572285507  0.351174639505 -0.395837272520
O    3.391163379200  1.959438163194  1.930623657530  0.455305860199  0.159192680444  0.842338647053
O    5.222326508557  1.033553794675  4.495079452467 -0.470463798886 -0.301197022035  0.245437764887
Zn   3.453777584786  1.924316050918  10.210766218314 -0.167953200246  0.014055963872 -0.954335386538
Zn   5.253741309772  1.010701018001  7.594528193685 -0.394229561713 -0.249287734760  0.291820465916
O    3.500589118084  1.983662023624  7.047282480790 -0.143728009150  0.016365842953  0.057415561805
O    5.115439967082  0.931420481628  9.627010740400  0.732613734321  0.330479315939 -0.287249301606
Zn   3.406419274885  1.919551431311  15.338548010319  0.447463224226  0.321034882697 -1.068247340768
Zn   5.201536570886  0.986468873076  12.794663649525 -0.404311628539 -0.239843044408 -0.433777242098
O    3.478646600186  1.978291600394  12.088602115694 -0.027506690061  0.108853308760  1.443003881358
O    5.202397122699  0.995047466604  14.755807382919 -0.421968422389 -0.202983966598 -0.078218357483
Zn   6.968979514709  2.012064375711  5.108683962232 -0.226797524078  0.028275449906 -1.080725161520
Zn   8.631608076116  1.007221530524  2.557451255267 -0.178098516210 -0.140087069963 -0.414213975255
O    6.877901858892  1.900154324192  1.884791765647  0.158456059389  0.304698607431  0.982061905919
O    8.618941084803  1.009792830347  4.519438971486  0.377282649446 -0.051973821964 -0.079590298130
Zn   6.893634112982  1.990544367007  10.235441583667 -0.149049678473 -0.105636344485 -0.511846475598
Zn   8.638923284310  0.992533122678  7.621340958488  0.081978852967 -0.006457325590 -0.333073816139
O    6.930055855252  1.939015849943  6.983468059137  0.010752610531  0.248957862225  1.271826260637
O    8.649505689822  1.079932463162  9.571104903823 -0.531838345339 -0.590075117494  0.520457357196
Zn   6.894296872501  1.993645874445  15.266194346485  0.053198438400  0.044652091492 -0.246746970616
Zn   8.612904795369  0.923952010295  12.717542259398  0.219240280556  0.478138284712  0.154840574123
O    6.907027033080  1.988731098385  12.206759711244  0.078518919443 -0.098199171480 -0.240114038681
O    8.614401182096  1.022812948216  14.688692625972  0.288540766724 -0.075712817452  0.030108903570