# total energy = -49062.88086892858 eV

CRYSTAL
PRIMVEC
5.753120944853822 0.0 0.0
-2.876560472426911 4.982346566267031 0.0
0.0 0.0 4.803044798899717
PRIMCOORD
16 1
Zn  -0.003201611806  1.595591849393  4.898178982156 -0.866542240882  1.773048166642 -5.809828225403
Zn   1.329057810388  0.875127362845  2.237060232248  2.779269186305  0.716423754825  3.493986757072
O   -0.083993264546  1.721249215822  1.717516015641  5.081764315236  3.581233800417  2.193501695048
O    1.394095692045  0.811003652106  4.222407615668  0.128766759854  1.649740887240 -5.533837270319
Zn  -1.510816160398  4.206827588837  4.739062614936  3.716626036007 -3.700616290843 -0.087578715652
Zn   0.069900994792  3.313069894436  2.360572835189 -10.895389545787 -2.574143490774 -2.853568154129
O   -1.531614267926  4.224982137291  1.696417019888  1.325013386183 -1.914089887209  0.957886337114
O    0.174693517490  3.197138178964  3.955451297585 -3.274320701833 -1.458698152164  8.184832320136
Zn   2.794552609918  1.622942761677  4.797196176147  0.795462551327  1.251394732256 -19.409892312807
Zn   4.368176166984  0.905998034523  2.025623257219 -5.732701301212 -5.792926821662  4.923530913381
O    2.909088042937  1.652086921760  1.435834009188 -1.170829471807 -0.691629064379  19.085655121123
O    4.351893684086  0.843742362155  4.075899212998 -0.990280180064  2.475817049687 -2.622234432744
Zn   1.362478265268  4.222558922749  4.655948427270  0.429657049282 -0.730750712971  3.043923890440
Zn   2.921256469047  3.154476485910  2.289792763516 -1.139487210050  1.960748724718  2.370739920140
O    1.308159598555  4.107397550171  1.984983786176  11.036856783927  6.161155845546 -5.882939086456
O    2.873255304444  3.400030043454  4.154305046483 -1.223865159377 -2.706708027108 -2.054179014055