# total energy = -12269.014821485793 eV

CRYSTAL
PRIMVEC
3.4518726727477356 0.0 0.0
-1.7259363363738678 2.989408031416358 0.0
0.0 0.0 5.541978124223816
PRIMCOORD
4 1
Zn  -0.012349074487  1.927277856004  5.520305196461  0.101001673926  0.165060966300  0.039909434600
Zn   1.797288960830  1.053331697156  2.767318340712 -0.189602660195 -0.113785713065 -0.179177608207
O    0.011070846036  1.948704665246  2.007527682275  0.125220437264  0.127333369842  0.527397278848
O    1.735818012274  1.034712641147  4.863640960059 -0.036619450995 -0.178608623077 -0.388129105242