# total energy = -12269.33627595807 eV

CRYSTAL
PRIMVEC
3.068331382259589 0.0 0.0
-1.5341656911297945 2.6572516853213606 0.0
0.0 0.0 4.729154724517677
PRIMCOORD
4 1
Zn  -0.000000000000  1.771502044047  4.728415870321  0.000000000000  0.000000000000 -0.967900012596
Zn   1.534165691130  0.885750868607  2.363839121728 -0.000000000000 -0.000000000000 -0.967900012596
O   -0.000000000000  1.771502044047  1.797816053981  0.000000000000  0.000000000000  0.967900012596
O    1.534165691130  0.885750868607  4.162392802574  0.000000000000  0.000000000000  0.967900012596