# total energy = -73618.76976082587 eV

CRYSTAL
PRIMVEC
6.648050622659499 0.0 0.0
-1.6620126556648747 2.8786923442696573 0.0
0.0 0.0 15.049544541197307
PRIMCOORD
24 1
Zn  -0.022341438923  1.875949583922  5.073784922358  0.219908510267  0.138681190755 -1.809901588025
Zn   1.785879134866  0.923472734333  2.427336243345 -1.437641331494 -0.293068993611  0.609165044246
O    0.038505509206  1.941673541988  1.896722082898 -0.155987800354 -0.491276107646  0.577221401459
O    1.675319393791  0.952856453280  4.459471804571 -0.287177310717 -0.269238466851 -0.163464568347
Zn  -0.011060361821  1.880815956978  10.014907329736 -0.219860687749  0.172551875360 -0.032485374222
Zn   1.643579605703  0.982575898784  7.549397314910  0.130099362623  0.226817321572  0.253344421328
O    0.085235986643  2.024309476033  6.905577489240 -0.363509764031 -0.357162481657  1.496011029682
O    1.559056290087  0.894805010438  9.554769153939  1.087511588314  0.506498066802 -1.074372736939
Zn  -0.052032962613  1.924548828389  15.039145660413  0.176329340125  0.024544779219 -0.582357180024
Zn   1.713907338825  1.050182584786  12.538910882770 -1.587584468316 -0.949246916271 -0.219026621883
O   -0.087435826594  1.916764625915  11.915426779149  0.250566087252  0.041579623214  0.971184339774
O    1.593003230981  0.951572714705  14.449144463754  0.483469210007  0.204375704739  0.377839807501
Zn   3.246780946340  1.856735388013  5.028743049779  0.663878633738  0.416671178546 -0.879774680412
Zn   4.977489238699  0.985462482364  2.523204457349  0.267393186112  0.121764617505 -1.570067028257
O    3.276446542633  1.910421720816  1.952600942797  1.152510361783  0.635212376152 -0.106538030363
O    5.065738121884  0.939810983543  4.332942116290 -0.572430922049 -0.188798419126  2.362974674373
Zn   3.384441465778  1.917529151737  9.995006390197 -0.771611969961  0.199218586018 -0.533454283676
Zn   4.939843987243  1.015925179927  7.428396145527  0.474296285258  0.364857536309  0.301626910484
O    3.354146963896  2.039373293939  6.938665501994 -0.264028897625 -0.513658589106  0.232289914651
O    4.961777235857  1.008430167655  9.393079255525 -0.006916524614 -0.681425641483  0.033316097654
Zn   3.320211989493  1.954821391704  15.075319698266 -0.073561318327 -0.619492137203 -0.520885702982
Zn   4.905270135175  0.962466875260  12.436597383687  0.852496818533 -0.040763812181  0.703675454020
O    3.272617930280  1.851629685134  11.907793487424  0.554085072552  0.888883841802  0.073186965707
O    4.997676709220  0.901648513749  14.488203755577 -0.572233204216  0.462475124254 -0.499508265748