# total energy = -24536.790837782202 eV

CRYSTAL
PRIMVEC
3.5157962211624265 0.0 0.0
-1.7578981105812133 3.044767422432191 0.0
0.0 0.0 11.514995552086939
PRIMCOORD
8 1
Zn  -0.000000000000  2.029846003027  5.756599841689  0.000000000000  0.000000000000 -0.037551218781
Zn   1.757898110581  1.014922825724  2.877850777877  0.000000000000 -0.000000000000 -0.037702399647
O   -0.000000000000  2.029846003027  2.188747335357  0.000000000000  0.000000000000  0.037538363265
O    1.757898110581  1.014922825724  5.067496047589  0.000000000000  0.000000000000  0.037564588517
Zn  -0.000000000000  2.029846003027  11.514097969312  0.000000000000  0.000000000000 -0.037536820603
Zn   1.757898110581  1.014922825724  8.635348905500  0.000000000000  0.000000000000 -0.037422149402
O   -0.000000000000  2.029846003027  7.946245111401  0.000000000000  0.000000000000  0.037563817186
O    1.757898110581  1.014922825724  10.824994175212  0.000000000000  0.000000000000  0.037546076575