# total energy = -24537.01411412572 eV

CRYSTAL
PRIMVEC
3.004407833844898 0.0 0.0
-1.502203916922449 2.601892294305528 0.0
0.0 0.0 9.261258399073428
PRIMCOORD
8 1
Zn   0.024105866255  1.673903721541  4.631630568668  1.069162139272  1.348065640017 -2.234197115885
Zn   1.506656449332  0.858947280743  2.281934577192  0.310214652153 -0.331513670741 -0.190266261921
O    0.023165186162  1.714428376167  1.772396923117 -0.348586567063  0.313835536735  0.194787803940
O    1.558189554702  0.910681681437  4.080327739973 -0.901742185822 -1.512077853337  0.187957154172
Zn   0.005818937093  1.727724082595  9.231118480125 -0.137055482226  0.947227571849 -0.188586303115
Zn   1.566895126842  0.888616709424  6.926421006980 -1.837006928882 -0.463523105902 -0.531495617288
O   -0.046608280049  1.760505777352  6.352012479399  1.832992922626  0.647580667909  2.404690823165
O    1.502472510983  0.914370192935  8.715706607854  0.012021707051 -0.949594786529  0.357109516932