# total energy = -49073.58168195908 eV

CRYSTAL
PRIMVEC
7.031592442324853 0.0 0.0
-3.5157962211624265 6.089534844864382 0.0
0.0 0.0 5.757496018145359
PRIMCOORD
16 1
Zn  -0.000000000000  2.029845651447  5.756600193268  0.000000000000 -0.000006941979 -0.037539134596
Zn   1.757898110581  1.014923177303  2.877850777877 -0.000001799772 -0.000001028441 -0.037532192618
O   -0.000000000000  2.029845651447  2.188746983778  0.000000000000  0.000000771331  0.037536306383
O    1.757898110581  1.014923177303  5.067496399169 -0.000003342434 -0.000001799772  0.037535535052
Zn  -1.757898110581  5.074614480198  5.756600193268 -0.000005913537  0.000003342434 -0.037539134596
Zn  -0.000000000000  4.059692006054  2.877850777877  0.000000000000  0.000000000000 -0.037534249500
O   -1.757898110581  5.074614480198  2.188746983778  0.000000771331 -0.000000257110  0.037536306383
O   -0.000000000000  4.059692006054  5.067496399169  0.000000000000  0.000000000000  0.037532449728
Zn   3.515796221162  2.029845651447  5.756600193268  0.000000000000  0.000000000000 -0.037537849044
Zn   5.273694331744  1.014923177303  2.877850777877  0.000001799772 -0.000001028441 -0.037532192618
O    3.515796221162  2.029845651447  2.188746983778  0.000000000000  0.000000000000  0.037536820603
O    5.273694331744  1.014923177303  5.067496399169  0.000003342434 -0.000001799772  0.037535535052
Zn   1.757898110581  5.074614480198  5.756600193268  0.000005913537  0.000003342434 -0.037539134596
Zn   3.515796221162  4.059692006054  2.877850777877  0.000000000000  0.000002056883 -0.037532192618
O    1.757898110581  5.074614480198  2.188746983778 -0.000000771331 -0.000000257110  0.037536306383
O    3.515796221162  4.059692006054  5.067496399169  0.000000000000  0.000003856655  0.037535535052