# total energy = -110378.4247522386 eV

CRYSTAL
PRIMVEC
9.013222972357486 0.0 0.0
-1.5022068331339051 2.6018921415452976 0.0
0.0 0.0 13.023647520684976
PRIMCOORD
36 1
Zn   0.186454740985  1.496323001178  4.301392116288 -3.818902462881  1.760169768017  1.453225301975
Zn   1.387226950320  0.860241829572  2.115405234257  0.441371509506  2.378352699491 -21.570863125107
O   -0.034697303154  1.760706969303  1.597044866571 -1.790950243733  0.672892407201  6.327445799157
O    1.474879642404  0.732041351303  3.527037288419  5.326704828771 -3.541859926605  23.636636014647
Zn  -0.013301714463  1.645870396735  8.865522386187  0.071689812336 -3.099958769847 -17.678007250668
Zn   1.548356337397  0.835732172344  6.470860464578  0.815470104797  0.449354784822 -7.370389885273
O    0.007576515231  1.700047978699  6.125857723576 -0.813738466818 -0.925856305262 -1.935129224378
O    1.574977792768  0.874233956915  8.054604518009 -8.440415143876 -5.274395734955  4.197578393130
Zn   0.235367699411  1.691021235893  13.071452754008 -4.540139322824  1.377899178438 -7.506517713478
Zn   1.473625001766  0.973565983326  10.939423531301 -4.390452010766 -0.310789293709 -10.550355214852
O   -0.066736606854  1.901805369646  10.309295593469 -0.831533586018  1.187687938125  16.238311607748
O    1.531135673586  0.883303061869  12.464972809289  0.324566035778 -5.976566836515  8.713595111873
Zn   3.075310776846  1.683038224306  4.220552519449 -3.210861504937 -0.092801397503  0.522792175976
Zn   4.629314799758  0.748023598277  2.338498726624 -0.382267504255  2.285076419233 -18.805148023337
O    2.921711036240  1.915062919317  1.639306967766  0.296424026127 -6.045351816499  3.267510363780
O    4.594056874134  0.959963227216  3.757974988739 -3.526444106270  0.499524720808  18.487248600946
Zn   2.731704184082  1.606793568538  8.763508925941  9.270541822244  5.602666730388 -0.806493098109
Zn   4.710373417915  1.004785083735  6.241646993812 -16.415858622330 -5.376773463293  5.298684946519
O    3.003077906623  1.857984882199  6.033102645967  0.074424180548 -1.812135876672 -1.228754883369
O    4.568698171302  0.877824824947  8.079914549437 -3.574577471442 -2.410248776868  1.064874567641
Zn   2.839292322737  1.727227352573  13.042628466942  5.035158442452  0.191642316333 -3.825299624656
Zn   4.645588173834  0.861939019458  10.769398994473 -0.868618406685  0.716426325928 -2.428168337461
O    2.892154875469  1.698010088985  10.426935278382  5.451990057835  1.628628787852  2.151612253903
O    4.502352738324  0.797764871895  12.489316623215 -1.304949782664  1.907390363701  1.850455855298
Zn   5.990681010725  1.623340944593  4.364892074773  5.438398949414  3.804193438805 -6.586831027362
Zn   7.494699501677  0.856544605509  2.087674251138  4.701584803858 -3.173831191657 -23.695886315668
O    6.110366697253  1.606851253165  1.692461548924 -3.273562483511  2.383146007114  10.016345315783
O    7.489342041942  0.857984918540  3.486848228508  0.961704168198 -0.634143825678  29.228675861449
Zn   5.874301374384  1.822186163198  8.670733117920  0.881969374071 -6.846643058693 -0.526522075332
Zn   7.366590958281  1.023212618102  6.406895423787  11.115606074213 -4.745041846600  3.856635715765
O    6.032214843504  1.595874048907  5.975600086048  4.650720927129  12.221271193507 -0.304976800793
O    7.467228099379  0.715817549952  8.185265606150  1.387723363618  8.930796507622 -2.285600152947
Zn   5.857744985106  1.734625405988  13.230877740621 -2.175567479167  2.467547610590 -13.542676807735
Zn   7.487022038349  0.713380374461  10.971715205244  1.577335022674  0.976992204705 -6.378894344745
O    6.164450541699  1.755688406752  10.344032554804  0.282623115688 -2.272761349311  1.652588641101
O    7.401007950201  1.004953631005  12.518018330448  1.252831464702  1.097499809875  9.062297121468