# total energy = -49072.23567602633 eV

CRYSTAL
PRIMVEC
6.0088151385125865 0.0 0.0
-1.5022037846281466 2.6018950695727505 0.0
0.0 0.0 9.261260587871542
PRIMCOORD
16 1
Zn   0.045957220824  1.625309985660  4.621495693162 -0.789996128895  2.333458667191  0.465523938382
Zn   1.440324405450  0.909577781896  2.378890514219  0.876166651346 -3.055361185743 -3.306397013542
O    0.091651255545  1.711053975042  1.760104533899 -4.331685591360  1.269766549895  0.173318835433
O    1.478036931023  0.905048337044  4.037924974843  2.892307479681 -1.751624192440  4.637078653755
Zn   0.030493535065  1.746091976996  9.243341700247  0.028847006139 -1.984316484736 -0.349701654504
Zn   1.465293435877  0.879980762049  6.996458845806 -1.487343583815  0.367471062672 -5.328800277847
O   -0.107540365415  1.756055193377  6.391381376344  0.588888296274 -0.069769455385  0.615562720242
O    1.511149708606  0.763304594097  8.624126089645  0.529969410451  2.152486943199  5.770532513127
Zn   3.093923291901  1.595460595578  4.649009456800 -2.554087857675  1.636583266812  1.033725395731
Zn   4.431820833618  0.826454837677  2.386096285333  0.999790176437  0.659630914206 -4.140102410400
O    2.906665778687  1.690914830224  1.812409467035  1.832992408406  0.698266367190  1.155108461527
O    4.538936976685  0.895311652994  4.069864230831  1.051380132699 -2.332465192930  2.581563180277
Zn   3.086556484541  1.748854830197  9.343699728927 -1.748331637732 -0.325234008380 -1.733466804805
Zn   4.458517999279  0.797516383970  6.926792042209  0.192635533484  2.103597159476  0.626167492341
O    2.951480122872  1.741636440571  6.506670709762  0.454159405299 -1.716410620653 -2.009318406097
O    4.458270436095  0.834521071119  8.757113186291  1.464308556373  0.013920209626 -0.190794623620