# total energy = -73614.21819958705 eV

CRYSTAL
PRIMVEC
9.204993617601557 0.0 0.0
-1.5341686712647988 2.65725153256113 0.0
0.0 0.0 9.261254538592338
PRIMCOORD
24 1
Zn  -0.000000000000  1.771501942207  4.629907438795  0.000014912398  0.000008484640 -1.666181806405
Zn   1.534165909767  0.885750510854  2.314591963148  0.000021083046  0.000012084185 -1.666175378647
O   -0.000000000000  1.771501942207  1.760361138431  0.000001799772  0.000001028441  1.666179235302
O    1.534165909767  0.885750510854  4.075675693579  0.000002056883  0.000001285552  1.666178463971
Zn  -0.000000000000  1.771501942207  9.260536549090  0.000014912398  0.000008484640 -1.666179749522
Zn   1.534165909767  0.885750510854  6.945221993943  0.000026739473  0.000015426619 -1.666181549294
O   -0.000000000000  1.771501942207  6.390990248726  0.000000257110  0.000000000000  1.666178463971
O    1.534165909767  0.885750510854  8.706305724373  0.000003599544  0.000002056883  1.666181292184
Zn   3.068330899034  1.771501942207  4.629907438795  0.000005913537  0.000003599544 -1.666178206860
Zn   4.602496808801  0.885750510854  2.314591963148 -0.000006170648 -0.000003599544 -1.666170750661
O    3.068330899034  1.771501942207  1.760361138431 -0.000000514221 -0.000000257110  1.666180777964
O    4.602496808801  0.885750510854  4.075675693579 -0.000000771331 -0.000000514221  1.666177692640
Zn   3.068330899034  1.771501942207  9.260536549090  0.000002828213  0.000001542662 -1.666177949750
Zn   4.602496808801  0.885750510854  6.945221993943 -0.000010284413 -0.000005913537 -1.666187205721
O    3.068330899034  1.771501942207  6.390990248726 -0.000000514221 -0.000000257110  1.666177692640
O    4.602496808801  0.885750510854  8.706305724373 -0.000000771331 -0.000000514221  1.666179749522
Zn   6.136662718567  1.771501942207  4.629907438795 -0.000021597267 -0.000012598405 -1.666179492412
Zn   7.670827707835  0.885750510854  2.314591963148 -0.000012341295 -0.000007199089 -1.666174607316
O    6.136662718567  1.771501942207  1.760361138431 -0.000002828213 -0.000001542662  1.666181549294
O    7.670827707835  0.885750510854  4.075675693579 -0.000000514221 -0.000000257110  1.666178206860
Zn   6.136662718567  1.771501942207  9.260536549090 -0.000022111487 -0.000012855516 -1.666177692640
Zn   7.670827707835  0.885750510854  6.945221993943 -0.000013112626 -0.000007456199 -1.666187205721
O    6.136662718567  1.771501942207  6.390990248726 -0.000001799772 -0.000001028441  1.666179749522
O    7.670827707835  0.885750510854  8.706305724373 -0.000000771331 -0.000000514221  1.666178978191