# total energy = -98159.7107391448 eV

CRYSTAL
PRIMVEC
6.264509332171351 0.0 0.0
-3.1322546660856756 5.425221694393695 0.0
0.0 0.0 10.862270782406528
PRIMCOORD
32 1
Zn  -0.000000000000  1.808407857915  5.430289682443  0.000000000000 -0.000001028441  0.495380359622
Zn   1.566127333043  0.904204242183  2.714721360391  0.000001028441  0.000000514221  0.495382673615
O   -0.000000000000  1.808407857915  2.064678911480 -0.000000000000 -0.000001028441 -0.495380102512
O    1.566127333043  0.904204242183  4.780247233532  0.000001028441  0.000000514221 -0.495379074071
Zn  -0.000000000000  1.808407857915  10.861426326549 -0.000000000000  0.000000514221  0.495379074071
Zn   1.566127333043  0.904204242183  8.145858004496  0.000000257110  0.000000000000  0.495380616733
O   -0.000000000000  1.808407857915  7.495816182036  0.000000000000  0.000000514221 -0.495379331181
O    1.566127333043  0.904204242183  10.211384504088  0.000001028441  0.000000771331 -0.495383187836
Zn  -1.566127333043  4.521019958014  5.430289682443 -0.000001028441  0.000000514221  0.495380359622
Zn   0.000000000000  3.616816342282  2.714721360391  0.000000000000  0.000000000000  0.495381388063
O   -1.566127333043  4.521019958014  2.064678911480 -0.000001028441  0.000000514221 -0.495380102512
O    0.000000000000  3.616816342282  4.780247233532  0.000000000000  0.000000000000 -0.495374703195
Zn  -1.566127333043  4.521019958014  10.861426326549  0.000000514221 -0.000000257110  0.495379074071
Zn   0.000000000000  3.616816342282  8.145858004496  0.000000000000 -0.000000000000  0.495382159394
O   -1.566127333043  4.521019958014  7.495816182036  0.000000514221 -0.000000257110 -0.495379331181
O    0.000000000000  3.616816342282  10.211384504088  0.000000000000  0.000000000000 -0.495387301601
Zn   3.132254666086  1.808407857915  5.430289682443  0.000000000000  0.000000000000  0.495380359622
Zn   4.698381999129  0.904204242183  2.714721360391 -0.000001028441  0.000000514221  0.495382673615
O    3.132254666086  1.808407857915  2.064678911480  0.000000000000  0.000000000000 -0.495382159394
O    4.698381999129  0.904204242183  4.780247233532 -0.000001028441  0.000000514221 -0.495379074071
Zn   3.132254666086  1.808407857915  10.861426326549  0.000000000000 -0.000000000000  0.495380616733
Zn   4.698381999129  0.904204242183  8.145858004496 -0.000000257110  0.000000000000  0.495380616733
O    3.132254666086  1.808407857915  7.495816182036 -0.000000000000 -0.000000000000 -0.495383444946
O    4.698381999129  0.904204242183  10.211384504088 -0.000001028441  0.000000771331 -0.495383187836
Zn   1.566127333043  4.521019958014  5.430289682443  0.000001028441  0.000000514221  0.495380359622
Zn   3.132254666086  3.616816342282  2.714721360391  0.000000000000 -0.000001028441  0.495382673615
O    1.566127333043  4.521019958014  2.064678911480  0.000001028441  0.000000514221 -0.495380102512
O    3.132254666086  3.616816342282  4.780247233532  0.000000000000 -0.000001285552 -0.495379074071
Zn   1.566127333043  4.521019958014  10.861426326549 -0.000000514221 -0.000000257110  0.495379074071
Zn   3.132254666086  3.616816342282  8.145858004496  0.000000000000 -0.000000257110  0.495380616733
O    1.566127333043  4.521019958014  7.495816182036 -0.000000514221 -0.000000257110 -0.495379331181
O    3.132254666086  3.616816342282  10.211384504088  0.000000000000 -0.000001285552 -0.495383187836