# total energy = -73602.28910115211 eV

CRYSTAL
PRIMVEC
9.013222972357486 0.0 0.0
-1.5022068331339051 2.6018921415452976 0.0
0.0 0.0 8.682428676048994
PRIMCOORD
24 1
Zn  -0.000000000000  1.734595662352  4.340537444979  0.000007970420  0.000004627986 -4.458940028335
Zn   1.502204129167  0.867297380515  2.169930726628  0.000010284413  0.000005913537 -4.458939771225
O   -0.000000000000  1.734595662352  1.650339152685 -0.000000257110 -0.000000000000  4.458939514115
O    1.502204129167  0.867297380515  3.820945871036 -0.000001285552 -0.000000771331  4.458939514115
Zn  -0.000000000000  1.734595662352  8.681752684326  0.000007713309  0.000004627986 -4.458940285446
Zn   1.502204129167  0.867297380515  6.511145064653  0.000010027302  0.000005913537 -4.458939771225
O   -0.000000000000  1.734595662352  5.991553490709 -0.000000514221 -0.000000257110  4.458939771225
O    1.502204129167  0.867297380515  8.162161110382 -0.000001285552 -0.000000771331  4.458940542556
Zn   3.004407357012  1.734595662352  4.340537444979  0.000002828213  0.000001799772 -4.458940028335
Zn   4.506611486179  0.867297380515  2.169930726628 -0.000002571103 -0.000001542662 -4.458940028335
O    3.004407357012  1.734595662352  1.650339152685 -0.000000771331 -0.000000514221  4.458939771225
O    4.506611486179  0.867297380515  3.820945871036 -0.000000000000 -0.000000000000  4.458940028335
Zn   3.004407357012  1.734595662352  8.681752684326  0.000003085324  0.000001799772 -4.458940285446
Zn   4.506611486179  0.867297380515  6.511145064653 -0.000002313993 -0.000001285552 -4.458939771225
O    3.004407357012  1.734595662352  5.991553490709 -0.000000514221 -0.000000257110  4.458939771225
O    4.506611486179  0.867297380515  8.162161110382 -0.000000000000 -0.000000000000  4.458940799666
Zn   6.008815615346  1.734595662352  4.340537444979 -0.000010284413 -0.000005913537 -4.458939771225
Zn   7.511018843190  0.867297380515  2.169930726628 -0.000008227530 -0.000004885096 -4.458939771225
O    6.008815615346  1.734595662352  1.650339152685  0.000001285552  0.000000771331  4.458939514115
O    7.511018843190  0.867297380515  3.820945871036  0.000001028441  0.000000771331  4.458939771225
Zn   6.008815615346  1.734595662352  8.681752684326 -0.000010284413 -0.000005913537 -4.458940028335
Zn   7.511018843190  0.867297380515  6.511145064653 -0.000008227530 -0.000004885096 -4.458939771225
O    6.008815615346  1.734595662352  5.991553490709  0.000001285552  0.000000771331  4.458939771225
O    7.511018843190  0.867297380515  8.162161110382  0.000001285552  0.000000771331  4.458940285446