# total energy = -12267.967279127095 eV

CRYSTAL
PRIMVEC
3.5157962211624265 0.0 0.0
-1.7578981105812133 3.044767422432191 0.0
0.0 0.0 5.98328045146841
PRIMCOORD
4 1
Zn   0.003438800284  2.014646864383  5.952984483851 -0.022712868216  0.020578081262  0.080101690549
Zn   1.756807159014  1.030485146117  3.034883816095 -0.022588683934 -0.030776104841 -0.543856967066
O    0.017548745258  2.043547060901  2.234427020920 -0.039240176448 -0.036016270194  0.508523067652
O    1.722044372297  0.991924596323  5.268145702147  0.084541728598  0.046214293773 -0.044767791134