# total energy = -12270.073770448433 eV

CRYSTAL
PRIMVEC
3.196178479088971 0.0 0.0
-1.5980892395444855 2.767970467353026 0.0
0.0 0.0 5.028832061035317
PRIMCOORD
4 1
Zn  -0.000000000000  1.845314603756  5.028046440365 -0.000000000000 -0.000000000000 -0.235299648011
Zn   1.598089239544  0.922657142069  2.513631049083  0.000000000000  0.000000000000 -0.235299648011
O   -0.000000000000  1.845314603756  1.911740141851  0.000000000000  0.000000000000  0.235299648011
O    1.598089239544  0.922657142069  4.426155533133 -0.000000000000  0.000000000000  0.235299648011