# total energy = -110417.80473172458 eV

CRYSTAL
PRIMVEC
9.204993617601557 0.0 0.0
-4.602496808800779 7.971754597683389 0.0
0.0 0.0 4.53210622260698
PRIMCOORD
36 1
Zn   0.000000000000  1.771501942207  4.531398358598  0.000000000000  0.000036766775 -2.547425100943
Zn   1.534165909767  0.885750510854  2.265346167794  0.000032395900  0.000018769053 -2.547424329612
O    0.000000000000  1.771501942207  1.722906939901  0.000000000000  0.000005399317  2.547424843832
O    1.534165909767  0.885750510854  3.988959130705  0.000003342434  0.000002056883  2.547424586722
Zn  -1.534165909767  4.428754395267  4.531398358598  0.000009255971  0.000005399317 -2.547424586722
Zn   0.000000000000  3.543003884414  2.265346167794  0.000000000000  0.000025711032 -2.547424586722
O   -1.534165909767  4.428754395267  1.722906939901  0.000001799772  0.000001028441  2.547424329612
O    0.000000000000  3.543003884414  3.988959130705 -0.000000000000  0.000004627986  2.547424586722
Zn  -3.068330899034  7.086007768827  4.531398358598  0.000031881679 -0.000018254832 -2.547425100943
Zn  -1.534165909767  6.200256337474  2.265346167794  0.000022368598 -0.000012855516 -2.547424586722
O   -3.068330899034  7.086007768827  1.722906939901  0.000004627986 -0.000002828213  2.547424843832
O   -1.534165909767  6.200256337474  3.988959130705  0.000003856655 -0.000002313993  2.547424586722
Zn   3.068330899034  1.771501942207  4.531398358598  0.000022625708  0.000013112626 -2.547424586722
Zn   4.602496808801  0.885750510854  2.265346167794  0.000000000000  0.000011569964 -2.547424843832
O    3.068330899034  1.771501942207  1.722906939901  0.000003085324  0.000001799772  2.547424843832
O    4.602496808801  0.885750510854  3.988959130705  0.000000000000 -0.000000514221  2.547424843832
Zn   1.534165909767  4.428754395267  4.531398358598 -0.000009255971  0.000005399317 -2.547424586722
Zn   3.068330899034  3.543003884414  2.265346167794  0.000010027302 -0.000005913537 -2.547424843832
O    1.534165909767  4.428754395267  1.722906939901 -0.000001799772  0.000001028441  2.547424329612
O    3.068330899034  3.543003884414  3.988959130705 -0.000000514221  0.000000257110  2.547424843832
Zn  -0.000000000000  7.086007768827  4.531398358598  0.000000000000 -0.000010541523 -2.547424586722
Zn   1.534165909767  6.200256337474  2.265346167794 -0.000022368598 -0.000012855516 -2.547424586722
O   -0.000000000000  7.086007768827  1.722906939901  0.000000000000 -0.000002056883  2.547424329612
O    1.534165909767  6.200256337474  3.988959130705 -0.000003856655 -0.000002313993  2.547424586722
Zn   6.136662718567  1.771501942207  4.531398358598 -0.000022625708  0.000013112626 -2.547424586722
Zn   7.670827707835  0.885750510854  2.265346167794 -0.000032395900  0.000018769053 -2.547424329612
O    6.136662718567  1.771501942207  1.722906939901 -0.000003085324  0.000001799772  2.547424843832
O    7.670827707835  0.885750510854  3.988959130705 -0.000003342434  0.000002056883  2.547424586722
Zn   4.602496808801  4.428754395267  4.531398358598 -0.000000000000 -0.000025968142 -2.547424586722
Zn   6.136662718567  3.543003884414  2.265346167794 -0.000010027302 -0.000005913537 -2.547424843832
O    4.602496808801  4.428754395267  1.722906939901 -0.000000000000 -0.000003599544  2.547424843832
O    6.136662718567  3.543003884414  3.988959130705  0.000000514221  0.000000257110  2.547424843832
Zn   3.068330899034  7.086007768827  4.531398358598 -0.000031881679 -0.000018254832 -2.547425100943
Zn   4.602496808801  6.200256337474  2.265346167794  0.000000000000 -0.000037538106 -2.547424329612
O    3.068330899034  7.086007768827  1.722906939901 -0.000004627986 -0.000002828213  2.547424843832
O    4.602496808801  6.200256337474  3.988959130705  0.000000000000 -0.000003856655  2.547424586722