# total energy = -73613.26204393993 eV

CRYSTAL
PRIMVEC
7.031592442324853 0.0 0.0
-1.7578981105812133 3.0447709382284116 0.0
0.0 0.0 16.256465136074787
PRIMCOORD
24 1
Zn   0.031884052770  2.060970995393  5.390062967709 -0.022062122006 -0.000767988514  0.390949605410
Zn   1.807266921119  0.960925469461  2.690233125172  0.035951478394  0.276794681931  0.367774452845
O   -0.010379333604  2.061648137746  2.051592960553 -0.060943629563 -0.148976144923 -0.225974771066
O    1.773783181068  1.099776919101  4.781837253040 -0.059214305577 -0.302052428057 -0.343866021659
Zn  -0.035075692580  2.052685670019  10.914911015148 -0.097639185212 -0.062754971740 -0.581878697726
Zn   1.785511877261  0.990740124576  8.223978949688 -0.215494697470 -0.062917465460 -1.080658569948
O    0.040678465438  2.080312093565  7.498538698483 -0.150126713587 -0.188582960681 -0.092588510162
O    1.760968103842  0.957211382333  10.141861960994  0.124467361148  0.255058575806  1.228889609175
Zn  -0.034265653131  2.064295532300  16.247809245778  0.129400536784 -0.041365450321  0.069910608948
Zn   1.757350349530  1.024882021679  13.545726481023  0.060163299753 -0.011053686711  0.177150807585
O   -0.024263212881  2.001767799666  12.919904206267  0.269820821717  0.161906994052 -0.003710873193
O    1.796243493647  1.037256218059  15.621128413586 -0.162230953050 -0.146387301150 -0.255540143428
Zn   3.518784647950  2.080878839916  5.468158646010 -0.010984266926 -0.030268826187 -0.306791742514
Zn   5.317131994056  1.013627957975  2.670103082328 -0.199694240103 -0.067511255478  0.462823508732
O    3.499724110317  2.018171098515  2.065153386578  0.230203978656  0.037432176705 -0.390405817091
O    5.290750865531  1.005075432088  4.764739232857  0.120806367357  0.192478953301 -0.121268137485
Zn   3.495079040350  2.034108905945  10.842103797522  0.163799325979 -0.012642371354 -0.175844687179
Zn   5.249907157670  0.997529127079  8.133457744381  0.231911705376  0.208315920334 -0.187319777698
O    3.519134821254  2.043428578568  7.472189915283  0.110084610064  0.056637288878  0.329262412813
O    5.265020862466  1.068547507587  10.170586016121 -0.099247667349 -0.250576371665  0.337204293368
Zn   3.526123520982  1.994326968543  16.240892268293 -0.004313539774  0.071419589394  0.154798408032
Zn   5.261970557665  1.019035955723  13.549813242550  0.049235854208 -0.093797957089 -0.094279010490
O    3.562356613679  1.999407294083  12.893692539120 -0.366055413271  0.020889441854 -0.054107323367
O    5.318379398555  0.977629017308  15.549074982670 -0.077838862656  0.138721557074  0.395471147429