# total energy = -36790.83793689062 eV

CRYSTAL
PRIMVEC
8.629681152692129 0.0 0.0
-1.438283068675739 2.4911732067534005 0.0
0.0 0.0 4.156485927194164
PRIMCOORD
12 1
Zn  -0.000000000000  1.660783000804  4.155833523299 -0.000000000000 -0.000000000000 -6.508890091910
Zn   1.438280479771  0.830391068918  2.077593148606 -0.000000514221 -0.000000257110 -6.508990879154
O   -0.000000000000  1.660783000804  1.580111878420  0.000000257110  0.000000000000  6.508935343326
O    1.438280479771  0.830391068918  3.658352253113 -0.000000514221 -0.000000257110  6.508946141959
Zn   2.876560096575  1.660783000804  4.155833523299 -0.000000000000 -0.000000000000 -6.508890606131
Zn   4.314840576346  0.830391068918  2.077593148606  0.000000000000  0.000000000000 -6.508990364934
O    2.876560096575  1.660783000804  1.580111878420  0.000000771331  0.000000514221  6.508934829105
O    4.314840576346  0.830391068918  3.658352253113  0.000000000000  0.000000000000  6.508946141959
Zn   5.753121056117  1.660783000804  4.155833523299  0.000000257110  0.000000257110 -6.508890606131
Zn   7.191400672921  0.830391068918  2.077593148606  0.000000257110  0.000000000000 -6.508990622044
O    5.753121056117  1.660783000804  1.580111878420 -0.000000000000 -0.000000000000  6.508934829105
O    7.191400672921  0.830391068918  3.658352253113 -0.000000257110 -0.000000257110  6.508945884849