# total energy = -73613.37232283504 eV

CRYSTAL
PRIMVEC
6.903745345495471 0.0 0.0
-1.7259363363738678 2.98941148328903 0.0
0.0 0.0 16.958449815364567
PRIMCOORD
24 1
Zn  -0.000000000000  1.992939377985  5.651934766716 -0.000007456199 -0.000004370875 -0.014111756811
Zn   1.725936336374  0.996470034180  2.825526234030 -0.000005142206 -0.000003085324 -0.014103272171
O   -0.000000000000  1.992939377985  2.148951596052  0.000001285552  0.000000771331  0.014114585025
O    1.725936336374  0.996470034180  4.975360128738  0.000000771331  0.000000257110  0.014115613466
Zn  -0.000000000000  1.992939377985  11.304750451338 -0.000007970420 -0.000004627986 -0.014140296056
Zn   1.725936336374  0.996470034180  8.478342609027 -0.000010798633 -0.000006170648 -0.014111242590
O   -0.000000000000  1.992939377985  7.801767971049  0.000002828213  0.000001542662  0.014112271032
O    1.725936336374  0.996470034180  10.628175813360 -0.000000000000 -0.000000000000  0.014117156128
Zn  -0.000000000000  1.992939377985  16.957566826335 -0.000004113765 -0.000002313993 -0.014094530420
Zn   1.725936336374  0.996470034180  14.131158984024 -0.000009770192 -0.000005656427 -0.014119470121
O   -0.000000000000  1.992939377985  13.454584346045  0.000002571103  0.000001542662  0.014118184569
O    1.725936336374  0.996470034180  16.280992188356  0.000000000000  0.000000000000  0.014109185708
Zn   3.451872672748  1.992939377985  5.651934766716  0.000008998861  0.000005142206 -0.014117413238
Zn   5.177809009122  0.996470034180  2.825526234030  0.000005656427  0.000003342434 -0.014116127686
O    3.451872672748  1.992939377985  2.148951596052  0.000000771331  0.000000514221  0.014114070804
O    5.177809009122  0.996470034180  4.975360128738 -0.000002571103 -0.000001542662  0.014115870576
Zn   3.451872672748  1.992939377985  11.304750451338  0.000005913537  0.000003342434 -0.014139010505
Zn   5.177809009122  0.996470034180  8.478342609027  0.000012855516  0.000007456199 -0.014107128825
O    3.451872672748  1.992939377985  7.801767971049 -0.000001028441 -0.000000514221  0.014113042363
O    5.177809009122  0.996470034180  10.628175813360 -0.000001542662 -0.000001028441  0.014115870576
Zn   3.451872672748  1.992939377985  16.957566826335  0.000003342434  0.000002056883 -0.014093501979
Zn   5.177809009122  0.996470034180  14.131158984024  0.000007970420  0.000004627986 -0.014122298334
O    3.451872672748  1.992939377985  13.454584346045 -0.000000514221 -0.000000257110  0.014119213010
O    5.177809009122  0.996470034180  16.280992188356 -0.000002056883 -0.000001028441  0.014110471259