# total energy = -49079.30257459496 eV

CRYSTAL
PRIMVEC
6.392356429000733 0.0 0.0
-1.5980891072501833 2.7679734343908944 0.0
0.0 0.0 9.852404724533821
PRIMCOORD
16 1
Zn  -0.028075229436  1.788616486795  4.934352616714  1.846140772862  1.017968132897  0.530513198770
Zn   1.501367640594  0.913838490377  2.516075597714  0.731659083717  0.104508144417 -1.692354351035
O    0.043476333781  1.881469299340  1.773999085349 -0.711837935226 -0.095952541538  2.498342227373
O    1.610230109816  0.898526879023  4.330062707940  0.325868299530  0.233108553897  1.543229596350
Zn   0.004846045409  1.841196814602  9.837734266529 -1.017011682521  0.188165670638 -1.477964456593
Zn   1.624137320463  0.973977779661  7.411273752829 -0.152702444734 -0.506635620821 -0.513938839351
O   -0.045135150274  1.789128514545  6.847232677075  1.174095029932  1.159088529221 -0.045183024295
O    1.550414913003  0.954887007186  9.306612547913  0.353866070294 -0.712733964678 -0.573188883261
Zn   3.206758842862  1.852143724986  4.954317224313 -0.357878790998  0.218102824517 -1.036792978913
Zn   4.768551511072  0.954016368240  2.517348955115  0.380960612518 -0.453850872920 -1.496956938535
O    3.218512468628  1.821507717565  1.868933888383 -0.511057146928  0.491493880084  0.776437930595
O    4.852031850621  1.040791967528  4.372244589544 -1.755465934784 -1.536410259435  0.030739080955
Zn   3.109070212678  1.854058235737  9.822028246783  1.005550733069  0.042112612899  0.167128390352
Zn   4.802396481421  0.901801683221  7.380754725530 -0.422644622520  0.542692771555  0.081765451404
O    3.237203079590  1.906945396652  6.801942831775 -0.576532345812 -1.132861220093  0.386815528637
O    4.779659508839  0.902696613121  9.241955780340 -0.313009184179  0.441203616470  0.821407810438