# total energy = -24539.82537566324 eV

CRYSTAL
PRIMVEC
3.2601020275036623 0.0 0.0
-1.6300510137518311 2.8233298583688593 0.0
0.0 0.0 9.840086573389321
PRIMCOORD
8 1
Zn  -0.035781249803  1.889886035497  4.919209026586  0.322803030341  0.168880854267 -1.228117764006
Zn   1.662961743719  0.874114856124  2.392014448008 -0.321897744918  0.273511640305  0.370484138467
O   -0.007929872172  1.848683236022  1.921532823909  0.339287915370 -0.236455358882  0.249270765480
O    1.638944898093  0.977554633355  4.284805886432 -0.299916355551 -0.214333073062  0.708666222367
Zn  -0.012979118192  1.832183859661  9.908847341313  0.326615976329 -0.100224172330 -1.464991184262
Zn   1.730569087545  0.992906127792  7.391501204949 -0.598605523562 -0.315100519490 -0.925040751339
O    0.025197980591  1.890758438799  6.769105020562  0.583037236810  0.288326850941  1.116469666109
O    1.677011479417  0.862726015702  9.248254171520 -0.351324534819  0.135393521142  1.173259164294