# total energy = -49075.276375381014 eV

CRYSTAL
PRIMVEC
7.031592442324853 0.0 0.0
-3.5157962211624265 6.089534844864382 0.0
0.0 0.0 5.418819368160782
PRIMCOORD
16 1
Zn  -0.100854833560  1.982671400911  5.442977107156  0.731771698036  0.292746834385 -0.304047604110
Zn   1.723801215669  1.072239093619  2.683384354133  0.389980813739 -0.155810908456  0.129317747262
O    0.050758956363  2.080076535218  2.091933909554 -0.405203544226 -0.502185298359 -0.523640125799
O    1.712800992452  1.008912572084  4.672302621770  0.129016413971  0.026909679907  0.533551214265
Zn  -1.754145349695  4.944061012799  5.472382523590  0.160068398181  0.331216451215 -0.523086824399
Zn   0.006568913660  4.004126956256  2.659759609845 -0.101510752352  0.361158490190  0.488801163743
O   -1.706800934621  5.038429202331  2.017254882020 -0.360420840693 -0.088796904330  0.210276900715
O    0.041995482703  4.051727321295  4.722733202766 -0.526673256198 -0.104149218416  0.354745387575
Zn   3.521507983703  2.019775707911  5.354696167201 -0.552935275219 -0.035831922097  0.254175658980
Zn   5.321841754674  0.892406820066  2.692246973247 -0.304837704112  0.665240032862  0.203587661620
O    3.521227423165  2.005584548044  2.038516308088  0.097566937213  0.166533437080 -0.100512392994
O    5.286175408329  0.952898906688  4.761348598982 -0.090098653860  0.558398869436  0.065178750690
Zn   1.797277840895  5.177365734239  5.466146204253 -0.271003529171 -0.739549285099 -0.181077910553
Zn   3.489802533381  4.061451310483  2.718355979145  0.137511338816 -0.175764982981  0.048176302595
O    1.762505209949  5.112527420329  2.120245210204  0.217562892853 -0.338730243094 -0.483113112219
O    3.391547982707  4.080712951660  4.792000013597  0.749205063021 -0.261385289355 -0.172332817371