# total energy = -24540.147541032922 eV

CRYSTAL
PRIMVEC
6.392356429000733 0.0 0.0
-1.5980891072501833 2.7679734343908944 0.0
0.0 0.0 5.028828448556303
PRIMCOORD
8 1
Zn  -0.000000000000  1.845314131377  5.028046024129 -0.000000771331 -0.000000514221 -0.235298619570
Zn   1.598089107250  0.922657385307  2.513630521380  0.000000257110  0.000000000000 -0.235298619570
O   -0.000000000000  1.845314131377  1.911739663974  0.000001799772  0.000001028441  0.235296562688
O    1.598089107250  0.922657385307  4.426155166723  0.000001285552  0.000000771331  0.235300676453
Zn   3.196178214500  1.845314131377  5.028046024129 -0.000000257110 -0.000000257110 -0.235297334019
Zn   4.794267321751  0.922657385307  2.513630521380  0.000001028441  0.000000771331 -0.235300933563
O    3.196178214500  1.845314131377  1.911739663974  0.000000514221  0.000000257110  0.235298876680
O    4.794267321751  0.922657385307  4.426155166723 -0.000003856655 -0.000002313993  0.235299390901