# total energy = -49078.23542398516 eV

CRYSTAL
PRIMVEC
6.264509332171351 0.0 0.0
-3.1322546660856756 5.425221694393695 0.0
0.0 0.0 5.531712088531275
PRIMCOORD
16 1
Zn  -0.013804472764  1.596923034469  5.550509375233  0.183672410753  1.425129829291  0.860132737812
Zn   1.519675369894  0.937389853919  2.772428767457  0.396016478410 -0.608656737151  0.458290910969
O    0.029072334909  1.821119800252  2.100422948827 -0.734356428044  0.195825501176 -0.535504995557
O    1.606882977856  0.986467899380  4.870417327958 -0.184670255890 -1.423760716857 -0.779824073458
Zn  -1.606621121366  4.391985474143  5.414965439715  2.183463594086  1.993321773558  1.510235143701
Zn  -0.135707439212  3.705988500371  2.806860390099  3.389172908489 -2.061448036912  1.130923122530
O   -1.498886595675  4.498617446191  2.173456477974 -3.756983870999  1.892912481800 -1.851457814200
O   -0.068882665264  3.523550327345  4.803190998961  1.034830455870 -0.175092896615  0.157122171069
Zn   3.095555917516  1.797057819907  5.561554958088  1.060807082440  0.442553702739  0.435024484242
Zn   4.665319798226  0.954099806112  2.791172805830  0.801013305942 -0.675736561518  0.259542322609
O    3.148459072375  1.846180969836  2.130557118068 -0.302798305084 -1.770248492409 -1.282871976928
O    4.723019061430  0.828529595902  4.859535248797 -1.186328081663  0.419151007545 -0.681206583494
Zn   1.501475717382  4.481964501034  5.508889228132 -0.094401137890 -0.734995347180  0.503207826086
Zn   3.022036888895  3.515366372353  2.716072615054  0.431813176394  2.548457913083  0.887406743036
O    1.548699468081  4.539178264764  2.043987863606 -0.157514778521  0.108034412403 -0.064110714437
O    3.198909045380  3.656718760924  4.849424957186 -3.063736297180 -1.575448090064 -1.006909303980