# total energy = -110413.56519811833 eV

CRYSTAL
PRIMVEC
10.163846843821924 0.0 0.0
-1.6939778619192687 2.934048487640294 0.0
0.0 0.0 17.94984139083802
PRIMCOORD
36 1
Zn  -0.035309203935  1.997561803297  6.049091710721  0.110570291451 -0.185373452605 -0.190635986555
Zn   1.623087062953  0.970222524787  3.042139982440  0.421088076667  0.143552917025  0.351155099121
O   -0.071255681068  1.885418999146  2.406252117657  3.460569100844  1.968832273057 -1.137742716555
O    1.747431565240  0.994160416873  5.269967801523 -0.903657400567 -0.613669874094  0.459854655912
Zn   0.107516221068  2.059119141707  11.813605873662  0.371213560434  0.116018716160 -0.759799550707
Zn   1.812418185575  0.926471229663  8.864391910146 -1.081591880395 -0.454626831854 -0.034684181646
O   -0.024939031001  1.863043290319  8.303243893130  0.733676885478  0.611855189483 -0.281864126035
O    1.836107063414  1.120399460212  11.022609574965 -0.898414407001 -0.742318363204  0.705220687020
Zn   0.301745301484  1.880740580444  17.972011789958 -2.178257881515  0.752182143371 -0.018727401206
Zn   1.607995783159  0.734314557618  15.034579757704  0.345269586874  0.263476367556 -0.343999204802
O    0.009753227431  1.692865937075  14.395157923373  0.205741217628  1.183557203786  0.145666878044
O    1.692569152747  0.950583939915  17.288071290067  1.306768838151 -1.179872298736  0.071475125222
Zn   3.494646640543  1.751423924281  6.047189038592 -0.784661604056  0.713576258074 -0.943810318637
Zn   4.975975482411  1.160016102440  3.008683647784  0.298747017833 -0.239858213916  0.242513135041
O    3.201311922322  1.957627032663  2.322948212540  0.634541318227  0.199443814655 -0.509710145981
O    4.878822319585  0.816169098175  5.174185741636  1.063511625855  0.074789020086  0.486575616846
Zn   3.348379736998  2.010080613455  11.892661290798  0.601223420801 -1.158072943472  0.782181775057
Zn   5.072373471417  0.715458588954  9.010073376113 -0.184779013554  0.841695357042 -0.010246874539
O    3.484556989781  1.939065815557  8.158314551830  0.215415764603 -0.709479976517  0.584065678075
O    4.986711553832  0.845706253488  11.456036659773  0.573306639786  2.106655743797 -1.249903749532
Zn   3.376473626059  1.967192228928  18.035391506107 -0.289493617555  0.116705972035 -0.349709882034
Zn   5.131193685871  0.934625683986  15.079442977672 -0.965673437259  0.268573065353 -0.277017853686
O    3.293616930204  2.119846093829  14.337158947744  0.373494128938 -0.966491562284  0.067033801621
O    4.848696677540  1.016336914302  17.126710057575  1.059156434210 -0.316349818516  0.879272286854
Zn   6.724158155933  2.019954790664  6.248736088736  0.503540783946 -0.236979092596 -1.338092845075
Zn   8.665372608713  1.158218117934  3.000079951431 -4.333861773076 -2.365067038125  0.826702997398
O    6.796144617589  2.035143643387  2.304484568364 -0.330178753979 -0.401528923588  0.095231861322
O    8.298743341747  0.848220789197  5.337990362910  0.474424840416  0.662964349454  0.995439355667
Zn   6.952624154442  2.120437629716  12.032598150529 -0.248128424345  0.063129067250  0.700394726387
Zn   8.128401334184  0.941863359323  9.096767940537  4.417209738476 -1.939833057611  1.447876121848
O    6.967293634592  1.917787802190  8.351650230108 -4.203895079376  2.225664138713 -1.418738066832
O    8.571647711427  1.238551130618  11.291803124163 -0.631003737387 -0.978546693677 -0.149413746681
Zn   6.785069073683  1.753917115911  17.968727851043  0.466280099822  0.703306243606 -0.235088303332
Zn   8.370125054516  0.902545534193  14.957318259536  0.453450037937  0.846092457668  0.392400221814
O    6.937339761559  2.148165620290  14.153031714706 -0.520840708677 -1.512950999971 -0.215254042214
O    8.489967989036  0.790679186675  17.221599731709 -0.534761946744  0.138949356814  0.231378972801