# total energy = -36810.277798776784 eV

CRYSTAL
PRIMVEC
3.196178479088971 0.0 0.0
-1.5980892395444855 2.767970467353026 0.0
0.0 0.0 15.394380859818112
PRIMCOORD
12 1
Zn  -0.000000000000  1.845314603756  5.130659750436  0.000000000000  0.000000000000 -0.000742791703
Zn   1.598089239544  0.922657142069  2.564929713673  0.000000000000  0.000000000000 -0.000750247902
O   -0.000000000000  1.845314603756  1.950755253309  0.000000000000  0.000000000000  0.000762589198
O    1.598089239544  0.922657142069  4.516485290073  0.000000000000  0.000000000000  0.000758989653
Zn  -0.000000000000  1.845314603756  10.262119504346  0.000000000000 -0.000000000000 -0.000764903190
Zn   1.598089239544  0.922657142069  7.696389467582  0.000000000000 -0.000000000000 -0.000764646080
O   -0.000000000000  1.845314603756  7.082215007219  0.000000000000 -0.000000000000  0.000753076116
O    1.598089239544  0.922657142069  9.647945043983  0.000000000000  0.000000000000  0.000744077255
Zn  -0.000000000000  1.845314603756  15.393579577873  0.000000000000 -0.000000000000 -0.000744334365
Zn   1.598089239544  0.922657142069  12.827849541110  0.000000000000  0.000000000000 -0.000759760984
O   -0.000000000000  1.845314603756  12.213675080746  0.000000000000  0.000000000000  0.000746134137
O    1.598089239544  0.922657142069  14.779405117510  0.000000000000  0.000000000000  0.000761560756