# total energy = -12269.452153187236 eV

CRYSTAL
PRIMVEC
3.196178479088971 0.0 0.0
-1.5980892395444855 2.767970467353026 0.0
0.0 0.0 4.618314897181129
PRIMCOORD
4 1
Zn   0.047228970532  1.808154234668  4.622912599923 -0.699042840344  0.363892087072 -2.060446592231
Zn   1.604470409878  0.982386366633  2.282034038781 -0.308264984626 -0.285736721616 -1.837769775190
O   -0.028598446177  1.874334945492  1.777524297450  0.276048547794  0.383356880664  1.666801956487
O    1.568494224917  0.920058648965  4.050411193042  0.731259277176 -0.461512246120  2.231414410933