# total energy = -110407.41042051093 eV

CRYSTAL
PRIMVEC
8.629681152692129 0.0 0.0
-1.438283068675739 2.4911732067534005 0.0
0.0 0.0 14.68623301672374
PRIMCOORD
36 1
Zn   0.002001223059  1.730119036993  4.951162197693 -0.953740690377 -2.465324634796 -1.808469997784
Zn   1.479540711299  0.856200719309  2.497084538343 -4.040108608914  0.913723783664  2.432051217455
O    0.049057148449  1.818341130385  1.753184448778 -0.656896545994 -3.824966923907 -0.416529767872
O    1.395729247944  0.795496953177  4.311745972685  1.073019051125  3.077229189460 -1.268210004041
Zn  -0.006806229525  1.674605161106  9.756481920938 -0.389120779731 -0.032852270643  1.289533962329
Zn   1.444286737854  0.899280087624  7.234927058719 -1.509378452128 -3.816821926203  3.606523428221
O    0.013787641578  1.589888444198  6.648876781958 -2.896231754436  1.121772566379  3.032050278931
O    1.472779356116  0.878981351616  9.264628065832 -1.406243019688 -0.980053874350 -3.158015050560
Zn  -0.029986416069  1.702907063414  14.592326552356  1.029142918567 -4.862165108679  2.876450458044
Zn   1.342516045052  0.811072664689  12.176455080373  1.750412688630  3.168087861415  2.660841860704
O   -0.072064741370  1.711779238607  11.658648322168  1.603085392165 -1.403746992739 -3.117169220188
O    1.454980638738  0.763833790060  14.165742427680 -0.072870977128  5.723441216066 -4.136924526893
Zn   2.922732342614  1.710048124568  4.879768845517 -1.371533898342 -1.281272236541  0.951265746474
Zn   4.307821193696  0.862018850342  2.296806898151  1.925255931128 -1.135852184401  2.028156878959
O    2.823506542784  1.566620234906  1.806737661107  2.108161896029  3.659596911007 -2.164569585395
O    4.365375126208  0.862324341055  4.311863336348 -2.898976664171 -1.408980730335 -3.950280177995
Zn   2.876474662731  1.711216583396  9.706442714774 -0.344971081797  2.473136417531  2.371371897297
Zn   4.349726062406  0.815084603457  7.395099118721 -1.977108654133  0.031378000091  1.911712388116
O    2.838757778285  1.657835101722  6.782742121935  3.793257508619  0.686219206217 -2.221691784329
O    4.356150860024  1.014003068867  9.267134125239 -3.434497857678 -3.994932012377 -3.890430038607
Zn   2.895681744073  1.669416996797  14.628490957163 -0.624643085277  1.221486888953  0.506136826808
Zn   4.357804306933  0.825409153988  12.190846799632 -1.148115832260  0.980978700157  2.216240788517
O    2.866633374345  1.686106800146  11.610897707446 -0.621926971897 -1.788434419290 -0.902067430372
O    4.425699186370  0.968938010920  14.122164263795 -4.457664761167 -3.275502637956 -3.107886509335
Zn   5.672505163693  1.680469892417  4.947010458091  3.113803131930  0.631047189031  1.426342361541
Zn   7.155415765482  0.886981066045  2.404568315609  3.545254039888  0.434816481996  3.044887539905
O    5.826640761730  1.742815886873  1.835323479926 -2.771893719777 -0.035232340840 -1.520684878280
O    7.141137958015  0.807941816367  4.361749797156  0.889611206887  1.945328276398 -2.268651955129
Zn   5.733570513466  1.643290637107  9.812886379920  3.297570159279  2.841290879424  2.939706537790
Zn   7.146437445211  0.762887114037  7.361029137531  2.131682347748  0.218284087290  2.048470393706
O    5.745002252089  1.575691755734  6.761305993952  0.603697079152  1.332071321471 -1.129689764344
O    7.139826246480  0.850511170525  9.291339517904  2.148706393110 -0.484158779875 -3.261862164355
Zn   5.829121795061  1.597824298986  14.659606998495 -0.242809840346  4.181558620663  4.127731033319
Zn   7.217237938292  0.897332368587  12.313811126376 -1.045852518012 -3.178793163648  1.587218857446
O    5.807144586070  1.609678891986  11.604296001364 -0.352772065899  2.364769047269  0.251356701474
O    7.151194988430  0.829251088038  14.151250604121  4.204697777783 -3.037127179233 -2.984916301558