# total energy = -49078.26667884462 eV

CRYSTAL
PRIMVEC
6.264509332171351 0.0 0.0
-3.1322546660856756 5.425221694393695 0.0
0.0 0.0 4.827675207235198
PRIMCOORD
16 1
Zn   0.039839147098  1.805843794246  4.848229688805 -1.345300161456 -0.035985159845 -1.114251832522
Zn   1.531611765975  0.877135297359  2.425899916337  0.526632118548  0.493957254022 -0.817883085114
O    0.018525406997  1.799334342599  1.809378856862 -0.661140151761  0.621828498646  1.893528775228
O    1.513130836995  0.940490786039  4.259497992728  1.392334894248 -0.857377286554  0.268146776448
Zn  -1.541096859555  4.531417164153  4.842814020487 -0.466503785797  0.420391050600 -2.328544774830
Zn  -0.069677631498  3.660623429591  2.446132402127  0.873947789318 -0.527919984121 -0.831778097928
O   -1.624343418267  4.515003523252  1.761123967927  1.483712671931  0.783502036531  2.113746846316
O   -0.057321513291  3.583661426641  4.299178647740  0.964550893618  0.619186433037 -0.128411176287
Zn   3.140291405108  1.815283783358  4.795043378124  0.340577580715 -0.151749593903 -0.362963404610
Zn   4.699627383584  0.800333665848  2.386646500861 -0.231561006905  2.201846981689 -0.773174172242
O    3.108926886235  1.840988318050  1.839896414074  0.243924413566 -0.457577172732  0.424695077292
O    4.719794092026  0.856330235416  4.198595685902 -0.340667569326  0.436216447668  1.602259553830
Zn   1.635764871681  4.476944123255  4.849196302595 -1.370207209111  0.433657171581 -0.787369232796
Zn   3.222541906836  3.665853668432  2.438918819631 -1.360757376552 -1.266478366062 -1.260030039333
O    1.627007714086  4.533557120541  1.842251869583 -1.013034443041 -1.893656559055  0.493702457699
O    3.115515270699  3.655250986388  4.210714379205  0.963491084895 -0.819842008612  1.608326071739