# total energy = -73611.21620393604 eV

CRYSTAL
PRIMVEC
10.355617489065997 0.0 0.0
-1.7259397000501626 2.989407878656127 0.0
0.0 0.0 11.748986533454806
PRIMCOORD
24 1
Zn  -0.000000000000  1.992939621333  5.873578865703  0.000002313993  0.000001285552 -0.159844197986
Zn   1.725936593365  0.996469292885  2.936331196778  0.000001799772  0.000001028441 -0.159852168405
O   -0.000000000000  1.992939621333  2.233224120617 -0.000001799772 -0.000001028441  0.159854996619
O    1.725936593365  0.996469292885  5.170471789542 -0.000002313993 -0.000001285552  0.159845226427
Zn  -0.000000000000  1.992939621333  11.748073167992  0.000000514221  0.000000257110 -0.159856025060
Zn   1.725936593365  0.996469292885  8.810826534629 -0.000001028441 -0.000000514221 -0.159852168405
O   -0.000000000000  1.992939621333  8.107719458467 -0.000001799772 -0.000001028441  0.159852682626
O    1.725936593365  0.996469292885  11.044967127393  0.000002571103  0.000001542662  0.159855510839
Zn   3.451872151168  1.992939621333  5.873578865703 -0.000001285552 -0.000000771331 -0.159850111523
Zn   5.177808744533  0.996469292885  2.936331196778 -0.000001542662 -0.000001028441 -0.159852168405
O    3.451872151168  1.992939621333  2.233224120617  0.000003085324  0.000001799772  0.159853196847
O    5.177808744533  0.996469292885  5.170471789542  0.000000000000  0.000000000000  0.159846769089
Zn   3.451872151168  1.992939621333  11.748073167992  0.000001285552  0.000000771331 -0.159855767950
Zn   5.177808744533  0.996469292885  8.810826534629  0.000001799772  0.000001028441 -0.159855767950
O    3.451872151168  1.992939621333  8.107719458467  0.000001542662  0.000000771331  0.159853711067
O    5.177808744533  0.996469292885  11.044967127393 -0.000006941979 -0.000003856655  0.159859110384
Zn   6.903745337898  1.992939621333  5.873578865703 -0.000001028441 -0.000000771331 -0.159843683765
Zn   8.629680895701  0.996469292885  2.936331196778 -0.000000514221 -0.000000257110 -0.159857824832
O    6.903745337898  1.992939621333  2.233224120617 -0.000000257110 -0.000000257110  0.159853196847
O    8.629680895701  0.996469292885  5.170471789542  0.000002828213  0.000001799772  0.159844455096
Zn   6.903745337898  1.992939621333  11.748073167992 -0.000002056883 -0.000001285552 -0.159851654185
Zn   8.629680895701  0.996469292885  8.810826534629 -0.000002056883 -0.000001285552 -0.159859624605
O    6.903745337898  1.992939621333  8.107719458467 -0.000000000000 -0.000000000000  0.159848825971
O    8.629680895701  0.996469292885  11.044967127393  0.000004627986  0.000002828213  0.159863481259