# total energy = -110417.70816791117 eV

CRYSTAL
PRIMVEC
9.204993617601557 0.0 0.0
-4.602496808800779 7.971754597683389 0.0
0.0 0.0 5.320293006107731
PRIMCOORD
36 1
Zn  -0.000114141921  1.678247072366  5.398696539246  2.258038698389  1.351806595116 -0.184798553938
Zn   1.604537165474  0.802445318614  2.825822580680 -0.707733169029  1.804659108679  0.859341866479
O   -0.028293388882  1.708531501368  1.931210422471  0.419418916494  1.181785456598  1.982070626124
O    1.663437158135  0.946495184236  4.752304397930 -4.243077148892 -1.228032917601 -2.538286371866
Zn  -1.465116491143  4.387830834642  5.666885869293  0.067975853819 -0.012883540831 -7.530822351662
Zn   0.114899491833  3.528865934716  2.603174956556 -0.637196753572 -0.795006951846  0.987743529685
O   -1.592863392568  4.356422475920  1.973104189423  0.599388681585  0.286544305119  6.244287581170
O    0.186318275814  3.546043373306  4.792626872472 -7.897059027706 -5.395339913441 -4.471899159599
Zn  -2.874758167750  7.194011799941  5.345317701757 -1.663944946654 -1.517594669390 -0.386004345590
Zn  -1.617157211724  6.159549094199  2.586875674357 -0.472752337810  0.701980068596  1.126399523628
O   -3.148640786350  7.317552939782  1.846098289984  0.021850263106 -3.716540161162  0.965227607970
O   -1.587704914145  6.053607902155  4.676513241981  1.325367941309  0.645848515710 -1.043782008636
Zn   3.069033240047  1.685598180269  5.289961631638  2.932363724272  3.422741488473  2.440195700939
Zn   4.696258873790  0.866172409928  2.414519532862 -0.339071428483  5.955764297948  2.774138549947
O    2.897763287799  1.838750864079  2.009993201346  2.012831561456  0.840692112588 -0.313503093096
O    4.625671300732  1.125863689868  4.507132154423  1.995628824425 -1.691297113415 -0.162053804042
Zn   1.343377689052  4.423429306459  5.388084102104  7.616497422533  3.627600560607  2.436817271385
Zn   2.961198580816  3.726522921668  2.783204380730  3.852975493305 -3.654607428213  2.694215551068
O    1.696861410460  4.478004793119  1.973050800460 -4.083722488949 -0.178897100852 -1.536201742968
O    3.122837348241  3.556457903085  4.762606626787 -0.647671942072  0.565153928772 -0.783897215087
Zn   0.023160684441  7.301434075459  5.432789994607 -0.123533536480 -0.561474165928 -3.257262717910
Zn   1.603074491988  6.155554126969  2.390592992952 -0.611605535366  3.250233578977  1.065621730219
O   -0.146858309174  7.281996810936  1.900029427091 -0.006858674793 -5.861994880104  0.618493777846
O    1.548367373920  6.171040608231  4.967715056072 -2.155611604871  0.835436520616 -1.547554448977
Zn   6.350745096131  1.779378655245  5.349707563213 -2.373383785521  1.802670103273 -0.644849899242
Zn   7.598484742495  0.796016551072  2.502660108249  0.374081111789  4.424863655477  2.483809066754
O    6.213757301613  2.002859331292  1.936830991574 -0.411598906229 -2.244335746981 -0.377024767799
O    7.769757456241  0.806380453386  4.897668736640 -0.526725449592  4.689506275427 -4.004515285190
Zn   4.731624459268  4.417208571773  5.319091754441 -3.567886946796  2.359020831931  1.480114155946
Zn   5.955426519730  3.574615673495  2.767001750964  1.913316242268 -0.294502126513  1.349953601068
O    4.656333134473  4.498816363189  2.039589096825 -1.662559379161 -4.593277854520 -3.592964715700
O    6.093452637528  3.699381997987  4.603480822619  4.054938217727 -2.383357094684 -0.019859715038
Zn   2.975458956928  7.193952887982  5.292160704614 -1.181964405378 -3.985321228760  0.895307743051
Zn   4.545563923276  6.005281685662  2.618554659892 -0.233599634601  7.821094756364  2.995438027025
O    3.081879729140  7.241702871874  1.836389783216 -0.163618063206 -5.028533995157  1.164784551165
O    4.394714328869  6.353330778838  4.750102563456  4.266502212685 -2.424405527985 -2.168680779350