# total energy = -110427.44641578913 eV

CRYSTAL
PRIMVEC
9.396764262845632 0.0 0.0
-4.698382131422816 8.13783277073089 0.0
0.0 0.0 5.431132411875256
PRIMCOORD
36 1
Zn  -0.150829342536  1.787091662331  5.417908345528  2.296338879521  0.840979047701  0.362942064453
Zn   1.617591888881  0.905067203828  2.611078885717 -0.121258881513  0.512347583604  1.226647350108
O    0.048123648819  1.843434660851  2.062554987667 -1.117254881015 -3.760077936543 -1.869310269000
O    1.545874844351  0.892449228776  4.678836861756 -0.150896758984  0.395872239523  0.601181254709
Zn  -1.634131133660  4.486306558775  5.459625280473  0.954013227312  0.181212636359  0.101252099374
Zn   0.041229242880  3.458685815754  2.604907090949 -0.708429937986  3.921711108109  1.902644107266
O   -1.591341088236  4.522944542635  1.983233141818  0.109218405409 -0.188487829864  0.483109512675
O   -0.040799810753  3.570794851468  4.673226993491  0.431988011409  0.412004626308  0.506883732276
Zn  -3.102088008743  7.224125242163  5.375273346715  0.093500223343  0.829252503293  0.854906456416
Zn  -1.607408615450  6.287260327746  2.826788187106 -0.111880525622 -0.017873794957 -0.126056560012
O   -3.160463527373  7.296285813967  2.115644826399  0.019297414777 -1.696900832755 -0.711450212870
O   -1.558176148447  6.316411909519  4.855173720883  0.872488945384 -0.077944534996 -0.863128844325
Zn   3.048535849209  1.875322580377  5.472797664617  0.287090664541 -2.026467921293  0.608801490259
Zn   4.658958006958  0.783074651462  2.819124186173 -0.127890270787  1.799711277755  0.600003689461
O    3.159883747018  1.872063782530  2.178647311752  0.615477359617 -0.282382717542 -1.214706632806
O    4.729386755108  0.830164656213  4.775681793602 -0.206024296086  0.612936852583  0.268590291744
Zn   1.603574735630  4.544340974862  5.498951678589 -0.676563942516 -0.767383533702  0.088220720111
Zn   3.148368012414  3.659099064276  2.805833402799  0.361066444697  0.014674057072  0.247368663361
O    1.574221123426  4.469527696507  2.147909556172 -0.032640154633  1.398280056088 -0.979631442101
O    3.131590089823  3.546940225711  4.805520278842  0.485165880983  1.958965150455 -0.459148630984
Zn   0.141480501771  7.211738427512  5.557455932890 -1.465239809938  0.143006814713 -0.377160779156
Zn   1.527341606195  6.424130776969  2.711717291296 -0.306167735777 -1.400958888471  0.775462968276
O   -0.016808931913  7.294493851022  2.019981067821 -0.405542929843 -1.583230562223  0.167789163864
O    1.597693300878  6.323704738263  4.818428613910  0.380023702526 -0.318902923955 -0.926032682938
Zn   6.345347365713  1.757479639109  5.408163900988 -1.403036082715 -0.004999510097  0.760916437921
Zn   7.780429661023  0.927003950000  2.712611863253  1.249342220602 -0.282170344421  0.452801348609
O    6.270650607235  1.793895859334  2.133836022336 -0.781290373591 -1.558201130058 -1.626989452476
O    7.842265068254  0.835726600980  4.770780441362 -0.549555817223  0.934951839805 -1.567183536062
Zn   4.747186105975  4.539748776167  5.430775334833 -0.018723801662 -0.341039350843  0.210577976895
Zn   6.248392491726  3.480599070015  2.696167525793  0.037974679472  2.527172778452  0.561032964625
O    4.705243648688  4.573246361411  2.022733380074  0.171137768622 -0.585223960049 -0.031715328825
O    6.340154713782  3.499000753471  4.705893904775 -1.168482568841  0.720633164921 -0.148244408963
Zn   3.117883969469  7.323119213996  5.427932813644  0.382814635008 -2.253533868540  1.090624422911
Zn   4.593781110355  6.346085951384  2.706369592754  1.165402644364  0.129722953120  0.546572566225
O    3.073406265184  7.244585756669  2.068706109553  0.204471863997  0.570024883711 -0.632547170615
O    4.715109311487  6.380168015366  4.847338698841 -0.765934459961 -0.757680190372 -0.885024101737