# total energy = -24539.199561726367 eV

CRYSTAL
PRIMVEC
3.068331382259589 0.0 0.0
-1.5341656911297945 2.6572516853213606 0.0
0.0 0.0 10.049451104810105
PRIMCOORD
8 1
Zn  -0.025267708933  1.781876992950  5.058151033984  1.512842756528  0.736552407254 -0.087972351546
Zn   1.536217484325  0.905912260453  2.522599189943 -1.065336080658 -0.905373611927  0.779986052958
O   -0.063602520723  1.714664887188  1.885152424780  1.104965007904  0.983770403970  0.175812034169
O    1.603382337783  0.937463605224  4.476491749513 -1.650711992904 -0.848416992036 -1.252107956273
Zn   0.080980015507  1.702542523563  10.055832620419 -1.365763057297  0.930126907612  0.426188374008
Zn   1.488878347260  0.804325331383  7.563977190426  0.324730072160  2.145613356007  0.664391568819
O    0.018716207766  1.832086247190  6.914620083336 -0.235643661614 -2.155463252218  0.383640730453
O    1.537357983100  0.875836783078  9.492655123196  1.374917212992 -0.886809475772 -1.089938195478