# total energy = -110421.02286195537 eV

CRYSTAL
PRIMVEC
9.396764262845632 0.0 0.0
-1.5661305093956932 2.712610923576963 0.0
0.0 0.0 16.29340663239003
PRIMCOORD
36 1
Zn   0.000440708244  1.800828792007  5.433314340537  0.159828771367 -0.036392936807  0.380058155308
Zn   1.375798109575  0.861731206401  2.681729397504  0.357517808114  8.850733640731  3.172695535391
O    0.028101023528  2.084962511728  2.225260900554  0.250554517288 -9.127816800437 -3.161225072857
O    1.564578163939  0.878359720440  4.868821581299 -0.051116616170  0.359940044402 -0.797095201834
Zn   0.158841023746  1.940000508798  10.837842633431 -0.524022448839 -1.776168457438  0.030373212975
Zn   1.550280987114  0.719881411794  7.981148304383  0.320831765547  8.938274561167  3.301713234914
O   -0.076242526199  1.951198632770  7.445759203419  0.283339425028 -8.738283101538 -2.495253304035
O    1.664413146174  0.912841146903  10.192310299837 -1.342963028683  0.587830287324 -0.909956089092
Zn  -0.013577384683  1.868612351017  16.468072746831 -0.607930657618 -1.270831500824 -0.127871501734
Zn   1.620076393352  0.919879323336  13.469428077799 -1.606096153967 -2.450294737047  2.386885419552
O    0.108033659054  1.703271585430  12.880953836486 -1.008928905513  1.447656035418 -0.881173874753
O    1.532275847110  0.859319996691  15.743563428637 -0.779136560473  0.734051495209 -1.270249660179
Zn   3.068524646149  1.800614545781  5.447470565899  0.984275625741  0.621399381528 -1.103610293648
Zn   4.861747697162  0.817187724766  2.655041647321 -1.919896723699  1.400952974934  0.909822905948
O    3.061785286820  1.909795549751  2.073021103703 -0.398808953553 -3.053861204158 -1.142849955875
O    4.780545558784  0.981358593202  4.576037200397 -1.149610414527 -0.659428054166  1.806026678450
Zn   3.154187428522  1.642798709016  11.019892725230  0.447788468776  1.743330327862 -1.027389940432
Zn   4.608522754130  1.104217527233  7.942399807269  0.977488941836 -1.145973589106  1.617420320730
O    3.060149310162  1.883030746102  7.425348491764 -0.876466699085  0.849527451492 -0.419383178160
O    4.558394775493  0.842765717089  10.142288504637  2.175809677085  0.078354883061  0.122055152162
Zn   3.090394675295  1.675007058204  16.339114373117  0.745157375314  1.572903983486  0.964168313468
Zn   4.457294049113  1.005652987527  13.488093810331  5.553230073024 -1.669516270095  2.895461709039
O    3.058878867634  1.751382078779  12.959178140268 -1.446200533918  3.705342749784 -1.965985033416
O    4.776724834435  1.131508549681  15.788217792091 -2.150466313224 -2.640560741857 -1.905902723412
Zn   6.152203454025  1.717589435137  5.604232085714  1.211543147476  0.518973059340 -1.564651770779
Zn   7.878861706353  0.889608586939  2.890106403738 -0.461039420249  0.016024914673 -0.180196793500
O    6.271226628884  1.800730125982  2.175833920532  2.159477772694  1.452911113169 -0.785338061298
O    7.955569372383  0.842303396287  4.792216339999 -1.392205053538 -0.503546954593  0.535557446062
Zn   6.228768289239  2.052866923712  10.857552346473 -0.804724436245 -2.920596813544  1.141768292775
Zn   7.750920062532  1.021810723677  8.212981513570  2.568739289039 -1.619139103194 -0.008183050031
O    6.393570620234  1.757858328709  7.465275343117 -3.311880148144  1.658909184003 -0.818072318306
O    8.009399676139  0.856049922727  9.997316165266  0.100886231394  2.018201053298  1.472610648480
Zn   6.169443697418  2.022897823448  16.454222855984  1.580257338527 -4.184881000168  2.300635707124
Zn   8.003216605254  0.884481712357  13.602054008605 -1.876375403377 -0.023853152469  1.404281267976
O    6.199484213090  1.812236463822  13.044004610622  0.470686456420 -0.654416459884 -1.408395290145
O    7.720709465427  0.840870389737  15.807086494731  1.360456300372  5.920243479333 -2.468750115538