# total energy = -73603.22453396986 eV

CRYSTAL
PRIMVEC
8.82145232711341 0.0 0.0
-1.470244995003011 2.546532750529464 0.0
0.0 0.0 9.064209873703245
PRIMCOORD
24 1
Zn  -0.040988878238  1.743107511950  4.581816467151  0.578634222647 -0.952537671208 -1.380847976654
Zn   1.461192420625  0.783903364580  2.286210810211  1.532963438537  2.636192951807 -1.960242217395
O   -0.040908603022  1.690638395653  1.718703846232  1.184983908931 -1.378113608442  4.707873979301
O    1.443925309840  0.846441286563  4.005100789087 -1.080487334477  1.082741420619  1.059403003003
Zn  -0.048745581269  1.723563584319  9.150686570866 -0.643578745839  0.128034509674 -5.457148976328
Zn   1.452060453176  0.771299273495  6.824339916857 -1.196561329355  2.787386673206 -1.470411583947
O    0.019519227564  1.750409910186  6.311075181092  0.046218407538 -3.973067608204 -0.132132848113
O    1.413732124960  0.894964567233  8.497604462152 -2.564473571785 -1.519178468938  2.853759701315
Zn   2.947528626818  1.607367414266  4.566879101925 -0.377383436690  1.913286931692 -0.246594761309
Zn   4.459046550824  0.847502507278  2.268016564786  0.161732416147 -1.755717388673 -0.595823589942
O    3.108515721061  1.711907799359  1.656416453495 -3.258536185305 -0.426769443322  2.400639535913
O    4.362263750907  0.824640831427  3.984436537011  2.248361580311 -1.116436498878  2.024267828317
Zn   2.813156736390  1.658646516644  9.041668416572  2.779023388843 -1.407044689654 -0.864412339023
Zn   4.433451106897  0.762925068801  6.838351029588 -0.766483390485 -0.007293705448 -2.843308166964
O    2.892196067096  1.593859124318  6.326685623130  1.471235365399  0.593652807543  0.052738210934
O    4.450614124544  0.731010818572  8.522705022603 -1.932336749234  1.840245490424  2.189932232529
Zn   5.954545599549  1.734840928974  4.445885826097 -2.149717350873 -2.976445030862 -0.237827556640
Zn   7.271363484952  0.925283898881  2.291418113520 -0.158876434756 -1.122703562834 -2.042943807460
O    5.833041561631  1.715674559503  1.646965149472  1.407085827305  2.131304138473  2.427118041820
O    7.354715623701  0.802032331257  4.016825381375  1.100286114371  2.031962368748  0.229920643088
Zn   5.788972232240  1.717691143505  9.003459177962  0.655240241337  0.007849835062 -1.756203070060
Zn   7.366948331643  0.853161468945  6.728929734923 -1.096012940917 -0.559709103607 -0.058448631055
O    5.789912599058  1.656805479543  6.181863840276  1.332363913011  0.718259265372  1.509429359971
O    7.297049789839  0.850196578818  8.526277710796  0.726318902451  1.324101158781 -0.408737268411