# total energy = -36808.71540098063 eV

CRYSTAL
PRIMVEC
3.3240255759183532 0.0 0.0
-1.6620127879591766 2.878689249384692 0.0
0.0 0.0 16.33035927403666
PRIMCOORD
12 1
Zn  -0.024911577276  1.873040213659  5.393536974878 -0.150565858007  0.251222232779  0.126477706710
Zn   1.687716480530  1.050587202292  2.775888772411 -0.011063456903 -0.384504364005 -0.839601964848
O    0.028657089295  1.868801748647  2.063278186200 -0.048310771290  0.398341012778  0.172003716166
O    1.611729920670  0.962640798409  4.737273275814  0.166195079904 -0.162416586698  0.562628334137
Zn   0.040143592075  1.914297354302  10.869702577522 -0.590134509977  0.198838062750  0.709032347457
Zn   1.628772199797  1.000865762922  8.243902534733 -0.146947287418 -0.081910975843 -0.771118832375
O   -0.093899733689  1.953003305316  7.443657005835  0.217175427607 -0.015762405041  0.831068473456
O    1.605581802964  0.960564944437  10.319160841511  0.606138084494 -0.142777215201 -0.817949419575
Zn  -0.032763922894  1.921937627089  16.335688684243  0.920238701964  0.371320518325  0.382608946755
Zn   1.650199533465  1.075683262987  13.556651062403  0.478438075341 -0.542750621376  0.746575081597
O    0.037660212567  1.915773221658  12.941781121434 -0.387436707161  0.440624604038 -0.340414829885
O    1.808117340526  0.958057299542  15.707411950918 -1.053726778554 -0.330224005395 -0.761309559594