# total energy = -98141.9990903435 eV

CRYSTAL
PRIMVEC
7.031592442324853 0.0 0.0
-3.5157962211624265 6.089534844864382 0.0
0.0 0.0 12.192345336259871
PRIMCOORD
32 1
Zn   0.032609009951  2.044973419428  6.021001429125 -0.349431688672  0.084003596706 -0.331606230455
Zn   1.726639869538  1.052695485585  3.080859883279 -0.134965432466 -0.205151406563 -0.495415583736
O   -0.023292149965  2.045655483895  2.305259064228  0.131661822014  0.016355815650  0.312980902044
O    1.748676177093  1.068122096244  5.341612483144  0.030794616783 -0.042152979219  0.256678113687
Zn  -0.020255205189  2.008018885347  12.179346734471  0.219517188366  0.116656863965 -0.057156908827
Zn   1.684747048085  1.024582475841  9.180750857493  0.235170835743  0.067054627557 -0.500926743362
O    0.026629343738  2.049216282307  8.324349306528 -0.287522095651 -0.012850630710  0.814873608863
O    1.731924814418  0.976234652526  11.513896514188 -0.139876496614  0.140181686560  0.026336066791
Zn  -1.714779682566  5.120421789164  6.126237647936 -0.105383090823 -0.348418674026 -0.461860887709
Zn   0.029963724874  4.100701659496  3.024272439941 -0.230385498539 -0.043515921005 -0.346023691432
O   -1.809550782344  5.102387864027  2.295639142608  0.290339510495  0.149115241604  0.313820624336
O   -0.062607892788  4.063674700013  5.327212484981  0.344173268486  0.047593690619  0.486967195858
Zn  -1.797410737992  5.085674471951  12.210946007748  0.216287368575  0.069320797883 -0.028260280397
Zn  -0.018168931712  4.074319827812  9.143822340304  0.080429763312  0.069685123201 -0.276244208745
O   -1.721536339743  5.082223366380  8.398821605244 -0.143067492748 -0.056096328773  0.408622340099
O    0.057712498130  4.128612159377  11.493352310549 -0.326627803403 -0.400647549424  0.021407004921
Zn   3.444985975790  2.048940643884  6.080676444706  0.307287965424  0.105034963455 -0.425637643710
Zn   5.250110370692  1.061259262020  2.966966367854  0.135394806694  0.026831775481 -0.021250167628
O    3.558560256919  2.133276157319  2.313510637959 -0.171466355606 -0.491956935763  0.229366313246
O    5.251221362298  1.000840303960  5.289525962128  0.058706769813 -0.011536796995  0.657845025950
Zn   3.558063826492  2.035781721787  12.203976293319 -0.180756522658  0.020344367984 -0.152061211606
Zn   5.260282975478  1.038245563116  9.130971401957 -0.045521381471 -0.142548387020 -0.573071640957
O    3.378983230171  2.031469246142  8.413000811404  0.569925639129  0.098710821009  0.447936307208
O    5.262665982157  0.973170987699  11.531675192519  0.153550908778  0.390677582695  0.094554375639
Zn   1.792563158163  5.080710870846  6.168595960808  0.091659827700  0.227459068921 -0.668362380541
Zn   3.440454114461  4.051063538968  3.058305347361  0.351889920404  0.207348671324 -0.400698200156
O    1.797779193436  5.047857864637  2.284888540923 -0.317517870682  0.171356312390  0.422473387050
O    3.573172609173  4.078927630339  5.377842763203 -0.450388111182 -0.030164439399  0.488894494788
Zn   1.815311766032  5.096995335783  12.159003634376 -0.289121064707 -0.279648092220 -0.130556504765
Zn   3.517767879683  4.066883918804  9.163915818867 -0.137980308033 -0.109736225586 -0.358534422304
O    1.811530878776  5.122778778950  8.457595170673 -0.155373563809 -0.005781382568  0.104817705238
O    3.490952901904  4.009473075990  11.471459447480  0.248595079569  0.172475513596  0.140092983501