# total energy = -12269.997880483914 eV

CRYSTAL
PRIMVEC
3.2601020275036623 0.0 0.0
-1.6300510137518311 2.8233298583688593 0.0
0.0 0.0 4.920044916745675
PRIMCOORD
4 1
Zn  -0.000000000000  1.882220883610  4.919276510698  0.000000000000  0.000000000000 -0.757780463395
Zn   1.630051013752  0.941110278800  2.459254378335 -0.000000000000 -0.000000000000 -0.757780463395
O   -0.000000000000  1.882220883610  1.870384105168 -0.000000000000 -0.000000000000  0.757780463395
O    1.630051013752  0.941110278800  4.330405911521 -0.000000000000  0.000000000000  0.757780463395