# total energy = -73615.2575264208 eV

CRYSTAL
PRIMVEC
10.54738813431007 0.0 0.0
-1.7579015381810565 3.0447672696719597 0.0
0.0 0.0 10.160288442392757
PRIMCOORD
24 1
Zn  -0.036305164697  2.097408250620  5.055331490610 -0.386825813050 -0.517304413389 -0.073682417286
Zn   1.771917962273  1.055492951683  2.586203749451  0.011883638811 -0.067274713987 -0.762267295522
O   -0.039686657333  2.073809524408  1.967097379698  0.119670196870 -0.146118106649  0.189460992411
O    1.695338650724  0.984984716744  4.515949663549  0.243187021179  0.377768587943  0.338971155460
Zn  -0.008961060959  2.011148546241  10.172274494269 -0.043327716253  0.046056170928 -0.100186634224
Zn   1.717911116070  1.046534000201  7.675357549591  0.050684670839 -0.032854584636 -0.463744477884
O   -0.036049917904  2.007216479945  7.038208817696  0.397892869497  0.297984171525  0.276139564846
O    1.752865160347  1.023405687500  9.632298849255 -0.019500531927  0.007909741765 -0.113680297835
Zn   3.463884613010  2.019321717306  5.047278559770  0.374594818201  0.140458851480  0.143015813574
Zn   5.274926002089  1.100419551441  2.508867135433 -0.097328338840 -0.286634550840  0.253231292789
O    3.533985718767  1.980784725280  1.961176076000 -0.146847785726  0.209524595930 -0.243859364656
O    5.292328137772  0.961099101575  4.509259455255 -0.393037855398  0.037761277909  0.144823299097
Zn   3.504303259079  2.089546227505  10.060436318925  0.173258157399 -0.109065167660  0.417986812033
Zn   5.312778468626  1.012502852386  7.564843071459  0.091793525064  0.181157614751 -0.196963214325
O    3.559569463425  2.079644339524  7.089789764628 -0.318425727209 -0.428455315665 -0.276696980011
O    5.387237755160  0.992674817432  9.512850733373 -0.440071302637 -0.027881556902  0.627069692440
Zn   7.050319328752  2.002535549091  5.181407585196  0.052923587472  0.060365645572 -1.545249969214
Zn   8.803710803767  1.020219321545  2.465572216620 -0.109295538504 -0.011005092861  0.568909796270
O    7.004856921677  2.020576856494  2.003426803388  0.181283855917  0.143167765771 -0.262458724925
O    8.726827727440  1.014785307178  4.454177830201  0.363809554660  0.075021704923  0.364525864001
Zn   7.057078095069  1.971124372488  10.214951336138 -0.089227049889  0.034806566156 -0.677558188108
Zn   8.825760118662  1.057363003599  7.641207216290 -0.200880547102 -0.223909661007 -0.603458737889
O    7.098130639165  2.027701617179  7.039813075432 -0.171838394233  0.077509761452  0.957106521525
O    8.756779145525  0.971286823774  9.545783898083  0.355624704856  0.161010450380  1.038565754543