# total energy = -24538.80866216978 eV

CRYSTAL
PRIMVEC
3.3240255759183532 0.0 0.0
-1.6620127879591766 2.878689249384692 0.0
0.0 0.0 11.100373997168058
PRIMCOORD
8 1
Zn  -0.036477524268  1.968720960252  5.599058817017  0.092386935674 -0.019064729941 -1.024594379964
Zn   1.644230913141  1.049655145520  2.775216654440 -0.117497871809 -0.638059872903  0.458446462710
O   -0.027728688952  1.791669397171  2.188198058966  0.131472074601  0.740245282725 -0.765604587425
O    1.657564244531  1.013459831024  4.885054466881 -0.161042332059 -0.092355825326  0.456908171689
Zn  -0.028137544098  1.842704159046  11.059084945879  0.129030812149  0.610366520753  0.750463618018
Zn   1.582762699788  0.949377603959  8.230886647785  0.045529866111 -0.044173352083  0.382298100383
O   -0.080599642555  1.866011229176  7.601754310277  0.075172885788  0.292220015348  0.536436763343
O    1.643907485452  1.137952566503  10.466432459457 -0.195052113345 -0.849177781462 -0.794354405864