# total energy = -36799.089691358975 eV

CRYSTAL
PRIMVEC
2.9404842854302067 0.0 0.0
-1.4702421427151033 2.546532903289695 0.0
0.0 0.0 13.029803393975481
PRIMCOORD
12 1
Zn  -0.000000000000  1.697689484338  4.342590408429  0.000000000000  0.000000000000 -3.843522832533
Zn   1.470242142715  0.848844595145  2.170956607449  0.000000000000  0.000000000000 -3.843518975878
O   -0.000000000000  1.697689484338  1.651119270419  0.000000000000  0.000000000000  3.843524375194
O    1.470242142715  0.848844595145  3.822753071399  0.000000000000  0.000000000000  3.843508434355
Zn  -0.000000000000  1.697689484338  8.685858304437  0.000000000000  0.000000000000 -3.843516404775
Zn   1.470242142715  0.848844595145  6.514224209408  0.000000000000 -0.000000000000 -3.843522575422
O   -0.000000000000  1.697689484338  5.994387166427  0.000000000000  0.000000000000  3.843510234127
O    1.470242142715  0.848844595145  8.166020967407  0.000000000000  0.000000000000  3.843523860974
Zn  -0.000000000000  1.697689484338  13.029126200445  0.000000000000  0.000000000000 -3.843520004319
Zn   1.470242142715  0.848844595145  10.857492105416  0.000000000000 -0.000000000000 -3.843517947437
O   -0.000000000000  1.697689484338  10.337655062435  0.000000000000 -0.000000000000  3.843530545842
O    1.470242142715  0.848844595145  12.509288863415  0.000000000000  0.000000000000  3.843521032760