# total energy = -36779.85665599056 eV

CRYSTAL
PRIMVEC
2.876560207838307 0.0 0.0
-1.4382801039191535 2.49117305399317 0.0
0.0 0.0 12.746544555528118
PRIMCOORD
12 1
Zn  -0.073088504729  1.593505045855  4.415142226677 -2.855661803433 -4.317420596801 -27.878251748503
Zn   1.414866629763  0.685309115011  2.021593585361  5.058480147897 -1.687943623562  1.884815563725
O    0.123296274252  1.501241678436  1.497842159583 -3.444841919917  2.017743139825  18.138551733558
O    1.240494440117  0.661708089130  3.730546498597  1.486645015086  2.078491108437 -0.257115972556
Zn   0.249080197773  1.814740140815  8.506029669389 -6.665802718071  3.451062704015 -16.966486846682
Zn   1.538940725896  0.891007332977  6.447026993837  1.121712659676 -0.672168127441 -14.879342433444
O   -0.003087124415  1.703029212800  5.788741723698  3.441785392478  2.971951770977  27.184966122357
O    1.288707027480  0.887133181689  7.895740381630  4.962855422012 -4.841679587131  10.652128991057
Zn   0.001073819926  1.507895162197  12.802611590539 -11.448725913099  5.710822241750 -16.499309174746
Zn   1.231451110135  0.781545012076  10.393340534096  1.884742801505  6.503983655748  8.437910889397
O    0.161956380478  1.878586257596  9.934652873034 -3.564263748221 -5.562392199139  17.035461059858
O    1.268041531291  0.864427629001  12.254704538072  10.023074921197 -5.652450229569 -6.853327926912