# total energy = -110427.30369316922 eV

CRYSTAL
PRIMVEC
9.588534908089704 0.0 0.0
-1.5980923475265867 2.7679703145927954 0.0
0.0 0.0 16.318037185564485
PRIMCOORD
36 1
Zn  -0.017704270854  1.827063684571  5.407184823586 -0.019607746929  0.924916309946  0.622406739747
Zn   1.634518232789  1.000222265816  2.768495766306 -0.965705061827 -0.692674732034 -0.250039011104
O   -0.118763593372  1.780349301353  2.115236553846  2.108006858508  1.303223544001 -0.860074373770
O    1.521245034506  0.962611237639  4.842811329724  1.558439214210 -0.239738143399 -0.565163441854
Zn   0.000798724958  1.933675727654  10.958392318053 -1.135030716941 -0.401333005527 -0.628680231460
Zn   1.662221427845  0.934777638508  8.177735412923 -0.335645690631  0.437690461110  0.052986836610
O   -0.015055917513  1.894276437717  7.581022667376  0.385376225087 -0.293083134679 -0.717039791142
O    1.466685312025  0.975982449569  10.222600750224  1.126550704494 -0.060430951593  0.035929881127
Zn  -0.117882407014  1.857937808122  16.185832383959  2.205505918598  0.633825008886  2.051001130547
Zn   1.588529701663  0.867109429955  13.590150782301  0.004441837821  0.045243188109  0.307895002881
O   -0.029612272357  1.767840098711  12.921043639345  0.169647300119  0.462681069617  0.481272202356
O    1.605658660423  0.904974554307  15.712463674909  0.197953089042  0.822140060618 -1.013118261004
Zn   3.343108856596  1.836527568526  5.324330293445 -2.151790945573  0.230966824964  1.326607727253
Zn   4.795481362564  0.938828794507  2.814437313611  0.286129329069 -0.378030069135 -0.436603912914
O    3.251597797141  1.795830949815  2.053982116292 -0.442218430887  0.468440340698 -0.281561507192
O    4.772993371644  0.891401983145  4.802879876099  1.703019801169 -0.286190264214 -0.581282973123
Zn   3.152459058165  1.852036064886  10.914818180016  0.364252298624  0.273410081730 -0.692653391878
Zn   4.801911434074  0.850391819343  8.126747419696 -0.298729791442  0.948947896974  0.821435578352
O    3.239517202010  1.891205229985  7.495181308611 -0.263043136673 -1.200216152499 -0.504659985152
O    4.835183650205  0.988480145968  10.220007051532 -1.707285004203 -1.008535269619 -0.311465493841
Zn   3.212882169742  1.924364301405  16.252961716850 -0.433949506010 -1.322361807493  1.276646050623
Zn   4.735677670342  0.903874749353  13.612372211951  0.230325848946  0.572624526117 -0.278476440509
O    3.127870219247  1.889772702870  12.903817836383 -0.063104898880 -0.662038495206  0.456750305955
O    4.873184931752  0.932466801595  15.709583279023 -2.301747195021 -0.323599300990 -1.607630588333
Zn   6.496202675773  1.846311709546  5.528991817938 -0.176031349268  0.227207357922 -0.872407955634
Zn   7.970729491646  0.932021893576  2.705471285208 -0.462625790899 -0.689486049894  0.262645387014
O    6.376490776299  1.805070462053  2.146974604391 -0.476145165542  0.138998979105 -1.165561795650
O    8.047907609121  0.988659451571  4.665975733535 -1.085241818443 -0.859546526291  1.193585791667
Zn   6.385759054141  1.802721271000  10.849610389520  0.395353905125  0.725760458845  0.458710515005
Zn   8.030607015586  0.933093891778  8.093824226235 -0.656929199004  0.063778013688  0.981267177932
O    6.265927297980  1.887973893721  7.440299411358  1.115069700438  0.042834321557  0.006000697668
O    7.914971202302  0.888624184582  10.223446459003  1.078302925231  0.345142574378 -0.497340825783
Zn   6.339266166078  1.737523069039  16.250154193829  2.312637873791  1.520922962433  1.834678537859
Zn   7.989240158286  0.923450702221  13.708011135685 -0.810789411492 -0.323468431839 -1.046302718176
O    6.266965736311  1.867697977805  12.888925882817  0.724166117775  0.002566218065  0.970985593500
O    8.061053490480  0.914111469221  15.684380773870 -2.179558602604 -1.450587093021 -0.830742200465