# total energy = -73608.39475309582 eV

CRYSTAL
PRIMVEC
5.753120944853822 0.0 0.0
-1.4382802362134555 2.4911761596939876 0.0
0.0 0.0 15.240437360746748
PRIMCOORD
24 1
Zn   0.009649709761  1.659660330171  5.008243664888  0.292432902689  0.198233339287  2.100721637701
Zn   1.471558013695  0.903577696542  2.545171501010 -0.150685671415 -1.847942344847  2.338141160269
O    0.024064154288  1.635991415292  1.939591661921 -0.906808544602  1.288659787255 -1.428740429460
O    1.480509294573  0.852113728441  4.535462541258 -2.666838187496 -1.434953500249 -4.227994029307
Zn  -0.061331145833  1.676999086075  10.144584594798  1.639937527996 -1.774566660169  2.468937291848
Zn   1.438222129692  0.814846736897  7.611145433331 -1.310789015053  0.036607109700  1.990865855818
O    0.034986454402  1.698790757590  6.891108978981 -1.039620421060 -1.439456530326 -0.319212484776
O    1.405726776659  0.772404813063  9.540587439282 -0.499522921036  2.515563476347 -2.266077509533
Zn   0.021192196312  1.691062014913  15.228349478330  0.388665437361 -1.598342478163  3.705798092154
Zn   1.460594866422  0.802379148497  12.700446545148 -0.932042379468  1.942267635195  2.559042630577
O   -0.028100543943  1.710173882691  12.056747677303  1.413353148371 -1.933108337293 -1.841118122837
O    1.395458606397  0.780779055910  14.723987747897  1.953249073907  3.025266166130 -3.631611481538
Zn   2.844348172945  1.598364853689  5.050977271954  2.763201334209  2.640934580257  3.296043438222
Zn   4.280882336951  0.861936607143  2.531285768297  1.769533211510 -0.912329988640  2.903814194769
O    2.908876328086  1.656360339997  1.913367210719 -0.751715745258  1.439119972922 -2.593130316289
O    4.329431198669  0.844968927540  4.553810394575 -0.444725513580 -1.466580383126 -3.066354965750
Zn   2.844678402087  1.653492984519  10.098026888240 -2.334402262052  2.018861569700  2.586169311590
Zn   4.265524380589  0.818348661616  7.596378322490  2.429536678564  0.530426295483  1.587932595684
O    2.863476724774  1.643273140472  7.018263307480 -0.061816519086  0.932470982365 -2.281063698529
O    4.252340528632  0.920183504837  9.561844070549  1.280939278682 -2.762329987348 -2.958191226858
Zn   2.896551992398  1.707005638987  15.213049053177 -1.071484102537 -1.066505932597  1.781693501022
Zn   4.312806980386  0.923683128307  12.723177126001 -0.115072550197 -1.773939568108  1.912719232114
O    2.864187810523  1.659748352922  12.072753435084 -0.379427463703  1.747698117913 -1.687825095706
O    4.355804080392  0.868617131184  14.681277728626 -1.265897810968 -0.306053064576 -2.930559581184