# total energy = -36809.40541215038 eV

CRYSTAL
PRIMVEC
9.780305553333779 0.0 0.0
-1.630054185657481 2.8233297056086286 0.0
0.0 0.0 5.443454002735641
PRIMCOORD
12 1
Zn   0.001227428347  1.886416532852  5.376979221951 -0.315333204326  0.046590703275  0.190150305168
Zn   1.616712870852  1.036167625634  2.608529744894 -0.193600211390 -0.510414885358  0.480893993081
O   -0.033782153412  1.913676200490  2.056144933455  0.300250341851  0.386736595770 -0.269708721619
O    1.621230393987  0.960853404690  4.849461815412  0.060202894742 -0.110190025294 -0.592630536926
Zn   3.224868952376  1.886957383749  5.462796513028  0.343523807828 -0.034210070223 -0.030993105947
Zn   4.894815048324  0.945293916585  2.797493072428  0.005995812572  0.237098134673 -0.507612897133
O    3.225380462356  1.928890443809  2.053786901786  0.519617634903 -0.089144517477 -0.117839571419
O    4.892570468200  0.903741310411  4.730681960528 -0.082663023518  0.382725674838  0.697898956548
Zn   6.518898357441  1.895518085200  5.469109700263  0.017246960006  0.015568029642 -0.239161444960
Zn   8.194996265583  0.938342075398  2.648499897629 -0.384988759841 -0.055699093335  0.553713033925
O    6.538362143523  1.880322424462  2.075940271895 -0.266225648166 -0.113707551529 -0.446246835320
O    8.136753567982  0.959809846088  4.725586421335 -0.004027118882 -0.155352994983  0.281536824602