# total energy = -110416.11612793825 eV

CRYSTAL
PRIMVEC
9.588534908089704 0.0 0.0
-1.5980923475265867 2.7679703145927954 0.0
0.0 0.0 15.702271062301874
PRIMCOORD
36 1
Zn  -0.040340884065  1.796045732997  5.182389293494  0.850901706132 -0.105501618679  1.369313750762
Zn   1.638854168274  1.160625030880  2.572353655079 -3.497876064824 -2.139971070120  1.927449339235
O   -0.382966084229  1.807946063672  2.003959688530  16.886474373413  10.768292717436 -7.668653535711
O    1.497007135965  0.799752848786  4.654019789358  1.087646314120  1.721404217213 -1.834215739290
Zn  -0.015889161196  1.758411692336  10.422438282804  0.160032916958 -0.074679233981 -0.866394402451
Zn   1.547772675182  0.764485258541  7.756580111862 -0.625076573269  3.246310075553 -1.776299840810
O    0.128764435281  1.935466865975  7.197814952067 -0.409875495780 -4.060668178232 -1.599520300521
O    1.596464214299  0.830561770299  9.514500871211 -0.312360751961 -0.050423960979  4.870412436289
Zn   0.120978544935  2.083739175526  15.714843549273 -1.415267848895 -2.033212696216  0.578754807385
Zn   1.616458227290  0.857651299122  13.150662202496 -1.770406358143 -0.575461995566 -0.191301130943
O   -0.157414977586  1.757640774130  12.412100506933  8.297789880872  2.846423315554 -2.308374984750
O    1.690692664548  1.044392810724  15.075174167338 -1.121745055576  0.183082599688  0.188103449942
Zn   3.266433178350  1.858681878431  5.162227481143 -3.900787213472  1.744935210456  1.582312935504
Zn   4.695282131628  0.858753021782  2.365691003352  2.542794544149  1.936249711135  1.720912879399
O    3.167361559119  1.835044222175  1.995473835137  0.862408678330 -0.023360786213 -0.550463416639
O    4.627070253146  0.983167138775  4.674607332659  4.194613654074 -2.380021088332 -1.863163018452
Zn   3.108102495680  1.804038735697  10.300201722089  0.244959796809 -1.107554365897  0.754537530978
Zn   4.800602599059  0.828599956057  7.749335014885  0.917398404302 -0.851314625299  0.655202960341
O    3.266335375294  1.645200819530  7.225474039863 -0.208565831561  1.986076661960 -0.432485776981
O    4.866320499612  0.837870151606  9.928741879750 -1.090446245462  0.154976071260 -0.914941458121
Zn   3.167105545237  1.990831066534  15.784769857798  1.232421790698 -2.296022633832 -0.731079814175
Zn   4.956178495649  0.941036075243  13.100148841747 -0.798157581660 -0.407813471045 -0.084555098334
O    3.059775320890  1.599284202416  12.473818070723  3.251566181745  1.947848985937 -1.037574080054
O    4.834011931239  0.852775529121  15.183932124533 -0.161106866748  3.129979484579 -1.222426370048
Zn   6.500295062471  1.716389938102  5.273141899839 -1.748623457940  1.350234879754  0.146761910880
Zn   8.103465498085  1.052327323360  2.579304384034 -13.496141897398 -10.344413965398  7.819408112691
O    6.524591451075  1.872116374690  2.033403202672 -2.932357296514 -0.381894180076 -0.171824253166
O    8.000998578643  0.921998998036  4.705254207933 -0.114401492272 -2.000686698563 -1.067475495599
Zn   6.350602690900  1.826079900890  10.462364942162  0.458745739118 -5.792679995758  2.897460741747
Zn   7.678449852870  1.056455187638  7.928736503016  10.837981697291 -8.277363494697  5.342916405534
O    6.614658477174  1.932194299011  7.332785087141 -10.905287521627  7.470473932481 -6.016926985500
O    8.012471260661  0.534473565458  9.795443026311  0.770673003087  7.473668271048 -2.149368452174
Zn   6.468294286069  1.981126510354  15.731690605107  0.419461339696 -2.469578010756  0.767977458533
Zn   8.027323901234  1.175248505468  12.910587342028  0.976084605290 -6.978044685067  5.471995554422
O    6.656361892049  1.822291470748  12.499055094601 -10.058561801250  3.080296772642 -2.500652363563
O    7.976354126223  0.834054873566  15.092588864438  0.575090471159  3.310413333791 -1.105823499249