# total energy = -98138.95734144574 eV

CRYSTAL
PRIMVEC
5.880968041683205 0.0 0.0
-2.9404840208416023 5.093065348298698 0.0
0.0 0.0 9.064212542317449
PRIMCOORD
32 1
Zn  -0.040797451499  1.639269265294  4.458894100008  4.086038024456  1.175491653169  2.471386010499
Zn   1.410549008604  0.792935037738  2.206999100940  1.876550752613  1.698973913234 -1.208991584699
O    0.020004700891  1.714079883559  1.738132454752 -0.820279353260  0.515957669553  0.044189292923
O    1.498146027585  0.903454305855  3.908795406550  0.267767538732 -0.873800207996  2.682229839461
Zn   0.019300160919  1.666031198465  9.053787350270 -0.680473047762  1.105206691601 -1.436124894850
Zn   1.491267647363  0.815092761028  6.837178747549 -1.008966957840  1.125421733096 -3.512544465470
O    0.008635613472  1.782235598387  6.289527712991  1.712527483549 -0.894376746596 -0.762398936003
O    1.442939028190  0.768536665623  8.502824742607  0.687092867071  1.405963026554  3.107462534424
Zn  -1.453999952883  4.248928838500  4.541004763903 -0.332336423752  1.217844149994 -3.140524349975
Zn  -0.051686063828  3.393882544886  2.261299843160 -0.309588074312  0.694492244859 -1.568685831639
O   -1.540069096367  4.257102207884  1.722369696110  0.318226209603 -2.224563192340  1.810253057827
O   -0.063596200306  3.321329630253  3.979247051303  1.657309957836  1.681096518733  1.709690528321
Zn  -1.519733885072  4.234853329589  9.089964125178  0.903421630407 -1.984739945426 -2.255910082082
Zn   0.018901431286  3.465503914182  6.781670054494  0.073580344490  0.335815126330 -1.964031766345
O   -1.450567819934  4.265484939731  6.217128291623 -1.314557480957 -0.624744643851  2.732059361389
O    0.029106087032  3.416533093299  8.478008821762 -2.005876213184 -1.254940283515  2.858868997517
Zn   2.939340172557  1.709242787344  4.560109676683  0.737460778001 -0.612354754827 -2.022175464565
Zn   4.441725790004  0.810486198761  2.241572723961  0.310990096866  0.807152071849 -1.243064358013
O    2.996132680936  1.665458980274  1.744998484941 -1.502335172128  0.564040126882  2.040290686108
O    4.484386920275  0.881804698203  3.958669544125 -4.898051538163 -2.267941302215  1.126916572474
Zn   2.947246545993  1.614549204228  9.102033047794 -0.574529199339  0.234876701541 -2.217396242277
Zn   4.461205908545  0.902188133435  6.735957878003 -0.572694460123 -1.075676543352 -0.605532846810
O    2.923641516467  1.694123994703  6.275754485837  0.295088338034 -0.287041556470  1.362863881372
O    4.414550424780  0.807363992828  8.500828153957  0.409540995259  0.227220727658  0.600308622296
Zn   1.510407257855  4.231899907438  4.483257774411 -3.033119600736  0.657880764284 -1.178149145397
Zn   2.879076716841  3.385781511409  2.281469211155  0.129124914525 -0.974344482670 -1.522686996312
O    1.429608637930  4.251822274776  1.737867223094 -0.209689146532 -1.183543576940  1.147848951751
O    2.924700090715  3.409207759506  4.010104490617  1.902816114067 -0.769222900904  0.729825887163
Zn   1.435825997344  4.218244887742  9.078350977586  1.608513505159 -0.027681267965 -1.464029848790
Zn   2.938883809437  3.378322091545  6.827336359435  0.547415116731  0.845261477127 -2.638169101696
O    1.499301049708  4.240746059566  6.215555132672  0.406469041202  1.110806811396  1.335582419948
O    2.940307003704  3.331618971939  8.513673364354 -0.667437040514 -0.348530259903  2.980639528559