# total energy = -98156.24155709463 eV

CRYSTAL
PRIMVEC
6.775898248666088 0.0 0.0
-3.387949124333044 5.86809728080105 0.0
0.0 0.0 10.443549676805821
PRIMCOORD
32 1
Zn  -0.048311476923  1.900212577161  5.294882714967  0.425909923535  0.409982453672 -0.773364176766
Zn   1.630222168314  0.976927326618  2.487655174138 -0.093081904858  0.110105178889  0.831813064931
O   -0.045749509795  1.976497672414  2.121045876983 -0.074407725488  0.103019732797 -1.049314765529
O    1.576461514020  1.008538247128  4.658896905347  0.899897162194 -0.735556876110 -0.149901227840
Zn  -0.120136675949  2.024445283601  10.444372948443  0.533499020871 -0.155715263419  0.406745691902
Zn   1.668170586456  0.857665419133  7.867307086555  0.339290743583  0.801756868976 -0.753098227428
O    0.006710172036  2.052326749715  7.211198891906 -0.031631510862 -0.733976418997  0.765737770569
O    1.674694421290  0.937465172808  9.766564939653 -0.157808912723  0.163080702645  1.016523430031
Zn  -1.661324896455  4.830997267375  5.199833124694 -0.375057359660  0.376230296922 -0.280361316237
Zn   0.012295544962  4.030873453759  2.675396342093  0.060281570499 -0.559871340217 -0.761503677883
O   -1.657129937850  4.894404090417  2.000106934682 -0.304452038637  0.111570450581 -0.192695440188
O   -0.036778898104  3.874625305684  4.563719250597  0.359976811178  0.526923681646  1.015071785186
Zn  -1.682647970654  4.892907972084  10.396009974693 -0.393424549313  0.052011874291  0.386159126000
Zn  -0.085745604388  3.907006645825  7.842825766182  0.679473402853 -0.007381894286  0.105262248975
O   -1.751117067277  4.799328074141  7.237620829537  1.014579161820  0.804624677442 -0.307205947233
O   -0.036883246937  3.950759298406  9.858372262614  0.034594193035 -0.326567382479 -0.241658243240
Zn   3.425776931486  1.883880629612  5.197478500053 -0.748029811766  0.200290993147  0.307871091621
Zn   5.034224073188  0.932930064110  2.574375152694  0.233421457152  0.516474461288  0.276439355475
O    3.321031708409  1.977674645940  2.117540027230  0.408086265090 -0.301633852462 -0.807464717994
O    5.099912341170  0.986136449928  4.658076344069 -0.337793590212 -0.449069649481 -0.454470508782
Zn   3.415009351579  1.983953193257  10.429907760862 -0.440555441363 -0.220148137082  0.115200334024
Zn   5.137440653620  0.969650011899  7.835776799234 -0.241285690392  0.015351542755 -0.149013168808
O    3.453077703120  1.883721396004  7.265586316789 -0.280719728017 -0.003321093953 -0.149773958234
O    5.080372005801  0.916775645095  9.859222637844 -0.063163262922  0.940478168940 -0.148680725170
Zn   1.703233149533  4.984440871165  5.285605832675  0.092591338375 -0.783178077532 -0.475050646926
Zn   3.377202549711  3.918293259538  2.668198305384  0.154954473993 -0.010694503599 -0.123385440938
O    1.790134722162  4.938935971297  1.884079163431 -0.497100684747 -0.182091439420  1.686212756914
O    3.417485942389  3.817819562716  4.651534214310 -0.175705076277  0.617009737101 -0.049386006632
Zn   1.740660501100  4.942981860141  10.449981359423 -0.271805199137 -0.639474236752 -0.721087221739
Zn   3.444943914862  3.944262567165  7.769476667641 -0.968837951029 -1.218425990639  0.559381802175
O    1.818291967335  4.866411499572  7.205008431266 -0.828778391870  0.390586822754  0.449391808707
O    3.254950438329  3.851150883792  9.852014437287  1.047083562206  0.187608769693 -0.334394848943