# total energy = -12269.747141459398 eV

CRYSTAL
PRIMVEC
3.387949124333044 0.0 0.0
-1.693974562166522 2.934048640400525 0.0
0.0 0.0 4.895413699255908
PRIMCOORD
4 1
Zn  -0.000000000000  1.956033443318  4.894649039139  0.000000000000  0.000000000000 -1.034725040641
Zn   1.693974562167  0.978016552262  2.446942867100  0.000000000000  0.000000000000 -1.034725040641
O   -0.000000000000  1.956033443318  1.861020442896  0.000000000000  0.000000000000  1.034725040641
O    1.693974562167  0.978016552262  4.308726614934  0.000000000000  0.000000000000  1.034725040641