# total energy = -98153.63987545874 eV

CRYSTAL
PRIMVEC
6.648050622659499 0.0 0.0
-3.3240253113297493 5.7573780404886925 0.0
0.0 0.0 11.527307600552966
PRIMCOORD
32 1
Zn   0.052141990644  1.954744939122  5.826681309010 -0.255678211668 -0.406604538338 -0.333203142628
Zn   1.684206507864  0.976177150059  2.840244008299 -0.114361640173 -0.240030992049  0.106196844974
O    0.017560160915  1.953413334583  2.186117044943  0.024270442512 -0.136749263839 -0.052609398666
O    1.690156513171  0.935705147479  5.052764451094 -0.280487300292  0.135365496118  0.273185367314
Zn   0.073153819442  1.921363082531  11.594147101513 -0.817923194323  0.284641945890 -0.145086065840
Zn   1.598742493084  0.949933305421  8.625886900815  0.231109006969  0.142953592878  0.011454007473
O   -0.083052102014  1.989342059368  7.889555461899  0.501998893380 -0.629742868397 -0.013079458892
O    1.541044726535  0.980945796771  10.822371580703  1.132973063081 -0.559890366380 -0.114244397869
Zn  -1.612291220253  4.820168439154  5.771982478097 -0.409439950905 -0.266997493335 -0.141445897984
Zn  -0.011246507238  3.830530316194  2.891047081547  0.002607355716  0.218456094092 -0.074384585559
O   -1.688102265528  4.794841360697  2.260288680935  0.166371200471 -0.081383642585 -0.163443228191
O    0.016509768916  3.791431136067  5.044633220378 -0.262483664625  0.119007880695  0.070396804556
Zn  -1.627880898963  4.773596185322  11.494571934482 -0.235023768642  0.054558294862 -0.032440379917
Zn  -0.003296103499  3.778577130188  8.659034081219  0.345896936046  0.746949177107  0.068859799086
O   -1.704862001148  4.743164068792  7.945986774805  0.666002364950  0.724947990246 -0.008302349218
O    0.065769829615  3.877069994578  10.830956873277 -0.564207762809 -0.169499204577  0.157193647737
Zn   3.341989008917  1.906603745343  5.703938350364 -0.093348014036  0.065207289935  0.022324631639
Zn   4.956637627921  0.982597837351  2.850956677072  0.425058888389 -0.209447462835  0.310035960483
O    3.362668435184  1.832819025898  2.160541329392 -0.533516761483  0.730836844926 -0.097931262531
O    4.907388868908  0.928439492953  5.018021073735  0.596891369085 -0.028478309945  0.220703752475
Zn   3.346875990930  1.878831513867  11.482135426182  0.050062463874  0.051988991473 -0.198328727214
Zn   4.947003272959  0.954995131165  8.593082759822 -0.080448275255 -0.110682391549  0.291683940338
O    3.293355194587  1.944917790692  8.057993796500 -0.273270213718 -0.238486530380 -0.179014857377
O    5.015087953800  0.960615393162  10.732674087287 -0.225521742689  0.154037361496  0.737716345655
Zn   1.580306119097  4.775488220529  5.718500240447  0.712749648407  0.232651154645  0.197300543060
Zn   3.299694775661  3.836784137415  2.921479198077  0.171847650204  0.014906999019 -0.078759574698
O    1.683628792264  4.840444328748  2.211283240575 -0.102544592933 -0.462212871731 -0.027828592176
O    3.343979435274  3.792520086759  5.117426050670 -0.155405188378  0.396457422602 -0.262964460917
Zn   1.698013179397  4.798667978635  11.576225286645 -0.142360182268  0.360952544827 -0.211275774293
Zn   3.417191092756  3.847789320416  8.689539326306 -1.052217540998 -0.241553085120 -0.038844483671
O    1.678593558723  4.830155140800  7.977945283758 -0.221768446294 -0.399356598527 -0.142714994504
O    3.272207080751  3.844570334304  10.905363185456  0.792167168405 -0.252802947002 -0.151150012646