# total energy = -73603.85015280111 eV

CRYSTAL
PRIMVEC
9.013222972357486 0.0 0.0
-1.5022068331339051 2.6018921415452976 0.0
0.0 0.0 8.87537474021825
PRIMCOORD
24 1
Zn  -0.028636812028  1.666610724117  4.374040496090  3.936085888773  1.793945578916 -0.970374185168
Zn   1.434156999693  0.884482892756  2.259472590247  0.774425528151  1.600488577972 -3.072987383465
O   -0.006027142202  1.818349234179  1.750536448501 -1.433759994162 -1.643514703825 -0.062714091200
O    1.564618895606  0.835773633169  3.939102013625  0.555975347596  0.438326294922  3.446662260955
Zn   0.093182304377  1.669841063230  8.832136506975 -2.526117854824  1.097014642708  0.573890023093
Zn   1.429116805406  0.861747037809  6.693119332498  0.939730492141  1.860000818674 -4.069570622928
O   -0.015940786149  1.813451448815  6.097713033522  0.551881122922 -0.892220619485  2.051155910958
O    1.468446003846  0.817435329710  8.370464805174  3.203892786929 -0.830801592948  3.031696752246
Zn   3.087525496618  1.708123826483  4.469567139762 -0.775132838630 -1.007553108211 -5.912181014040
Zn   4.579823192416  0.845584526375  2.263878253636 -2.236279195225  0.815572691813 -4.343362513478
O    3.035064032308  1.801719837795  1.717194734082 -0.345576576592 -1.919536512146  3.207551980948
O    4.576384647852  0.831689741841  3.920916934956 -4.504226925198 -2.823391887656  2.716378203208
Zn   3.079158521733  1.638967169260  8.925212455322 -2.230461817212  1.448037072906 -3.142385314443
Zn   4.491909116866  0.913560451388  6.616773728633 -0.132012263375 -0.386966195282 -5.259542214881
O    3.009209602211  1.777903297412  6.077037601346 -1.808367153658 -0.243529492120  6.626390791933
O    4.448563626270  0.888497382268  8.238259751938  2.461887069870 -1.989349676284  6.336748564615
Zn   5.897372521226  1.685830520783  4.275545798092  6.048566466782  3.189705696795  2.413740592072
Zn   7.435890024427  0.786455981031  2.164329008551  1.703722483663  3.156797118993 -0.276767171128
O    6.004581203193  1.751376480882  1.732284671982  0.662470954758 -1.686251580571  0.547255451225
O    7.607216070652  0.871500246387  3.949071539555 -4.648223614628 -1.961396128494 -0.201772462788
Zn   5.950493753459  1.846456068696  8.878992647919 -0.399747149097 -1.311018357455 -2.878420951507
Zn   7.523521986098  0.903990211236  6.641405965694  0.663354900024 -1.530316744943 -3.476662149751
O    6.024467077037  1.678144945554  6.146053652290 -0.022154938830  1.884200555849 -0.938883827869
O    7.486169387456  0.938674895878  8.336806726629 -0.439932720177  0.941757292763  3.654153371394