# total energy = -110420.97793147074 eV

CRYSTAL
PRIMVEC
8.82145232711341 0.0 0.0
-4.410726163556705 7.639598251588392 0.0
0.0 0.0 5.004198190315587
PRIMCOORD
36 1
Zn   0.000000000000  1.697689382498  5.003419256075  0.000000000000 -0.000000514221  1.232798457311
Zn   1.470242348567  0.848844250176  2.501319278772  0.000000000000  0.000000000000  1.232799228642
O    0.000000000000  1.697689382498  1.902376187280  0.000000000000  0.000000514221 -1.232798714421
O    1.470242348567  0.848844250176  4.404476164583  0.000000000000  0.000000000000 -1.232798714421
Zn  -1.470242348567  4.244223015173  5.003419256075 -0.000000000000 -0.000000000000  1.232798714421
Zn   0.000000000000  3.395378764996  2.501319278772  0.000000000000 -0.000000000000  1.232798714421
O   -1.470242348567  4.244223015173  1.902376187280 -0.000000257110 -0.000000257110 -1.232798714421
O    0.000000000000  3.395378764996  4.404476164583  0.000000000000 -0.000000257110 -1.232798971531
Zn  -2.940483814989  6.790757529993  5.003419256075 -0.000000514221  0.000000257110  1.232798457311
Zn  -1.470242348567  5.941912397671  2.501319278772 -0.000000000000  0.000000000000  1.232798714421
O   -2.940483814989  6.790757529993  1.902376187280  0.000000514221 -0.000000257110 -1.232798714421
O   -1.470242348567  5.941912397671  4.404476164583 -0.000000257110  0.000000000000 -1.232798971531
Zn   2.940483814989  1.697689382498  5.003419256075 -0.000000000000 -0.000000000000  1.232798714421
Zn   4.410726163557  0.848844250176  2.501319278772  0.000000000000  0.000000514221  1.232798714421
O    2.940483814989  1.697689382498  1.902376187280 -0.000000514221 -0.000000257110 -1.232798971531
O    4.410726163557  0.848844250176  4.404476164583  0.000000000000 -0.000000257110 -1.232798457311
Zn   1.470242348567  4.244223015173  5.003419256075  0.000000000000 -0.000000000000  1.232798714421
Zn   2.940483814989  3.395378764996  2.501319278772  0.000000514221 -0.000000257110  1.232798714421
O    1.470242348567  4.244223015173  1.902376187280  0.000000257110 -0.000000257110 -1.232798714421
O    2.940483814989  3.395378764996  4.404476164583 -0.000000257110  0.000000257110 -1.232798457311
Zn  -0.000000000000  6.790757529993  5.003419256075  0.000000000000  0.000000000000  1.232798714421
Zn   1.470242348567  5.941912397671  2.501319278772  0.000000000000  0.000000000000  1.232798714421
O   -0.000000000000  6.790757529993  1.902376187280  0.000000000000  0.000000257110 -1.232798714421
O    1.470242348567  5.941912397671  4.404476164583  0.000000257110  0.000000000000 -1.232798971531
Zn   5.880968512124  1.697689382498  5.003419256075  0.000000000000 -0.000000000000  1.232798714421
Zn   7.351209978546  0.848844250176  2.501319278772 -0.000000000000  0.000000000000  1.232799228642
O    5.880968512124  1.697689382498  1.902376187280  0.000000514221 -0.000000257110 -1.232798971531
O    7.351209978546  0.848844250176  4.404476164583 -0.000000000000  0.000000000000 -1.232798714421
Zn   4.410726163557  4.244223015173  5.003419256075  0.000000000000  0.000000000000  1.232798714421
Zn   5.880968512124  3.395378764996  2.501319278772 -0.000000514221 -0.000000257110  1.232798714421
O    4.410726163557  4.244223015173  1.902376187280  0.000000000000  0.000000514221 -1.232798971531
O    5.880968512124  3.395378764996  4.404476164583  0.000000257110  0.000000257110 -1.232798457311
Zn   2.940483814989  6.790757529993  5.003419256075  0.000000514221  0.000000257110  1.232798457311
Zn   4.410726163557  5.941912397671  2.501319278772  0.000000000000 -0.000000000000  1.232799228642
O    2.940483814989  6.790757529993  1.902376187280 -0.000000514221 -0.000000257110 -1.232798714421
O    4.410726163557  5.941912397671  4.404476164583  0.000000000000 -0.000000000000 -1.232798714421