# total energy = -24536.945078844852 eV

CRYSTAL
PRIMVEC
6.136662235341968 0.0 0.0
-1.534165558835492 2.6572545245121315 0.0
0.0 0.0 5.320295921512191
PRIMCOORD
8 1
Zn   0.096889305369  1.927021788151  5.223695039268 -2.408336390337 -1.056021231015  1.165062487416
Zn   1.621421531827  0.875564853415  2.487470876781 -1.963105397876 -0.860821536348  1.648326266281
O    0.109338138380  1.738166007859  1.994583371031 -1.374271608988 -0.584770674562  0.214900001309
O    1.488209322687  0.968154813222  4.868900230135  1.547112476344  0.188979681899 -2.198948062875
Zn   3.055185773497  1.784647542294  5.331713795267  1.081250952116 -0.277886115223  0.283733318033
Zn   4.567478427127  0.940777935658  2.490957728263  9.594968761342 -3.729663071697  3.067542301190
O    3.181476441301  1.496120707641  2.072129303368 -6.444524838260  5.471591377005 -2.883367496879
O    4.658185658960  0.886608390774  4.928001810457 -0.033094211451  0.848591569941 -1.297248557365