# total energy = -12269.172111175836 eV

CRYSTAL
PRIMVEC
3.5157962211624265 0.0 0.0
-1.7578981105812133 3.044767422432191 0.0
0.0 0.0 5.193038450633952
PRIMCOORD
4 1
Zn  -0.000000000000  2.029846003027  5.192227356446  0.000000000000  0.000000000000 -0.215130115042
Zn   1.757898110581  1.014922825724  2.595708834288  0.000000000000 -0.000000000000 -0.215130115042
O   -0.000000000000  2.029846003027  1.974164228795  0.000000000000 -0.000000000000  0.215130115042
O    1.757898110581  1.014922825724  4.570682750952  0.000000000000  0.000000000000  0.215130115042