# total energy = -36805.292397329176 eV

CRYSTAL
PRIMVEC
2.876560207838307 0.0 0.0
-1.4382801039191535 2.49117305399317 0.0
0.0 0.0 15.240433082357487
PRIMCOORD
12 1
Zn  -0.000000000000  1.660782898964  5.079352347875  0.000000000000  0.000000000000  2.123689816461
Zn   1.438280103919  0.830391305654  2.539280071597  0.000000000000 -0.000000000000  2.123689302241
O   -0.000000000000  1.660782898964  1.931247445321  0.000000000000  0.000000000000 -2.123688788020
O    1.438280103919  0.830391305654  4.471319721599  0.000000000000  0.000000000000 -2.123689045130
Zn  -0.000000000000  1.660782898964  10.159496900432  0.000000000000  0.000000000000  2.123688016689
Zn   1.438280103919  0.830391305654  7.619424624154  0.000000000000  0.000000000000  2.123689302241
O   -0.000000000000  1.660782898964  7.011391997878  0.000000000000  0.000000000000 -2.123691616233
O    1.438280103919  0.830391305654  9.551464274156  0.000000000000  0.000000000000 -2.123690073572
Zn  -0.000000000000  1.660782898964  15.239641452988  0.000000000000  0.000000000000  2.123690844903
Zn   1.438280103919  0.830391305654  12.699569176710  0.000000000000  0.000000000000  2.123689045130
O   -0.000000000000  1.660782898964  12.091536550434  0.000000000000  0.000000000000 -2.123688530910
O    1.438280103919  0.830391305654  14.631608826712  0.000000000000  0.000000000000 -2.123688273799