# total energy = -98159.4347016967 eV

CRYSTAL
PRIMVEC
6.648050622659499 0.0 0.0
-3.3240253113297493 5.7573780404886925 0.0
0.0 0.0 10.24650081564201
PRIMCOORD
32 1
Zn  -0.000000000000  1.919126678301  5.122449982526  0.000000000000  0.000000257110 -0.277204001555
Zn   1.662012655665  0.959563671553  2.560825775823 -0.000000257110 -0.000000257110 -0.277203487334
O   -0.000000000000  1.919126678301  1.947633519371 -0.000000000000 -0.000000514221  0.277203487334
O    1.662012655665  0.959563671553  4.509258390879  0.000000257110  0.000000000000  0.277204258665
Zn  -0.000000000000  1.919126678301  10.245699060737  0.000000000000  0.000000257110 -0.277203487334
Zn   1.662012655665  0.959563671553  7.684074854034  0.000000257110  0.000000257110 -0.277203230224
O   -0.000000000000  1.919126678301  7.070883262387  0.000000000000 -0.000000000000  0.277203487334
O    1.662012655665  0.959563671553  9.632507469090 -0.000000257110 -0.000000000000  0.277202973113
Zn  -1.662012655665  4.797817028156  5.122449982526  0.000000257110 -0.000000000000 -0.277204001555
Zn   0.000000000000  3.838254021408  2.560825775823  0.000000000000  0.000000000000 -0.277203487334
O   -1.662012655665  4.797817028156  1.947633519371 -0.000000514221  0.000000257110  0.277203487334
O    0.000000000000  3.838254021408  4.509258390879  0.000000000000  0.000000000000  0.277205801327
Zn  -1.662012655665  4.797817028156  10.245699060737  0.000000257110 -0.000000000000 -0.277203487334
Zn   0.000000000000  3.838254021408  7.684074854034  0.000000000000  0.000000000000 -0.277203744444
O   -1.662012655665  4.797817028156  7.070883262387 -0.000000000000  0.000000000000  0.277203487334
O    0.000000000000  3.838254021408  9.632507469090  0.000000000000  0.000000000000  0.277202458893
Zn   3.324025311330  1.919126678301  5.122449982526  0.000000000000  0.000000000000 -0.277203744444
Zn   4.986037966995  0.959563671553  2.560825775823  0.000000257110 -0.000000257110 -0.277203487334
O    3.324025311330  1.919126678301  1.947633519371  0.000000000000  0.000000000000  0.277203487334
O    4.986037966995  0.959563671553  4.509258390879 -0.000000257110  0.000000000000  0.277204258665
Zn   3.324025311330  1.919126678301  10.245699060737 -0.000000000000 -0.000000000000 -0.277203744444
Zn   4.986037966995  0.959563671553  7.684074854034 -0.000000257110  0.000000257110 -0.277203230224
O    3.324025311330  1.919126678301  7.070883262387  0.000000000000  0.000000000000  0.277203487334
O    4.986037966995  0.959563671553  9.632507469090  0.000000257110 -0.000000000000  0.277202973113
Zn   1.662012655665  4.797817028156  5.122449982526 -0.000000257110 -0.000000000000 -0.277204001555
Zn   3.324025311330  3.838254021408  2.560825775823  0.000000000000  0.000000257110 -0.277203487334
O    1.662012655665  4.797817028156  1.947633519371  0.000000514221  0.000000257110  0.277203487334
O    3.324025311330  3.838254021408  4.509258390879  0.000000000000 -0.000000257110  0.277204258665
Zn   1.662012655665  4.797817028156  10.245699060737 -0.000000257110 -0.000000000000 -0.277203487334
Zn   3.324025311330  3.838254021408  7.684074854034  0.000000000000 -0.000000514221 -0.277203230224
O    1.662012655665  4.797817028156  7.070883262387  0.000000000000  0.000000000000  0.277203487334
O    3.324025311330  3.838254021408  9.632507469090  0.000000000000  0.000000257110  0.277202973113