# total energy = -49034.201266002485 eV

CRYSTAL
PRIMVEC
5.753120944853822 0.0 0.0
-1.4382802362134555 2.4911761596939876 0.0
0.0 0.0 8.867164496763355
PRIMCOORD
16 1
Zn   0.100363194883  1.637257101900  4.465052970574 -16.316400124521  7.619388113817 -2.330549206854
Zn   1.495173999861  0.906735009316  2.101367696954 -1.059284732258  6.973525457040  6.313675741956
O   -0.032038555230  1.975846679492  1.422297490917 -1.680274279942  12.676521260768  74.086517055454
O    1.301299001829  0.914858416090  4.120409959124  12.278650759868 -11.270467474272 -8.620398792924
Zn  -0.017328975598  1.653639689103  9.151397437044  3.133447131413 -20.565073536554 -73.934421133955
Zn   1.398370260907  0.901480683957  6.546608069619  0.355808281622  1.424498623465  0.434166507117
O   -0.116687675564  1.751563560705  6.058307902240 -2.311368520161 -1.355960469384  6.367200196236
O    1.389332107903  0.835297931232  8.310847481702  1.236109266851  1.352204087665  0.105743559486
Zn   2.815240832836  1.683903406521  4.340711342905  5.911309667179 -30.822203434722  3.340491384123
Zn   4.131775824863  0.806924114044  2.262517217117  4.517171144063 -1.529215027238  3.457630329931
O    3.004784306110  1.635877503497  1.392332360475 -2.597626404387  2.443594442208  11.045681324197
O    4.157450277704  0.519152429070  4.115611856256 -0.738292529874  33.968628466452 -9.036669393598
Zn   3.000987821598  1.777538901771  8.744746137426 -7.354139227742  2.774213111939 -9.464620258822
Zn   4.216773584326  0.621612636537  6.936227254679 -2.437897648934  3.567485340482 -15.761593086201
O    2.869272418814  1.935872844543  6.028468765147  1.085160828694 -11.816468998485 -3.514629630134
O    4.365289250894  1.091701874878  8.254904133634  5.977626388128  4.559330036819  17.511775146878