# total energy = -73598.91829764257 eV

CRYSTAL
PRIMVEC
8.82145232711341 0.0 0.0
-1.470244995003011 2.546532750529464 0.0
0.0 0.0 8.875369043736727
PRIMCOORD
24 1
Zn  -0.073076911078  1.639435157766  4.467652759714  1.948533927819  0.094558489404 -7.457804564543
Zn   1.482268634525  0.879050667235  2.215065797193  0.116705457815 -1.859609753883 -3.090142040867
O   -0.009213124810  1.622059543117  1.847897544143  1.694028653414  3.150694348529 -2.825570897585
O    1.575508739187  0.819259745507  3.894287469244 -5.566872603508 -2.535443760211  2.504641944339
Zn  -0.015684542238  1.610873941566  8.810209386123 -1.044559510232  2.366351304154  2.599527478065
Zn   1.459642491451  0.780383605101  6.608344892337  0.244260970970  0.945118495925 -2.357324675176
O   -0.038780868720  1.654667159499  6.066704190871  1.657110183121  0.102627125345  6.269509074741
O    1.354113221552  0.801850609339  8.301635898705  4.235914312595 -0.579183153171  2.813033684350
Zn   2.895726412317  1.589264911946  4.409110955636  4.483572996393  3.559411819445  1.042994993959
Zn   4.348800450366  0.786578028926  2.184137785334  1.583008933130  0.888425928329 -1.022383745466
O    2.940912537572  1.671114757363  1.729274592555 -0.150995746456 -0.163151407982 -2.183318326757
O    4.441423053365  0.828898064320  3.899834398468 -0.166347803432 -0.912888175137  2.474707361563
Zn   3.099503725364  1.689713907449  8.786421457777 -4.749419149732  0.092047550057  1.252502620608
Zn   4.314523815203  0.910191276095  6.684596644107  5.868373529937 -3.794531233125 -1.961135161523
O    2.988705401990  1.636401460310  6.203293794414 -5.856110653409  4.323493028247 -1.401329127327
O    4.456582719189  0.838513447356  8.365998979174  2.865038873773 -1.601982903129  2.184259607625
Zn   5.879662055034  1.658460384000  4.519837825246 -0.823410442690  1.071805233322 -8.583444584298
Zn   7.373460327751  0.869943399852  2.159464183175 -2.698327516354 -2.283573609435 -0.593510625538
O    5.869591485058  1.661395281189  1.730794528791 -1.348074381768  0.281722972471  1.483418280619
O    7.297276501163  0.881584188343  3.892232070852  0.181700631739 -1.991173873977  1.104077205982
Zn   5.962919804243  1.707220961738  8.884140213786 -2.145295310546  1.175664174191 -0.517815291587
Zn   7.381636931913  0.777527218838  6.582341015167 -1.719965942105  1.654172954869  0.591004057066
O    5.849699110060  1.704858576804  6.089278287376  0.136129370867 -2.585397723532  8.535887403344
O    7.296727806829  0.847350778298  8.353744217601  1.255001475770 -1.399157830707 -0.861784928703