# total energy = -49062.94258162605 eV

CRYSTAL
PRIMVEC
5.753120944853822 0.0 0.0
-1.4382802362134555 2.4911761596939876 0.0
0.0 0.0 9.421362637381122
PRIMCOORD
16 1
Zn  -0.014889077005  1.543072183600  4.765498205677 -4.151810442866  5.615147379354  5.849497776078
Zn   1.387675784383  0.972679007522  2.441333996388  3.601033608751 -1.613531784309  0.825878701725
O    0.009592753863  1.669022959197  1.789920193356 -0.781545684135  2.423205337029  2.208717740667
O    1.330294731391  0.941983806033  4.243395000875  7.466276606570 -4.360369589559 -2.669446571653
Zn  -0.009944269553  1.762731519083  9.550503518542 -1.519976796469 -3.541834215573 -3.513704804327
Zn   1.302916779438  0.733998128259  7.163392687059  1.204451787847  8.955334859083  1.277454148347
O    0.017183421638  1.770120252313  6.676689010742 -0.251582444332 -8.801431194952 -5.446369369214
O    1.502746832961  0.832215984342  8.912089467598 -9.803005974093 -4.919332044808 -4.164806340905
Zn   2.926799025766  1.712979679776  4.582158322719 -3.028460247587  0.356558786635  3.517990576186
Zn   4.329579053877  0.940888411805  2.394893653497 -1.141374142660 -2.724507774294 -2.520549359598
O    2.920262905060  1.535957874239  1.559930553904 -0.028843406594  0.755641562675  7.865908313135
O    4.328145951450  0.928560048932  4.091952146371 -0.354842318164 -1.957552072157  0.018440723204
Zn   2.583985506776  1.761231105141  9.418470543482  7.634772309583  8.330629810221 -1.491981082587
Zn   4.215644246685  0.948443985542  7.227711428599  7.201427012815 -4.720848537184  0.115392395430
O    2.975391611202  1.455674797390  6.456636737099 -8.647516732187  4.702774453291 -5.598702089314
O    4.141596402316  0.939251073584  8.884692530346  2.600997120632  1.500115795879  3.726279499937