# total energy = -24539.369292325056 eV

CRYSTAL
PRIMVEC
6.648050622659499 0.0 0.0
-1.6620126556648747 2.8786923442696573 0.0
0.0 0.0 5.123247083795693
PRIMCOORD
8 1
Zn  -0.096741103051  1.919784170508  5.080561945163  0.571763206558 -0.290530286350 -0.071803969316
Zn   1.727420166521  0.935158012912  2.605837732174 -0.772726800292  0.130043569684 -1.016628845260
O    0.042421875828  2.007101661801  1.891333173063 -0.560939890691 -1.106003733581  0.425703206841
O    1.663632120797  0.869591613646  4.462389633989 -0.328354556287  0.630806533775  1.038681711295
Zn   3.348039399789  1.998044357633  5.089507562081 -0.569101857676 -1.778008081750  0.264375482331
Zn   4.891341139510  0.960085543527  2.462293023130  1.100289713915 -0.224601030647  0.398393977503
O    3.307034223548  1.854304860705  1.956281968426  0.106273463848  1.003920396555 -0.220423245120
O    4.876502025715  0.854408795634  4.548904705573  0.452796720624  1.634372632314 -0.818298575385