# total energy = -73613.5775086424 eV

CRYSTAL
PRIMVEC
9.97207619857785 0.0 0.0
-1.6620160237883748 2.8786890966244614 0.0
0.0 0.0 11.10037673214214
PRIMCOORD
24 1
Zn   0.001801954169  2.055230943620  5.460422727754 -0.556483140471 -2.054805591895  1.271769696368
Zn   1.683133889554  0.993867971539  2.906451356761  0.232680722331 -0.281320851937 -1.341426794544
O    0.065786783890  1.862715026569  2.070742508147 -0.049128639206  0.071493894275  2.007754661154
O    1.897900500228  0.942794986080  5.128284780224 -4.379767791580 -1.018326287568 -2.455503277831
Zn   0.070171505794  2.178613448010  11.261799715607  0.229790802378 -2.329447232039 -0.453155389515
Zn   1.679739394816  0.695495474016  8.277243069228  0.626907712941  0.854212772783  0.589925736400
O    0.091568589693  1.722738987384  7.738347085418 -0.810003682366 -0.176836361668 -0.908167115512
O    1.800552095169  0.967073002793  10.642263540410 -0.631638028537  1.559858206045 -0.955807600208
Zn   3.239369120651  1.909126066404  5.438559947897  4.705733535919  3.053584296348  1.688997004527
Zn   5.135461683464  0.815840483996  2.694025192372 -0.152231675746  0.304892211499  0.119811350433
O    3.421487153850  1.770505232376  1.953775040376 -0.226063988346  0.064958921370  3.229026348772
O    5.109017731800  1.059361576388  4.887667556420 -1.203314846029 -0.852259505711 -0.390541314228
Zn   3.424819821716  1.999572797525  11.252825844236 -0.159184452914 -0.258237744865 -2.566220122162
Zn   5.005583368638  1.106920402195  8.366222907940 -0.612809325866 -1.131939479610  0.570620094093
O    3.308515497012  1.719671576746  7.777877392677  0.074536794866  0.710406087876 -0.706100518522
O    5.030488628944  0.919115293939  10.433620781730  0.040746328679  0.150098945673  0.059819286150
Zn   6.637780890178  1.939041297792  5.652919697861 -1.108623687702  0.455151594009  0.489386089712
Zn   8.362328812184  0.841381962764  2.864037125066 -0.487903848740  0.109082394052 -0.997937696609
O    6.618288472832  1.866905292987  1.994181893133  0.628967937904  0.173114432732  0.799724926147
O    8.078522526365  1.232102866338  4.786880779489  2.861888243959 -0.731133036011 -0.086592697590
Zn   6.661787666418  1.870290812857  11.044604904379  0.476647301989 -0.748038296406  0.053925803484
Zn   8.206043442377  0.952877752325  8.237912203493  2.675381963301 -1.183185422269  1.800129853350
O    6.728849878853  1.783039134950  7.721267910513 -1.940619558068  1.498117277392 -1.489375269533
O    8.385566741350  0.715811584856  10.359424545982 -0.235508678698  1.760558518815 -0.330063054337