# total energy = -36808.240809955765 eV

CRYSTAL
PRIMVEC
10.355617489065997 0.0 0.0
-1.7259397000501626 2.989407878656127 0.0
0.0 0.0 5.209455511579583
PRIMCOORD
12 1
Zn  -0.092786332702  2.025372379747  5.214409638986  0.526527731759  0.114951451238 -0.154591948448
Zn   1.750341677101  1.022283776162  2.578417238435 -0.094746437045 -0.073518638014  0.172279338425
O    0.037891204392  1.994851268321  1.991839854755 -0.440897912304 -0.099087744733  0.249956478693
O    1.683882430742  0.988537925451  4.640481642069  0.002582416015  0.105490562935 -0.359615314073
Zn   3.483279703451  1.996534056163  5.190160925074 -0.485411421335 -0.016946655157 -0.175643112691
Zn   5.195584161953  1.017180527864  2.600614504523 -0.292121542096 -0.134188702201 -0.142988816991
O    3.418421435555  2.012263203567  1.931998883533  0.293887375748  0.116535507896  0.747848034772
O    5.128451800457  1.024476060385  4.616580876904  0.433639688079 -0.008936640368 -0.263356554149
Zn   6.901979705116  2.053616290886  5.178118377496 -0.295054399473 -0.151492226476  0.135447514309
Zn   8.644973036047  0.965811487309  2.584076583393  0.063229597384  0.264410449334  0.006168590705
O    6.883225681843  2.001364951722  2.017073387891  0.169972287559  0.043378881206 -0.114323073625
O    8.560484659639  1.041617714014  4.617442464279  0.118392101488 -0.160596245660 -0.101181394037