# total energy = -12268.961796022622 eV

CRYSTAL
PRIMVEC
3.068331382259589 0.0 0.0
-1.5341656911297945 2.6572516853213606 0.0
0.0 0.0 4.729154724517677
PRIMCOORD
4 1
Zn  -0.059771708993  1.687904435038  4.808494410068  0.711670556411  0.366237447375 -4.053980996020
Zn   1.396488741508  0.852626390337  2.305330031099  1.816495696302 -0.473238276308  0.825547286527
O   -0.015445673345  1.740951282140  1.780012981635 -1.716223187233  0.602244662977  2.847708095804
O    1.545430456133  0.838294828116  4.140255405317 -0.811943065480 -0.495244091155  0.380725613689