# total energy = -73593.05126164369 eV

CRYSTAL
PRIMVEC
9.204993617601557 0.0 0.0
-3.0683281375359797 5.31450306512226 0.0
0.0 0.0 4.43358517591779
PRIMCOORD
24 1
Zn   0.006693871359  1.646329677497  4.474074260844  5.582461716195  7.463112349909 -1.326289167572
Zn   1.436673060865  0.803152262124  2.021700112229  3.383802902426  2.102922759117  2.707702272701
O    0.090655379643  1.816899129730  1.680594345739 -2.232851657601 -0.999467760100  5.712788364338
O    1.470518901897  1.075190200003  4.058892228716  6.628472614162 -5.206599601246 -2.911479681734
Zn  -1.550815902222  4.272240968288  4.509809887066  7.509259280779  4.119494504342 -3.882164199054
Zn  -0.220606877039  3.408202275880  2.153531269322  3.324665729945  0.930930120240  2.027118410392
O   -1.490041772861  4.424102191493  1.736585560416 -1.721933864464  0.465313622144  3.631361827421
O    0.268133179586  3.441483850804  3.940783876108 -13.251433554478 -10.856670274840 -6.078714708231
Zn   3.011896003664  2.006634299175  4.507835415935  0.669254296228 -8.731243935303 -1.043137947295
Zn   4.919900637225  0.655082575790  2.223894240535 -2.161852700684  3.695093304142 -1.024259622333
O    3.067148977854  1.841218722868  1.723602837418  0.813307292818 -0.578556061110  5.713628857961
O    4.645821952261  0.762917235022  3.895846938265  0.058287165777  3.030760870696  3.975254845663
Zn   1.201355683525  4.431067610163  4.457525523318  10.414194219416  10.815560392173  2.352921661012
Zn   2.964169032256  3.666524773269  2.558099943809 -1.759889260662  3.905297699748 -33.601656454904
O    1.409596572138  4.506277931015  1.682752916742 -0.236387224649 -5.958602795838  2.887636556568
O    3.012768637059  3.459451998345  3.898457474455  1.826885781287  4.141242951763  28.209298764020
Zn   6.177330380370  1.733457703585  4.436055796205  0.380994293969 -1.067163363675 -3.172478534284
Zn   7.631007825944  0.862866896720  2.216369158252  0.356909227996  2.676209601409  0.256152065980
O    6.057822868732  1.810868017912  1.732159799485  2.989145252037  2.205533686512  1.654343419009
O    7.954451971180  0.934846264813  4.063452382554 -14.249529373931 -7.480139223484 -3.796180595803
Zn   4.644938272873  4.134656690184  4.367109473510 -1.402882330746  2.429380612602  1.250190427535
Zn   6.136023892010  3.573837851534  2.187459034798  2.023219075338 -1.953177083018  0.457991634561
O    4.793002436211  4.517848607993  1.825464376291 -4.011892808601 -0.803761815221 -1.828878129127
O    6.286613905597  3.620251270353  4.025556344330 -4.932205815447 -4.345470303849 -2.171149809715