# total energy = -12269.090848595684 eV

CRYSTAL
PRIMVEC
3.068331382259589 0.0 0.0
-1.5341656911297945 2.6572516853213606 0.0
0.0 0.0 5.024727086570744
PRIMCOORD
4 1
Zn  -0.176977672131  1.806171734001  5.095735025085  2.275399558265  0.728041541570 -0.118709889839
Zn   1.649457015486  0.933916920979  2.603448187700  0.580730700164  0.319090871596 -0.865868097633
O    0.277229877050  1.902327102859  1.772877270173 -0.172082134813 -0.260316738881  2.577437073924
O    1.683168772383  0.820934209156  4.436140123505 -2.684048123617 -0.786815931395 -1.592858829341