# total energy = -73616.94607646465 eV

CRYSTAL
PRIMVEC
9.780305553333779 0.0 0.0
-1.630054185657481 2.8233297056086286 0.0
0.0 0.0 11.514999228106378
PRIMCOORD
24 1
Zn  -0.000000000000  1.882220781770  5.756599825942  0.000003085324  0.000001799772  0.028908969725
Zn   1.630051251566  0.941109901870  2.877850996946 -0.000000771331 -0.000000514221  0.028770644375
O   -0.000000000000  1.882220781770  2.188747294178  0.000000257110  0.000000257110 -0.028939051632
O    1.630051251566  0.941109901870  5.067496123174  0.000000257110  0.000000257110 -0.028923110792
Zn  -0.000000000000  1.882220781770  11.514097483934 -0.000000771331 -0.000000514221  0.028939051632
Zn   1.630051251566  0.941109901870  8.635348654938 -0.000000257110 -0.000000257110  0.029075320099
O   -0.000000000000  1.882220781770  7.946244952170 -0.000000000000 -0.000000000000 -0.028908455504
O    1.630051251566  0.941109901870  10.824993781166 -0.000000000000 -0.000000000000 -0.028923882123
Zn   3.260101525101  1.882220781770  5.756599825942 -0.000005399317 -0.000003085324  0.028909741056
Zn   4.890152776667  0.941109901870  2.877850996946  0.000000771331  0.000000514221  0.028766787720
O    3.260101525101  1.882220781770  2.188747294178 -0.000000257110 -0.000000000000 -0.028938537411
O    4.890152776667  0.941109901870  5.067496123174  0.000000514221  0.000000257110 -0.028922596572
Zn   3.260101525101  1.882220781770  11.514097483934  0.000002056883  0.000001028441  0.028938023191
Zn   4.890152776667  0.941109901870  8.635348654938 -0.000002571103 -0.000001542662  0.029080976526
O    3.260101525101  1.882220781770  7.946244952170  0.000000257110  0.000000257110 -0.028909226835
O    4.890152776667  0.941109901870  10.824993781166 -0.000000257110 -0.000000257110 -0.028924653454
Zn   6.520204028233  1.882220781770  5.756599825942  0.000001542662  0.000001028441  0.028907684173
Zn   8.150254301768  0.941109901870  2.877850996946 -0.000000514221 -0.000000257110  0.028768073272
O    6.520204028233  1.882220781770  2.188747294178  0.000000257110  0.000000257110 -0.028938537411
O    8.150254301768  0.941109901870  5.067496123174 -0.000000257110 -0.000000257110 -0.028922339461
Zn   6.520204028233  1.882220781770  11.514097483934 -0.000000000000 -0.000000000000  0.028938023191
Zn   8.150254301768  0.941109901870  8.635348654938  0.000002313993  0.000001285552  0.029080976526
O    6.520204028233  1.882220781770  7.946244952170 -0.000000257110 -0.000000000000 -0.028908969725
O    8.150254301768  0.941109901870  10.824993781166  0.000000257110  0.000000257110 -0.028924910564