# total energy = -24539.141719984313 eV

CRYSTAL
PRIMVEC
6.0088151385125865 0.0 0.0
-1.5022037846281466 2.6018950695727505 0.0
0.0 0.0 5.3059279788699385
PRIMCOORD
8 1
Zn   0.009858662998  1.708100041520  5.313544152058 -0.110828687319 -0.081448177274  0.877822698892
Zn   1.527851210284  0.804787050288  2.654870586478 -0.195683833392  1.234018188650  0.742720226628
O   -0.024749708674  1.746174898645  1.960214902694  0.273786491233 -1.182729308568 -0.352131604101
O    1.550592772939  0.864923873075  4.675332273277 -2.019614388706 -1.100624471547 -2.066837326249
Zn   2.956409754811  1.682546353380  5.278621519354  1.798991625980  1.451303145252  1.742533800103
Zn   4.461462919578  0.819275505350  2.702907458222  0.189487731884  1.403841609336  0.763604526276
O    3.007609065962  1.802158428409  1.939882274028 -0.190829333513 -1.514150933816 -0.550134572545
O    4.501091055417  0.869760368380  4.668180581499  0.254690136723 -0.210209537812 -1.157578006114