# total energy = -49075.7678841314 eV

CRYSTAL
PRIMVEC
6.775898248666088 0.0 0.0
-3.387949124333044 5.86809728080105 0.0
0.0 0.0 5.004197357689118
PRIMCOORD
16 1
Zn   0.003088454422  1.819048835169  5.185506843027  0.148632388430 -0.767027435914 -4.430967197272
Zn   1.609812485199  1.051842335245  2.484314656301  0.409414496983 -1.615367551966  0.523500514897
O    0.135804585469  2.044687602029  1.876200148948 -1.055722211717 -3.660447946154  1.135946286777
O    1.648434427627  0.929557699552  4.375331661949 -0.322882991649 -0.045456589671  1.655664708924
Zn  -1.594236727895  4.826317832045  5.078675320879 -0.608436650720  0.575919909039  0.010432765298
Zn  -0.013626331378  3.548856380044  2.549151871463 -0.524472906113  6.231228176883  2.842061439041
O   -1.858525895956  4.984749174536  2.127854977134  0.589789725043 -1.311771690682 -1.159590922779
O    0.195500249040  4.055128459130  4.526645600920 -4.958348535280 -2.679152228977 -2.077489663756
Zn   3.502565475979  1.849948963953  5.016690081290 -1.687327073024  0.802838789186  0.257033697254
Zn   4.991201184848  0.774904597924  2.556778144942 -0.940164494354  0.566624856891 -0.682424772172
O    3.184936436905  1.848057810751  1.989615133834  2.471422005943  0.956761736591 -0.660206327093
O    4.994929284065  0.900897005139  4.395613280587  1.453044553423  0.451993250886  1.108653255389
Zn   1.632749578361  4.770669412498  5.080616615727  3.190960395138  1.609120285505 -0.255953319706
Zn   3.250846276759  3.981791557205  2.578980053143  0.864307180904 -0.661502420197 -0.069032320108
O    1.729160446592  4.897356349284  1.886487995258 -0.600075166129 -0.058765133854  1.634847257958
O    3.213440608067  3.834495048306  4.503320926378  1.569859283122 -0.394995493345  0.167524597349