# total energy = -24537.020806765584 eV

CRYSTAL
PRIMVEC
6.903745345495471 0.0 0.0
-1.7259363363738678 2.98941148328903 0.0
0.0 0.0 5.652814303873074
PRIMCOORD
8 1
Zn  -0.154962158400  1.728249781439  5.529534123239  1.039177677095  1.293811763769  0.653678810387
Zn   1.819738905132  1.152410453295  2.596893518675 -1.610073907668 -0.835590529696  0.333407545329
O   -0.096247875360  1.938902382417  2.173990099671  0.763313991619  0.242359125961 -0.455084231106
O    1.530072248300  1.127053687015  5.045425549875  1.893859676205 -0.256412518731 -0.353294256951
Zn   3.466224178572  1.878705174877  5.611630701389 -0.600298080773 -0.137608012295 -0.560825733710
Zn   5.160882406284  1.005047937772  2.673486431036  0.550811029787  0.140469135893  0.492869677385
O    3.492028307550  1.889045604656  2.017469075573  0.024949985077  0.409903777915 -0.069918065147
O    5.221725114013  1.036749936398  4.819246425614 -2.061740371342 -0.856932999927 -0.040833746187