# total energy = -110427.24492610405 eV

CRYSTAL
PRIMVEC
9.396764262845632 0.0 0.0
-4.698382131422816 8.13783277073089 0.0
0.0 0.0 5.531715376544755
PRIMCOORD
36 1
Zn   0.071701070031  1.829877949049  5.526061343488 -1.247698257241  0.219627231581  0.013135508941
Zn   1.463571405202  0.942441894007  2.748785646960  2.063743003594 -0.889438171644  0.852537956183
O    0.016916055026  1.759672843888  2.055591985348 -1.392098095647 -0.009671204541 -0.913757722226
O    1.592023293322  0.943934100172  4.913502255692 -0.175045845427 -0.775544986467 -0.790793942206
Zn  -1.588686502332  4.487247174877  5.420742409630 -0.490849818742  0.108442703585  0.856053425536
Zn   0.033307770606  3.539539334177  2.639094398690 -0.325679837668  0.635957996069  0.996655230352
O   -1.538166678626  4.451781907197  2.091231093168 -0.656900916869 -0.811710894865 -0.511451039932
O   -0.045815803516  3.669290794795  4.873983223908  1.293971943496 -1.213110749074 -0.578338545783
Zn  -3.160446613198  7.230845807964  5.535458107751  0.338364375114 -0.330280312554  0.121914255709
Zn  -1.570354354932  6.212568267650  2.636372156083 -0.058638378468  0.708545894739  0.939921525105
O   -3.117672542273  7.212152824816  2.134441173954  0.225148418510  0.741756834273 -0.667685666189
O   -1.547134950438  6.277159745840  4.957670806433 -0.494110748881  1.204100575155 -0.566392172054
Zn   3.167479151572  1.868005320045  5.469856477402 -0.267961399910 -1.188651330480  1.219948340821
Zn   4.748458427856  0.922327180426  2.731051133766 -1.317431460071 -0.628209976692  0.624629715540
O    3.109700327473  1.910025770476  2.150197668270  0.269647786474 -2.759910065052 -1.224257252609
O    4.647904593156  0.907930397899  4.843945527266  0.566428167499 -0.414700170862 -0.448326857778
Zn   1.626254765855  4.471172130253  5.503199016036 -0.803302873307  0.249468226202  0.447649886315
Zn   3.170967230466  3.570381393841  2.772490864166  0.210537353465  1.937848423081  0.639518459726
O    1.590595924830  4.439551078832  2.148764661720  0.140691279206  1.027564518336 -0.993584561846
O    3.121212303371  3.539740424933  4.752789396505  0.009836269364  1.406429938888  0.110348662359
Zn   0.034654326925  7.244556626700  5.597405336477 -0.791077020664  0.004293742279  0.131858254296
Zn   1.568990884437  6.351703337061  2.752212646886  0.042470510459 -0.904645218402  0.659259646909
O   -0.005104322348  7.164429478154  2.116968830484 -0.069474292742  0.925491722833 -0.523339820950
O    1.458592999495  6.282045123580  4.836746666164  1.374814625976  0.060005176909 -0.337752452562
Zn   6.211371119883  1.864508784063  5.467064698740  0.152509869108 -0.759305384680  0.543848739536
Zn   7.785953079057  0.914291067628  2.748491528238  1.016398988638 -0.802678866569  0.812455486340
O    6.295583041854  1.694333383263  2.056154851527 -0.716661324757  1.582607069706 -1.036489588740
O    7.734362963901  0.930866020112  4.777493489752  1.084499540961 -0.665844756326  0.108931984517
Zn   4.587551055648  4.480368743437  5.558076119331  0.848402079638  0.287993378861  0.368139806604
Zn   6.196339116092  3.598178901883  2.698585313238  0.366592259612  0.070199600944  0.385926441164
O    4.679886480324  4.649375186763  2.163249773831  0.121891630001 -0.945574609626 -1.123527087177
O    6.230990623987  3.606673576777  4.815369027466 -0.711079974015  0.539540856190 -0.427936724157
Zn   3.111819297814  7.166619863904  5.580643388385 -0.239174557586  0.446893467765 -0.532666497667
Zn   4.685426812534  6.474716378026  2.808810297718  0.330390355770 -0.849477057870  0.655926468771
O    3.147617210950  7.148331881295  2.014308241236 -0.670373240324  1.071642739602 -0.271654275381
O    4.667951650034  6.254421455677  4.784455552394 -0.028780671677  0.720342887374  0.459294926754