# total energy = -49078.54338406007 eV

CRYSTAL
PRIMVEC
6.392356429000733 0.0 0.0
-3.1961782145003665 5.535940476425361 0.0
0.0 0.0 5.541974860894337
PRIMCOORD
16 1
Zn   0.011219224769  1.807838302577  5.601077309966 -0.321657089662 -0.023873464183 -0.240234880529
Zn   1.591310013257  0.854963609195  2.786129644356  0.302077624868  0.592666789480  0.139815818580
O   -0.081656600260  1.808871307376  2.114814599953  2.418402259213  1.413285528358 -0.519011111667
O    1.708586741246  0.964286967315  4.949299224516 -1.601870031701 -0.479268798772 -0.871677505226
Zn  -1.726624053382  4.679288006662  5.553487494823  1.888558575707  0.273059383259  0.734266696544
Zn   0.095086301881  3.708551151710  2.767901839999 -0.567636071764 -0.053730399644  0.187914216749
O   -1.660319975558  4.591371371751  2.102733046302  0.900893978889  0.070509161764 -0.011030032562
O    0.017139186057  3.652074043425  4.933160442240 -0.507712141715  0.014658887564 -0.740594438534
Zn   3.249756389146  1.795265176717  5.520105331079  0.482851116807  0.818735405812  0.821116247339
Zn   4.863495902641  0.905637097079  2.651207455681 -1.835215384199  0.364978892378  1.526321764851
O    3.212506849763  1.856835075369  2.112436643361 -0.587886851593 -0.269725690900 -0.021694454254
O    4.760112322115  0.898308260433  4.875287243310  1.261210689905 -0.534019669261 -0.289127235355
Zn   1.584606349070  4.508071935890  5.540950805394  0.357623480454  0.793638610744  0.032414154665
Zn   3.192838847502  3.669739959652  2.796439876041 -0.051575043864 -0.143623108141  0.249793470752
O    1.657465788412  4.717045738381  2.022924476286 -0.459757725323 -2.038727712497  0.102137844413
O    3.291469711023  3.698621265234  4.935583784562 -1.678307386024 -0.798564073070 -1.100410555764