# total energy = -49061.71428588129 eV

CRYSTAL
PRIMVEC
5.753120944853822 0.0 0.0
-1.4382802362134555 2.4911761596939876 0.0
0.0 0.0 8.682431783224098
PRIMCOORD
16 1
Zn  -0.000000000000  1.660782764068  4.340537598653 -0.000000257110 -0.000000257110 -3.125935396417
Zn   1.438280236213  0.830391669690  2.169930515815  0.000000771331  0.000000514221 -3.125934367976
O   -0.000000000000  1.660782764068  1.650338548304 -0.000000257110 -0.000000257110  3.125935396417
O    1.438280236213  0.830391669690  3.820946206454 -0.000000257110 -0.000000257110  3.125934882196
Zn  -0.000000000000  1.660782764068  8.681752914953 -0.000000257110 -0.000000257110 -3.125935910637
Zn   1.438280236213  0.830391669690  6.511145256803 -0.000000257110 -0.000000000000 -3.125934367976
O   -0.000000000000  1.660782764068  5.991553864604 -0.000000257110 -0.000000257110  3.125935139307
O    1.438280236213  0.830391669690  8.162160947442  0.000000514221  0.000000257110  3.125936167748
Zn   2.876560472427  1.660782764068  4.340537598653 -0.000000000000 -0.000000000000 -3.125935653527
Zn   4.314840708640  0.830391669690  2.169930515815 -0.000000514221 -0.000000257110 -3.125934110865
O    2.876560472427  1.660782764068  1.650338548304  0.000000514221  0.000000257110  3.125934625086
O    4.314840708640  0.830391669690  3.820946206454  0.000000771331  0.000000514221  3.125934367976
Zn   2.876560472427  1.660782764068  8.681752914953  0.000000000000  0.000000000000 -3.125935910637
Zn   4.314840708640  0.830391669690  6.511145256803  0.000000000000  0.000000000000 -3.125934882196
O    2.876560472427  1.660782764068  5.991553864604 -0.000000257110 -0.000000000000  3.125935396417
O    4.314840708640  0.830391669690  8.162160947442 -0.000000000000 -0.000000000000  3.125935139307