# total energy = -49070.96173128034 eV

CRYSTAL
PRIMVEC
5.753120944853822 0.0 0.0
-2.876560472426911 4.982346566267031 0.0
0.0 0.0 4.895411155669344
PRIMCOORD
16 1
Zn   0.019880484737  1.598106538558  4.963384854945 -0.876945438493  1.113271470887 -0.941985349613
Zn   1.387163181306  0.856775482343  2.417085166918  1.167589624713  0.219160062137  0.794405313707
O   -0.038654069004  1.699801005628  1.830641934028  0.962750864295  0.454503676013 -0.728834469784
O    1.400448863504  0.713103943611  4.269552715875  0.459578776543  3.156279813037 -1.643705736789
Zn  -1.416397665388  4.123988400352  4.891457610956 -1.130053061221 -1.691555766393  3.527518313171
Zn  -0.049948596043  3.338287549474  2.505094685196  4.539616360441 -0.533437571505  1.126332160726
O   -1.374809504701  4.136655046736  1.930642106980 -3.420989538779  1.905311626796 -3.335768267616
O    0.016822700955  3.394712433765  4.300868103802  0.284315672899 -3.284421023492 -0.744983311630
Zn   2.817089310596  1.693313786450  4.889136801967  0.070079273316 -1.970524316047  1.844078748127
Zn   4.306413537080  0.884122942754  2.482134554817  1.228746655839 -2.669273793521 -0.073362314942
O    2.960403005205  1.722671962632  1.903790565594 -3.293984498811 -4.525289916516 -4.823947459958
O    4.279544161019  0.847693030307  4.208319373098  0.232786651782  0.063893713330  2.433043663276
Zn   1.472074643956  4.108844460089  4.879200586783 -0.307053480816  2.360075241338  2.087429805688
Zn   2.898285983051  3.221098777076  2.501253326341 -0.539044376169  5.701899485339  1.320552265088
O    1.524205398773  4.186092765640  1.815064783758 -0.864198166130 -0.552499987453 -0.141836448554
O    2.863700521179  3.312915135483  4.280752316418  1.486805194813  0.252606771831 -0.698937425115