# total energy = -73600.93702055005 eV

CRYSTAL
PRIMVEC
6.136662235341968 0.0 0.0
-1.534165558835492 2.6572545245121315 0.0
0.0 0.0 13.891887545242087
PRIMCOORD
24 1
Zn   0.006599366568  1.731600392933  4.755074964329  0.030575044573 -1.249931517446 -3.882266786070
Zn   1.652608662974  0.961150426947  2.334804834689 -3.181272735537 -0.483499291914 -6.458372028556
O   -0.108869911051  1.891609565056  1.873551209096  1.257109009032 -1.207213152642 -1.854393499789
O    1.412101210312  0.761342545563  3.903435115970 -1.864700795253 -0.764616512480  9.152792239436
Zn  -0.019777848718  1.893345013136  9.268120583762  0.023289052435 -2.384083174216  0.256933681341
Zn   1.483153326672  1.033042652366  6.981662828828 -3.148346931343  1.728996941959  1.939019303461
O   -0.250056712766  2.097644317610  6.411733210711 -0.814493085596 -3.705869825932  2.299868747051
O    1.556345297153  0.908038842632  8.863791864397  0.280590144418  2.712345427900 -0.137994191990
Zn  -0.354791740803  1.559231983068  13.879389618934  23.068471838294  11.252870072905  7.408335511279
Zn   1.564235817455  0.971966294137  11.497059403563  1.790662023069 -0.784781674574 -2.500398081461
O    0.041289304518  1.759449793490  11.172492565269 -1.869936075510  1.025283435612 -1.389855836580
O    1.454909338734  0.791771185257  13.193483834897  0.284641174559  0.310013077665  5.357159545716
Zn   3.004003555789  1.840313205431  4.483793991556  2.672868709961 -21.544914780673  2.664780019416
Zn   4.534725219778  0.966405864485  2.194842297090 -0.083794308909  1.808594696288  2.565969953824
O    2.961369708575  1.915124641076  1.932034213865  3.305561919236  0.224834486814 -3.830610495346
O    4.393953256430  0.582681602242  4.278106574084 -1.369237131888  23.040133139250 -4.273192223110
Zn   3.148342147228  1.982665972970  9.379124825938 -0.371254698084 -9.583289268121 -4.783136082369
Zn   4.607832504320  0.807634457135  7.007491426510 -0.950566406414  0.960896584695 -3.375536291542
O    2.851825378345  1.754641104962  6.341687506959  4.243273838284  1.123821221378  0.636188881133
O    4.691600398497  0.738378541812  8.752137136023 -0.221465570342  10.285584553964 -2.206555442908
Zn   3.085839015028  1.723268646616  13.739681139151 -5.414998825322  0.521208376429  1.861733485094
Zn   4.601943763239  0.895057347340  11.581197338474  0.529261842861  0.571451074635 -0.170161777861
O    3.188809752673  1.860647035748  10.965351986180 -0.458218920081 -1.854644182348  8.406548058815
O    4.574028086731  0.969094949877  13.455133316292 -17.738019369555 -12.003189452036 -7.686856946093