# total energy = -98151.4128009715 eV

CRYSTAL
PRIMVEC
6.520203525830115 0.0 0.0
-3.2601017629150575 5.646659258457025 0.0
0.0 0.0 10.258816505302319
PRIMCOORD
32 1
Zn   0.023596616560  2.085711392738  5.136110369855  1.123022379626 -4.126966901460  0.820891790033
Zn   1.506828815125  1.035002111222  2.489114428820  3.243296999758 -1.659650175934  0.571589399985
O    0.240013255928  1.972752126755  1.849393788168 -3.475070636894  1.805277458989  2.368377333445
O    1.692492914563  0.882477598224  4.275673667630 -0.018404470649 -0.026832032591  2.692056338633
Zn  -0.002247514155  1.973830568418  10.403969928215 -0.498263851818 -0.755427646892 -4.070677997060
Zn   1.569617071038  0.943305228937  7.650999815233  1.203151323868 -0.116710085800  0.773126349723
O    0.004571314692  1.790677399357  7.007550270185 -0.214869405182  0.271998031874  0.375219082049
O    1.610305749120  0.912182341447  9.734830129254  0.586548335287  0.954353384260 -1.169741380949
Zn  -1.738335813533  4.474629853977  5.207450524713 -0.414682944471  1.094977043453 -4.803425685856
Zn  -0.098476589912  3.851111919087  2.648642944446  0.000595210382 -0.670070107261 -1.638784645339
O   -1.618431878774  4.703693080104  1.807596023466 -0.894178514542 -0.968469254836  9.983522869936
O   -0.199282196523  3.667675121172  4.463707209030  1.418247757459  3.360079847778 -0.300158810579
Zn  -1.597511805762  4.848199698826  10.500768217739  0.299429388612  0.042870574111 -10.230054124997
Zn   0.072442721274  3.562952828303  7.718521738906 -0.133745444016  0.927173738521  1.058482805182
O   -1.632345993099  4.773419484589  6.834366492315  0.569373623280  0.516556222369  5.950883572817
O    0.200258923011  3.766604865229  9.766500713840 -1.845053967556 -0.147994754846 -1.390925158384
Zn   3.324649169739  2.002428181082  5.000827883061 -0.611000297682 -5.412763508234  2.212556911907
Zn   4.946395267966  0.811725565724  2.599425840152 -0.190978971717  1.629010596671 -0.370971362516
O    3.362007979881  1.974750569135  2.023754462775 -0.042099500273 -0.021713480418  0.033628486688
O    4.980234472245  1.322558735200  4.377184108242 -0.111123849962 -2.093449015299  0.549293564701
Zn   3.395386205771  1.924381996898  10.421091330653 -0.261804636280 -0.310136490617 -1.751626506433
Zn   4.751368808285  0.925953011293  7.888732955989  0.555667843658 -0.363311017757 -4.299731149941
O    3.446218364478  1.921660463947  7.112153895350 -2.090958130556  0.799402252701 -1.425490297954
O    4.910239435375  0.788683166464  9.542785358645  0.577987590201  0.728163411859  6.049451440490
Zn   1.519920079764  4.563897308429  5.066090556212  0.157951094728  0.688689522134  1.060385935742
Zn   3.313869969270  3.843394606193  2.681280475215  0.025298883776 -0.173249415648 -2.638137220017
O    1.415884364326  4.767333526618  1.950065730607  1.401204171713 -0.595433296482  0.966951018419
O    3.199413012537  3.590619355904  4.445939654422 -1.418861736894  5.285602402304  0.489389175036
Zn   1.825311416446  4.474798727248  10.419155482226 -1.346445073694  1.475107703871 -0.581407414516
Zn   3.284310626586  3.909637265934  7.593828062638  0.427564942640 -0.957326607956  0.675797496663
O    1.601525643052  4.636232446344  7.163602865311 -0.639202471148  0.325525057258 -2.063666384720
O    3.228967139059  3.874760045254  9.532416278978  2.617404358345 -1.505283970344  0.103194310702