# total energy = -73618.1082748056 eV

CRYSTAL
PRIMVEC
9.204993617601557 0.0 0.0
-3.0683281375359797 5.31450306512226 0.0
0.0 0.0 5.024729866040162
PRIMCOORD
24 1
Zn  -0.047585214506  1.759764654845  5.024510787192  0.800120876034  1.556666181470  1.237989257483
Zn   1.466479750698  0.838021698447  2.537790045891  0.892886535204  0.158095076505 -0.120077459611
O   -0.005708016542  1.783147179632  1.938074586212 -0.203126919934  0.154445395567 -0.511931836223
O    1.435734151516  0.919360704050  4.423265457573  1.572839191686 -0.394871823283 -0.187176567252
Zn  -1.510806397463  4.436106423670  5.002233782138  0.237197122144  0.960415274183  0.713597855340
Zn   0.038599299737  3.565328755434  2.534635494579 -0.278826110539 -0.501955698847  0.841104260425
O   -1.482974178761  4.395664284211  1.884310059490 -0.999696845392  0.147873912998  0.116095849255
O   -0.007065753101  3.571246645831  4.478025964604  0.383570025116 -0.670613638469 -1.139694440965
Zn   3.090043637979  1.709579950141  5.043570646977 -0.616844672278  0.190685094626 -0.080328976068
Zn   4.612542218336  0.890948570750  2.510754979636 -0.794659338699 -0.329336203474 -0.175628971624
O    3.057689926412  1.767412163542  1.896927344241 -0.415039556480  0.175822575692  0.390170561152
O    4.603594044040  0.838312576245  4.371921844173  0.447587151398  0.510326182299  0.463655517715
Zn   1.544041026920  4.405222749583  5.046543859915  0.205105126706 -0.032871811027 -0.615684847642
Zn   3.050450198932  3.589547093642  2.561991815111 -0.654046735250 -0.677326274603 -0.121790585647
O    1.474049937449  4.442014188573  1.830584193741  1.169885619836  0.252160428322  1.288093373228
O    3.055662986818  3.515867563229  4.449797010677  1.005861065221  0.069562738690 -0.250359370558
Zn   6.109171084629  1.803492977025  5.028300483064  0.140283502245 -0.503011650915  0.369142279727
Zn   7.701378161152  0.859380045138  2.523334523914 -0.265665404787  0.055368963689  0.383326284537
O    6.124586687441  1.791925061546  1.993096515061  0.651188696976 -2.066339303566 -1.756820649039
O    7.723078933606  0.890375099647  4.463405673241 -2.295249246001  0.086460028666 -1.072766825905
Zn   4.675357094782  4.476152748403  5.032345157260 -0.929191797393 -1.071894193492  0.080855795106
Zn   6.158669096809  3.457701208559  2.489277888528 -0.030675831817  2.809814663192  0.832999371930
O    4.557824974775  4.416837610530  1.889316655518  0.936626913515 -0.068666709239  0.227430529676
O    6.198095004973  3.579535742584  4.445327065776 -0.960129624622 -0.810809208986 -0.912200405041