# total energy = -73612.44764232352 eV

CRYSTAL
PRIMVEC
6.648050622659499 0.0 0.0
-1.6620126556648747 2.8786923442696573 0.0
0.0 0.0 17.29096804888007
PRIMCOORD
24 1
Zn  -0.075309117453  2.002533121413  5.812550212606  0.586672776680 -0.824807837258  0.380892221174
Zn   1.508497200297  0.960144711178  2.950075123025  0.607516195788  0.689443883802 -1.036407313439
O    0.128228930020  2.176225410421  1.994951684483 -0.749258541967 -1.414204183517  1.758365624929
O    1.652981943699  0.902040083930  5.187112911712 -0.112126065974  1.109911810386 -0.349191547637
Zn   0.101321609930  1.818816901676  11.649055346021  0.409225263791  0.507246514932 -0.045983922929
Zn   1.766260737479  0.983303860327  8.545858332224 -1.528208954571 -1.632137058115  0.881809194344
O    0.172260298904  1.766251430208  7.936762604566 -1.807713836345  0.478214389366  0.067920832212
O    1.608781049524  0.785157381908  10.918106168890  0.695008779484  0.553564938383  0.115118830054
Zn  -0.092337434318  1.766133759712  17.259847194305  4.757289810730  3.571734088456  2.094590327992
Zn   1.790542077573  0.963634272949  14.414061371008 -0.637593474790  0.124900334921  0.958226751172
O    0.063359911264  2.005517431338  13.755045431224  0.217616114689 -0.712562472097 -0.546292315981
O    1.467169593601  0.893016020015  16.648551626696  2.008070392622  0.235211202063 -0.806138800094
Zn   3.312372608198  2.056022671918  5.818704313068 -0.375094383545 -0.930742943930 -0.062543627060
Zn   5.053153362056  0.901350016276  3.036547647084 -0.731943704837 -0.111563508602 -1.383489528042
O    3.214993292288  1.924622621751  2.137212654952  0.950035216501  0.623609501806  1.006142601017
O    4.934802770456  0.983967335779  5.101526572801  0.139967256556  0.305646830276  0.175566236707
Zn   3.506602719995  1.931636979963  11.445698125524 -1.374254125487 -0.343366713425  0.310645826153
Zn   5.036730017797  1.045310228484  8.867876608284  0.185213529988 -0.268789809349 -0.996483480661
O    3.288018139547  1.772821698638  8.122311691859  2.854388850258  1.654083223369 -0.614386183435
O    5.020496142982  0.936866561922  10.881179571706  0.318999083214 -0.401537922449 -0.015426361857
Zn   3.343582546651  2.003275043863  17.326015242153 -0.288214236622 -0.385173107937  0.219625431809
Zn   5.140499439967  1.000840753064  14.298123356979 -0.190543683952 -0.459068412565  0.787265103118
O    3.425656055614  1.854870609813  13.951225416268  0.339651469357  0.824206456229 -0.864972325292
O    5.190175668634  1.035975700605  16.709717016450 -6.274703988678 -3.193819204743 -2.034854088474