# total energy = -49078.30543193695 eV

CRYSTAL
PRIMVEC
6.648050622659499 0.0 0.0
-3.3240253113297493 5.7573780404886925 0.0
0.0 0.0 5.33671598928929
PRIMCOORD
16 1
Zn   0.130261239095  1.793736465897  5.282108236670 -1.657784840590  1.593257093221  0.734079263123
Zn   1.670487590599  0.965708464744  2.674007508064 -0.223998621176 -0.350318976373 -0.408723127343
O   -0.012680491758  1.998203910848  1.940821261898  0.230505826167 -1.030801537216  0.771037585515
O    1.575520852259  0.829045817704  4.771631021558  1.874461731294  1.172865528400 -1.564454824277
Zn  -1.692518565557  4.817718632500  5.278520948554  0.975680942093 -1.285854456595  0.970873236292
Zn   0.062199826431  3.852054044890  2.636751167569 -0.591813440341 -0.238540009326  0.267037345434
O   -1.597912151561  4.678232558360  1.973465849676 -0.724829976611  0.964628798044  0.440029650766
O   -0.026404727463  3.825007780542  4.697805749004  0.615524153694 -0.167372130931 -0.183193414234
Zn   3.439889531997  1.910158458011  5.278899887439 -0.822120006013  0.557265527163  0.694592260772
Zn   4.979276899511  0.993515266083  2.691830266978  0.168615516420  0.066267098658 -0.312235796348
O    3.283244839200  1.936529945221  2.000830555649  0.129690043000 -0.168358148994  0.261253134652
O    4.999108034519  0.995696491492  4.780216978937  0.361849088500 -0.767142621336 -0.892818658080
Zn   1.626118500743  4.758462562885  5.325075252649  0.012716676236  0.031041442687  0.178916898346
Zn   3.324848339997  3.842393097725  2.719629090657  0.260391300873  0.134130852380 -0.665442121571
O    1.630365940286  4.809181205890  2.070082634180  0.830106880873  0.408165712178 -0.310534754496
O    3.413726793576  3.893318495105  4.681432265125 -1.438995274419 -0.919233914849  0.019583321449