# total energy = -49079.557748394756 eV

CRYSTAL
PRIMVEC
6.392356429000733 0.0 0.0
-1.5980891072501833 2.7679734343908944 0.0
0.0 0.0 9.647146159598607
PRIMCOORD
16 1
Zn  -0.000000000000  1.845314131377  4.822819420976 -0.000000000000 -0.000000000000 -1.013684160810
Zn   1.598089107250  0.922657385307  2.411033839930  0.000000000000  0.000000000000 -1.013683903700
O   -0.000000000000  1.845314131377  1.833709447516  0.000000514221  0.000000257110  1.013684675030
O    1.598089107250  0.922657385307  4.245495667798 -0.000000514221 -0.000000257110  1.013683646589
Zn  -0.000000000000  1.845314131377  9.646391861540 -0.000000000000 -0.000000000000 -1.013683132369
Zn   1.598089107250  0.922657385307  7.234605641258  0.000000000000  0.000000000000 -1.013683646589
O   -0.000000000000  1.845314131377  6.657281888080 -0.000000257110 -0.000000257110  1.013683646589
O    1.598089107250  0.922657385307  9.069067469126  0.000000771331  0.000000514221  1.013682618148
Zn   3.196178214500  1.845314131377  4.822819420976  0.000000000000  0.000000000000 -1.013684160810
Zn   4.794267321751  0.922657385307  2.411033839930  0.000000000000  0.000000000000 -1.013683389479
O    3.196178214500  1.845314131377  1.833709447516 -0.000000514221 -0.000000257110  1.013683389479
O    4.794267321751  0.922657385307  4.245495667798  0.000000000000  0.000000000000  1.013684417920
Zn   3.196178214500  1.845314131377  9.646391861540  0.000000000000  0.000000000000 -1.013682875258
Zn   4.794267321751  0.922657385307  7.234605641258  0.000000257110  0.000000000000 -1.013683389479
O    3.196178214500  1.845314131377  6.657281888080 -0.000000000000 -0.000000000000  1.013683389479
O    4.794267321751  0.922657385307  9.069067469126 -0.000000514221 -0.000000257110  1.013682618148