# total energy = -24537.533998362967 eV

CRYSTAL
PRIMVEC
3.13225493067428 0.0 0.0
-1.56612746533714 2.7126110763371933 0.0
0.0 0.0 9.05189412739081
PRIMCOORD
8 1
Zn   0.039534068833  1.772934283909  4.547491652785 -0.252970325818  0.682976788020 -3.060142666292
Zn   1.538753123371  0.915858186258  2.274865607530 -0.075086753833 -0.027567625206 -2.106838806342
O   -0.029028485796  1.821996359016  1.662291450415 -0.115374654818 -0.208894161435  6.243152182014
O    1.595719130569  0.937235199709  4.050271867031  0.231060927340 -0.762532119147  1.214929804560
Zn   0.006791668366  1.844344371495  9.056686790660 -0.447010452959 -1.974834770497 -4.963156241082
Zn   1.474035724895  0.935280046182  6.720494763842  1.923327603757 -0.555321516063  0.713833368390
O    0.028096953179  1.831125002786  6.271547411727 -1.928653643956  0.696240337899  2.619984203257
O    1.490762279450  0.816333918091  8.577704246014  0.664707043177  2.149932809318 -0.661762358726