# total energy = -49075.361778173225 eV

CRYSTAL
PRIMVEC
5.880968041683205 0.0 0.0
-2.9404840208416023 5.093065348298698 0.0
0.0 0.0 4.909779098311598
PRIMCOORD
16 1
Zn  -0.000000000000  1.697689037530  4.909014572466 -0.000000000000  0.000001285552  0.928301167258
Zn   1.470242010421  0.848844812813  2.454124435214 -0.000001028441 -0.000000514221  0.928301167258
O   -0.000000000000  1.697689037530  1.866482229875  0.000000000000 -0.000004113765 -0.928302195699
O    1.470242010421  0.848844812813  4.321372955224 -0.000002571103 -0.000001542662 -0.928300910147
Zn  -1.470242010421  4.244222887873  4.909014572466  0.000001028441 -0.000000771331  0.928301167258
Zn   0.000000000000  3.395378663156  2.454124435214  0.000000000000  0.000000000000  0.928298339044
O   -1.470242010421  4.244222887873  1.866482229875 -0.000003599544  0.000002056883 -0.928302195699
O    0.000000000000  3.395378663156  4.321372955224  0.000000000000  0.000000000000 -0.928297310603
Zn   2.940484020842  1.697689037530  4.909014572466  0.000000000000  0.000000000000  0.928299367485
Zn   4.410726031262  0.848844812813  2.454124435214  0.000001028441 -0.000000514221  0.928301167258
O    2.940484020842  1.697689037530  1.866482229875  0.000000000000  0.000000000000 -0.928297824824
O    4.410726031262  0.848844812813  4.321372955224  0.000002571103 -0.000001542662 -0.928300910147
Zn   1.470242010421  4.244222887873  4.909014572466 -0.000001028441 -0.000000771331  0.928301167258
Zn   2.940484020842  3.395378663156  2.454124435214  0.000000000000  0.000001028441  0.928301167258
O    1.470242010421  4.244222887873  1.866482229875  0.000003599544  0.000002056883 -0.928302195699
O    2.940484020842  3.395378663156  4.321372955224  0.000000000000  0.000003085324 -0.928300910147