# total energy = -73606.28669807232 eV

CRYSTAL
PRIMVEC
6.392356429000733 0.0 0.0
-1.5980891072501833 2.7679734343908944 0.0
0.0 0.0 13.854940348414056
PRIMCOORD
24 1
Zn  -0.054335029647  1.974829664985  4.514948832936 -1.169299922536  0.199159964866  0.775704137753
Zn   1.700642320676  0.895269334186  2.222009303382 -1.203936281663  3.903620569155  1.814386363269
O    0.134331534942  2.050536899117  1.744263760948 -0.503426369855 -4.966481448800  1.150342921818
O    1.512480113010  1.120292425965  4.137733323118  0.371822911883 -1.359987331155 -1.210069648255
Zn   0.062282646395  1.854558757245  9.159029018858 -2.294742995789  0.656861578991  0.317886309765
Zn   1.662109835358  0.789304520134  7.015484612171  4.127717406472  0.770326161270 -18.641616606308
O    0.087684592372  1.883993640894  6.390119743486 -0.578737580994 -1.621158447617 -1.147711911953
O    1.323346267167  0.868569100618  8.427604729246 -1.497527723437  0.490593736867  19.551573209620
Zn  -0.072279013378  1.869546915364  13.851025669337 -0.216330563108 -0.804679441939 -2.535098718167
Zn   1.694616246271  0.891919739418  11.605940598482 -1.019514394338  0.128016254842 -2.919712354056
O   -0.026453488610  1.879689028074  11.015547033349 -0.036019098407 -0.833267795100  0.879816075173
O    1.505927947671  0.905541211732  13.336644253737 -0.125643897955  0.316109163260  2.862870148256
Zn   3.181117183518  1.758693227115  4.596296043144  0.816699863439  0.170209600380  0.662290977536
Zn   4.822595688501  1.020730835347  2.264054388558  2.245629011871 -0.811044464925 -1.483343975738
O    3.282749258383  1.747739924374  1.793675397673 -0.547525417057  1.211934212267  2.065245813392
O    4.777510398608  0.812357275124  3.992983525668  0.357264297342  0.596146520499  2.679061983256
Zn   3.154583790453  1.857084377270  9.308227257147  0.518805937635  0.129463014591 -3.302584067554
Zn   4.742216281056  0.819253349240  6.854899669376  0.103529325444  10.333987627858 -3.598907049327
O    3.179212900538  2.078004215456  6.496814564643  0.365979051508 -11.250698776285 -3.522201014723
O    4.769228461618  0.909411783550  8.498173787280 -0.750245074250  0.522000019092  8.306992630418
Zn   3.233598429800  1.986901630102  13.949981903800  0.314229943960 -15.786817922206  5.006557747996
Zn   4.714788597326  0.833939148900  11.673651633956  0.764990865100  3.059909210125 -6.348821950839
O    3.217161124479  1.872046326728  11.080398767792  0.204847502169 -1.218337544690  0.452322094980
O    4.761375451745  0.507657295872  13.276028094663 -0.248567825875  16.164135024434 -1.814982344982