# total energy = -24538.072733422447 eV

CRYSTAL
PRIMVEC
6.136662235341968 0.0 0.0
-1.534165558835492 2.6572545245121315 0.0
0.0 0.0 4.630627136193284
PRIMCOORD
8 1
Zn  -0.000000000000  1.771501584454  4.629906692047 -0.000000257110 -0.000000000000 -1.666165608455
Zn   1.534165558835  0.885751099060  2.314592510284 -0.000000771331 -0.000000514221 -1.666167408227
O   -0.000000000000  1.771501584454  1.760361087832  0.000000257110  0.000000000000  1.666167151117
O    1.534165558835  0.885751099060  4.075675883261 -0.000000000000 -0.000000000000  1.666167665337
Zn   3.068331117671  1.771501584454  4.629906692047 -0.000000257110 -0.000000257110 -1.666165608455
Zn   4.602496676506  0.885751099060  2.314592510284  0.000001028441  0.000000514221 -1.666169207999
O    3.068331117671  1.771501584454  1.760361087832 -0.000000257110 -0.000000257110  1.666165865565
O    4.602496676506  0.885751099060  4.075675883261  0.000000257110  0.000000257110  1.666167665337