# total energy = -49074.35339803002 eV

CRYSTAL
PRIMVEC
6.903745345495471 0.0 0.0
-3.4518726727477356 5.978816062832716 0.0
0.0 0.0 5.541974672351144
PRIMCOORD
16 1
Zn   0.242322842376  2.138696082341  5.379487431525 -0.364944182485 -0.451772907345  0.634017070292
Zn   1.831654769599  1.219351239288  2.705717256556  0.245601029937 -0.431523413067  0.164828281464
O    0.244797835082  2.147904297883  2.010925705734 -0.930436725543 -0.385723581124  0.009722112384
O    1.796939976503  1.069572412894  4.724196350072 -0.254498846648 -0.215040640652  0.892659249684
Zn  -1.653393851407  4.989575630779  5.399258377445 -0.762127427510  0.292186076786  0.433724534484
Zn  -0.041792512823  3.938532180017  2.816667348003  0.733926539595  0.974241381433 -0.287620054682
O   -1.693176683960  5.170504156172  2.187131378936  0.465100220581 -0.297203327495 -0.278074834195
O   -0.092229205194  3.985994048518  4.935540706334  0.099756488665 -0.105234223950 -0.716885524953
Zn   3.407778451226  1.924720018354  5.655200928639  0.655983290151  0.481287371864 -0.619718651392
Zn   5.200092227973  1.207324914897  2.638337392358  0.703952104720 -1.400120194620  0.882485394475
O    3.654165528487  2.182932521017  2.223007381999 -0.952024221906 -0.061140576065 -0.944076942035
O    5.085863547861  0.837826108388  4.841465439634 -0.063564097905  1.237683553317  0.152374886192
Zn   1.858154796107  4.997520460922  5.478213061089 -2.639680139024  1.975746226568  0.931533043931
Zn   3.585139121025  4.221682391617  2.652751722265 -1.008012564346 -0.188985852547  0.021955421225
O    1.750515740927  4.886511687639  2.248132182434  0.054097038955  0.815976355009 -0.364653647828
O    3.201582908243  4.010053601047  5.075813765762  4.016871749873 -2.240375991002 -0.912270596157