# total energy = -73615.10753210276 eV

CRYSTAL
PRIMVEC
10.163846843821924 0.0 0.0
-1.6939778619192687 2.934048487640294 0.0
0.0 0.0 11.313845458812999
PRIMCOORD
24 1
Zn  -0.000000000000  1.956033341478  5.656038474731 -0.000009255971 -0.000005399317 -0.016067594986
Zn   1.693974812765  0.978016162547  2.827578126413  0.000000514221  0.000000257110 -0.016142671198
O   -0.000000000000  1.956033341478  2.150512452527  0.000002571103  0.000001542662  0.016043683726
O    1.693974812765  0.978016162547  4.978972800845  0.000002313993  0.000001285552  0.016074022744
Zn  -0.000000000000  1.956033341478  11.312960187753 -0.000007713309 -0.000004370875 -0.016061681449
Zn   1.693974812765  0.978016162547  8.484498823050 -0.000004113765 -0.000002313993 -0.016002803186
O   -0.000000000000  1.956033341478  7.807433149164  0.000002828213  0.000001542662  0.016099990886
O    1.693974812765  0.978016162547  10.635893497482 -0.000001285552 -0.000000771331  0.016069394758
Zn   3.387948609146  1.956033341478  5.656038474731  0.000006427758  0.000003599544 -0.016075565406
Zn   5.081923421911  0.978016162547  2.827578126413  0.000004113765  0.000002313993 -0.016144728081
O    3.387948609146  1.956033341478  2.150512452527 -0.000006170648 -0.000003599544  0.016049083043
O    5.081923421911  0.978016162547  4.978972800845 -0.000001542662 -0.000001028441  0.016064252552
Zn   3.387948609146  1.956033341478  11.312960187753  0.000006427758  0.000003599544 -0.016054996580
Zn   5.081923421911  0.978016162547  8.484498823050  0.000008998861  0.000005142206 -0.016003831627
O    3.387948609146  1.956033341478  7.807433149164 -0.000005142206 -0.000002828213  0.016099219555
O    5.081923421911  0.978016162547  10.635893497482 -0.000000000000 -0.000000000000  0.016061681449
Zn   6.775898234676  1.956033341478  5.656038474731  0.000002313993  0.000001285552 -0.016067337876
Zn   8.469872031057  0.978016162547  2.827578126413 -0.000007713309 -0.000004370875 -0.016150384508
O    6.775898234676  1.956033341478  2.150512452527 -0.000002313993 -0.000001285552  0.016045740609
O    8.469872031057  0.978016162547  4.978972800845  0.000002828213  0.000001542662  0.016065538103
Zn   6.775898234676  1.956033341478  11.312960187753  0.000003856655  0.000002313993 -0.016054225249
Zn   8.469872031057  0.978016162547  8.484498823050 -0.000002313993 -0.000001285552 -0.016007945392
O    6.775898234676  1.956033341478  7.807433149164 -0.000001285552 -0.000000771331  0.016095877121
O    8.469872031057  0.978016162547  10.635893497482  0.000005913537  0.000003342434  0.016065280993