# total energy = -36800.8447545966 eV

CRYSTAL
PRIMVEC
3.004407833844898 0.0 0.0
-1.502203916922449 2.601892294305528 0.0
0.0 0.0 13.02364528091122
PRIMCOORD
12 1
Zn  -0.070056781870  1.647814645675  4.330811530337 -0.299052464888  1.652209403385 -1.965789629576
Zn   1.467744861272  0.886620580859  2.167600334871  4.177377235591 -2.389269089293 -2.068456864130
O    0.140294429091  1.679423119173  1.580308606057 -3.373574025610  2.403062543532  2.937431368603
O    1.430948075886  0.884384400109  3.882636502743  0.241472866702 -1.920617918135  1.868716601280
Zn   0.045841855610  1.743002097312  8.692228662837  0.013812223293  0.223889092182 -2.551130831929
Zn   1.491451742167  0.860231364651  6.545014436882  0.533593637467 -0.073105718847 -3.477387972173
O    0.026581798751  1.729514108783  6.044873969630 -0.516244604666  0.284469939088  2.295778636142
O    1.545479407361  0.866619336587  8.230116487742  0.207532248090  0.089397256918  3.150108908339
Zn  -0.172029087717  1.691657368313  12.933313853656  5.813127722090  3.005498496584 -0.817822664189
Zn   1.524415804479  0.796692645577  10.841324248977 -0.657188880423 -1.063298224293 -2.302774350734
O    0.012500740115  1.604794830343  10.391943852960  0.322350516184  0.830366305182  2.296343764617
O    1.603368938385  0.783859918396  12.552214033598 -6.463206473830 -3.042602343415  0.634982776640