# total energy = -73563.05210605956 eV

CRYSTAL
PRIMVEC
5.753120944853822 0.0 0.0
-1.4382802362134555 2.4911761596939876 0.0
0.0 0.0 12.469446657657905
PRIMCOORD
24 1
Zn  -0.101183014618  1.616935928099  4.070161625480  1.415395118501  2.368956602988 -5.160519004838
Zn   1.366324801932  1.014271195393  2.206329361409  2.860274619615 -0.460661725194 -8.636248358362
O    0.071075782089  1.842556072193  1.547251250654 -4.018197153552  2.657200407296  6.519332113179
O    1.460183518275  0.927036622506  3.754518946089  0.227081888087 -2.707825428542  7.440880020874
Zn   0.045134959749  1.827266002658  8.436107307473  0.456125527887  2.053870995896 -23.120574472526
Zn   1.316449845837  0.555319999202  6.435892708908 -4.108964294235  9.907653729412  1.819494116809
O    0.092140834429  1.804468685602  5.641594394089  1.504321863541 -11.988262912633  1.732499555795
O    1.635092202489  0.961492063845  7.999787163143 -7.046573583176 -1.822918311999  2.014739577112
Zn   0.170618006613  1.513867040435  12.452776989720 -16.399916754288  5.566249110991 -2.464592384616
Zn   1.366299488200  0.864315522653  10.460251437297  1.721193386754 -2.138475459411 -4.089558636015
O   -0.028242070718  1.535731776586  9.807949927704  5.457011422309 -0.633168606249  18.845085997183
O    1.394616924802  0.810435819069  12.092921575868  7.595216401667 -11.849271903948 -1.838990534971
Zn   2.911391017251  1.702439386893  4.209755927398  2.669585154114 -3.033594740600 -14.677287149309
Zn   4.240871106716  0.808786399294  2.042928645021  0.288521740560  6.609054357537 -2.381837572715
O    3.000548858470  1.874126898690  1.388161347790  2.731338424062 -0.382010908159  19.143219806912
O    4.294143856041  0.777324306783  3.687825891536 -2.317380530683  1.484876353222  1.242375045255
Zn   2.899896281603  1.871422356534  7.971010627489  8.108268467537 -20.470931308752  5.774765063151
Zn   4.040804599923  0.586639989626  6.119128170932  0.264749577841  17.509198644400  4.333880285019
O    2.737302728084  1.697369736717  5.673960301901 -0.195888493204 -15.567378638266  11.869581819150
O    4.295193800614  0.762715982079  7.911380104208  1.458242809795  27.489977890153 -1.346948752804
Zn   2.793818511686  1.464036383371  12.504188604420  1.284074224766 -1.814560426953 -17.954011318377
Zn   4.384479936429  1.072619923328  10.386595380464 -7.478014463832 -3.377639968149 -3.415639587321
O    2.807991325134  1.631618468062  10.044774274838  0.078874245899  2.517689007331 -3.238799368998
O    4.202967819995  0.737573692926  11.921211626899  3.444660657144 -1.918027531700  7.589153740413