# total energy = -110414.40697289028 eV

CRYSTAL
PRIMVEC
9.204993617601557 0.0 0.0
-1.5341686712647988 2.65725153256113 0.0
0.0 0.0 14.778608048065683
PRIMCOORD
36 1
Zn   0.088205930841  1.812639979183  4.812128571950 -2.049986573240  1.718978124270  1.151722318664
Zn   1.522024523185  0.826571606886  2.299410167175 -1.034504439989  0.146370331869  0.940504908413
O   -0.076557011418  1.722440246724  1.860289628645  1.194396460494 -0.317552323465 -1.820922621725
O    1.407617498511  0.905974802331  4.258764857632  3.096785000105 -1.567281495092 -1.029952558953
Zn  -0.139571636226  1.901518795058  9.671990558803  0.612133382845 -0.064776887266  1.918015447515
Zn   1.600747469602  0.845359919359  7.506150372016  0.316577618256  0.824548670059 -2.708998622915
O   -0.056689873693  1.782919816290  6.701927569134  1.174325657886  0.276052661559  1.595120885902
O    1.421497708387  1.001520795083  9.379521217091 -2.941694000534 -1.747602472875 -2.002879335339
Zn   0.161393914595  1.944019171090  14.586451044800 -2.061159816248 -3.807377492960  2.590181003853
Zn   1.625787813740  0.783404789316  12.315400542462  0.553262833761  5.564509759703  0.735367642917
O    0.064961480958  1.925987509092  11.656612036241  0.498824095196 -5.240564131117 -2.657616668898
O    1.586247763655  0.919303633089  14.137072461382 -0.800809417461  2.295255673759 -0.308238245153
Zn   3.056978380405  1.782712703934  4.820418589202  0.035781014254 -6.963517180875  1.881304208137
Zn   4.654135902496  0.952312740202  2.580645734677 -1.641500758718 -0.781499918499 -1.026109273947
O    2.984263533323  1.729412108890  1.937071241907  2.043289363725  1.352101757759 -1.065478519773
O    4.569076238473  0.668856007740  4.373585186520  0.433505733605  7.632836011792 -1.134419565719
Zn   2.747657456877  1.871536289847  9.806440536581  5.479771084603  1.424220687213  3.275484897345
Zn   4.672066309564  1.055157372393  7.500685367305 -0.607195836334 -1.638274538472 -0.443809943744
O    3.194130023810  1.805198662343  6.706174753189 -2.045116903852  0.065274395728  1.812133562679
O    4.729724548586  0.857071432739  9.351900713242 -1.389259340646  0.977859180691 -0.782470767053
Zn   3.091090245754  1.905915100010  14.690950734844 -2.374884538436  1.709140569354  3.281743219550
Zn   4.817075335520  0.945733010764  12.364731023758 -14.935222532442 -11.426321320151  5.652409349029
O    3.270820507635  1.597435512898  11.790310886539 -2.905243471016  1.681403765561 -1.926138333733
O    4.321163668367  0.914149757163  14.172052357629  3.907441999784 -1.401350981703 -0.902273632846
Zn   6.226784208581  1.740478352217  4.950685817880 -1.314903551443  0.100338072200 -3.956860916537
Zn   7.609839102122  1.111475364345  2.539488367214 -1.043751669619 -1.338274107848 -0.678153141380
O    6.049107580775  1.622386568598  1.697320739641  1.020079522813  0.269624903656  3.854318380486
O    7.699807789241  0.921583710008  4.375595557126  0.300078849270 -1.388992203028 -0.797945208539
Zn   6.048498210197  1.818660045009  10.057172596233  1.242653495728  0.856025143401 -0.413273722828
Zn   7.736529270280  0.818834809751  7.430205492673 -0.922207909876  0.483909382868 -2.387763708392
O    6.020502142609  1.851368148831  6.604203674892  1.282731080475  0.009716455957  4.901507615032
O    7.683898798772  0.946117779497  9.194408795441 -2.488682078576 -1.404020043895  2.224763995496
Zn   5.931232114505  1.972496659845  14.818979309074 -1.239577942126 -10.054302511753  0.249808383151
Zn   7.807162868305  1.038455831974  12.192417225234 -1.365466866212 -1.366699710178  2.392431031961
O    5.992348669629  1.673107924430  11.953783288694  17.830278007181  10.903529401285 -6.437256586734
O    7.713458794776  0.745936783295  14.348245140463  2.139252961007  12.216711599161 -5.976255475922