# total energy = -73592.34857200993 eV

CRYSTAL
PRIMVEC
9.013222972357486 0.0 0.0
-1.5022068331339051 2.6018921415452976 0.0
0.0 0.0 8.87537474021825
PRIMCOORD
24 1
Zn   0.157187904671  1.737814284276  4.406627803746 -3.153356211632 -1.670398158479 -2.095534951294
Zn   1.694028948399  0.722010535457  2.027949931756  0.336695214942 -0.421648577156  2.316021702662
O    0.143641931866  1.520737118243  1.690837366144 -0.769829424140 -0.350454730620  3.636797396614
O    1.523113003818  0.800394029036  4.247470509856 -1.619296454707 -0.617184315006 -5.109029578710
Zn  -0.157515985987  1.823520120198  8.910024273291  0.535189264089  0.124431365704 -4.021168834586
Zn   1.478350634571  0.824646809410  6.652752712094  0.135157750982  1.446273296137 -0.681818506046
O   -0.096459512250  1.715639953119  6.170124365560  10.919808598061  6.379791916858 -1.443520930203
O    1.715256891143  0.939704205941  8.382587590072 -3.433019987581 -1.079868212836  1.281207701852
Zn   3.011402519361  1.525884569882  4.529587092858  2.707044070291  3.450491662003 -34.394667202256
Zn   4.508157253919  0.812426681704  2.025133299577 -0.047264589414 -1.576985095533  2.987501031566
O    3.105905260903  1.699740627796  1.498577208243 -1.627773124720 -1.659702112218  16.668843346326
O    4.514949618750  1.012731141108  3.846661497498  0.051733166708 -3.484277757315 -2.079576113971
Zn   3.091821198687  1.885221940700  8.900039424882 -1.086041174416  2.570985404761 -15.605053012888
Zn   4.736398197925  0.786999478377  6.535731334277 -9.342703946231 -7.279333752595  2.129504109150
O    3.001478059546  1.532829258182  5.873057549614  1.130495033854  1.837819911701  37.701973872097
O    4.463014526661  0.955938823159  8.445407050223  0.005253277979 -1.267169478591 -3.941377990410
Zn   5.850402813673  1.838587525041  4.527669980331  2.205902639816 -4.274511456142 -0.031091836309
Zn   7.463333485733  0.869173032216  2.234717773353  0.078848277757  1.061130012997  0.883300691288
O    5.931975185540  1.757588394155  1.681501469789  2.994332195555  0.328257111477  6.174308323767
O    7.554403991968  0.795709857057  4.080422139253  0.181890122042  6.217051885382 -1.776941073938
Zn   5.882893679844  1.772292566112  8.937647999057  3.468180337532 -0.709738886606 -6.097803092321
Zn   7.719502802442  0.898886023066  6.541503402268 -11.388683455194 -6.800598457729  1.464502160441
O    5.948599173990  1.705948034457  6.309250672716  8.457928470170  4.925814052988 -0.447793353872
O    7.527715838747  0.758423054943  8.274327966307 -0.740490565966  2.849825142147  2.481415883931