# total energy = -24540.006673276985 eV

CRYSTAL
PRIMVEC
6.392356429000733 0.0 0.0
-1.5980891072501833 2.7679734343908944 0.0
0.0 0.0 5.028828448556303
PRIMCOORD
8 1
Zn  -0.054772266826  1.867947547786  5.095199646123  0.418185815418 -0.236593170012 -0.789879915033
Zn   1.560379318204  0.875232492960  2.549816372653  0.803793696900 -0.050297462703 -0.191447426713
O    0.088048317453  1.828285533086  1.944547794110 -1.279264976303 -0.078395506491  0.064395592667
O    1.582448289540  0.899075982440  4.427475827561 -0.129509294447  0.349007713761  0.736332320823
Zn   3.203103054220  1.855320726131  5.001738920481 -0.484477082446 -0.128019340165 -0.245885136837
Zn   4.771286800388  0.884907324415  2.458681186281  0.203003249872  0.303067242475  0.202963140662
O    3.174111160872  1.827760081388  1.886246307299  0.188448234876 -0.117729013983  0.360485118273
O    4.771190915042  0.930310953659  4.416769269778  0.279820099021 -0.041040205771 -0.136963436733