# total energy = -36809.06556536769 eV

CRYSTAL
PRIMVEC
9.396764262845632 0.0 0.0
-1.5661305093956932 2.712610923576963 0.0
0.0 0.0 5.330558843970019
PRIMCOORD
12 1
Zn  -0.002684655550  1.836774234341  5.437494960958 -1.292619286123  0.839111912585 -0.024578974891
Zn   1.597601212588  0.919985506772  2.629816033657 -0.191375950045  0.102426836408  0.534270608930
O   -0.078674408791  1.786317368956  2.017013569667  1.144928178560  0.677288993607  0.488297998854
O    1.401531148509  0.985865281342  4.678766386024  2.570468870136 -0.696252422083 -0.748395422636
Zn   3.112737361682  1.781836052079  5.343691761704  0.199765459661 -0.510800036611  0.112445139876
Zn   4.785678071425  0.793007970964  2.707131670335  0.145650165873  1.681120172882  0.549542190377
O    3.300360674366  1.841463219708  2.059419287432 -1.347121273826 -2.232942931763 -1.296261510861
O    4.847318965636  0.837116382414  4.650322380600 -2.365827570440 -0.802642356905 -0.236378482898
Zn   6.139252833518  1.853162191216  5.349001873189  1.939623769814 -0.449030311603  1.178849513898
Zn   7.767118204768  0.952802766283  2.722296168503 -0.375253534831 -0.136449730321  0.662631648705
O    6.201371083354  1.883779668213  1.992224905542  0.474004722160 -0.205303872980  0.434576083851
O    7.899000851521  0.845478562932  4.830014824246 -0.902244065159  1.733473746783 -1.654998536094