# total energy = -36806.94434765357 eV

CRYSTAL
PRIMVEC
9.588534908089704 0.0 0.0
-1.5980923475265867 2.7679703145927954 0.0
0.0 0.0 5.439345728521495
PRIMCOORD
12 1
Zn   0.062341777412  1.795252761160  5.365778653293  1.410176036194  0.668060533030  0.383793453981
Zn   1.533433021227  0.801057848387  2.746791158688  1.786463154496  0.519610435814  0.731781725338
O    0.127161232244  1.792349352790  2.070976835563 -1.810199321771 -0.273730698294 -0.382807435919
O    1.818662210285  0.947901466237  4.790981463132 -2.034312357038 -1.162218590210 -0.623953258298
Zn   3.159891131573  1.938508349248  5.622046631514  0.930887954148 -0.209890463910 -1.917695602282
Zn   4.907633661117  0.922131319818  2.522478890755 -7.024866530516 -1.876894766216  3.402168292308
O    3.136988915945  2.024123418588  1.989717837631 -0.305628575444 -3.332226573011  0.680518299178
O    4.861841694956  0.761602944947  4.594670593691  0.608321208188  1.556643041542  1.028904577304
Zn   6.460951386036  1.685634712384  5.475541488946 -2.580070912002  0.695338394910 -0.106305345527
Zn   8.039619279546  0.742714490032  2.703776991090  0.116069881113  1.238135296143  0.534283207335
O    6.261833952428  1.718648996926  2.200190014278  7.735220167888  4.012820205511 -2.440044005853
O    8.019333775095  1.058626031942  4.899673259436  1.167939294743 -1.835647072420 -1.290644164675