# total energy = -73619.3366225241 eV

CRYSTAL
PRIMVEC
9.588534908089704 0.0 0.0
-1.5980923475265867 2.7679703145927954 0.0
0.0 0.0 9.647140033447947
PRIMCOORD
24 1
Zn  -0.000000000000  1.845314501915  4.822820193294 -0.000000257110 -0.000000000000 -1.013689560126
Zn   1.598089470966  0.922656771531  2.411033267225 -0.000000000000 -0.000000000000 -1.013689817237
O   -0.000000000000  1.845314501915  1.833709498116 -0.000000257110 -0.000000000000  1.013690074347
O    1.598089470966  0.922656771531  4.245495465332  0.000000257110  0.000000257110  1.013689045906
Zn  -0.000000000000  1.845314501915  9.646392127725 -0.000000257110 -0.000000000000 -1.013689045906
Zn   1.598089470966  0.922656771531  7.234606160510 -0.000000514221 -0.000000257110 -1.013689045906
O   -0.000000000000  1.845314501915  6.657281432547 -0.000000000000 -0.000000000000  1.013688788796
O    1.598089470966  0.922656771531  9.069068358616 -0.000000000000 -0.000000000000  1.013689817237
Zn   3.196177983079  1.845314501915  4.822820193294  0.000000257110  0.000000000000 -1.013689817237
Zn   4.794267454045  0.922656771531  2.411033267225  0.000000000000  0.000000000000 -1.013689817237
O    3.196177983079  1.845314501915  1.833709498116 -0.000000257110 -0.000000000000  1.013689560126
O    4.794267454045  0.922656771531  4.245495465332  0.000000257110  0.000000257110  1.013689560126
Zn   3.196177983079  1.845314501915  9.646392127725 -0.000000257110 -0.000000000000 -1.013688788796
Zn   4.794267454045  0.922656771531  7.234606160510  0.000000514221  0.000000257110 -1.013689817237
O    3.196177983079  1.845314501915  6.657281432547 -0.000000000000 -0.000000000000  1.013689817237
O    4.794267454045  0.922656771531  9.069068358616  0.000000514221  0.000000257110  1.013689303016
Zn   6.392356925011  1.845314501915  4.822820193294  0.000000257110  0.000000000000 -1.013689817237
Zn   7.990445437124  0.922656771531  2.411033267225  0.000000000000  0.000000000000 -1.013689817237
O    6.392356925011  1.845314501915  1.833709498116  0.000000257110  0.000000257110  1.013689303016
O    7.990445437124  0.922656771531  4.245495465332 -0.000000000000 -0.000000000000  1.013689303016
Zn   6.392356925011  1.845314501915  9.646392127725  0.000000257110  0.000000257110 -1.013689303016
Zn   7.990445437124  0.922656771531  7.234606160510 -0.000000257110 -0.000000000000 -1.013689303016
O    6.392356925011  1.845314501915  6.657281432547 -0.000000257110 -0.000000000000  1.013688531685
O    7.990445437124  0.922656771531  9.069068358616 -0.000000514221 -0.000000257110  1.013690074347