# total energy = -49074.28138323867 eV

CRYSTAL
PRIMVEC
6.648050622659499 0.0 0.0
-1.6620126556648747 2.8786923442696573 0.0
0.0 0.0 11.740776506046563
PRIMCOORD
16 1
Zn   0.114921527089  1.763444623235  5.865830349516 -3.564186872237  1.821516803666  1.692587035871
Zn   1.623620828124  0.863529256284  2.987851341079  0.700123989224  0.433982416131 -0.237211520322
O    0.072988947786  1.881256057929  2.467116183856 -0.685816314352 -0.189875968461  0.037824527047
O    1.567599035137  1.152937514430  5.272951876547  4.402494029533 -1.660354401090 -1.579129395570
Zn   0.001809599379  2.061000067419  11.538870555001 -0.247460965964 -2.061052087025 -0.008588770110
Zn   1.709431871146  0.826951016953  8.768395843572  0.419404004096  0.790071205108 -0.063290275418
O    0.002221113713  1.882235315786  8.003110149780  0.698425775586  0.188238175747  0.666146860947
O    1.887753197803  0.870943827143  10.973023055863 -1.105501597133  1.250289157896 -0.608624084140
Zn   3.227118007013  1.924183185605  5.934170980307  0.837507544213  0.450886905196  0.161703876902
Zn   5.241462055163  0.752899045872  3.060957959361 -0.595042488801 -0.151474228754 -0.389461450900
O    3.141652662624  1.908247143457  2.037427409521  0.534093717032  0.533370465713  1.684850586459
O    5.071204813911  1.195422546739  5.250074604744 -1.399409798817 -1.063783391459 -0.511707893138
Zn   3.540990426646  1.787178163958  11.892990273103 -1.813817635250  1.118693927454  0.307469228197
Zn   5.009304814564  1.146651117761  8.787377357710 -0.415804973891 -0.839123739660  0.054835459783
O    3.400542379581  2.060930262888  8.167327637041 -0.785619597094 -0.405564012889 -0.374810019536
O    4.849502297722  0.885249767278  11.076446114595  3.020611440966 -0.215821227572 -0.832593908961