# total energy = -24536.09422200142 eV

CRYSTAL
PRIMVEC
7.031592442324853 0.0 0.0
-1.7578981105812133 3.0447709382284116 0.0
0.0 0.0 5.870388234806884
PRIMCOORD
8 1
Zn  -0.091359371125  2.053663061368  5.947015013447  0.252273813972  0.049870402468 -0.421325903709
Zn   1.839128472793  1.011972721115  2.891800754123 -0.502651696473 -0.112632316186  0.254884512122
O   -0.079651066550  1.926526244737  2.205244505966  0.679341248150  0.648913527788 -0.050449929120
O    1.759949929256  1.061406222303  5.203476146455  0.252809374760 -0.065326332012  0.222159253975
Zn   3.562086600529  2.021283281330  5.973133863574 -0.132680750197 -0.025960171509 -0.724023935770
Zn   5.245171380161  0.981844456977  2.937804947677  0.431059328947  0.509763110706  0.401634081707
O    3.598958161819  2.141855403257  2.294466976148 -0.638691592950 -0.875080874481 -0.458320221545
O    5.311391401986  1.099966772097  5.080487266206 -0.341459726210 -0.129547089664  0.775441885230