# total energy = -12267.581385648798 eV

CRYSTAL
PRIMVEC
2.876560207838307 0.0 0.0
-1.4382801039191535 2.49117305399317 0.0
0.0 0.0 4.80304723367157
PRIMCOORD
4 1
Zn   0.033546445144  1.734600611705  4.928683589653 -0.054123521317  0.643282040534 -4.034278889606
Zn   1.368929689180  0.992056002926  2.441512118565 -1.334221535045 -1.773206032376  1.249943858742
O   -0.112614167921  1.710154452435  1.768752572773  0.863673661085  1.809000930587  3.374906371268
O    1.441011685493  0.933027261525  4.221003178250  0.524671395277 -0.679076938745 -0.590571340404