# total energy = -36807.45879124673 eV

CRYSTAL
PRIMVEC
3.5157962211624265 0.0 0.0
-1.7578981105812133 3.044767422432191 0.0
0.0 0.0 15.24043518612106
PRIMCOORD
12 1
Zn   0.027763539599  2.068587264747  5.054465100475 -0.015538976176 -0.357932269944  0.664721955575
Zn   1.728827749527  1.040998079978  2.479637283104 -0.220385192793 -0.225311169340  0.882337813154
O   -0.106895674627  1.967130526875  1.941638894793  0.406604795449  0.275437139462  0.127484807818
O    1.781754897420  0.968756905544  4.642017904700 -0.065003658565  0.341088458913 -1.490456161302
Zn  -0.017603591679  1.957453297776  10.169184619747 -0.133507102753  0.194961610514 -0.761126239939
Zn   1.746842337784  1.074445958907  7.647254417581  0.211905951678 -0.163777214491 -0.375606547295
O    0.048707840848  1.941934573256  7.041437023324 -0.304211126271  0.267276458028  0.233412715401
O    1.702210007916  1.087274747739  9.610970051586  0.278872133286 -0.286780846610  0.075392715109
Zn  -0.030862362389  2.089466875345  15.226785458872  0.041810508278 -0.079539133177 -0.563541847090
Zn   1.858499103654  0.968001712515  12.724053613551 -0.153526483298 -0.020732090341 -1.515643202091
O    0.013005281802  1.982408067774  12.065410677911  0.059805916414  0.134272263054  1.322383918980
O    1.767785584294  1.058404787069  14.598473297233 -0.106826765248 -0.078962948958  1.400640071679