# total energy = -73611.69126871109 eV

CRYSTAL
PRIMVEC
9.013222972357486 0.0 0.0
-1.5022068331339051 2.6018921415452976 0.0
0.0 0.0 9.261257855333792
PRIMCOORD
24 1
Zn  -0.000000000000  1.734595662352  4.629906968507  0.000006684868  0.000003856655 -1.221275287162
Zn   1.502204129167  0.867297380515  2.314592054012  0.000011827075  0.000006941979 -1.221274772942
O   -0.000000000000  1.734595662352  1.760361762864 -0.000000257110 -0.000000000000  1.221274772942
O    1.502204129167  0.867297380515  4.075675776036  0.000000514221  0.000000257110  1.221274258721
Zn  -0.000000000000  1.734595662352  9.260536797496  0.000006941979  0.000004113765 -1.221273230280
Zn   1.502204129167  0.867297380515  6.945221883001  0.000009513082  0.000005399317 -1.221273744500
O   -0.000000000000  1.734595662352  6.390990690530 -0.000001285552 -0.000000771331  1.221274772942
O    1.502204129167  0.867297380515  8.706305605025  0.000000514221  0.000000257110  1.221275544273
Zn   3.004407357012  1.734595662352  4.629906968507  0.000001028441  0.000000514221 -1.221277086935
Zn   4.506611486179  0.867297380515  2.314592054012 -0.000003342434 -0.000001799772 -1.221275801383
O    3.004407357012  1.734595662352  1.760361762864  0.000000000000  0.000000000000  1.221274772942
O    4.506611486179  0.867297380515  4.075675776036 -0.000000257110 -0.000000000000  1.221274772942
Zn   3.004407357012  1.734595662352  9.260536797496  0.000002313993  0.000001285552 -1.221274258721
Zn   4.506611486179  0.867297380515  6.945221883001 -0.000003085324 -0.000001799772 -1.221275030052
O    3.004407357012  1.734595662352  6.390990690530  0.000000771331  0.000000514221  1.221275030052
O    4.506611486179  0.867297380515  8.706305605025 -0.000000257110 -0.000000257110  1.221275030052
Zn   6.008815615346  1.734595662352  4.629906968507 -0.000010027302 -0.000005913537 -1.221275544273
Zn   7.511018843190  0.867297380515  2.314592054012 -0.000006684868 -0.000003856655 -1.221276572714
O    6.008815615346  1.734595662352  1.760361762864  0.000000514221  0.000000257110  1.221273744500
O    7.511018843190  0.867297380515  4.075675776036 -0.000000771331 -0.000000257110  1.221276058493
Zn   6.008815615346  1.734595662352  9.260536797496 -0.000009255971 -0.000005399317 -1.221272973170
Zn   7.511018843190  0.867297380515  6.945221883001 -0.000005913537 -0.000003342434 -1.221275544273
O    6.008815615346  1.734595662352  6.390990690530 -0.000000000000 -0.000000000000  1.221275544273
O    7.511018843190  0.867297380515  8.706305605025  0.000000000000  0.000000000000  1.221275544273