# total energy = -73611.21620407209 eV

CRYSTAL
PRIMVEC
10.355617489065997 0.0 0.0
-3.451869044482836 5.978815757312254 0.0
0.0 0.0 5.874493266727403
PRIMCOORD
24 1
Zn   0.000000000000  1.992939621333  5.873578865703  0.000005913537 -0.000004370875 -0.159814887410
Zn   1.725936593365  0.996469292885  2.936331196778  0.000014398178 -0.000006170648 -0.159811287865
O    0.000000000000  1.992939621333  2.233224120617 -0.000003599544 -0.000002571103  0.159825943153
O    1.725936593365  0.996469292885  5.170471789542 -0.000001799772  0.000007970420  0.159807174100
Zn  -1.725936593365  4.982348535550  5.873578865703 -0.000002571103  0.000005656427 -0.159807945431
Zn   0.000000000000  3.985879242665  2.936331196778 -0.000006684868  0.000010541523 -0.159809230983
O   -1.725936593365  4.982348535550  2.233224120617  0.000001542662  0.000002313993  0.159805631438
O    0.000000000000  3.985879242665  5.170471789542  0.000011055744 -0.000005656427  0.159797403908
Zn   3.451872151168  1.992939621333  5.873578865703  0.000004113765 -0.000008484640 -0.159806145659
Zn   5.177808744533  0.996469292885  2.936331196778  0.000002571103 -0.000005142206 -0.159813601858
O    3.451872151168  1.992939621333  2.233224120617  0.000004113765  0.000003856655  0.159802289004
O    5.177808744533  0.996469292885  5.170471789542 -0.000001028441 -0.000001542662  0.159806402769
Zn   1.725936593365  4.982348535550  5.873578865703 -0.000009770192  0.000004627986 -0.159805117218
Zn   3.451872151168  3.985879242665  2.936331196778 -0.000011055744 -0.000000000000 -0.159816430071
O    1.725936593365  4.982348535550  2.233224120617  0.000007456199  0.000006427758  0.159808973872
O    3.451872151168  3.985879242665  5.170471789542 -0.000003599544 -0.000002313993  0.159813858968
Zn   6.903745337898  1.992939621333  5.873578865703  0.000007713309 -0.000008998861 -0.159808973872
Zn   8.629680895701  0.996469292885  2.936331196778 -0.000001285552 -0.000006170648 -0.159810773644
O    6.903745337898  1.992939621333  2.233224120617 -0.000008227530 -0.000009255971  0.159814116079
O    8.629680895701  0.996469292885  5.170471789542  0.000003599544  0.000006170648  0.159801260563
Zn   5.177808744533  4.982348535550  5.873578865703 -0.000007199089  0.000010541523 -0.159811287865
Zn   6.903745337898  3.985879242665  2.936331196778 -0.000005142206  0.000003085324 -0.159815658740
O    5.177808744533  4.982348535550  2.233224120617 -0.000005142206 -0.000000771331  0.159823886271
O    6.903745337898  3.985879242665  5.170471789542  0.000004627986 -0.000000257110  0.159824914712