# total energy = -110428.78508634913 eV

CRYSTAL
PRIMVEC
9.588534908089704 0.0 0.0
-1.5980923475265867 2.7679703145927954 0.0
0.0 0.0 16.318037185564485
PRIMCOORD
36 1
Zn   0.043691118162  1.907719563658  5.472886423630 -0.543698072891 -0.658599901838 -0.278874190168
Zn   1.647893280132  0.944028656988  2.674339230069 -1.019603611618 -0.545793779078  0.369308630101
O   -0.036961884364  1.823760434295  2.042127810585  0.288946229692  0.131263043914  0.088504569900
O    1.595297289601  0.915681112385  4.749440094496 -0.006870758978  0.346576992832 -0.031757752028
Zn  -0.025943698901  1.829162614863  10.882236338399  0.408334890766  0.223393897713  0.168547896407
Zn   1.523743806703  0.913680944003  8.168540966799  0.650298323951 -0.021091016342  0.224243904418
O   -0.017070468697  1.817040789032  7.459197454808 -0.114277050879  0.349838951413  0.186066879128
O    1.594037356114  0.917073367654  10.223573027664 -0.038033043513 -0.063177918210 -0.188548507899
Zn  -0.040268970054  1.849707009757  16.321965608316  0.401728698303  0.038840369906  0.420322145035
Zn   1.527214856339  0.967352768152  13.590354059242  1.365444754725 -0.400217403865  0.732169447695
O    0.021179155905  1.818239355895  12.927503435313 -0.505140010112  0.845710648849 -0.721876807520
O    1.555146258527  0.902589885675  15.656801270914  0.468769441903  0.466283442256 -0.390467780678
Zn   3.172112678166  1.865514668406  5.471288973714  0.158516994534 -0.076195670626  0.115939011962
Zn   4.837291210177  0.877068082310  2.718537581728 -0.462361738604  0.209189324078  0.298185231792
O    3.159542108902  1.828177872328  2.044237288265  1.056786648426  0.212753901500 -0.432211183163
O    4.780396679447  0.924183266288  4.765820188680 -0.267457977912 -0.027827563735  0.054434881910
Zn   3.235433444992  1.800352902878  10.847450092605 -0.149827951400  0.168019791818  0.483888556933
Zn   4.836875067762  0.952771483117  8.155552337413 -0.727731209418 -0.212440998246  0.324232306588
O    3.181858465047  1.874020657723  7.586767158640 -0.143280894310 -0.427674985855 -0.664310321959
O    4.845595840261  0.911774743264  10.202473456599 -0.324328722957 -0.281691862123 -0.042144751689
Zn   3.284741526904  1.819567367980  16.284419782177 -1.552313818039  0.504916324137  0.479348760081
Zn   4.827559806099  0.979191732203  13.584703535620 -0.776651846378 -0.919026683934  0.582344581619
O    3.217707120508  1.822066140177  12.966843276334 -0.541067063026  0.214903086633 -0.439274003547
O    4.807392240627  0.982508406427  15.708540046425  0.501810431518 -1.092317751453 -0.764705215539
Zn   6.358347350545  1.879518723639  5.460892125313 -0.002683203259 -0.289745071444  0.257946953097
Zn   7.941029004768  0.961397329120  2.711327962330  0.739411216859 -0.440386519885  0.687378259522
O    6.401574383618  1.828244033218  2.095310619453 -0.629175425929  0.505671457136 -0.422559519006
O    7.908052115512  0.907256625615  4.881306420820  0.755821282786  0.630801391568 -0.683092487663
Zn   6.389349960464  1.853222166654  10.796079516835  0.207054280012 -0.120342283236  0.756110274781
Zn   7.977831719452  0.897041959377  8.169589952518  0.145394083999  0.136308833868 -0.102069453069
O    6.396455064831  1.831212643626  7.556665871003  0.266313065674  0.213894699973 -0.477067677356
O    8.015883820235  0.915755902958  10.177161642148 -0.227277034817  0.106757859684  0.089498044162
Zn   6.380471935992  1.853157923470  16.344455516943  0.380228105227  0.226917851706  0.278760033188
Zn   8.081736919130  0.938883449156  13.579963922815 -1.223220326704 -0.411141506977  0.640781899820
O    6.342016157890  1.827718581506  12.992843547590  1.656333452856  0.653194414552 -0.871863910206
O    7.978221972823  0.936235095814  15.717413276629 -0.196191883377 -0.197565366685 -0.727188192430