# total energy = -12268.26389423184 eV

CRYSTAL
PRIMVEC
3.4518726727477356 0.0 0.0
-1.7259363363738678 2.989408031416358 0.0
0.0 0.0 5.985333198438863
PRIMCOORD
4 1
Zn   0.064104037031  2.017620612783  6.091775144176 -0.069703892254  0.007559814625 -0.809665325190
Zn   1.774045085814  0.960583675500  2.966148277786 -0.006718806781  0.118345307411  0.226234195375
O    0.065785444210  1.974510520160  2.293199832050 -0.061034132394  0.049742104420 -0.084043963026
O    1.728583577527  1.084477599095  5.245421184350  0.137456574319 -0.175647226456  0.667475092840