# total energy = -36799.619262712826 eV

CRYSTAL
PRIMVEC
8.629681152692129 0.0 0.0
-1.438283068675739 2.4911732067534005 0.0
0.0 0.0 4.803047528197316
PRIMCOORD
12 1
Zn  -0.179980630121  1.937345296449  4.906872948082  3.005699813962  0.455257523459 -3.338243982850
Zn   1.328088081133  0.662360821258  2.304161975398  1.157486989062  8.015489952852  6.287943627297
O    0.109376030802  1.727518051094  1.728507875522  2.534021168832 -6.781122865503 -0.988517174626
O    1.660468017442  0.954008662526  4.175439295910 -5.413143774391  0.423150358512 -3.277282355565
Zn   3.002208254158  1.552434765027  4.942260681584  1.176467386819  2.371984848291  2.957394956209
Zn   4.366525462706  0.752317480561  2.622787062917  1.390218619236 -0.198311500823 -4.991680830884
O    2.903023876798  1.519578117007  1.937348748321  0.494307438273  1.245599465730 -0.361563181828
O    4.383995389231  0.781574688573  4.279405379597  0.771014702697 -1.362620655013  2.542187506693
Zn   5.798644350134  1.610307995742  4.762488026780 -3.617828825932  4.067924345574  3.016559382384
Zn   7.467823167731  0.802152163282  2.442712369272 -0.655968120642 -3.941938748009  2.401111333343
O    6.049878531596  1.521354968356  1.817614511232 -4.061966585329  1.261074678548 -0.362959547955
O    7.217124889469  0.993852763376  4.292713210902  3.219691187414 -5.556487146509 -3.884949732219