# total energy = -36809.10621822278 eV

CRYSTAL
PRIMVEC
3.196178479088971 0.0 0.0
-1.5980892395444855 2.767970467353026 0.0
0.0 0.0 14.162829368255549
PRIMCOORD
12 1
Zn  -0.000000000000  1.845314603756  4.720206829770  0.000000000000  0.000000000000 -1.600323770259
Zn   1.598089239544  0.922657142069  2.359735374933  0.000000000000  0.000000000000 -1.600329169576
O   -0.000000000000  1.845314603756  1.794694807475  0.000000000000 -0.000000000000  1.600355909049
O    1.598089239544  0.922657142069  4.155166262312  0.000000000000  0.000000000000  1.600315028509
Zn  -0.000000000000  1.845314603756  9.441150059061  0.000000000000  0.000000000000 -1.600329169576
Zn   1.598089239544  0.922657142069  7.080678284606  0.000000000000  0.000000000000 -1.600327369804
O   -0.000000000000  1.845314603756  6.515638036766  0.000000000000  0.000000000000  1.600302687213
O    1.598089239544  0.922657142069  8.876109491603  0.000000000000  0.000000000000  1.600357708821
Zn  -0.000000000000  1.845314603756  14.162093288352  0.000000000000  0.000000000000 -1.600325827142
Zn   1.598089239544  0.922657142069  11.801621513897  0.000000000000 -0.000000000000 -1.600325055811
O   -0.000000000000  1.845314603756  11.236581266057  0.000000000000 -0.000000000000  1.600323770259
O    1.598089239544  0.922657142069  13.597052720894  0.000000000000 -0.000000000000  1.600305772537