# total energy = -49066.670839588456 eV

CRYSTAL
PRIMVEC
5.753120944853822 0.0 0.0
-1.4382802362134555 2.4911761596939876 0.0
0.0 0.0 9.236629923841866
PRIMCOORD
16 1
Zn   0.055131007390  1.602476033916  4.631262935919  0.010181311408 -0.807934972762 -1.708574926659
Zn   1.476258313507  0.822535783040  2.311272040564 -0.392940667698 -0.012498646688 -1.403082876793
O   -0.042037479432  1.617971489869  1.845105280084  4.375668681810  2.512261408557 -4.236064722130
O    1.490525478138  0.728918697777  4.025273474620  0.613120172239  1.309319629597  1.707540828968
Zn   0.000980907121  1.664112095159  9.154290106255  1.694148981042 -3.343769797764  3.084097891556
Zn   1.479691776087  0.838011678381  6.836629224882  1.627723759539 -4.342384208725  0.658007005449
O    0.112830783283  1.537552639365  6.336016803369 -4.731938219339  2.621050439738  0.571075179352
O    1.509686822757  0.710457507977  8.546769164160 -0.521460344539  3.581673716167  1.845649435048
Zn   2.965304664250  1.604215202377  4.643385337062 -0.984421921511  0.109798703392 -1.408515874883
Zn   4.393035402587  0.805774065167  2.291595791620 -5.086593875414  0.124971040257  0.308857366794
O    2.840705872074  1.708296639327  1.739446912683  1.279887440379 -2.633001955673 -0.426086301212
O    4.357297015277  0.778335705445  4.013862159226  0.199681641697 -0.610138463902  1.503771904575
Zn   2.838912624276  1.769173288605  9.218769359869 -1.704437507452 -2.747970376192  0.713369541380
Zn   4.338767938650  0.897567986403  6.947306614995  0.172714626190 -0.680874396965  0.199489580291
O    2.854189461633  1.643624080850  6.367161323604  2.778816929259  2.728460331184  0.572891406626
O    4.239769384055  0.867010284504  8.748786554266  0.669849249499  2.191037549778 -1.982425438360