# total energy = -49077.65066998569 eV

CRYSTAL
PRIMVEC
6.775898248666088 0.0 0.0
-1.693974562166522 2.9340520283496487 0.0
0.0 0.0 10.878697862335157
PRIMCOORD
16 1
Zn  -0.029661494584  1.950262071985  5.392446841080  0.232423869126  0.190329511059  0.416871724592
Zn   1.726546982638  0.969686601750  2.697273007179 -0.201134314984 -0.167344363017  0.146738770952
O    0.033035214322  1.925795658589  2.045014877915 -0.038703330107  0.029366368977 -0.037411864990
O    1.681766426292  1.010938947877  4.786043925624  0.028774501030 -0.206602280077 -0.224989781445
Zn   0.067352428592  1.910055924547  10.812374692687 -0.747225827807  0.248269577909  0.557961267678
Zn   1.701335220434  0.979515042159  8.224073036323 -0.157751062902 -0.061930676067 -0.858088967909
O   -0.092367012156  1.934165925695  7.531591142286  0.577040138687  0.251653149669  0.056819837203
O    1.671935275523  1.005098801177  10.240809380487  0.546983171400 -0.318353222099 -0.092447870819
Zn   3.452229360659  1.947400610155  5.375467795249 -0.567024920542 -0.016656891830  0.564475671758
Zn   5.080184313419  0.932871113795  2.719323135260  0.408621825879  0.057673186342 -0.003592602447
O    3.454839436664  1.891918877705  2.093448321006 -0.352704188776  0.279775361826 -0.258419521858
O    5.068676805423  0.969834993921  4.807115613998  0.274083453648 -0.067703316884 -0.492681729744
Zn   3.350579367902  2.005625903805  10.879333441591  0.332400958442 -0.184884428784  0.104290371980
Zn   5.097313106602  0.895015525460  8.197081923240 -0.135279878383  0.304144791810 -0.488891666574
O    3.372795505490  1.975535494863  7.464144528708 -0.152836913430 -0.422869851157  0.326218740890
O    5.071380388825  0.967911316409  10.216438507256 -0.047667738390  0.085133082325  0.283147877843