# total energy = -49062.364769930886 eV

CRYSTAL
PRIMVEC
5.753120944853822 0.0 0.0
-1.4382802362134555 2.4911761596939876 0.0
0.0 0.0 8.867164496763355
PRIMCOORD
16 1
Zn   0.057795853012  1.652978080194  4.369433799222 -3.062246085788  2.426880728998  0.572243745739
Zn   1.556845730454  0.852120632187  2.158142370999 -1.801607466337 -0.604140080227 -1.511443562187
O   -0.000916472167  1.649386406788  1.722004025290  2.062064330340  0.754685112299  1.669163771851
O    1.420221764880  0.918718760244  3.848335089337  1.371291443314 -2.982689469110  0.355984659299
Zn   0.036082999254  1.558412305287  8.899867537462 -1.492362891407  2.679133717034 -1.264030418742
Zn   1.421954029596  0.883096585978  6.711262391061  2.591650132199 -1.027980522828 -5.935514032339
O    0.040115361724  1.650824687024  6.114456636725 -1.049068710957  2.221103001705 -0.205153720556
O    1.427637537778  0.854122142963  8.318063045991  2.750167898064 -2.633467839566  5.407072114276
Zn   2.858831654923  1.600964689044  4.425667104586 -1.117174662596  3.409192803254 -1.614767970709
Zn   4.322104023833  0.822385051271  2.129611493609  3.327113677265 -2.349120542098  3.194707520885
O    3.004609411233  1.653075883250  1.756470397559 -3.186596204632  2.267873939312  0.072683286597
O    4.290703489716  0.949441576714  3.924047886907  2.377520947618 -2.950364788835 -1.096791470954
Zn   2.901791359643  1.621990044849  8.939175736318 -0.675465567245 -0.411745716220 -2.695818376779
Zn   4.389370089233  0.846816829987  6.755617802921 -0.705977876901 -0.632053261698 -7.206305423954
O    2.948144255095  1.651669820491  6.083737847440 -0.465799303531  0.275392145157  4.075531468498
O    4.332445258732  0.788816741182  8.343473430580 -0.923509659406 -0.442698455847  6.182438151963