# total energy = -36807.30503264191 eV

CRYSTAL
PRIMVEC
10.54738813431007 0.0 0.0
-1.7579015381810565 3.0447672696719597 0.0
0.0 0.0 5.193038190091966
PRIMCOORD
12 1
Zn   0.042337215971  2.025520417313  5.164234327836 -0.337429522005 -0.203498444340  0.041110653997
Zn   1.811645754419  1.018025464813  2.588723520476 -0.409018032876 -0.237954054915 -0.392330287808
O   -0.059220420158  1.985467765612  1.949371439200  0.501699359862  0.311178815838  0.323348361321
O    1.753873490653  0.984959403012  4.570405828486  0.378083548081  0.271200475673 -0.011250633213
Zn   3.516622608420  2.023281206812  5.169185271826  0.010126546911 -0.007031452925 -0.047068671353
Zn   5.252775432268  0.998042383254  2.724338672890  0.257959808613  0.127451640587 -1.706904738045
O    3.515591073861  2.012585100505  1.913742362082 -0.111233378956 -0.002453860857  0.856523937414
O    5.305616792082  1.084004651287  4.576457919798 -0.296668280927 -0.327709980724  0.932123369217
Zn   7.053496202058  2.025706051344  5.193888309576  0.271567114984  0.203127691265  0.144058138796
Zn   8.751601432689  1.038731042460  2.592766334348  0.168582606300 -0.087954868044 -0.102665434782
O    7.034129087966  2.002631530323  2.025652259665 -0.188009861787 -0.014358582715 -0.126094355229
O    8.838466557147  1.002017693842  4.592737813383 -0.245659908200 -0.031997635953  0.089149145463