# total energy = -24538.113682609513 eV

CRYSTAL
PRIMVEC
3.5157962211624265 0.0 0.0
-1.7578981105812133 3.044767422432191 0.0
0.0 0.0 10.611857818794734
PRIMCOORD
8 1
Zn  -0.000000000000  2.029846003027  5.305101994126  0.000000000000  0.000000000000 -0.066990092867
Zn   1.757898110581  1.014922825724  2.652137012058  0.000000000000 -0.000000000000 -0.066990092867
O   -0.000000000000  2.029846003027  2.017080850107  0.000000000000  0.000000000000  0.066993949522
O    1.757898110581  1.014922825724  4.670045480596  0.000000000000 -0.000000000000  0.066989835757
Zn  -0.000000000000  2.029846003027  10.611031255103  0.000000000000 -0.000000000000 -0.066994206632
Zn   1.757898110581  1.014922825724  7.958066624615  0.000000000000  0.000000000000 -0.066985464882
O   -0.000000000000  2.029846003027  7.323010111084  0.000000000000  0.000000000000  0.066988035985
O    1.757898110581  1.014922825724  9.975975093152  0.000000000000  0.000000000000  0.066987778874