# total energy = -36807.73069732647 eV

CRYSTAL
PRIMVEC
9.013222972357486 0.0 0.0
-1.5022068331339051 2.6018921415452976 0.0
0.0 0.0 4.9200480239207804
PRIMCOORD
12 1
Zn  -0.015431539051  1.756965580448  4.918199411889 -0.808966756461  0.167025546225 -0.231907334500
Zn   1.483838786039  0.870918893505  2.477335709323  0.742482399585 -0.054414827305  0.151047939850
O    0.029807629692  1.741962169488  1.832902885312 -0.571905388563  0.224176284405 -0.078877588334
O    1.494495119559  0.930527843633  4.329411522542 -0.549998818298 -0.966573066255 -0.631180372174
Zn   3.009746790301  1.687638573311  4.907718836217  0.462343997993  0.530366131669  0.021913255133
Zn   4.550707778249  0.921767892226  2.475244641594 -2.447202728385 -1.000463805465  0.147427312378
O    2.960220932712  1.772137538677  1.797452978039  0.590306259668 -0.086044795506  1.248095749789
O    4.524756906667  0.858201235891  4.322897666300 -0.843180940449 -0.941330489638 -0.641917298976
Zn   5.934938733253  1.729727620625  4.925941770422  1.866981106646  0.004045887935  0.857717186391
Zn   7.535761942894  0.888243209381  2.452557458050  0.153871782452 -0.192688755319 -0.774214440581
O    5.992474642097  1.704942158773  1.904658956040  1.570902893895  1.222894825044 -1.655702504140
O    7.514640356181  0.809515410684  4.242860246306 -0.165634065194  1.093007064211  1.587598095163