# total energy = -49074.44009962158 eV

CRYSTAL
PRIMVEC
5.880968041683205 0.0 0.0
-1.4702420104208012 2.5465356146333695 0.0
0.0 0.0 9.819564077591238
PRIMCOORD
16 1
Zn   0.003034579510  1.723547065912  4.911732755895 -0.073950583346 -0.522391340993  1.281559685875
Zn   1.453000188316  0.867685670128  2.478739815049  0.103964870319  0.055657955684  1.263667893196
O   -0.021694303009  1.710691857870  1.903469402179  0.846137194863  0.574094682905 -1.221568907143
O    1.432159801867  0.828205555471  4.368284261099  1.092974154090  1.196067677549 -1.570738600403
Zn  -0.027203005774  1.762689024907  9.826178990445 -0.007601209386 -1.321292999909  1.353244613115
Zn   1.477707311253  0.841658857963  7.314505754362  0.716947488539 -2.234880515105  2.180831812890
O    0.014515993417  1.558368904622  6.770802025553 -0.248891784874  2.454424957165 -1.071809604198
O    1.443990545276  0.865228601681  9.312031242723 -1.499989554714  0.526447256230 -3.029676893603
Zn   2.962951083051  1.704449210294  4.890975879192 -0.789678340545 -0.201309407109  0.929517299053
Zn   4.441672861291  0.817054063870  2.382237246162 -0.904506635941 -0.198789726011  2.141799381578
O    2.938057533428  1.667431456955  1.845537750291  0.057571627767 -0.361235366175  0.118238863740
O    4.426817536018  0.862085224262  4.366949281354 -0.225774482130 -0.423630383472 -2.273735026079
Zn   2.870382293688  1.644602715211  9.843298488414  2.088926187728  1.729741533434  0.028117327062
Zn   4.428477145199  0.876962897214  7.384512797930 -1.717809300773 -0.709136477135  1.118836623679
O    2.900860998661  1.688021314166  6.777465162345  1.217346898642  0.500668604604 -0.791150811325
O    4.419063479655  0.882353980618  9.248009260331 -0.655666530241 -1.064436194552 -0.457133400326