# total energy = -73606.02440128461 eV

CRYSTAL
PRIMVEC
5.880968041683205 0.0 0.0
-1.4702420104208012 2.5465356146333695 0.0
0.0 0.0 13.879572698719823
PRIMCOORD
24 1
Zn   0.004705362530  1.701544600178  4.627888421460 -1.895493612264 -0.129589255756 -1.327876309553
Zn   1.465927144169  0.842779182375  2.331652099552 -0.043388651398  1.282022484444 -0.002767278332
O   -0.011274991930  1.751815703095  1.700845941174  0.165410379219 -1.091390097433  6.374777494363
O    1.455401387568  0.882814460416  4.106410635171  0.025146417359 -0.885022044854 -0.437414581741
Zn  -0.003767348128  1.679815011361  9.275371052241 -0.343468529110  0.871983466503 -0.589608976491
Zn   1.441514657731  0.831898215304  6.953316692533  0.294802688473  0.948863307680 -1.833807448108
O    0.000549870512  1.729957909174  6.368393258720 -0.519933366371 -1.125121428247  0.745219853121
O    1.468878213932  0.883413731059  8.651271549819  0.463749105870 -0.578076550371  2.783048450842
Zn   0.043441534730  1.739232195776  13.974561506432 -1.461108818488 -0.270145037825 -6.571138556328
Zn   1.465957137106  0.956875843352  11.586425649324  0.790762574748 -2.870896618105 -0.577553073767
O    0.027304746521  1.645377826799  11.043635822949 -2.600711728181  2.328339086577 -0.280038385680
O    1.416014192205  0.866020768076  13.320449071706  0.872810333279 -0.541011012977  0.973248935613
Zn   2.938067531073  1.759567407071  4.616312323967 -1.240505596147  0.440727191054 -1.041631795063
Zn   4.416069478825  0.859457607741  2.279082714324  0.611069974578 -0.704087087636  0.048437526676
O    2.960087639712  1.677186218646  1.698896988365 -0.798472798908  0.511879899939  3.006353645496
O    4.264853323763  0.850080992296  4.058314902333  3.070970610145  0.776996888422 -0.941807172164
Zn   3.031349681860  1.617016858418  9.257291192191 -1.394802639062  0.502848128754 -0.546093312596
Zn   4.387290961713  0.824979844500  6.886002544232  0.802211697125 -0.393676517423 -0.104560594922
O    2.945583996327  1.652090363722  6.317134153172 -0.779660294187  0.265525022555  2.499675344362
O    4.421604057849  0.782116408928  8.663162867199  1.489735995307 -0.675828607011 -0.021512677261
Zn   2.920604584570  1.691673983417  13.893101277603  0.675708279383  0.250412849504 -3.501649672934
Zn   4.392480327913  0.807162863721  11.586364487256  0.684657518157  0.127490464245 -4.300486025829
O    2.937202440674  1.653388881465  11.010803554566  0.917043334956  0.537285227386 -0.211649355582
O    4.431168276175  0.854339401255  13.225237375304  0.213467382628  0.420470240577  5.858833965877