# total energy = -98157.76128621637 eV

CRYSTAL
PRIMVEC
6.520203525830115 0.0 0.0
-3.2601017629150575 5.646659258457025 0.0
0.0 0.0 9.421361564444698
PRIMCOORD
32 1
Zn  -0.000000000000  1.882220404839  4.709945303265  0.000000000000 -0.000000000000 -1.842900411548
Zn   1.630050881458  0.941110528430  2.354605238164  0.000000000000  0.000000000000 -1.842902211320
O   -0.000000000000  1.882220404839  1.790792806959  0.000000000000  0.000000000000  1.842902211320
O    1.630050881458  0.941110528430  4.146132872060 -0.000000000000 -0.000000000000  1.842901182879
Zn  -0.000000000000  1.882220404839  9.420624781446  0.000000000000  0.000001028441 -1.842902982651
Zn   1.630050881458  0.941110528430  7.065284716345 -0.000001028441 -0.000000514221 -1.842899897328
O   -0.000000000000  1.882220404839  6.501472937161  0.000000000000  0.000000771331  1.842900925769
O    1.630050881458  0.941110528430  8.856813002262  0.000000257110  0.000000257110  1.842900668658
Zn  -1.630050881458  4.705551338109  4.709945303265 -0.000000000000  0.000000000000 -1.842900411548
Zn   0.000000000000  3.764441461699  2.354605238164 -0.000000000000 -0.000000000000 -1.842902468431
O   -1.630050881458  4.705551338109  1.790792806959  0.000000000000 -0.000000000000  1.842902211320
O    0.000000000000  3.764441461699  4.146132872060  0.000000000000  0.000000000000  1.842901182879
Zn  -1.630050881458  4.705551338109  9.420624781446  0.000000771331 -0.000000514221 -1.842902982651
Zn   0.000000000000  3.764441461699  7.065284716345  0.000000000000  0.000000000000 -1.842899640217
O   -1.630050881458  4.705551338109  6.501472937161  0.000000771331 -0.000000514221  1.842900925769
O    0.000000000000  3.764441461699  8.856813002262  0.000000000000  0.000000000000  1.842902725541
Zn   3.260101762915  1.882220404839  4.709945303265  0.000000000000  0.000000000000 -1.842900668658
Zn   4.890152644373  0.941110528430  2.354605238164 -0.000000000000  0.000000000000 -1.842902211320
O    3.260101762915  1.882220404839  1.790792806959  0.000000000000  0.000000000000  1.842902725541
O    4.890152644373  0.941110528430  4.146132872060  0.000000000000 -0.000000000000  1.842901182879
Zn   3.260101762915  1.882220404839  9.420624781446  0.000000000000  0.000000000000 -1.842901954210
Zn   4.890152644373  0.941110528430  7.065284716345  0.000001028441 -0.000000514221 -1.842899897328
O    3.260101762915  1.882220404839  6.501472937161  0.000000000000  0.000000000000  1.842899383107
O    4.890152644373  0.941110528430  8.856813002262 -0.000000257110  0.000000257110  1.842900668658
Zn   1.630050881458  4.705551338109  4.709945303265  0.000000000000  0.000000000000 -1.842900411548
Zn   3.260101762915  3.764441461699  2.354605238164  0.000000000000 -0.000000000000 -1.842902211320
O    1.630050881458  4.705551338109  1.790792806959 -0.000000000000 -0.000000000000  1.842902211320
O    3.260101762915  3.764441461699  4.146132872060  0.000000000000  0.000000000000  1.842901182879
Zn   1.630050881458  4.705551338109  9.420624781446 -0.000000771331 -0.000000514221 -1.842902982651
Zn   3.260101762915  3.764441461699  7.065284716345  0.000000000000  0.000001028441 -1.842899897328
O    1.630050881458  4.705551338109  6.501472937161 -0.000000771331 -0.000000514221  1.842900925769
O    3.260101762915  3.764441461699  8.856813002262  0.000000000000 -0.000000514221  1.842900668658