# total energy = -110427.79659963233 eV

CRYSTAL
PRIMVEC
9.588534908089704 0.0 0.0
-1.5980923475265867 2.7679703145927954 0.0
0.0 0.0 15.08649535050435
PRIMCOORD
36 1
Zn  -0.075610392018  1.817065719223  5.074830862016  0.061222851366  0.193443374097 -1.740475374912
Zn   1.742783339290  0.876604956074  2.505191721169 -1.507790024595 -0.199829223019  0.824839204717
O   -0.045317333683  1.822297223868  1.949560094583  0.792302922652  0.000735078394  0.554715764158
O    1.576341714941  0.970352061871  4.552238450162  0.278129341582 -0.312556412912 -1.048895161493
Zn  -0.002823823530  1.916097066607  9.981326364039 -0.278171764785 -3.127299623754  0.781533599950
Zn   1.555767595589  0.912597439559  7.467374557378  0.328006428919  2.156817966474  1.170022145414
O    0.045815937498  2.011192320411  6.883486477271 -0.438566950178 -2.527602152679  1.266189631177
O    1.650485061118  0.828940349046  9.537623623142 -1.052296988086  2.552433609901 -1.905118794058
Zn  -0.018999681920  1.838780874229  15.126172707954  0.055945662128 -0.380903019807 -0.364141226968
Zn   1.562457516394  0.894064719288  12.552343377352  0.641531633502  0.192679499348  0.087292808980
O   -0.011607880360  1.813332902583  11.963741573484  0.232823675667  0.203331579745 -0.287420537076
O    1.538391252628  0.857891971348  14.534263818396  0.752994097750  0.943835001227 -0.357408793340
Zn   3.245907960526  1.893484424733  5.039668745655 -0.484186804899 -0.270167406423 -0.329591256907
Zn   4.903453059897  0.831002842905  2.522219041459 -0.455763002341  0.821706315515  0.110608343778
O    3.162247034599  1.852488643734  1.852810818506  1.177072881614 -0.102157641907  0.755461842564
O    4.826687249423  0.978283697947  4.450160825238 -0.449766418438 -0.460396901569 -0.628171667255
Zn   3.194639982079  1.780881465040  10.050624623527  0.424450822491  0.381100994751 -1.405542908298
Zn   4.775409682441  0.767147035831  7.471568582547 -0.247351694080  4.566006420398  2.371040224990
O    3.207069599881  1.945751528517  6.941816411677 -0.188195495435 -4.867878871234 -0.844767568209
O    4.790582580080  0.857641710587  9.538217153453 -0.349660259743 -0.268984441858 -1.502625192565
Zn   3.254377513410  1.909431117139  15.065849317140 -1.153265494781 -1.102215470183 -0.479788675832
Zn   4.799868117285  0.975695752375  12.643325149681 -0.271833738382 -0.702619759062 -1.436705707054
O    3.223817893805  1.771626611147  11.842071695182 -0.396911736531  0.377096758687  3.398419623898
O    4.770389125563  0.913771076232  14.526486557732  0.272460316222  0.481891323997 -0.083369562667
Zn   6.441053258395  1.797123484321  5.054540563297 -0.046388871677 -0.466969155469  0.506876276077
Zn   7.986784534496  0.910730551812  2.512029305412 -0.213572797857  1.149202894676  0.597149250732
O    6.355289566763  1.967248064928  1.869910052808 -0.016264541488 -1.642880412675  1.221999052702
O    7.937200302779  0.785423742219  4.476093017897  0.663476513204  1.233879349080 -0.652829060792
Zn   6.273118699161  1.856058455280  10.074993884996  0.774988856853 -0.328317275291 -1.556208525108
Zn   8.035464567371  0.851268211433  7.567102991250 -0.500295023315  0.365902432633 -1.201138407203
O    6.302358936364  1.800321260713  6.968552123561  1.155726040507  0.188500685380 -0.026403686805
O    7.975480610693  0.838431080898  9.377881508133  0.348224298627  1.092313380578  1.478878740877
Zn   6.369974407975  1.840544205799  15.138895734924  0.468067787850  0.429776348469 -1.684632814021
Zn   8.082621940902  0.846665714677  12.550408411008 -0.946490179462 -0.055740745206 -0.368703649528
O    6.351227863376  1.792421266802  11.874377386994  0.837286429341 -0.009653721040  2.275266632232
O    7.956307376290  0.960031921749  14.450657547119 -0.267938259982 -0.504481036372  0.503645684955