# total energy = -73617.99238097749 eV

CRYSTAL
PRIMVEC
6.648050622659499 0.0 0.0
-1.6620126556648747 2.8786923442696573 0.0
0.0 0.0 16.01015461591849
PRIMCOORD
24 1
Zn   0.013117268684  1.960953553599  5.291598328934  0.241157135233  0.127182446086  0.800093108120
Zn   1.747842978034  1.002843145912  2.665974003691 -0.319435142310 -0.024841741634  0.404495976636
O    0.032374012117  1.956589773170  2.048836129195  0.073315006644  0.036655960660 -0.128538703004
O    1.600891807850  0.958665519914  4.803693240101  0.942415752282  0.384384036377 -1.141655678457
Zn  -0.077081487749  1.999279565438  10.777636848063  0.477464655684 -0.327514062663 -0.812232571696
Zn   1.663273790868  1.061708974955  7.990849814822 -0.581498174458 -0.629633853623  0.214656260729
O   -0.013423743817  1.959179853693  7.371686279301 -0.206126883102  0.017762980410  0.031795033023
O    1.609038993888  0.932871748303  10.069805602168  0.354859544556  0.726797641860  0.068981412266
Zn  -0.064132414747  1.878523709123  16.036109935159  0.326063446260  0.203842200833  0.126095640780
Zn   1.681573215012  0.968241372031  13.356869081646 -0.347371206598  0.006676640689 -0.242406434260
O   -0.036481842597  1.944165231361  12.752085279621  0.031837199115 -0.216563505054  0.357662561222
O    1.693116225308  1.022607135608  15.361629964822 -1.153805683555 -0.833123299102 -0.191679083108
Zn   3.454065835144  1.945099282474  5.375966080165 -0.588824275806 -0.223142958044 -0.417216252416
Zn   4.987846901569  0.990537604209  2.712134078385  0.192233155839  0.209304252389 -0.066542206697
O    3.369360362941  2.016119742471  1.998536313379 -0.129219531121 -0.548971148364  0.283087971139
O    5.069870550151  0.965490408683  4.761783264171 -0.643767979031 -0.192332914642 -0.755866019981
Zn   3.359747946546  2.012449353722  10.691062608830 -0.330884778908 -0.849175981690 -0.754798497948
Zn   4.983768322512  0.938132350761  7.980666995683  0.292006870895  0.381641697745 -0.165349186964
O    3.257890503736  1.932113645193  7.275338076042  0.632536629092  0.109842926367  0.958830960415
O    5.053087546355  0.917539349152  9.973746589111 -0.540080273633  0.537158214890  0.352055499448
Zn   3.275538418918  1.787455387669  15.955158617143  1.029148317884  0.787045788018  0.776309632547
Zn   4.963166678437  0.841544817679  13.364785580327  0.252945129007  0.994677023580  0.201252071508
O    3.316467807382  1.959116032407  12.633992632386  0.093415119828 -0.766678280105  0.722581289786
O    4.994661818262  0.891506247719  15.429815696034 -0.098384290908  0.089005677906 -0.621612011760