# total energy = -12267.976114799494 eV

CRYSTAL
PRIMVEC
2.9404842854302067 0.0 0.0
-1.4702421427151033 2.546532903289695 0.0
0.0 0.0 4.626525629368747
PRIMCOORD
4 1
Zn  -0.015124086874  1.726458006393  4.577674775838  0.883526177035  0.470657660065  0.449440402557
Zn   1.537236078335  0.864204214810  2.318650664041 -0.182222051460 -0.721584215980 -0.453219924204
O    0.058332739158  1.677783875968  1.746180422593  0.268433454451  0.696243423222  0.320897585788
O    1.490026897181  0.890802953511  4.108646654873 -0.969737580026 -0.445316867307 -0.317118321251