# total energy = -73587.60659924855 eV

CRYSTAL
PRIMVEC
5.753120944853822 0.0 0.0
-1.4382802362134555 2.4911761596939876 0.0
0.0 0.0 12.746545727966788
PRIMCOORD
24 1
Zn  -0.000000000000  1.660782764068  4.248186199997  0.000000000000  0.000000000000 -4.657861394828
Zn   1.438280236213  0.830391669690  2.123761720232  0.000000257110  0.000000257110 -4.657861909049
O   -0.000000000000  1.660782764068  1.615224949930  0.000000257110  0.000000000000  4.657861394828
O    1.438280236213  0.830391669690  3.739649429695 -0.000000000000 -0.000000000000  4.657861394828
Zn  -0.000000000000  1.660782764068  8.497034584216 -0.000000000000 -0.000000000000 -4.657861909049
Zn   1.438280236213  0.830391669690  6.372610104451 -0.000000000000 -0.000000000000 -4.657861651938
O   -0.000000000000  1.660782764068  5.864073909460  0.000000257110  0.000000000000  4.657861394828
O    1.438280236213  0.830391669690  7.988498389225 -0.000000000000 -0.000000000000  4.657861651938
Zn  -0.000000000000  1.660782764068  12.745882968434  0.000000257110  0.000000000000 -4.657861651938
Zn   1.438280236213  0.830391669690  10.621459063981  0.000000257110  0.000000000000 -4.657861394828
O   -0.000000000000  1.660782764068  10.112922293678  0.000000000000  0.000000000000  4.657862423269
O    1.438280236213  0.830391669690  12.237346773443 -0.000000000000 -0.000000000000  4.657862166159
Zn   2.876560472427  1.660782764068  4.248186199997 -0.000000000000 -0.000000000000 -4.657861909049
Zn   4.314840708640  0.830391669690  2.123761720232 -0.000000257110 -0.000000257110 -4.657861909049
O    2.876560472427  1.660782764068  1.615224949930  0.000000000000  0.000000000000  4.657861394828
O    4.314840708640  0.830391669690  3.739649429695  0.000000000000  0.000000000000  4.657861394828
Zn   2.876560472427  1.660782764068  8.497034584216  0.000000000000  0.000000000000 -4.657861394828
Zn   4.314840708640  0.830391669690  6.372610104451 -0.000000000000 -0.000000000000 -4.657861394828
O    2.876560472427  1.660782764068  5.864073909460 -0.000000257110 -0.000000000000  4.657861394828
O    4.314840708640  0.830391669690  7.988498389225  0.000000000000  0.000000000000  4.657861651938
Zn   2.876560472427  1.660782764068  12.745882968434 -0.000000257110 -0.000000000000 -4.657861394828
Zn   4.314840708640  0.830391669690  10.621459063981 -0.000000257110 -0.000000000000 -4.657862166159
O    2.876560472427  1.660782764068  10.112922293678  0.000000000000  0.000000000000  4.657862166159
O    4.314840708640  0.830391669690  12.237346773443  0.000000257110  0.000000000000  4.657862166159