# total energy = -24535.015619344667 eV

CRYSTAL
PRIMVEC
6.392356429000733 0.0 0.0
-1.5980891072501833 2.7679734343908944 0.0
0.0 0.0 4.926199166088696
PRIMCOORD
8 1
Zn  -0.062162470094  1.896412710964  4.995461626468 -0.079077877270 -1.920682452825 -1.174959177705
Zn   1.720780161135  0.944128032080  2.485288091445 -2.178792156752 -1.815564956958  0.243100632113
O    0.067526935609  1.797388717522  1.865115733888 -0.144459230889  0.380371829894  2.853034136003
O    1.655358867733  0.847368211286  4.545502378960 -9.175289649207 -4.239718002612 -3.654112747964
Zn   2.889007589489  1.702758829890  4.838322163788  11.311941939367  7.788272310518  2.076987784419
Zn   4.667878289672  0.768991529110  2.209914965018  0.827677702607  15.811291996088  2.339865599159
O    3.076142545477  2.054909270914  2.055299843892  1.614308000354 -14.637512440514 -2.164265423891
O    4.828859558566  0.978685750171  4.517055753615 -2.176308985319 -1.366458026481 -0.519650287913