# total energy = -98159.46428945073 eV

CRYSTAL
PRIMVEC
6.392356429000733 0.0 0.0
-3.1961782145003665 5.535940476425361 0.0
0.0 0.0 10.057663289469033
PRIMCOORD
32 1
Zn  -0.044894797672  1.796162663559  5.022520471232  0.122150282979  0.434100172656 -0.365366100514
Zn   1.614819821732  0.951070131162  2.547255594668  0.233365149993  0.176796509569 -0.716796821894
O    0.048254620211  1.859524339719  1.823337209975 -0.230019887670  0.025360076031  3.080014208405
O    1.577044830650  0.910222334345  4.464463919567  0.126068901307  0.659303869883 -0.313217186424
Zn  -0.042062344538  1.817789283830  10.119873702236  0.273046784853  0.273973153322 -2.556252983647
Zn   1.623501920234  0.916774499685  7.546716918554 -0.274980768651 -0.041700979283  0.234579482016
O   -0.020431249618  1.830436561025  6.914441912569  0.540662371388  0.052600399805  0.211845530754
O    1.571596625266  0.947710947859  9.458124179993  0.342945823837 -0.244738424827  0.133616888858
Zn  -1.529112385203  4.672027568230  5.047465363725 -0.087590799837 -0.934489298346 -0.449228800767
Zn   0.030608520289  3.716127372550  2.564517513969 -1.218952809677 -0.461662912765 -2.485580813942
O   -1.639760878811  4.660711179644  1.924582547275  0.204559024394 -0.318577679405  0.659198197544
O    0.012162736577  3.656110816510  4.327457822695 -0.018183612888 -0.105848203385  3.036754626385
Zn  -1.604233440250  4.590997418900  10.095777714677 -0.140441367979  0.313120255835 -0.699435190687
Zn  -0.029276992445  3.654650802301  7.512163675112  0.014885915973  0.332445181416  0.538784951860
O   -1.639725720850  4.609673327443  6.917374086463  0.357810656764 -0.138681190755  0.682010053232
O   -0.012517512359  3.701701102561  9.469246880180 -0.000973162547 -0.139966485225 -0.049958077086
Zn   3.207461362833  1.767441806124  5.046624768855 -0.216217177459  0.902222982113 -0.790348627139
Zn   4.783175944111  0.943170457087  2.495168117542  0.694782779516  0.017942957632 -0.331486674158
O    3.287778125185  1.885186454603  1.882245970646 -1.082369381991  0.270503963827  1.084278168978
O    4.767672562063  0.890102392485  4.404101537043  0.318991369904 -0.057691184064  0.161364748395
Zn   3.277979282015  1.855506104468  10.067724858488 -1.256673721266  0.053181469119 -0.558888921699
Zn   4.803350221001  0.924304056323  7.477913429366  0.479144871600 -0.494900848883  1.096592724680
O    3.253646138033  1.749079123046  6.902948455710 -0.963076623066  0.895454038821  0.686203779598
O    4.759409802143  0.913057344421  9.477915554733  0.696314128559 -0.372961396363 -0.576622848643
Zn   1.572910893748  4.618676961474  5.013959827502  0.496383604076 -0.673294270625  0.444678205282
Zn   3.129415165485  3.744024255242  2.591497732749  0.933088561344 -0.467029833504 -0.255640930672
O    1.561416158417  4.596335036519  2.006161160787  0.536954069299  0.759719075178 -0.837219323548
O    3.285629014954  3.688858858495  4.503597925625 -0.831000339222 -0.240645999925  0.141080287114
Zn   1.627288752182  4.614845383030  10.089366181179 -0.656625808831 -0.083249749259 -0.148498433955
Zn   3.178385729616  3.647439585014  7.509789553935  0.200230572222 -0.188835443012  0.135593552968
O    1.603361522833  4.604003307291  7.034112578041 -0.373346547616 -0.303081640652 -1.110178948004
O    3.131766913415  3.673230825498  9.452925915745  0.779066626467  0.100630406630 -0.081875494620