# total energy = -36807.741942566914 eV

CRYSTAL
PRIMVEC
9.97207619857785 0.0 0.0
-1.6620160237883748 2.8786890966244614 0.0
0.0 0.0 5.229984999334735
PRIMCOORD
12 1
Zn  -0.082340430379  1.914970700264  5.202438136044  0.915880167885  0.339403100791  0.611723291891
Zn   1.610572077095  0.863942787955  2.679830939111  1.046659073074  0.865707660796 -1.543302615679
O    0.187810094294  1.977595338791  2.020288788620 -1.976453279937 -1.115483648047 -0.740732249663
O    1.597271321861  0.964498212719  4.536893792890 -0.261241050468 -0.450620281798  1.289479454942
Zn   3.358539420054  1.728916688589  5.080662133130 -0.589528243851  0.336295408400  1.499330066753
Zn   5.041230549425  0.950131442540  2.864964528152 -1.116692837864 -0.706104889397 -5.187223510712
O    3.228079733186  1.954402283969  1.798443001053  0.483855646812 -0.257636363835  1.380280277076
O    4.997721383763  0.820126482346  4.575890594072  0.357922756862  0.135247482483  2.862228143797
Zn   6.648944629482  1.887764881979  5.186243484297 -0.496957217191 -0.701150630716  0.826265138530
Zn   8.215249663124  0.891028941326  2.693924474402  0.566594260763 -0.083031462601 -0.688102282172
O    6.587071885500  1.585799445403  1.918748122728  1.001385803058  1.435717117888  0.328872376463
O    8.283177451773  0.870946177069  4.676301423731  0.068574920856  0.201656506036 -0.638818348336