# total energy = -12268.535326969557 eV

CRYSTAL
PRIMVEC
2.9404842854302067 0.0 0.0
-1.4702421427151033 2.546532903289695 0.0
0.0 0.0 4.909782480584239
PRIMCOORD
4 1
Zn   0.040235234574  1.735719355699  4.898927388796 -0.941941640859 -2.909263133699  0.166739896664
Zn   1.458382875544  0.825816780561  2.477330369923 -0.373512126660  0.381762539594  0.389535498671
O   -0.045240526925  1.697894142045  1.752907956589  0.267626385169 -0.501626597642  1.889725599432
O    1.416759438338  0.768141533689  4.344029187389  1.047827382350  3.029127191747 -2.446000994767