# total energy = -110404.41728352594 eV

CRYSTAL
PRIMVEC
8.629681152692129 0.0 0.0
-1.438283068675739 2.4911732067534005 0.0
0.0 0.0 13.85494446096606
PRIMCOORD
36 1
Zn  -0.000000000000  1.660783000804  4.617593091322  0.000000000000  0.000000000000 -0.003898049503
Zn   1.438280479771  0.830391068918  2.308436256473 -0.000000257110 -0.000000257110 -0.003894449958
O   -0.000000000000  1.660783000804  1.755679289599 -0.000000257110 -0.000000257110  0.003892650186
O    1.438280479771  0.830391068918  4.064836124448 -0.000000514221 -0.000000257110  0.003895992620
Zn  -0.000000000000  1.660783000804  9.235906761019  0.000000000000  0.000000000000 -0.003897792393
Zn   1.438280479771  0.830391068918  6.926749926171  0.000000257110  0.000000257110 -0.003898306613
O   -0.000000000000  1.660783000804  6.373992959297 -0.000001028441 -0.000000514221  0.003899077944
O    1.438280479771  0.830391068918  8.683149794146 -0.000000514221 -0.000000257110  0.003898049503
Zn  -0.000000000000  1.660783000804  13.854220430717  0.000000514221  0.000000257110 -0.003892650186
Zn   1.438280479771  0.830391068918  11.545063595868  0.000001028441  0.000000514221 -0.003894964179
O   -0.000000000000  1.660783000804  10.992306628995 -0.000002056883 -0.000001285552  0.003897021062
O    1.438280479771  0.830391068918  13.301463463844  0.000000257110  0.000000257110  0.003894449958
Zn   2.876560096575  1.660783000804  4.617593091322 -0.000000771331 -0.000000514221 -0.003897535282
Zn   4.314840576346  0.830391068918  2.308436256473 -0.000000257110 -0.000000000000 -0.003894449958
O    2.876560096575  1.660783000804  1.755679289599  0.000000514221  0.000000257110  0.003891878855
O    4.314840576346  0.830391068918  4.064836124448 -0.000000771331 -0.000000514221  0.003896249731
Zn   2.876560096575  1.660783000804  9.235906761019  0.000002056883  0.000001285552 -0.003897535282
Zn   4.314840576346  0.830391068918  6.926749926171  0.000000514221  0.000000257110 -0.003895992620
O    2.876560096575  1.660783000804  6.373992959297  0.000000771331  0.000000514221  0.003897792393
O    4.314840576346  0.830391068918  8.683149794146 -0.000000771331 -0.000000514221  0.003898306613
Zn   2.876560096575  1.660783000804  13.854220430717 -0.000000257110 -0.000000257110 -0.003893421517
Zn   4.314840576346  0.830391068918  11.545063595868  0.000000514221  0.000000257110 -0.003896763951
O    2.876560096575  1.660783000804  10.992306628995 -0.000001028441 -0.000000514221  0.003897792393
O    4.314840576346  0.830391068918  13.301463463844 -0.000000000000 -0.000000000000  0.003893164407
Zn   5.753121056117  1.660783000804  4.617593091322  0.000000771331  0.000000514221 -0.003898306613
Zn   7.191400672921  0.830391068918  2.308436256473  0.000000257110  0.000000257110 -0.003893678627
O    5.753121056117  1.660783000804  1.755679289599  0.000001028441  0.000000514221  0.003891621745
O    7.191400672921  0.830391068918  4.064836124448  0.000000771331  0.000000514221  0.003898820834
Zn   5.753121056117  1.660783000804  9.235906761019 -0.000002056883 -0.000001285552 -0.003897792393
Zn   7.191400672921  0.830391068918  6.926749926171 -0.000000257110 -0.000000257110 -0.003897535282
O    5.753121056117  1.660783000804  6.373992959297  0.000000257110  0.000000257110  0.003897535282
O    7.191400672921  0.830391068918  8.683149794146  0.000000514221  0.000000257110  0.003898306613
Zn   5.753121056117  1.660783000804  13.854220430717 -0.000000514221 -0.000000257110 -0.003893678627
Zn   7.191400672921  0.830391068918  11.545063595868 -0.000001285552 -0.000000771331 -0.003895478400
O    5.753121056117  1.660783000804  10.992306628995  0.000003085324  0.000001799772  0.003897021062
O    7.191400672921  0.830391068918  13.301463463844 -0.000000771331 -0.000000514221  0.003893678627