# total energy = -49078.866452167415 eV

CRYSTAL
PRIMVEC
6.648050622659499 0.0 0.0
-1.6620126556648747 2.8786923442696573 0.0
0.0 0.0 10.673438626629203
PRIMCOORD
16 1
Zn  -0.001455258281  1.967584319290  5.306866241994 -0.199475696334 -0.718834164039  0.412852833241
Zn   1.649715091623  0.957213585658  2.708693712188  0.221793900215 -0.090085284124 -0.768543615449
O    0.071596181181  1.922544441126  1.980004872268 -0.409690890573  0.018424268143  0.512273021613
O    1.672940056473  0.927438961334  4.739211137892 -0.345288613038  0.402852784605 -0.135335671321
Zn   0.005899480123  1.938503086646  10.546682904627 -0.314540276111  0.290345166922  0.802768598070
Zn   1.602814424090  0.976633871137  7.998009765342  0.862972264143 -0.369739032771  0.384534703023
O    0.012165267834  1.846521323036  7.466548643245 -0.472290053462  0.831392432454 -0.923344851694
O    1.612482684111  1.012855774955  10.071330664980  0.771328891503 -0.299353798179 -0.641395879255
Zn   3.282790112538  1.930769409357  5.323157954849  0.347954075685  0.142171463296  0.096680163733
Zn   5.018050989963  0.957293362266  2.694423671526  0.077250851363 -0.003933787837 -0.724474135933
O    3.360055751289  1.891816486343  2.016503334992 -0.081597558368  0.165813528195  0.314072592446
O    4.946837071693  0.968849668663  4.660905079218  0.310800349453  0.080702043137  0.506605024693
Zn   3.313709531179  1.964618623907  10.686569856219  0.080859137540 -0.246926433617  0.095696973884
Zn   5.005147788509  0.901778150736  7.986884252625 -0.348350796903  0.298386292059  0.293143555603
O    3.314375665851  1.943433945793  7.335038235438 -0.063284361881 -0.564639451029  0.035857118908
O    5.012031180124  0.962781992860  10.034307671063 -0.438440709012  0.063424487003 -0.261390431561