# total energy = -24539.9071024696 eV

CRYSTAL
PRIMVEC
6.264509332171351 0.0 0.0
-1.5661273330428378 2.7126139794515134 0.0
0.0 0.0 5.330558693875253
PRIMCOORD
8 1
Zn  -0.017141576886  1.887780444056  5.411103996163  0.293428433833 -1.038359809180 -0.020697123338
Zn   1.560727325999  0.893642905900  2.665410275183  0.091272876674  0.374346963856  0.833677371833
O   -0.004761027092  1.823130707748  2.082015314606 -0.163366095096 -0.431957929502 -0.752144348155
O    1.620693088679  0.873450512970  4.678761555900 -0.579768079141  0.970776819923 -0.200752249054
Zn   3.174882146287  1.815791208614  5.363615256719 -0.630634784084  0.263338042206  0.145259872413
Zn   4.653320130600  0.909505269980  2.663892384571  0.225005465174  0.138002162410  0.779292883545
O    3.116487522548  1.834715664856  2.008203733399 -0.067902320269 -0.090383532091 -0.132661981144
O    4.679026544645  0.923796495120  4.720011470500  0.831964502907 -0.185762460513 -0.651974426102