# total energy = -110429.39880128841 eV

CRYSTAL
PRIMVEC
9.780305553333779 0.0 0.0
-1.630054185657481 2.8233297056086286 0.0
0.0 0.0 15.074179562936735
PRIMCOORD
36 1
Zn  -0.012564758544  1.891374169737  5.012370408953  0.049781699409  0.196612258744 -0.010245331877
Zn   1.631656199707  0.950688733128  2.507111888428 -0.023018572382  0.313609536767 -0.337414095386
O   -0.051799432302  1.929265029512  1.896750403700  0.878076723884 -0.044085934576 -0.258948397779
O    1.646604418715  1.001961006961  4.446931823693 -0.592462643889 -0.595535626388  0.075438223635
Zn  -0.001257747294  1.885232137850  10.063443443042 -0.275624829993 -0.067920575101  0.009008374146
Zn   1.572151842690  0.916315849261  7.563278505649  0.500726711536  0.478135970719 -0.092605479443
O   -0.025393585339  1.899626791563  7.000130467949  0.613845223330  0.146104222692 -0.634772203291
O    1.634939448281  0.966060439367  9.513595642864 -0.175251790790 -0.276251922054 -0.178600909768
Zn   0.119430245203  1.869707858845  14.992686144944 -0.943054414307  0.007017826079  0.376501291195
Zn   1.671875750234  0.961783511748  12.598241420430 -0.306205016773 -0.151746508579 -1.945425464097
O    0.004951768702  1.889513955621  12.005004272695 -0.127409731606 -0.132685635293  0.224812632437
O    1.737434116389  0.980900096983  14.415185508845 -0.489933991796 -0.572720428265  1.616843108071
Zn   3.223419511093  1.890386358876  5.052668201924  0.713471871285  0.411713834541 -0.433821207963
Zn   4.817879252719  1.061976873959  2.512749256549  2.129073449371 -1.127406624737  0.182033075378
O    3.335887156773  1.845044862331  1.922452068663 -2.203904635549  1.211329745914 -0.673004764409
O    4.873117440454  0.957195570413  4.406612514049  0.243680415876  0.003440650250  0.758749512176
Zn   3.269347825971  1.850754604713  10.072144980892 -0.010044785831  0.286429633918 -0.882559956467
Zn   4.845244547658  0.919761450908  7.594305546986  0.339676923278  0.320220871436 -1.301396003874
O    3.246851167137  1.902368211210  6.958674686800 -0.272105503986 -0.370085103256  0.533159635254
O    4.880214030164  0.947578595963  9.450442253845 -0.148043348696 -0.375538670172  0.780637570499
Zn   3.279576069519  1.919690110375  15.044902218263  0.641875389994 -0.077637031058  0.328237313982
Zn   4.847088135254  0.923491659446  12.551708682668  0.293610210827  0.154779124758 -0.413320516906
O    3.279631817261  1.900977451760  11.927977520249 -0.268719875343 -0.148336454456  0.959357779453
O    4.913475871320  0.915519732389  14.450842546831 -0.215172281134  0.393878091911  0.501898877467
Zn   6.570159872938  1.864595693132  5.044628790760 -0.408396597242 -0.270452284653 -0.573646796734
Zn   8.195008001949  0.922962544915  2.531003218833 -0.518604620257  0.401370029412 -1.125891473644
O    6.554110391525  1.951321574596  1.890622064240 -0.211733173545 -0.839276206077  0.771918702568
O    8.192933599142  0.905356038858  4.385195600948 -0.007639518823  0.251029657152  1.258607190844
Zn   6.498937731838  1.823252385497  9.983199948099  0.511790168439  0.306489123672  0.281958228410
Zn   8.227719211903  0.929196511675  7.553896258531 -0.945148834943 -0.486928629310 -1.448179769132
O    6.552691269189  1.856635502442  6.929489276998 -0.145654279638 -0.061927590743  0.647099357397
O    8.162949138376  0.900929472565  9.371122997777  0.010985552477  0.135425402822  2.045018687712
Zn   6.474737343776  1.943589265025  15.085651861351  0.258689487690 -0.466932131584 -0.394858196436
Zn   8.145133333780  0.863588265962  12.604936039581 -0.189447365564  0.468577123386 -0.778705900694
O    6.443640862270  1.868718091923  11.952485987935  0.694329494029 -0.161639342213 -0.105769270518
O    8.108583353897  0.940615996439  14.498021762790  0.597961976441  0.740943594343  0.237885663571