# total energy = -36808.48285684794 eV

CRYSTAL
PRIMVEC
3.004407833844898 0.0 0.0
-1.502203916922449 2.601892294305528 0.0
0.0 0.0 15.049547527351175
PRIMCOORD
12 1
Zn  -0.000000000000  1.734595764193  5.015732993916  0.000000000000  0.000000000000  0.708154829948
Zn   1.502203916922  0.867297731876  2.507475172838  0.000000000000  0.000000000000  0.708150201962
O   -0.000000000000  1.734595764193  1.907058387960  0.000000000000  0.000000000000 -0.708175912994
O    1.502203916922  0.867297731876  4.415315908598  0.000000000000 -0.000000000000 -0.708166657022
Zn  -0.000000000000  1.734595764193  10.032248335632  0.000000000000  0.000000000000  0.708173084780
Zn   1.502203916922  0.867297731876  7.523990514553  0.000000000000  0.000000000000  0.708183369193
O   -0.000000000000  1.734595764193  6.923573729676  0.000000000000  0.000000000000 -0.708158686603
O    1.502203916922  0.867297731876  9.431831250314  0.000000000000  0.000000000000 -0.708171027898
Zn  -0.000000000000  1.734595764193  15.048763677347  0.000000000000  0.000000000000  0.708199052922
Zn   1.502203916922  0.867297731876  12.540505856269  0.000000000000  0.000000000000  0.708167428353
O   -0.000000000000  1.734595764193  11.940089071392  0.000000000000 -0.000000000000 -0.708175655884
O    1.502203916922  0.867297731876  14.448346892470  0.000000000000  0.000000000000 -0.708179769649