# total energy = -110425.75133174779 eV

CRYSTAL
PRIMVEC
10.163846843821924 0.0 0.0
-1.6939778619192687 2.934048487640294 0.0
0.0 0.0 15.338962577443889
PRIMCOORD
36 1
Zn   0.060539937341  2.028619470098  5.092844475345 -0.232271916929 -0.274838843757 -0.455575311810
Zn   1.622269889667  1.002382968970  2.642738407711  0.267820503457  0.051535705985 -0.724653084713
O   -0.040695026378  1.984132312463  1.969778927950  0.753549456033  0.405454741005  0.166091978667
O    1.752138442714  1.018736598542  4.576117550959 -0.498517619700 -0.096873510690 -0.428723224614
Zn   0.009373099559  1.936846031406  10.156289007309 -0.310864627032 -0.479859124058  0.445260045927
Zn   1.573908273614  1.082213887620  7.727532099970  0.295081653166 -0.092129568247 -1.686189616985
O   -0.003233119681  2.044517759331  6.971450647951 -0.601428080613 -0.347078100838  1.294009995823
O    1.679950736890  0.881129292508  9.564044700873  0.330058940572  0.505474253523  0.935800818069
Zn  -0.007476525738  2.004212008287  15.326379735051 -0.199110085465 -0.379059538841 -0.562970033747
Zn   1.723075939048  0.895833329737  12.737929482487 -0.013601649944  0.294151685153 -0.749377069822
O    0.033482760658  1.917393444932  12.133627804541 -0.269465752370 -0.111346250385 -0.093721338215
O    1.744923127839  0.947593736174  14.623297662399 -0.370652288614  0.101070065270  1.595682671943
Zn   3.385721710302  2.005468259757  5.087217769732  0.331913220172 -0.205683624917 -0.499871562624
Zn   5.043009101500  0.971573300032  2.527999757076  0.540481108616  0.137191236473 -0.199668529071
O    3.403024643169  1.924852692131  1.936688491780 -0.477146610223  0.107192376118  1.078821773849
O    5.069072253962  0.954262236088  4.524292095902  0.142924025191  0.530409069092 -0.320244268475
Zn   3.452009303033  1.964420547894  10.135446006586 -0.245839628311 -0.099386249810  0.997318060747
Zn   5.131139817483  0.889523613616  7.642871321300 -0.401220134098  0.621228660278  0.176037262806
O    3.276160523249  2.068709747589  6.968105725955  0.168530155795 -0.790735321054  1.457712905433
O    5.188051261500  1.011022238787  9.722087437371 -1.666870862052 -0.939669556996 -1.251968859591
Zn   3.309612792366  1.958337485558  15.400557522087  0.782936908056  0.384264480080 -1.836234826603
Zn   5.130138678569  0.959335012048  12.660088645049 -0.220997886677  0.554052933763  0.858283857528
O    3.257632846838  2.045089983908  12.210102620963  0.628525965271 -0.807283455221 -1.228205695734
O    5.172483297289  1.032336842004  14.665283497326 -0.806649678292 -0.490755716366  0.532267976677
Zn   6.766117564858  1.954649025538  5.084957330194 -0.005340438376  0.022811341468 -0.476610020993
Zn   8.466554551447  1.177893292654  2.571866920053 -0.719134725998 -0.626621292049 -1.533561220022
O    6.777873070118  1.992270504630  1.828429293508 -0.182204567959  0.023933627997  4.352510241415
O    8.479667946645  0.979346610099  4.398602916677 -0.016611640415 -0.005022392915  1.953333663201
Zn   6.748513782125  1.931771222677  10.177959345165  1.188716636500  0.096584775805  0.314767304520
Zn   8.438981051344  0.898739173550  7.654605482481  0.098886684466  0.485138884400 -0.093974591876
O    6.662796979767  1.949844575135  7.055698774440  0.723738286208 -0.002930286273 -0.114813897219
O    8.436110780996  0.832812397382  9.609277884867  0.431601317493  1.174253924108 -0.469304231360
Zn   6.791485510196  1.929440652596  15.440525833415 -0.234369422888 -0.089879595871 -3.804094708444
Zn   8.498846109254  0.980762433964  12.796221176906 -0.271275808996 -0.173096177899 -0.047222423322
O    6.769149440372  1.959307116547  12.094780565519  0.353969428641  0.113138052178  0.834562859762
O    8.453668826418  0.956841820417  14.790229699347  0.704838363980  0.404363307713 -0.415475615576