# total energy = -110426.21223422204 eV

CRYSTAL
PRIMVEC
9.204993617601557 0.0 0.0
-1.5341686712647988 2.65725153256113 0.0
0.0 0.0 15.07418039312687
PRIMCOORD
36 1
Zn  -0.039341222222  1.757434870960  5.040892914333  0.621526136914 -0.024657907758 -0.896210714481
Zn   1.466805607472  0.900156325865  2.335363951746  1.795056552592  0.629217334911  1.858748691434
O    0.014014602783  1.813667256471  1.877550832676 -1.244771827622 -0.441263523173 -0.151810271937
O    1.594916106145  0.881856798553  4.373943260771 -1.821935122150 -0.530461005375 -1.057922047582
Zn   0.000409622216  1.744071981726  10.021157138204  0.110194396169  0.425465894019  0.983284465472
Zn   1.576415909972  0.874434812200  7.551623040487 -0.738296386528  0.063786755439  0.535150440431
O   -0.088289696283  1.755706173159  6.882903266652  2.465243902157  0.779444064411  0.495393215138
O    1.540620451291  0.886358040432  9.535473139459  0.065380325178 -0.371876133718 -1.714823735782
Zn  -0.007935624998  1.843018299120  15.080577863691 -1.187249822147  1.127836256075 -0.386268397884
Zn   1.541259277848  0.989857147670  12.543434008352  0.149157150585 -1.078377230113  0.230250772734
O    0.007178054023  1.773120180085  11.964964594441 -0.397948148215  1.116734746845 -0.455458840837
O    1.430953998330  1.006673750510  14.461676435814  0.771286725411 -1.561312936214 -0.673632113581
Zn   3.014658422249  1.761375528728  4.962330134806  1.400060802137  1.077500483935  0.781575508932
Zn   4.621513405115  0.815066285364  2.569230622092  0.370691369382 -0.324974584071 -1.577414726872
O    3.156991556560  1.696641411112  1.816841138270 -0.737675722225  0.290681210105  1.536660427772
O    4.678473905621  0.986396070070  4.375152796933 -2.691605367139 -1.920911281006  0.340563439648
Zn   2.983889810582  1.868922071659  10.111542811534  0.816290286705 -1.612240833412  0.938991042871
Zn   4.626871631900  0.828681391423  7.537862495528  0.498262309156  0.735087392673  0.726060249473
O    3.104422758509  1.747406030414  6.927156273469 -0.194205449074 -0.351594243541 -0.855094146946
O    4.519484335359  0.856820136413  9.506768287362  0.065504766571  2.107111086167 -1.642474435486
Zn   3.016802265262  1.687635245357  15.066771293764  1.169104261586  0.976381567705 -0.725270920803
Zn   4.651379006908  0.870088214213  12.641370537946 -0.184275334445 -0.788317969862  0.294810401783
O    3.133571291299  1.707561295041  11.997949768570 -0.132808791134  0.579066167978 -0.309245089151
O    4.606373952113  0.875960079642  14.504464928146  0.888831648408  0.030002717010  0.367908664430
Zn   6.088770977774  1.804028707654  4.959610059192  1.824440662181  0.689215312731  1.912225066086
Zn   7.620951370417  0.970433690638  2.460944918173  1.138311958795 -1.498453320575  1.189368154041
O    6.165916188284  1.744700682790  1.818925148825 -1.402762774449  1.233804015757  0.700763679690
O    7.618654724510  0.893247057656  4.432593798105  0.733638061821  0.689595321778 -1.343727160542
Zn   6.052731586762  1.803156074259  10.043510544705  0.255202043362  0.216317964703 -0.084331926580
Zn   7.677530784187  0.912549008773  7.506867441019 -0.672685433397 -1.372994027827  1.379406616222
O    6.186606252439  1.760337205448  6.916580656302 -1.420320837938  0.308329005094 -0.386440404686
O    7.669405536321  0.970647246489  9.471175338541 -1.180355666130 -0.847804041043 -0.843878737847
Zn   6.296086764529  1.864480662239  15.060571730563 -1.198154384874 -2.739206771067 -0.114554472910
Zn   7.769653439813  0.792439490552  12.544850656870 -0.978176454822  0.606443531549 -0.436814486263
O    6.090952561261  1.725874629843  11.930075827631  1.521041747399 -0.330488829021 -0.160595474329
O    7.756032810757  0.828516622038  14.418297903391 -0.475997584220  2.112913808892 -0.455192474549