# total energy = -73617.43929749136 eV

CRYSTAL
PRIMVEC
9.97207619857785 0.0 0.0
-3.3240220755005505 5.757378193248923 0.0
0.0 0.0 5.55018836607107
PRIMCOORD
24 1
Zn  -0.000000000000  1.919127061624  5.549320795442  0.000012084185  0.000006427758  0.054923391511
Zn   1.662013032166  0.959563032208  2.774227609614 -0.000003342434  0.000011312854  0.054926476835
O   -0.000000000000  1.919127061624  2.109936756438  0.000000514221  0.000001285552 -0.054923391511
O    1.662013032166  0.959563032208  4.885029942266  0.000000514221  0.000001799772 -0.054924934173
Zn  -1.662013032166  4.797817155456  5.549320795442  0.000004885096  0.000002571103  0.054924419952
Zn  -0.000000000000  3.838254123248  2.774227609614  0.000011055744 -0.000007456199  0.054928019496
O   -1.662013032166  4.797817155456  2.109936756438 -0.000001285552  0.000001028441 -0.054926219724
O   -0.000000000000  3.838254123248  4.885029942266  0.000001542662 -0.000000514221 -0.054923905731
Zn   3.324025067123  1.919127061624  5.549320795442 -0.000006684868 -0.000000000000  0.054921077518
Zn   4.986038099289  0.959563032208  2.774227609614 -0.000002056883 -0.000007199089  0.054926733945
O    3.324025067123  1.919127061624  2.109936756438 -0.000001028441 -0.000000257110 -0.054924677062
O    4.986038099289  0.959563032208  4.885029942266 -0.000000000000 -0.000000000000 -0.054926476835
Zn   1.662013032166  4.797817155456  5.549320795442  0.000000257110 -0.000007456199  0.054921591739
Zn   3.324025067123  3.838254123248  2.774227609614 -0.000015169509  0.000000771331  0.054925448393
O    1.662013032166  4.797817155456  2.109936756438  0.000000257110 -0.000000514221 -0.054923391511
O    3.324025067123  3.838254123248  4.885029942266  0.000000257110 -0.000000514221 -0.054924677062
Zn   6.648051131454  1.919127061624  5.549320795442 -0.000002313993 -0.000001799772  0.054924677062
Zn   8.310063166412  0.959563032208  2.774227609614  0.000002828213  0.000003599544  0.054924419952
O    6.648051131454  1.919127061624  2.109936756438 -0.000000257110  0.000000514221 -0.054926219724
O    8.310063166412  0.959563032208  4.885029942266 -0.000001542662 -0.000002056883 -0.054924934173
Zn   4.986038099289  4.797817155456  5.549320795442 -0.000001285552 -0.000000514221  0.054929047938
Zn   6.648051131454  3.838254123248  2.774227609614  0.000002056883  0.000000000000  0.054925191283
O    4.986038099289  4.797817155456  2.109936756438 -0.000000771331  0.000000514221 -0.054926991055
O    6.648051131454  3.838254123248  4.885029942266 -0.000001028441 -0.000000514221 -0.054924934173