# total energy = -98158.123124015 eV

CRYSTAL
PRIMVEC
6.392356429000733 0.0 0.0
-3.1961782145003665 5.535940476425361 0.0
0.0 0.0 10.878691156853458
PRIMCOORD
32 1
Zn   0.059751912484  1.904653736872  5.379079081250 -1.252503906159 -0.451211635525  0.869599282541
Zn   1.537215336212  0.844228925043  2.693106795130  0.428448116576  2.266298881515  0.607369900018
O    0.005040373044  1.831103923036  2.025032675436 -0.304808907756  0.807450834037  0.183372620125
O    1.565265635459  1.028615807002  4.716240301471  0.730858699303 -1.158840931987 -0.030998248154
Zn   0.037657371723  1.911661037990  10.900432839540 -0.243597626354 -2.641916741664  0.659859742387
Zn   1.615230211015  0.946765518343  8.094473466305 -0.635596241854 -0.602878954127  0.605090359956
O   -0.059451471732  1.886034081066  7.547105573824  1.349188440767  0.141339711423 -1.005088705831
O    1.559278554427  0.819353070000  10.189076074465  0.471458301589  0.778967896106 -0.348939836637
Zn  -1.549277712794  4.692339280783  5.401158919591 -0.535604240139 -0.505450085153  0.412263022176
Zn  -0.038239076158  3.738055712044  2.740653781485  0.483501605907 -0.290138193118 -0.765449292794
O   -1.648218605602  4.712241243289  2.031550322051  1.236141919862 -1.716886531848 -1.018512692547
O    0.079132258706  3.671899936889  4.668921522241 -1.423382507582  0.397320799044  0.062639014987
Zn  -1.618766462591  4.565869065778  10.810271848287  0.213118483929 -0.151519737280  0.195266029128
Zn  -0.059174682699  3.694038584910  8.258715476214  0.903544014918  0.177882029324 -0.025881752863
O   -1.582717407745  4.534042801589  7.523104193141 -0.433063760971  0.943318980823 -0.646457352938
O    0.002767251098  3.553934752113  10.244754138197  0.116919116487  2.786434336595 -0.709818590804
Zn   3.182338123596  1.808173901289  5.428000424237  0.603247650320  0.741386852528 -0.288416068220
Zn   4.824955746495  0.930911835163  2.780352871851 -0.458298110058  0.825038465212  0.069025635240
O    3.123793727241  1.874584092230  2.068434218647  0.480950300240  0.094093119732  0.004483489693
O    4.818540377583  0.909179101776  4.768623744700 -0.116167840144  0.190694864818  0.134756401779
Zn   3.154311476069  1.802349186111  10.942185794027  0.323863096174 -0.512075303779 -0.105213655125
Zn   4.789646926524  1.022690731828  8.116543076876 -0.254566980881 -1.142909862579  0.864451934012
O    3.180721496655  1.872442652826  7.430647706694 -0.204440239428 -0.902427127704 -0.288229920352
O    4.842342316746  0.841184884912  10.221423315703 -0.598693198180  0.764901647821 -0.294982151474
Zn   1.492059730398  4.554562904962  5.467631116389  1.742585479276  0.825285291115  0.401296752972
Zn   3.286646038862  3.775769336504  2.650527308957 -1.557797723972 -1.106237446858  0.943370659996
O    1.592176177553  4.730940803551  2.069097745244 -0.144220632516 -1.326576616905 -0.184316472095
O    3.230019988671  3.723702314919  4.806006245097  0.095252173037 -0.037083020895 -0.401155856519
Zn   1.667409738073  4.616488218632  10.973258399393 -0.446676980879 -0.038821343743 -0.245016103968
Zn   3.132716817580  3.589685923149  8.132341785791  0.087822456232  1.583375572441  0.497610277394
O    1.644748834532  4.685140208973  7.436532510023 -0.643555605910 -0.502428267608  0.381162444116
O    3.176443731733  3.627046050298  10.247057304219 -0.013925094722 -0.236387224649 -0.533140351980