# total energy = -36802.21620725497 eV

CRYSTAL
PRIMVEC
8.629681152692129 0.0 0.0
-1.438283068675739 2.4911732067534005 0.0
0.0 0.0 4.803047528197316
PRIMCOORD
12 1
Zn   0.064165994211  1.615486667401  4.817850883247 -2.692070736811  0.844158730981  0.849585044203
Zn   1.428400357820  0.920106097149  2.380286118782  4.097466578008 -3.560925427876  1.540695774184
O    0.068117525211  1.632714099886  1.924275644343 -4.429771891412  3.662291170010 -3.813146277123
O    1.482188297476  0.890386338228  4.152773438362 -0.907401440991 -2.863127772793  0.249278221679
Zn   2.870458912000  1.591320971269  4.896239454965  0.097000008966  2.442489639180  0.325300599952
Zn   4.335515566452  0.860873691653  2.308734843441  0.427086203232  0.406086203941  2.836962170141
O    2.893867785095  1.695491578400  1.858689204615 -0.188824644378 -0.395194753840 -0.904910556248
O    4.214171893827  0.831941822621  4.173183497257  2.258705385439 -1.545924883794 -1.274200674407
Zn   5.739041731317  1.606931201507  4.833882241924 -1.275931026834 -1.563554166840 -0.267104194117
Zn   7.200517931059  0.870187706522  2.371397547195 -0.423609043316 -0.182829603137  2.092831436319
O    5.770318284719  1.695525234156  1.789569773422  0.384410775850  0.395346448926  0.206068519060
O    7.106936805671  0.720259078047  4.240007433262  2.652939318027  2.361184672352 -1.841360320755