# total energy = -49074.9759697305 eV

CRYSTAL
PRIMVEC
5.880968041683205 0.0 0.0
-2.9404840208416023 5.093065348298698 0.0
0.0 0.0 5.19303592403927
PRIMCOORD
16 1
Zn  -0.054196060988  1.624923819950  5.323856293836  2.831103911588  1.174440071976  0.691418748140
Zn   1.488508297158  0.807782129656  2.626632635071  0.238944443853  0.902712263045  1.554374043002
O    0.019509523381  1.752168561177  2.024033951808  0.087926585910 -5.548107149975 -1.938567303525
O    1.603962285559  0.872332222978  4.596731640872 -3.486128951591 -0.144365899844 -2.255652714656
Zn  -1.403675333157  4.341240629560  5.271323958707 -0.385336630099 -2.204504731027  0.285811283608
Zn  -0.030387549968  3.315583924476  2.500619956648  0.962993319323  3.922662159168  3.763982413804
O   -1.423480081134  4.245053868657  1.961361063485 -1.810042227368  0.221961536142 -1.161943225061
O    0.010331684656  3.315459247954  4.572312685369 -0.007818981824  0.564767234856 -0.953837363856
Zn   2.932432975593  1.774809111944  5.171548043009  1.242279400218  1.383830713432  2.976634778275
Zn   4.489384566917  0.701677116151  2.626295655602 -0.513294778009  3.273783084162  2.158415392868
O    2.965498130310  1.718198913575  2.013618757407  0.663171323259 -1.365513917400 -1.543916338004
O    4.408043721739  0.900050989649  4.661851599998 -0.705764218229  2.008985962458 -3.714037192234
Zn   1.465086165739  4.388602417586  5.146493942957 -1.172182900511 -4.126496646691  2.039498786335
Zn   3.010247004236  3.337314689487  2.704592511722 -0.865915663042  1.525056782095  0.210545580995
O    1.413662981182  4.265369084660  1.924333312501  1.375900402841 -2.917996399807 -1.700008268036
O    2.887301838744  3.443532617578  4.554824450704  1.544164963680  1.328784937410 -0.412718878766