# total energy = -24539.7452733765 eV

CRYSTAL
PRIMVEC
3.13225493067428 0.0 0.0
-1.56612746533714 2.7126110763371933 0.0
0.0 0.0 10.258814597278223
PRIMCOORD
8 1
Zn   0.120916316442  1.862912691950  5.108847803725 -2.149723778631  0.774422185717  1.236112095065
Zn   1.569693537576  0.901663433364  2.563463432980 -0.461458252953 -0.072150039802  0.020790454383
O   -0.051442902079  1.801152142129  1.874176593906  0.478088662421  0.109620783054  1.139929439794
O    1.520428492350  0.963722487080  4.550422816949  2.122425862147 -0.855010328983 -1.239232900082
Zn  -0.037566699511  1.847152438041  10.250551708771  0.063297217397 -0.393496025981 -0.652984098313
Zn   1.574053323214  0.873270482094  7.656092107448 -0.036045580770  1.255949955726  0.833659117001
O    0.002209805854  1.863783145595  7.109323494171  0.015240985319 -1.245077274678 -1.102957233445
O    1.533941979797  0.905139923111  9.622700917908 -0.031825372041  0.425740744947 -0.235316874403