# total energy = -73617.29940852891 eV

CRYSTAL
PRIMVEC
6.775898248666088 0.0 0.0
-1.693974562166522 2.9340520283496487 0.0
0.0 0.0 14.686237709818599
PRIMCOORD
24 1
Zn  -0.021167906129  1.857865923466  4.840139986882  0.353938061183  0.717071415711  0.448611736008
Zn   1.586692442785  0.958927152921  2.408871805200  0.752732873669  0.041629502615  0.690835879053
O   -0.061925611684  1.904752428988  1.895825860635  0.582673682823  0.673428225100 -0.173089235921
O    1.671458929876  0.978691092932  4.391477272296  0.407096904594 -0.262512975201 -0.963362529737
Zn  -0.046643250774  1.895339351141  9.834702694852  0.492733666028  0.252316494284 -2.412896498904
Zn   1.690524274778  1.021714658862  7.314572673177 -0.196330465837 -0.381353477081 -2.207126484920
O   -0.020650227503  1.916817593409  6.751711002278  0.030874578092  0.242404891598  0.506255611774
O    1.752430236358  1.033942444842  9.105691255766 -0.418943776630 -0.381323652284  2.630226192700
Zn  -0.026823748397  1.856482285044  14.671276526486  0.260748427102  0.284481766163 -1.078146345049
Zn   1.734701098590  0.974113296076  12.290696129243 -0.141016009535  0.012326382776 -2.223647108283
O    0.020928716921  1.988604847405  11.628482172682  0.297426756359 -0.038858367628  2.115237829039
O    1.816736221097  0.989154435008  14.086195330049 -0.881872700592 -0.420694697883  2.205434441930
Zn   3.387579160289  2.055747900741  4.850503723254 -0.190469636181 -1.339225416017 -0.287226161677
Zn   5.156087925601  0.958791634956  2.405001412121 -1.153154423125 -0.349142953787  0.338208566263
O    3.353328349821  1.977934162843  1.859292927637  0.040904194414 -0.271456557548  2.391110513377
O    5.152247346473  0.912048100887  4.339465477339 -0.694465505386  0.924554041510 -0.760230467597
Zn   3.343716738156  1.869620751748  9.812444546695  0.378391052019  0.228299819655 -1.620266789040
Zn   5.066875771669  0.899658370940  7.367606273590  0.195233633228  0.362523745969 -1.781870135809
O    3.429227896464  1.952189815037  6.708700988144 -0.091870658159 -0.315593657076  1.061347014103
O    5.150214576999  0.958849907681  9.182418817174 -0.488635327589 -0.174397927430  1.945536021533
Zn   3.388654495341  1.925742806582  14.779815574992  0.440109869185  0.138503527526 -2.948378097422
Zn   5.098044903613  0.895153753784  12.174693428815  0.095761765683  0.399126484794 -1.378348607271
O    3.453708539247  1.956051399449  11.647807712077 -0.203096580916 -0.362423730056  1.070462603251
O    5.094549895296  0.988592035453  13.992433160443  0.131229619573  0.020317371401  2.431322309709