# total energy = -98152.82177772005 eV

CRYSTAL
PRIMVEC
6.136662235341968 0.0 0.0
-3.068331117670984 5.314502912362029 0.0
0.0 0.0 9.458308633425634
PRIMCOORD
32 1
Zn  -0.013662664801  1.820478899420  4.696768081766  0.059220990445 -0.806511352942 -0.604215156439
Zn   1.530667047695  0.867576760184  2.355206168290 -0.134998599697  0.262703751056 -2.139188683428
O   -0.012597953903  1.798864961361  1.720596130213 -0.259544379491 -0.469931837642  4.150098602381
O    1.579732730598  0.885339942690  4.103969578163 -1.599935276572 -0.143618223045  2.001270853202
Zn  -0.011771345500  1.748805139176  9.478099982801  0.037246285946  1.210753561695 -3.064393214038
Zn   1.464551262438  0.969515924906  7.085597022443  1.667031556000 -2.311613032071 -0.304230666655
O    0.025571471535  1.750106725236  6.562053206831 -2.170179989603  0.853815280234 -1.614541456521
O    1.461333196762  0.855577130849  8.864627064127  1.310468655600  1.147021056533  1.077361130144
Zn  -1.603655894656  4.416163678059  4.716624479761  1.343256905774  0.886916176553 -0.402800591211
Zn   0.047267640868  3.534630306953  2.349156032992 -2.018414711971 -0.142092787539  0.425242208044
O   -1.604783199509  4.426084819895  1.748230747591  1.738063680147 -0.062868614500  1.601797783702
O    0.057576006091  3.620074123587  4.269702415153 -2.703294373441 -1.525103319062 -1.670201211977
Zn  -1.622973493707  4.485096804948  9.423204470775  1.080385775902 -1.672160906806 -1.337278319593
Zn   0.025554288880  3.489005450566  7.044841607540 -0.542747278942  1.846671962775 -0.375974472157
O   -1.562826226139  4.470246696005  6.516565811678  0.464248671214 -0.452263216718  1.417977791627
O   -0.000878770032  3.540242284567  8.857677907812 -0.341812481564  0.355031037136  1.227289354567
Zn   3.039682723692  1.741958465120  4.697729696738  0.856789275261  0.511731804397  0.032630641551
Zn   4.597116664725  0.828731688234  2.366358938236 -0.185865561750  1.006279640816 -2.361488576745
O    3.039038374157  1.827459352713  1.764858647584  0.507748137159 -1.292757868583  1.493067630783
O    4.584442616210  0.863810076904  4.110300158925  0.713940583392  0.484920340631  2.445907149502
Zn   3.038046689540  1.792353962729  9.444917822762  0.204067943691 -1.066355523062 -1.657697680193
Zn   4.614709861687  0.934578679468  7.061737679672 -1.246222958247  0.141254093688  0.214643919434
O    2.973500048816  1.771075700094  6.543463415921  1.854167499822  0.222557260744  0.084701908325
O    4.657583038728  0.814651116735  8.932669147660 -1.463915948920  2.808062970609 -1.093103737690
Zn   1.501182840319  4.403419057928  4.761736924851  2.634364383238  1.209178246789 -1.452113042748
Zn   3.054726751161  3.565825415760  2.322555443201  0.260070941419 -0.486237002560  0.609386159117
O    1.520775975504  4.375729824256  1.824934729869  0.076071743454  0.933479883245  0.336661276380
O    3.104233046413  3.539985158420  4.185397563030 -1.593689809883 -0.714806016716 -0.339927091616
Zn   1.533239536504  4.503177252892  9.477371560994 -0.790921726034 -2.817941148954 -0.609893694881
Zn   3.001695557122  3.557345162217  7.069133584998  1.244120052971 -0.099222213428 -0.435244313562
O    1.563888482372  4.490908224085  6.508936099521 -1.022786380221  0.146230206747  1.900802683182
O    3.017286974864  3.528770408185  8.888372878647  0.023066394901  0.036875532870  0.443453331736