# total energy = -73618.75938743817 eV

CRYSTAL
PRIMVEC
9.97207619857785 0.0 0.0
-3.3240220755005505 5.757378193248923 0.0
0.0 0.0 5.229984999334735
PRIMCOORD
24 1
Zn  -0.029212200016  1.936755697928  5.240323050730  0.292348056285 -0.229186336025 -0.201268012348
Zn   1.656383795151  1.007093936201  2.619849897984  0.012119923192 -0.288414782669 -0.166356288072
O    0.002154965667  1.865101344403  1.996687875881 -0.037179437264  0.741011728577 -0.135224342554
O    1.679417296755  0.953737345293  4.573498292992 -0.339649926695 -0.028590667153  0.539863015416
Zn  -1.646022807981  4.735339106449  5.261246461010  0.032876439013  0.567365334601 -0.383687524531
Zn   0.040136609492  3.923767668274  2.616142280053 -0.665448806439 -0.526675313081 -0.515974895944
O   -1.696751756811  4.848644827840  1.962656171438  0.184043935160 -0.503431769172  0.531582263464
O    0.038113275231  3.870622485381  4.533338747725 -0.597572968533 -0.491825809502  0.688699035216
Zn   3.324870699185  1.939088166551  5.139591120217 -0.429652935517 -0.212476222359  0.550195764800
Zn   5.012644595794  0.943519956020  2.584177787006 -0.016999619882 -0.036308090402  0.154793265825
O    3.342335793439  1.892535523233  2.049716385482  0.201534121525  0.219044362495 -0.455008126453
O    4.900690090728  0.947022149181  4.670488700514  1.008518300338  0.009484542452 -0.557647335982
Zn   1.621000874384  4.783209061033  5.162457090941  0.449228286546  0.213321086858  0.381077597712
Zn   3.344714133613  3.778479504098  2.630997681966 -0.142067590728  0.303575806680 -0.255214384657
O    1.636452606453  4.763103361001  1.965391511940  0.702536969541  0.348716664883 -0.013464610145
O    3.317362723015  3.827799398561  4.605736020927  0.158749165149  0.367683950014  0.204481891300
Zn   6.663840916907  1.938901688726  5.258787347019 -0.274572734579 -0.547325899452 -0.177532359294
Zn   8.327751635173  0.923506996297  2.560902961159  0.231315980773  0.579286768629  0.682055818868
O    6.745047522223  1.917227381108  1.994730357323 -0.939623534249  0.089534810937  0.366449049165
O    8.274792930106  0.995670922916  4.640168602833  0.312050676920 -0.472260228665 -0.158682059357
Zn   4.993259876872  4.794892345507  5.301373098425 -0.072751163721  0.182417455300 -0.473286355937
Zn   6.654838126515  3.799035941974  2.659724241871  0.161454222785  0.339172987058 -0.103942244612
O    4.980823700645  4.856194686730  2.036286990466  0.062967344861 -1.226042883754 -0.026164317100
O    6.662087825912  3.785278465651  4.683572064487 -0.294225475813  0.601922503751 -0.475744844779