# total energy = -36805.931813828676 eV

CRYSTAL
PRIMVEC
3.068331382259589 0.0 0.0
-1.5341656911297945 2.6572516853213606 0.0
0.0 0.0 13.596316381115516
PRIMCOORD
12 1
Zn  -0.000000000000  1.771502044047  4.531398619099  0.000000000000  0.000000000000 -2.548224456916
Zn   1.534165691130  0.885750868607  2.265345991191  0.000000000000  0.000000000000 -2.548222142923
O   -0.000000000000  1.771502044047  1.722907038947  0.000000000000  0.000000000000  2.548228827791
O    1.534165691130  0.885750868607  3.988959666856  0.000000000000 -0.000000000000  2.548232170225
Zn  -0.000000000000  1.771502044047  9.063504181749  0.000000000000 -0.000000000000 -2.548220857371
Zn   1.534165691130  0.885750868607  6.797451247007  0.000000000000  0.000000000000 -2.548224456916
O   -0.000000000000  1.771502044047  6.255012601597  0.000000000000  0.000000000000  2.548228313570
O    1.534165691130  0.885750868607  8.521065229505  0.000000000000  0.000000000000  2.548228313570
Zn  -0.000000000000  1.771502044047  13.595609744398  0.000000000000 -0.000000000000 -2.548223685585
Zn   1.534165691130  0.885750868607  11.329556809657  0.000000000000 -0.000000000000 -2.548224971136
O   -0.000000000000  1.771502044047  10.787118164246  0.000000000000  0.000000000000  2.548211344289
O    1.534165691130  0.885750868607  13.053170792155  0.000000000000  0.000000000000  2.548211344289