# total energy = -24537.815444073607 eV

CRYSTAL
PRIMVEC
6.775898248666088 0.0 0.0
-1.693974562166522 2.9340520283496487 0.0
0.0 0.0 5.7657066823654555
PRIMCOORD
8 1
Zn  -0.019266589080  1.793789641678  5.810586166826  0.382983556485  0.381777451992 -0.325066629564
Zn   1.738322138614  1.067064390661  2.792017004441 -0.309870381439 -0.632688324178  0.375616831708
O    0.049366484280  1.899112171286  2.211583396613 -0.343400651986  0.234550685661 -0.170670599177
O    1.768520284339  0.964160856728  5.118605689259 -0.492314576213 -0.213025152884  0.100344757068
Zn   3.310936297608  1.918899826941  5.877727187392  0.287937843032  0.127707979573 -0.745879083972
Zn   5.060787627093  0.896813848855  2.906308112970  0.441191275174  0.594387371716  0.329612854174
O    3.377914696617  2.004030857358  2.142659637217  0.209058969147 -0.388896836646  0.295637782780
O    5.105938147483  0.944583931508  5.062155003359 -0.175586548421 -0.103812918123  0.140403829873