# total energy = -49076.09892816746 eV

CRYSTAL
PRIMVEC
6.775898248666088 0.0 0.0
-1.693974562166522 2.9340520283496487 0.0
0.0 0.0 10.008401491276484
PRIMCOORD
16 1
Zn   0.094974377802  1.789403602741  5.033961168336 -1.328532969300  0.919851236718  0.341938722729
Zn   1.999903657734  1.149457280595  2.418858801629 -2.598765145978 -1.539779690128  1.304529664407
O   -0.039363225696  1.987090434146  1.956093410018  0.541186876433  0.497693324026 -0.118577478026
O    1.657560884978  1.024587639720  4.400734504483  0.969580228512 -0.512521390178 -0.522963668557
Zn   0.025842598331  1.887820814444  10.033302917340 -0.466701760741  0.356734135871 -0.450482470668
Zn   1.608539971508  1.089402494417  7.474624132940 -0.403264161111  0.242988274905 -0.573216908286
O   -0.089868738472  2.182140085953  6.995236785335  0.363773302105 -1.435495231685 -0.942668748833
O    1.543427654878  0.917471529846  9.335835317371  0.462077888815 -0.096839315018  1.548631484091
Zn   3.267709454731  2.019511074497  5.136819303751  0.148314857190 -0.212047362352 -2.635134428635
Zn   5.042682426972  1.170534389688  2.528833662974  0.510445738596  0.081683433213 -0.505836007738
O    3.376316262220  2.059866969286  1.671543628604  1.456818932864  0.589649085700  8.689113324682
O    4.958467497999  0.930261715380  4.383782562245  0.228780101725  0.309986338192  0.659672051856
Zn   3.296973881677  2.003076810884  10.084968463897 -0.287502555267 -1.479961175308 -8.389776238674
Zn   4.903382155596  0.779480362011  7.653207674412  0.376428528976  1.297823456032 -2.938884298999
O    3.419662360906  1.980444633144  6.904531223429 -0.164932154031 -0.712134897642  1.986017526587
O    4.917909681441  0.784022924197  9.387055687413  0.192292548322  1.692370034764  2.547636959843