# total energy = -73615.52511949617 eV

CRYSTAL
PRIMVEC
9.780305553333779 0.0 0.0
-3.2600985910094087 5.646659411217257 0.0
0.0 0.0 5.234087001755426
PRIMCOORD
24 1
Zn  -0.165410395701  1.934253963374  5.216188064562  3.198489356525  0.779749768577  0.996351068848
Zn   1.479306424042  1.013926232775  2.643326115991  4.261881940304 -2.214839023073  1.345551358235
O    0.131238008098  1.783016208451  2.016272583775 -5.357328467194  3.208735973954 -1.614085342820
O    1.600783687197  0.881919492661  4.578219711349 -0.155592878908  1.235414297667 -0.054808720310
Zn  -1.663067607053  4.746571044930  5.082046283746  0.145680504891 -0.284431886762  1.081110312773
Zn  -0.207937120308  3.801496207189  2.577068457990  0.756981621643 -0.430691661195  0.120761630162
O   -1.615097164375  4.823864799718  1.862122253858  0.133807664712 -0.438929989944  0.339720632032
O   -0.051064931355  3.727874957136  4.594286797312  0.467947974443  0.367156359645 -0.557712384892
Zn   3.237336885895  1.675573683764  5.307977210211  0.056918567564  0.964346748027 -0.835652750392
Zn   4.801604824279  1.036591112865  2.687086137128  0.007160779414  0.049211942948 -1.582144271137
O    3.041618301315  2.072370460368  1.911404235510  1.429910538509 -1.428573307755  0.494132860368
O    4.936323643123  0.887477640307  4.514103940263 -0.112663426535  0.122228958736  1.451036521854
Zn   1.515031924167  4.632353702587  5.385593715082  0.470715766996 -0.158706999057 -2.631610988863
Zn   3.234659038235  3.837857427175  2.624893174115  0.659874654785 -0.503284702071  0.135227170768
O    1.830498613881  4.757429140155  1.894072556039 -1.741292985717  1.508335869796  1.604965382796
O    3.268850986449  3.663915670940  4.472915161456  0.306190618595  0.615085009274  2.301271026715
Zn   6.533556101374  2.045354322338  5.189435994782 -0.732756173436 -0.597565512333  0.475542756071
Zn   8.228903606906  0.820477657114  2.692033993708 -0.148645501056  2.158018928760  0.171472783363
O    6.509767464177  2.169918249927  1.927230725957  0.351798389132 -5.174885043752 -1.200398957934
O    8.175820998515  1.013846034270  4.864391451839 -2.328802399366 -1.369826171622 -1.754165470805
Zn   4.710421079544  4.864677036762  5.354371067634 -0.019921935735 -1.819490003044 -0.237646293867
Zn   6.392427270270  3.692439932086  2.666088799136  1.990399200595  2.310783851302  1.123348652617
O    5.016454664552  4.717964629217  2.250942213253 -2.584139168534  0.836996666015 -2.207774917138
O    6.600942406637  3.801708439820  4.517546607818 -1.056614898735  0.265159925906  1.035507941553