# total energy = -73614.11080224144 eV

CRYSTAL
PRIMVEC
6.264509332171351 0.0 0.0
-1.5661273330428378 2.7126139794515134 0.0
0.0 0.0 13.879571702246858
PRIMCOORD
24 1
Zn  -0.021696501621  1.784176735819  4.633938991628  1.236081498937  0.522848226025 -2.389285544353
Zn   1.555644929577  0.865356766913  2.282190192904 -0.120600679104  0.451204436436 -2.260341892601
O    0.028123261745  1.827842871668  1.726603389252 -0.635686487575 -0.474708175985  4.119135064120
O    1.607338407685  0.889145614651  4.014166025359 -0.498310645895 -0.087320319784  3.349170399954
Zn  -0.017112760143  1.785917016511  9.255829452458  1.379669125855  1.470931975226 -4.846208328239
Zn   1.600293966941  0.920258926700  6.842914611065 -1.033911029380 -0.461407345111  0.619604494411
O   -0.009592216689  1.810261526227  6.385193851554 -0.058263768738 -0.165003630699  2.195441849494
O    1.628459200898  1.009958556474  8.707350361095 -0.052157912950 -0.792137600718  0.364772175684
Zn   0.127279168356  1.754075142027  13.926343781823 -1.901797700105  0.985990294439 -4.628005230699
Zn   1.535722536999  0.920144912630  11.422738265279 -0.115347401125 -0.486705200446  0.508665763877
O   -0.092287498580  1.736661058985  10.925442720963  1.519455633858  1.185787635779  4.280777234546
O    1.572933095981  0.965830099837  13.309666736066  1.099077952995 -1.933996653435 -0.564685730886
Zn   3.143867187035  1.799100049950  4.608580257852 -0.034245808557 -0.919170151491 -2.959344623736
Zn   4.778348460754  0.943750210244  2.334887245406 -1.243225309071 -0.786819788050 -2.230772920695
O    3.073548696232  1.722995031877  1.700868158465  1.314758541224  0.722989580968  6.096221092545
O    4.753568567639  0.846816951544  4.126504965410 -0.783396364191  0.477025254154  0.699373741321
Zn   3.238657983544  1.851986290634  9.187041381286 -0.146394500239 -0.808991439051  0.879667465410
Zn   4.634633099262  0.870897725417  6.807994356695  1.240537220716 -0.083484233868  0.228538418028
O    3.137110913720  1.767473674586  6.349867656979 -0.077465281367  0.680262988634  2.043135097536
O    4.796298785794  0.890263829566  8.645771487262 -1.128661837300  0.136283894167 -0.013293117564
Zn   3.166033526856  1.834212624757  13.923384427614  0.248582481163 -0.816092311762 -5.026309219591
Zn   4.710772572137  0.976813037598  11.555650480427 -0.505432601652 -1.999207542915  0.696264763379
O    3.150175547932  1.733614628097  11.135288122317 -0.785657649421  1.426391983832 -1.489355986260
O    4.671789783464  0.833487328587  13.390792758368  1.082392521920  1.755328380764  0.326834262987