# total energy = -49078.38135537147 eV

CRYSTAL
PRIMVEC
6.520203525830115 0.0 0.0
-3.2601017629150575 5.646659258457025 0.0
0.0 0.0 5.338768727763801
PRIMCOORD
16 1
Zn   0.122097983245  2.007269432200  5.377625880676 -0.790880331273 -1.510701284705 -0.384925510703
Zn   1.630494255297  1.006884385537  2.803541463548 -0.598060963913 -0.702756284640 -2.172625365820
O   -0.035160197513  1.828235075707  1.939611236274  0.509699604458  0.619326301049  1.059788925588
O    1.676300641127  0.901070610598  4.593109776285 -0.779616071213  0.097760798391  2.434206059015
Zn  -1.563904720729  4.621483093948  5.321575603087 -2.823139405326  1.422885256231  1.123925608167
Zn  -0.102985310650  3.706540750349  2.758090428810  0.626138953096 -0.070706879597 -0.450287581049
O   -1.520175671742  4.757139188405  2.071426930854 -0.857319436732 -0.443292123567 -0.423256545073
O   -0.079856844703  3.825855910729  4.799892162924  2.079450644137 -1.266874830169 -1.666585212491
Zn   3.174807720492  1.848259924775  5.348251059751  1.082396121464  0.092749975440  0.009636237538
Zn   4.869346022901  0.867389195245  2.559931011334  0.456707111422 -0.336315463005  0.770863778941
O    3.243269205493  1.748208053692  2.061945902907  0.092568969778  0.760935464084 -0.732412416944
O    4.883378152909  0.977533689366  4.736790937242  0.141164362188 -0.131105178180 -0.390029150478
Zn   1.593606855870  4.636709725242  5.346132645626  0.488737914605  1.274304032754 -0.157960350699
Zn   3.220855353852  3.615402649506  2.616695903230  0.800081538156  0.610514102074  0.531619287350
O    1.793020108484  4.643969971868  1.931975425925 -1.250969471793  0.036196247415  0.752387574514
O    3.172750596280  3.759374611539  4.695914477297  0.823039946724 -0.452920390686 -0.304345337856