# total energy = -24539.39702943286 eV

CRYSTAL
PRIMVEC
6.264509332171351 0.0 0.0
-1.5661273330428378 2.7126139794515134 0.0
0.0 0.0 5.431135391203264
PRIMCOORD
8 1
Zn  -0.139504984769  1.814047795667  5.348463287998  2.594848070311  1.641546524355  1.621852388360
Zn   1.578154564510  0.999412881464  2.736966006578 -1.057990181816 -0.807637496126  0.136714039726
O    0.004039982068  1.867689536177  2.024936237825 -0.382904366508 -0.184722449284 -0.159899990924
O    1.527910067411  0.955183566227  4.731513736085 -0.246131448520 -0.189502644282 -0.161345465121
Zn   3.066472306490  1.701251546436  5.451974907948  0.923045061065  0.564106718454  0.333290560136
Zn   4.701221701209  0.794170015116  2.684061598817  1.073406516371  0.962069264847  0.652421026721
O    3.175378295426  1.735931870099  2.127544515530  0.235902571703  0.055240922751 -1.306117577720
O    4.774746367888  0.894252442658  4.798481340845 -3.140176222607 -2.041100840714 -1.116914724066