# total energy = -24537.39453716346 eV

CRYSTAL
PRIMVEC
6.136662235341968 0.0 0.0
-1.534165558835492 2.6572545245121315 0.0
0.0 0.0 4.5321030240048685
PRIMCOORD
8 1
Zn   0.015970663467  1.756177725186  4.515718135837 -0.028152551175  0.729071525496 -1.313179626773
Zn   1.562604078967  0.906955108082  2.281569903463 -0.021422945760 -0.808702704166 -2.595591890456
O   -0.024608629230  1.695638938568  1.755838367764  1.418847081606  1.570992625395  1.274899243135
O    1.560327990943  0.914825991065  4.020177751003  0.008261211568 -0.857914132894  2.176575608717
Zn   3.076433352820  1.826773887541  4.494326958617  0.531163173649 -1.949792225706 -0.912311476698
Zn   4.614374799929  0.915671009455  2.255547387254 -1.185365460640 -0.603441768609 -0.876982719489
O    3.082141062365  1.786436993002  1.735301413927 -0.209019631269 -0.185947065720  1.642607361519
O    4.633236444976  0.844766172989  4.043967749491 -0.514310620868  2.105733489093  0.603983500045