# total energy = -12269.418060452563 eV

CRYSTAL
PRIMVEC
3.4518726727477356 0.0 0.0
-1.7259363363738678 2.989408031416358 0.0
0.0 0.0 5.2094592296580275
PRIMCOORD
4 1
Zn   0.000256819327  1.925799764126  5.248090862675  0.076286687678  0.263347041067 -0.268258362326
Zn   1.750816053850  1.004026183461  2.613282664938 -0.123090021185  0.059440048434  0.046484002494
O   -0.028030241665  2.027358690780  2.016905384765  0.160943087477 -0.066043669794  0.105636601595
O    1.743246097079  1.071424342583  4.612404692067 -0.114139753970 -0.256743419707  0.116137758237