# total energy = -49075.624835246985 eV

CRYSTAL
PRIMVEC
6.775898248666088 0.0 0.0
-1.693974562166522 2.9340520283496487 0.0
0.0 0.0 11.531413364730911
PRIMCOORD
16 1
Zn  -0.001742761030  2.011347472287  5.718458343878  0.254299586153 -0.355652729881  0.069804422388
Zn   1.719571195391  0.942816099655  2.873230888080 -0.190893868203  0.241059433313  0.485895817171
O    0.033613876032  1.975988802456  2.361689870515 -0.218421898419 -0.176321626815 -0.562304375138
O    1.786885678952  0.956191045208  5.133022767962 -0.350267811420  0.225415813239 -0.040631400368
Zn  -0.118656819771  1.988837938305  11.618067617074  0.494144430333  0.089050672212 -0.447577638317
Zn   1.679439582833  1.005447082347  8.626376410272  0.297741459386 -0.290057460479 -0.018397271560
O    0.056912124570  1.918096205409  7.985564805919 -0.188137388503  0.315409566090  0.116452204153
O    1.796142911140  0.995091477053  10.910225439296 -0.681982028207 -0.423183011522  0.301545406514
Zn   3.434333535794  2.047584298531  5.823204922134 -0.109831099292 -0.873507873567  0.059031757252
Zn   4.928730113355  1.030633773727  2.907256738725  0.968782415201 -0.189057586325  0.542110416689
O    3.407507754628  2.039127977516  2.295792904867 -0.487391170769 -0.142027995740 -0.428361984620
O    5.092475115252  0.894885428213  5.121725312812  0.134918895499  1.056439549499 -0.149177205190
Zn   3.380332337112  1.879607070587  11.648254921361  0.229928356397  0.290095769916 -0.550633366558
Zn   5.118743917583  0.849996457495  8.662767726996  0.157072291667  0.828759622817  0.137220289938
O    3.488300177396  1.984604357079  7.991771528715 -0.284202030139 -0.736670935110 -0.080980236499
O    5.123953905746  0.922241762213  10.873350323437 -0.025760139683  0.140248535242  0.566003421256