# total energy = -36808.23572101881 eV

CRYSTAL
PRIMVEC
9.780305553333779 0.0 0.0
-1.630054185657481 2.8233297056086286 0.0
0.0 0.0 4.920041390437877
PRIMCOORD
12 1
Zn  -0.220824628936  1.680162603129  4.889612903800  2.950600301885  1.362076352474  0.558803818184
Zn   1.438758255248  0.893279317561  2.417564388812  1.183940812378  2.106173919065  0.179513394280
O   -0.024330466125  1.999087608888  1.960352708744 -0.814124389402 -2.426236924766 -1.280470309465
O    1.590997513461  0.729057228984  4.294851006430 -0.186041168096  0.827365313573  1.366860918346
Zn   3.300547000686  1.879223118118  4.965377018800 -0.533890599882 -0.838092727292 -1.402049807543
Zn   4.903582114222  0.999574612406  2.498857310541 -1.905265604049 -0.622209021914 -0.646955632731
O    3.337204563931  2.036636157968  1.846061036078 -0.874076344476 -1.157338636409  1.572797539815
O    4.990890901897  0.903907575606  4.363987986386 -2.588861256600 -0.875189117924  0.116841212061
Zn   6.469518572733  1.795652363225  4.731044809864 -0.028805611378  1.785922451501  2.017200122837
Zn   8.103318615418  0.954810153889  2.512360000388 -0.500216347558 -0.142374323336 -1.958881846713
O    6.339072769385  1.884770507427  1.861927625777  2.980922349907  1.596337789028 -0.350348286949
O    8.012900668608  0.938869233867  4.374882268742  0.315818114382 -1.616435073999 -0.173311122124