# total energy = -98151.40242200547 eV

CRYSTAL
PRIMVEC
6.264509332171351 0.0 0.0
-3.1322546660856756 5.425221694393695 0.0
0.0 0.0 9.051896495011661
PRIMCOORD
32 1
Zn  -0.000000000000  1.808407857915  4.525241610853  0.000000000000  0.000000514221 -2.949862909498
Zn   1.566127333043  0.904204242183  2.262267800326  0.000000514221  0.000000257110 -2.949856224630
O   -0.000000000000  1.808407857915  1.720565655158 -0.000000000000 -0.000000257110  2.949858281512
O    1.566127333043  0.904204242183  3.983539465685 -0.000000514221 -0.000000257110  2.949859052843
Zn  -0.000000000000  1.808407857915  9.051188605457  0.000000000000  0.000001542662 -2.949857253071
Zn   1.566127333043  0.904204242183  6.788214794930  0.000000771331  0.000000514221 -2.949859567064
O   -0.000000000000  1.808407857915  6.246513276213  0.000000000000  0.000000000000  2.949858538623
O    1.566127333043  0.904204242183  8.509487086740 -0.000000257110 -0.000000257110  2.949858281512
Zn  -1.566127333043  4.521019958014  4.525241610853  0.000000257110 -0.000000257110 -2.949862909498
Zn   0.000000000000  3.616816342282  2.262267800326  0.000000000000 -0.000000000000 -2.949856224630
O   -1.566127333043  4.521019958014  1.720565655158 -0.000000257110  0.000000257110  2.949858281512
O    0.000000000000  3.616816342282  3.983539465685 -0.000000000000 -0.000000000000  2.949859309953
Zn  -1.566127333043  4.521019958014  9.051188605457  0.000001285552 -0.000000771331 -2.949857253071
Zn   0.000000000000  3.616816342282  6.788214794930  0.000000000000 -0.000000000000 -2.949857253071
O   -1.566127333043  4.521019958014  6.246513276213  0.000000000000 -0.000000000000  2.949858538623
O    0.000000000000  3.616816342282  8.509487086740  0.000000000000  0.000000000000  2.949858538623
Zn   3.132254666086  1.808407857915  4.525241610853  0.000000000000  0.000000000000 -2.949860852615
Zn   4.698381999129  0.904204242183  2.262267800326 -0.000000514221  0.000000257110 -2.949856224630
O    3.132254666086  1.808407857915  1.720565655158  0.000000000000  0.000000000000  2.949859052843
O    4.698381999129  0.904204242183  3.983539465685  0.000000514221 -0.000000257110  2.949859052843
Zn   3.132254666086  1.808407857915  9.051188605457  0.000000000000  0.000000000000 -2.949856224630
Zn   4.698381999129  0.904204242183  6.788214794930 -0.000000771331  0.000000514221 -2.949859567064
O    3.132254666086  1.808407857915  6.246513276213  0.000000000000  0.000000000000  2.949858281512
O    4.698381999129  0.904204242183  8.509487086740  0.000000257110 -0.000000257110  2.949858281512
Zn   1.566127333043  4.521019958014  4.525241610853 -0.000000257110 -0.000000257110 -2.949862909498
Zn   3.132254666086  3.616816342282  2.262267800326 -0.000000000000 -0.000000514221 -2.949856224630
O    1.566127333043  4.521019958014  1.720565655158  0.000000257110  0.000000257110  2.949858281512
O    3.132254666086  3.616816342282  3.983539465685 -0.000000000000  0.000000514221  2.949859052843
Zn   1.566127333043  4.521019958014  9.051188605457 -0.000001285552 -0.000000771331 -2.949857253071
Zn   3.132254666086  3.616816342282  6.788214794930  0.000000000000 -0.000000771331 -2.949859567064
O    1.566127333043  4.521019958014  6.246513276213 -0.000000000000 -0.000000000000  2.949858538623
O    3.132254666086  3.616816342282  8.509487086740 -0.000000000000  0.000000257110  2.949858281512