# total energy = -73616.436543846 eV

CRYSTAL
PRIMVEC
10.163846843821924 0.0 0.0
-1.6939778619192687 2.934048487640294 0.0
0.0 0.0 10.878690520041609
PRIMCOORD
24 1
Zn   0.010676104725  2.006662511761  5.418948452175 -0.432639014729 -0.162462095224  0.260899350857
Zn   1.690700021312  0.960331069039  2.707277818784  0.151098847693  0.068866483954  0.013228582875
O   -0.008710416745  1.885585686234  2.112391928554  0.150375339263  0.441193589167 -0.247598519983
O    1.595280810758  0.993262949197  4.833103303712  0.650033243215 -0.044053024455 -0.384625462964
Zn  -0.072085050970  1.880868644914  10.912371475713  0.748934840079  0.414124757975 -0.263708538171
Zn   1.781377797314  0.984938758632  8.097881334881 -0.449898573140  0.168694963508  0.508932644385
O   -0.025902563681  2.047988713028  7.520056477963  0.029205160809 -0.544178612072 -0.265756936060
O    1.743097700946  1.021041759006  10.293673725097 -0.768408118312 -0.531996468183 -0.309784249484
Zn   3.420936390462  1.894272726132  5.407647270869 -0.344523709847  0.409841557218  0.126555611136
Zn   5.095790974545  0.973032828439  2.672910803451 -0.096644425399  0.160953114779  0.041598906488
O    3.381983447433  1.995883752183  2.062507768245 -0.075150517191 -0.352994980543  0.225841845033
O    5.033200989296  0.986526351509  4.798874516696  0.409765709675 -0.323452490999 -0.130136129398
Zn   3.368294778504  1.945137697662  10.833682973448  0.152580317334  0.173054783139  0.282105038401
Zn   5.147503610901  0.959767991923  8.150315604364 -0.428885718334 -0.059359830016  0.314309391047
O    3.424351443002  1.959884423047  7.515961464069  0.160568991967  0.050855392089 -0.145326721096
O    5.057883891356  0.985172527109  10.268072011282  0.429913645378  0.036735407748 -0.478964637268
Zn   6.786902631654  1.945312515827  5.480171400023 -0.033692507156 -0.078924896632 -0.605100387258
Zn   8.493790611834  0.977719378219  2.693315742375 -0.401898134002 -0.234094314849  0.134411873955
O    6.772358166820  1.976228905157  1.994774876493  0.120023466444 -0.160199781553  0.316072653595
O    8.449152012881  0.897400594920  4.717994689052 -0.034185644743  0.351501940937  0.558205779589
Zn   6.814243379664  1.926553103708  10.874952257172 -0.321050823536 -0.094136571375 -0.100238570508
Zn   8.392360502256  1.013977885450  8.119858620911  0.838950190197 -0.001136941818  0.302180468994
O    6.785211367539  1.951484003631  7.514466362199 -0.237073709193  0.212887598865 -0.187646307799
O    8.497670152175  0.934247588883  10.184128800199 -0.217398599361  0.098280932561  0.034544056523