# total energy = -24532.54983707418 eV

CRYSTAL
PRIMVEC
2.876560207838307 0.0 0.0
-1.4382801039191535 2.49117305399317 0.0
0.0 0.0 9.051893501140805
PRIMCOORD
8 1
Zn  -0.074925188422  1.603261762767  4.575694558117  2.472034699827  2.096101365320 -3.305972524411
Zn   1.372774211898  0.807733216209  2.261413560513  0.875686369275  1.464449967046 -3.112473357375
O   -0.009451801531  1.702184654723  1.762577748630 -1.110851034371 -1.898179386626  0.727531691813
O    1.446833268041  0.909332172125  3.893159597770 -2.338722486694 -1.874333433246  4.472873093477
Zn  -0.030745826125  1.692319779146  9.120038061840  0.940101502327  0.095074766919 -1.888882534705
Zn   1.402937246926  0.785620810235  6.768466488326 -0.225645669861  0.811782885753  1.316452641097
O   -0.040765172985  1.648980660087  6.230803442070  0.398669856872 -0.630381787532  2.868802454580
O    1.447859624723  0.866001970403  8.546930616016 -1.011273494486 -0.064514377633 -1.078331464477