# total energy = -36806.23899620223 eV

CRYSTAL
PRIMVEC
3.13225493067428 0.0 0.0
-1.56612746533714 2.7126110763371933 0.0
0.0 0.0 15.3882234620448
PRIMCOORD
12 1
Zn  -0.092261821885  1.839501278922  5.093742817547  1.051286801654 -0.906541406983 -1.712776366335
Zn   1.593346760685  0.839663266040  2.398028377208 -0.872908806530  0.179175037104  2.767835747657
O   -0.048199765324  1.767341016280  1.921482413673  0.665263172791  0.007646717912 -0.195049285132
O    1.649405666855  0.850950346683  4.539576757801 -1.428410556924  0.738298700521 -2.668345625280
Zn  -0.206758581846  1.851994904164  10.408545466504  0.954820296594  0.034357908655 -1.887577956961
Zn   1.584807294067  0.813574088272  7.552472102734 -0.409888351296  5.683758295654  3.293126264575
O    0.125147366402  2.056107670270  6.834813611724  0.669905813769 -5.640990565669  1.224452142228
O    1.561437853255  0.874370530025  9.655244106961 -1.047415234514  0.074477659494 -1.074940693627
Zn   0.125006414930  1.778592075991  15.443729838446 -8.862913727737  6.350670574012  3.424249440477
Zn   1.439590943873  0.760657773473  13.058256478676  0.742581387057 -0.080684302525 -2.591180134541
O    0.017786822849  1.718962085973  12.204059862983 -0.551284626989  0.003350661640  2.626143537990
O    1.272238008408  0.935120614406  14.872423453267  9.088963832126 -6.443519022704 -3.205937585273