# total energy = -73616.67790174592 eV

CRYSTAL
PRIMVEC
9.780305553333779 0.0 0.0
-1.630054185657481 2.8233297056086286 0.0
0.0 0.0 9.421358559220876
PRIMCOORD
24 1
Zn  -0.055879775779  1.912697191904  4.800024326901  0.416161071679 -0.590246352964 -5.442561822542
Zn   1.745237822190  1.001482750020  2.392473992945 -0.869431646615 -0.497370650579 -1.704954299187
O    0.036771014789  1.893582562731  1.779009217265  0.661511676168  0.287543692918  0.612191489777
O    1.563381842700  0.848965731129  4.171894961074  0.202436578735  1.162182594765  1.646410794425
Zn   0.128765546854  1.861549127952  9.324385851629 -1.533555049374  0.298650858575  0.875219199831
Zn   1.561737773337  0.890315884978  7.098135975807  0.877038255318  0.672438093273 -2.404389489874
O    0.008383677920  1.887186242899  6.477282179281  0.300021513670 -0.148097084752  4.982700738873
O    1.601784212456  0.900232136779  8.871550858296  1.581319461243 -0.138518439925  1.291119047428
Zn   3.305126139746  1.882389981056  4.752286655495 -0.027702608122 -0.868298561452 -5.532286380893
Zn   4.935897221801  0.926745567103  2.358912874439  0.784161781602  0.173839226713 -2.309144773036
O    3.356690844715  1.837043594358  1.761211995250 -0.103476617829  0.202556392142  2.400032755567
O    4.879628189861  0.851249432476  4.109730360947  0.171649675261  0.786250802920  2.429668576156
Zn   3.294214252841  1.994636591830  9.443969647630 -0.538407771026 -0.578327490039 -2.419365651568
Zn   4.817352094250  0.963481372792  7.076565511909  0.268056787838  0.298902569574 -2.781529957315
O    3.230150317375  1.956737907811  6.406934397497 -0.621263884392 -0.422605541752  6.159727597740
O    4.819207418214  0.948094018065  8.842083775694  0.323961826536  0.425984999748  1.968414983014
Zn   6.599999585181  1.946431421819  4.653344194365 -0.806029528209 -0.041441297864 -1.485594719445
Zn   8.195714140010  0.963930288817  2.297741953356  0.946524375134 -0.420752547704 -1.474985319360
O    6.643548351719  1.862579972157  1.805239018729 -1.493346852586  0.209774764267  0.218955916546
O    8.147629267757  1.006871698380  4.111713806913  0.103229020595 -0.645801721632  1.648684163841
Zn   6.520434843444  1.857477586750  9.337120787490  0.098322070211 -0.374355705607  0.084856431625
Zn   8.214045366709  0.997722222534  7.084100259307 -1.187141064483 -0.666152003154 -1.006322321128
O    6.486194971732  1.884982740058  6.456985111167  0.306767574144  0.200661232002  2.201125787252
O    8.160543183210  0.874239996740  8.938268190658  0.139193097394  0.673182427638  0.042026995164