# total energy = -98147.57060323046 eV

CRYSTAL
PRIMVEC
5.880968041683205 0.0 0.0
-2.9404840208416023 5.093065348298698 0.0
0.0 0.0 9.819564077591238
PRIMCOORD
32 1
Zn   0.047083030142  1.729959673465  4.924401537250 -2.354577708558  0.939568255531  0.767119224297
Zn   1.445676030717  0.870236245968  2.561819074380  0.204370305422  0.336066837329 -1.195404847154
O   -0.070012924536  1.731546358642  1.817685485646  2.796141279470 -0.863082564468 -2.162427085130
O    1.440983018220  0.892843275217  4.343861777016  0.694141546388 -2.027923679903 -0.095957940855
Zn  -0.005148199424  1.668758791442  9.690153963931  2.163610821026  0.573535982188  2.591928068451
Zn   1.378556542457  0.847938555638  7.263209598715  2.088035557593 -0.764535522730  0.792354858936
O   -0.044134312766  1.671985678607  6.785826134609 -2.131399526401  1.584068998963 -1.219657034833
O    1.397590295524  0.761905874156  9.092458831822  1.750205971936 -0.379910831097  0.315234473965
Zn  -1.453386567917  4.175944848909  4.975386589688 -1.936073590569  1.099755952899 -1.749367278085
Zn   0.010215241488  3.333482650711  2.412282523791 -1.954992024740  2.054045059580  2.171187347822
O   -1.527843740002  4.323310734194  1.760214313555  1.031479537120 -0.194513210123  0.635995791285
O    0.031644312839  3.528826649474  4.359773912246 -2.468417157679 -3.222391874174 -3.383914488304
Zn  -1.407697915298  4.139225848747  9.777893890435 -2.503961116222  1.417169179683  0.610101440017
Zn   0.044139017540  3.460014030515  7.314878607736 -3.188767758362 -1.795572572996  1.224859147859
O   -1.560782453907  4.203900618592  6.709555271980  2.499843751619  1.426072652820  0.866134978142
O   -0.030513402684  3.347002408142  9.160549267905  2.319246637357  0.282126378557 -1.369743124990
Zn   2.979652444193  1.688216562305  4.849609738084 -2.196128591148  0.286862607690  2.038008317832
Zn   4.498507124543  0.789972794135  2.355975783372 -0.877364014088 -0.702326139081  3.013947398683
O    3.021705482368  1.626105306430  1.876297565536 -2.120589580269  1.061085018691 -0.096673735975
O    4.353885887043  0.891685312610  4.339024680801  4.169893525620 -1.703914545069 -2.334707966217
Zn   2.873662697662  1.610335490626  9.877654515617 -0.230377528119 -0.870053596470 -0.285874018525
Zn   4.287949649553  0.892135794762  7.409597479015  2.150546274532 -2.014522833116  0.187423650266
O    2.945573998682  1.688501201158  6.727905068464 -2.800746896563 -2.543425492865 -2.556306462593
O    4.480599576856  0.866572402878  9.188963164998 -3.569507256008 -2.371774532052  0.317771124344
Zn   1.455979486726  4.217183961107  4.864808511890  3.426077751935  2.417300284398  2.296078426771
Zn   2.959176089665  3.411241986352  2.429775463231 -0.304583422009 -0.688736316212  0.030667604287
O    1.398503609861  4.222561518285  1.816900964509  1.263519283433 -0.908653825340 -0.218311855204
O    2.900051777458  3.334937014108  4.263790632838  0.877265283727  2.011732671965 -0.755030154343
Zn   1.438407742314  4.202857922958  9.837398701274  1.222517129989  0.023253571211 -1.390270555520
Zn   3.014225479116  3.275438084236  7.266685250828 -2.910887813786  2.372116231663  3.051687850656
O    1.429277539430  4.208528940440  6.779852835370  3.896957555313  2.054082083465 -1.700634331656
O    2.965490485052  3.263949025070  9.172514685483 -1.005478485071  1.112495511953 -0.396217795787