# total energy = -110427.71177603443 eV

CRYSTAL
PRIMVEC
10.163846843821924 0.0 0.0
-1.6939778619192687 2.934048487640294 0.0
0.0 0.0 14.686240333133645
PRIMCOORD
36 1
Zn  -0.000000000000  1.956033341478  4.894648445505  0.000000000000  0.000000000000 -1.034891391015
Zn   1.693974812765  0.978016162547  2.446943078496  0.000001542662  0.000001028441 -1.034653049752
O   -0.000000000000  1.956033341478  1.861020684797 -0.000000514221 -0.000000257110  1.034770806277
O    1.693974812765  0.978016162547  4.308726051807  0.000000000000  0.000000000000  1.034758464982
Zn  -0.000000000000  1.956033341478  9.790061212294 -0.000000514221 -0.000000257110 -1.034655877966
Zn   1.693974812765  0.978016162547  7.342354828899 -0.000000514221 -0.000000257110 -1.034733011060
O   -0.000000000000  1.956033341478  6.756432435201  0.000000771331  0.000000514221  1.034748694790
O    1.693974812765  0.978016162547  9.204138818595  0.000000257110  0.000000257110  1.034772606049
Zn  -0.000000000000  1.956033341478  14.685473979082 -0.000000514221 -0.000000257110 -1.034735325053
Zn   1.693974812765  0.978016162547  12.237767595688  0.000000514221  0.000000257110 -1.034897304552
O   -0.000000000000  1.956033341478  11.651845201989  0.000000000000  0.000000000000  1.034762578747
O    1.693974812765  0.978016162547  14.099551585383  0.000000514221  0.000000257110  1.034752037224
Zn   3.387948609146  1.956033341478  4.894648445505  0.000000000000  0.000000000000 -1.034892676567
Zn   5.081923421911  0.978016162547  2.446943078496 -0.000000000000 -0.000000000000 -1.034654592414
O    3.387948609146  1.956033341478  1.861020684797 -0.000000514221 -0.000000257110  1.034774148711
O    5.081923421911  0.978016162547  4.308726051807 -0.000000000000 -0.000000000000  1.034758722092
Zn   3.387948609146  1.956033341478  9.790061212294  0.000000257110  0.000000257110 -1.034655877966
Zn   5.081923421911  0.978016162547  7.342354828899  0.000000000000  0.000000000000 -1.034732496840
O    3.387948609146  1.956033341478  6.756432435201 -0.000000257110 -0.000000257110  1.034749466121
O    5.081923421911  0.978016162547  9.204138818595 -0.000000257110 -0.000000257110  1.034771834718
Zn   3.387948609146  1.956033341478  14.685473979082  0.000000514221  0.000000257110 -1.034735325053
Zn   5.081923421911  0.978016162547  12.237767595688 -0.000000771331 -0.000000514221 -1.034896790332
O    3.387948609146  1.956033341478  11.651845201989 -0.000001285552 -0.000000771331  1.034765406960
O    5.081923421911  0.978016162547  14.099551585383  0.000000257110  0.000000000000  1.034750751672
Zn   6.775898234676  1.956033341478  4.894648445505 -0.000000000000 -0.000000000000 -1.034891905236
Zn   8.469872031057  0.978016162547  2.446943078496 -0.000001285552 -0.000000771331 -1.034653821083
O    6.775898234676  1.956033341478  1.861020684797 -0.000000257110 -0.000000000000  1.034772348939
O    8.469872031057  0.978016162547  4.308726051807  0.000001542662  0.000000771331  1.034758207871
Zn   6.775898234676  1.956033341478  9.790061212294  0.000000257110  0.000000257110 -1.034655877966
Zn   8.469872031057  0.978016162547  7.342354828899  0.000000771331  0.000000514221 -1.034732496840
O    6.775898234676  1.956033341478  6.756432435201 -0.000001028441 -0.000000771331  1.034747152128
O    8.469872031057  0.978016162547  9.204138818595  0.000000771331  0.000000514221  1.034773634490
Zn   6.775898234676  1.956033341478  14.685473979082 -0.000000257110 -0.000000000000 -1.034734810833
Zn   8.469872031057  0.978016162547  12.237767595688  0.000000257110  0.000000257110 -1.034897047442
O    6.775898234676  1.956033341478  11.651845201989 -0.000001285552 -0.000000771331  1.034761036085
O    8.469872031057  0.978016162547  14.099551585383  0.000000771331  0.000000514221  1.034752037224