# total energy = -110382.3791646926 eV

CRYSTAL
PRIMVEC
8.629681152692129 0.0 0.0
-4.314840576346064 7.473519620260201 0.0
0.0 0.0 4.3412128819486915
PRIMCOORD
36 1
Zn   0.047235422757  1.627446542511  4.368675116281 -3.487698352961 -0.688868728025 -1.460272438630
Zn   1.479703812272  0.824840458000  2.027938826222 -1.221588704638 -1.994517079418  0.139748712787
O    0.062125074618  1.796697027086  1.690608041836 -1.819222608315 -14.183411399256  0.160754882725
O    1.372020924913  0.878468748556  3.793849465796  4.303505529382 -3.776409583824 -0.641315403726
Zn  -1.526251449442  4.231161147113  4.308751473325  5.631426576130 -1.001148233126  0.169174988468
Zn   0.006606020922  3.226976066493  2.096378238539 -0.599320290241  13.824220060095  2.434078532298
O   -1.504891262653  4.148587180035  1.660187552804  1.145763787088 -0.183640271964  2.088238417632
O   -0.032822992264  3.220299282185  3.837229147014 -0.305204086312  4.415530551002  1.312323449420
Zn  -2.852523845660  6.579938574070  4.341737566563  1.629077702464  2.464952853279 -3.253095216796
Zn  -1.447616931810  5.811654457440  2.190072412750  1.251716120151  0.028081588728 -2.778543878103
O   -2.927062716616  6.537402875668  1.665524147629  3.027350816573  3.822528489669  1.241950299013
O   -1.329463652308  5.808407971390  3.852344033553 -3.032252110529  1.320674135378  0.634957579829
Zn   2.899379562447  1.668635147685  4.314025934445 -1.509837908263 -0.492836767265 -1.811160400132
Zn   4.373138387373  0.773984883999  2.031215516155 -4.648778458690  0.221890316584  4.057010012655
O    2.917470826015  1.643994819089  1.682935392323  0.003878252008  0.517764126634  1.114433866626
O    4.314340917807  0.834149295060  3.846765807656  1.756197927854  0.029469727324 -0.833009913453
Zn   1.488953104532  4.204880316130  4.273360287949 -2.545152245748 -2.536503054714 -0.461671140295
Zn   3.003592455015  3.276807297341  2.214731726644 -5.617423062762 -1.513854742732 -4.815215736512
O    1.383186006388  4.254929014943  1.642427668992  1.110139353016 -3.211700713009  1.328881610889
O    2.881998521637  3.330785089983  3.820224360303  0.232470663203 -0.066261442231  5.340205434361
Zn  -0.024755103355  6.620148573401  4.388544957135  3.150512828646  2.262328584014 -3.178737113599
Zn   1.524726584782  5.798222358726  2.309637508089 -2.402558350203  0.525113625021 -9.733455319587
O    0.006377334372  6.678119319512  1.671487257306  0.423722171855 -5.677020462710  4.404240579910
O    1.419511786232  5.824976096235  3.826073558188 -0.350121772760  2.318141834329  10.580746168439
Zn   5.797336090471  1.727427439442  4.365713409709 -1.147897802711  1.142279942304 -6.355464395857
Zn   7.130368115936  0.843591892177  2.160317272136  2.444306123563 -0.037382040193 -0.832014382309
O    5.651412497020  1.598560410788  1.614981831054  4.939796740420  2.772467075782  3.880658818153
O    7.158817585793  0.802262623201  3.909142868964  1.108983642145  1.111437245892 -0.746923208965
Zn   4.336065277141  4.180083790306  4.290488479101  0.095564562071 -1.200022548431  1.073526843999
Zn   5.782869292987  3.203760498256  2.187715646828 -2.009507382179  0.865326880418 -5.506765096693
O    4.211797868542  4.210564687106  1.724389791676  5.112638379107 -1.936778329945 -3.133816084717
O    5.832993070026  3.404215046911  3.782132084727 -4.646651127935 -2.554944292138  3.929623935198
Zn   2.889280246594  6.649796705969  4.380588391112  0.343251528003 -1.748695448829 -3.212393111090
Zn   4.383538879098  5.764956663818  2.201875227663 -3.855341165324  1.954697119207 -3.898963529999
O    2.841880859894  6.592586234767  1.681048944023  3.201917665480  2.209182853229  2.981285646784
O    4.348867409131  5.823698903425  3.801686079250 -1.713664682477  0.997908643143  5.780977105499