# total energy = -110426.49562949227 eV

CRYSTAL
PRIMVEC
10.163846843821924 0.0 0.0
-1.6939778619192687 2.934048487640294 0.0
0.0 0.0 15.665323699599012
PRIMCOORD
36 1
Zn  -0.083244954805  1.948693011288  5.243589569809  0.524777838948  0.220951606820 -0.640154550649
Zn   1.723273117677  0.931795052640  2.567528990221 -0.245409739862  0.125825160728  0.287038728257
O   -0.031896184165  1.930194810032  1.932857737905  0.059507411337  0.025859898486  0.665976653918
O    1.678507470638  1.013856935672  4.629747088830 -0.222040469009 -0.312418601783 -0.068865198403
Zn   0.085644639045  1.963792422159  10.419187069771 -0.269155934439  0.179374811819  0.557087092603
Zn   1.593102698379  0.842036088393  7.796328130102  0.655802798709  1.409376680221  0.590483665786
O   -0.033428892269  1.988786337932  7.222122619045 -0.211442381778 -1.140962251934  0.117202709166
O    1.714252703603  0.998604050714  9.911745835862 -0.033885082783 -0.286589556535 -0.825589195509
Zn   0.011054199827  1.921296362120  15.641508790059  0.214798185624  0.214843951260 -0.463250568967
Zn   1.748747783407  0.962733802432  13.040660677115 -0.518372449642  0.061929647625  0.129822969033
O    0.017470636340  2.007485783356  12.468135249942 -0.116741453259 -0.476919324704 -0.232344164928
O    1.757366725530  0.984719219540  15.057243103396 -0.301207820668 -0.120800968040  0.069009951511
Zn   3.409634192772  1.942259296235  5.276939184073 -0.298040735794  0.005936420089 -0.426464510487
Zn   5.062953618162  0.957962892724  2.626221140205 -0.139202610476  0.168011307177 -0.256421003371
O    3.337646714731  1.990580256900  2.029325857454  0.242585640150 -0.277171091434 -0.251061281721
O    5.068441079073  1.002393132817  4.566386683991  0.203466048441 -0.025909520777  0.820434390781
Zn   3.412145679327  1.984271557164  10.461020446996 -0.362344025858 -0.262666212950 -0.355392791351
Zn   5.153056120432  1.016876614569  7.852232336897 -0.967262121902 -0.576204530159 -0.166124888788
O    3.340565771545  1.891427865400  7.233120917715  0.410997525200  0.336714241105  0.348651873083
O    5.042067929282  0.957467913383  9.843051444198  0.537216836042  0.395664751497 -0.055445325452
Zn   3.383493795074  1.943501318320  15.666677523999  0.104084683727  0.041826706228 -0.108582828707
Zn   5.086030632421  1.007084764520  13.021833167222 -0.233912794966 -0.136607853165  0.115148911961
O    3.288138616755  1.988619650844  12.394200378846  0.949812044746  0.260191269047  0.447640373234
O    5.090019942307  0.947314230386  15.013302760721  0.035499992679  0.330337133934  0.265763106708
Zn   6.729998302329  2.012591083625  5.284441119428 -0.028887629569 -0.495568821484 -0.821612213139
Zn   8.432739432997  1.018905318399  2.574658928781  0.044169238318 -0.144740766685  0.084858745618
O    6.718002930284  1.961632604704  1.964022125097  0.198398918330  0.125717174395  0.506143768786
O    8.472028799357  0.921051866526  4.624776967724 -0.222058723841  0.540605035788 -0.121280221669
Zn   6.752219520684  1.914460158733  10.440629737458  0.232221780417  0.271604395980  0.155864644513
Zn   8.447095866664  0.981838785345  7.878093228807  0.139770824274  0.035298161081 -0.093458314361
O    6.779459646610  1.954528075761  7.226555072654  0.098489191917  0.130692259012  0.441751004333
O    8.497739266333  1.027682816534  9.842046239746 -0.293417892310 -0.375423998971  0.047638427814
Zn   6.733346273480  2.012231283447  15.699539273614  0.167755996633 -0.021395177846 -0.846228983246
Zn   8.461993016983  1.004044757929  13.021705102752  0.427371852793  0.075153859625  0.080197078476
O    6.793258085085  1.943394597928  12.460839640677 -0.365191522609  0.164529005056 -0.423253202639
O    8.494355721719  1.068891117177  15.002223151277 -0.418152391077 -0.467064800507  0.424814633589