# total energy = -73616.75345333689 eV

CRYSTAL
PRIMVEC
10.355617489065997 0.0 0.0
-3.451869044482836 5.978815757312254 0.0
0.0 0.0 5.098619337594111
PRIMCOORD
24 1
Zn   0.021602853644  2.007472694917  5.039281649382 -0.231706274233 -0.044112159828  0.318787995644
Zn   1.797452487744  1.059069000607  2.505079790940 -0.774800137881 -0.471990519943 -0.019018707194
O   -0.010223065585  1.921891800864  2.050900012419  0.239526027388  0.182311011630 -0.674501403560
O    1.761124981593  1.011382417631  4.483494623182 -0.107274394309 -0.021154779701  0.315128544515
Zn  -1.734453053188  5.050771206986  5.070915989687  0.153191211445 -0.371917785589 -0.263027710054
Zn   0.000643083846  3.969653025621  2.560391215072 -0.026267675447 -0.092116455621 -0.390368793206
O   -1.685548649596  4.934949838741  1.903487797462 -0.095647351593  0.306560600340  0.767010723744
O    0.033526311621  3.962959154476  4.514018841293 -0.118169186844  0.041874014526  0.305128752989
Zn   3.454306756840  1.950098431780  5.089880231995  0.203667622928  0.137991877997 -0.280134544938
Zn   5.127033080861  1.006615726901  2.546157418833  0.446128050354 -0.151150269756  0.062077743167
O    3.397311509303  2.004565873087  1.969288426549  0.714687488860  0.196510957279  0.010169998554
O    5.216810071120  0.952808973990  4.565947085192 -0.438388001398  0.336418050021 -0.191522502925
Zn   1.771832690076  4.920024287254  5.051783986376 -0.631630572338  0.470454285805  0.319335383507
Zn   3.455056503546  4.015797657153  2.480414781204 -0.236846937894  0.004249776415  0.357959523637
O    1.728372234598  4.961301778566  2.014633604410 -0.059501240689  0.175800721315 -0.230702515559
O    3.382752546676  4.025596142421  4.538543014630  1.093185755881 -0.679084137834 -0.253068541959
Zn   6.936023797611  1.990346574713  5.151530329593 -0.043383766302 -0.028669085800 -0.630998338071
Zn   8.666234154314  0.894120582994  2.599337656887 -0.098207141900  0.511029893234 -0.974103056083
O    6.901364581437  2.019884938039  1.968527288664 -0.238075925205 -0.195204836873  0.606059665847
O    8.575700168416  1.013423509838  4.458110933593  0.428951538575 -0.257716582254  1.381837080040
Zn   5.183292043993  4.939499061504  5.115625332635  0.005719418982  0.151683773662 -0.561791182947
Zn   6.925099656722  3.988574809897  2.474477905698  0.244062996026 -0.177255708594  0.363489966537
O    5.172794554545  4.971136508495  1.961481326524  0.036828995903 -0.220657986839  0.313116399181
O    6.957007385329  3.987943117231  4.605233191260 -0.466050243200  0.196145346409 -0.650864223757