# total energy = -73607.02765929297 eV

CRYSTAL
PRIMVEC
8.82145232711341 0.0 0.0
-1.470244995003011 2.546532750529464 0.0
0.0 0.0 9.441882712183952
PRIMCOORD
24 1
Zn  -0.069540390840  1.782147731368  4.669927779430  1.226957168039 -3.335024190361  0.832532973816
Zn   1.484239346975  0.856167819898  2.406031715025  2.660196770920  0.551270485922 -1.505756539105
O    0.008024875182  1.658702091793  1.900514860839  1.616816368598  2.536517967112 -1.724579786728
O    1.479721881238  0.814794326339  4.160153692350 -1.064458820260  3.542743100540  0.219064931320
Zn   0.049376315111  1.662624109498  9.467933343051 -2.081354803138  1.497147200169  0.982653773867
Zn   1.385358805695  0.881614181281  7.128442725075  3.306878581165 -1.880374497234  1.161036911197
O    0.065206411312  1.666764017075  6.467615381217 -3.202585638082  1.809355999934 -0.114369096372
O    1.468854734116  0.873621063328  8.988950535320  1.039092830691 -2.405264693390 -1.704407425545
Zn   2.944557561674  1.727108043864  4.665038048405  0.043692555792 -2.835108918983  2.604488935835
Zn   4.472105828849  0.853251447759  2.357113233290 -3.559869475808  0.586715456993  2.020808923235
O    3.038741561735  1.832003051340  1.741069756462 -1.655175942213 -4.245944957359  0.521857322867
O    4.296294283969  0.738053866110  4.128771375697  1.629516075553  4.165316704882 -0.273732755177
Zn   2.899426129423  1.782675254218  9.424385361493  1.456780880537  0.126043190276 -0.587039415991
Zn   4.391395715072  0.855963162204  7.037347115474 -1.276191736695 -1.041565717711  0.964687676306
O    2.930954882186  1.698698556644  6.538949173315 -1.551358910325 -0.737028318449 -0.877788760330
O    4.404376482172  0.916189863677  8.832195091757 -0.136862135268  0.722396170358  0.353626186369
Zn   5.874849070645  1.725898622750  4.745592022475 -2.577343999989  0.520366597254 -2.285661859423
Zn   7.449153681589  0.785081910611  2.255865014206 -3.565913368009  1.016232895374  2.359320108339
O    5.754695597078  1.716677558632  1.780420491003  4.480435479205 -0.054929305048  0.418571738003
O    7.286622833188  0.917528077995  4.187802770379  0.657111233108 -1.853143172322 -2.235925411430
Zn   5.933756964995  1.654818006334  9.494639407826 -1.450863486611 -0.604964890121 -1.404797545491
Zn   7.348192159705  0.871372475129  7.063417153536 -0.290224582184 -0.239277144602  0.932135196292
O    5.789244815117  1.656000080946  6.461908783707  2.804163378444  1.713135292336  2.009782747327
O    7.352646110985  0.802582789883  8.992909603124  1.490561576532  0.445385001541 -2.666508572071