# total energy = -73612.03083222327 eV

CRYSTAL
PRIMVEC
7.031592442324853 0.0 0.0
-1.7578981105812133 3.0447709382284116 0.0
0.0 0.0 15.24043518612106
PRIMCOORD
24 1
Zn   0.041993373225  1.963652349673  5.085990190451 -0.355711865254 -0.005486219926  0.801547581178
Zn   1.692731421303  1.050793439829  2.484715850745  0.826427632250 -0.755106258997  1.415337268680
O    0.143661058871  1.998107855800  2.037223901397 -0.945197943013  0.812256740066  0.248496349207
O    1.767487093195  0.994474603322  4.693024021538 -0.239677722474 -0.218555338674 -1.784821762238
Zn  -0.158744527819  1.744555663922  10.225108983919  1.493667212040  0.140584578425 -3.620716174782
Zn   1.821451752553  0.780254326929  7.622112607224  0.011294599077  0.293509423583 -0.440860631308
O    0.009136851220  1.883203900540  7.066511330393 -0.112654427674  0.196065385101 -0.060945943556
O    1.698621083133  1.096542386578  9.492288373287  0.197429098218  0.125970685167  0.713187250166
Zn  -0.011506497873  2.228062023441  15.372457553181 -0.555348255535 -1.433205664320 -1.103130268688
Zn   1.598934197078  1.138362782628  12.689478921932  0.193790215914 -0.311400444931 -0.713240729111
O   -0.060402082239  2.122765332936  11.888273965321  0.668211713896  0.535703741832  4.988219354698
O    1.540485491220  0.948350872696  14.726486250282  0.869181478277  1.268641949372 -0.322544634473
Zn   3.403041120554  2.041998352665  5.056283118701  0.564178195122  0.163835578533  0.869565086869
Zn   5.236545725712  1.124661021595  2.579891970248  0.947166122483 -0.534053864933  1.208674824790
O    3.748672015464  2.004266827620  1.855573961198 -0.525587736444  0.453374190394  4.352340291496
O    5.223085148299  1.027975922354  4.684643769665  0.249961620899 -0.122145140773 -1.969170373123
Zn   3.543856493963  1.935563950503  10.012773174301 -1.120856996544 -0.194153512790  0.103687448288
Zn   5.227960854499  1.102230241704  7.794385215742  0.048613390132 -0.078307317652 -4.616544795468
O    3.560517149096  1.838939322957  6.988565425011 -0.252376400988  0.071033409699  0.821005689903
O    5.276077338422  1.101184643908  9.518566137403 -0.566623571339 -0.905165609681  2.790960249490
Zn   3.435636067320  1.960267341071  15.439565665132 -0.084322670608  0.452681278092 -5.392971927429
Zn   5.283494965290  0.938650790922  12.733044559227 -0.224388657526  0.007642089926 -1.425134714387
O    3.668127936674  1.966808831520  11.927129841998 -0.559924562052  0.285762175537  1.303094474623
O    5.376383004612  0.985396114319  14.571130950021 -0.527250468858 -0.249481338828  1.833965828063