# total energy = -36808.73345695834 eV

CRYSTAL
PRIMVEC
3.004407833844898 0.0 0.0
-1.502203916922449 2.601892294305528 0.0
0.0 0.0 15.338959129577619
PRIMCOORD
12 1
Zn  -0.000000000000  1.734595764193  5.112189206981  0.000000000000  0.000000000000  0.926571329051
Zn   1.502203916922  0.867297731876  2.555695918571  0.000000000000  0.000000000000  0.926565415513
O   -0.000000000000  1.734595764193  1.943732593507  0.000000000000  0.000000000000 -0.926540732923
O    1.502203916922  0.867297731876  4.500225881917  0.000000000000 -0.000000000000 -0.926573900154
Zn  -0.000000000000  1.734595764193  10.225176084241  0.000000000000  0.000000000000  0.926588555442
Zn   1.502203916922  0.867297731876  7.668682795831  0.000000000000 -0.000000000000  0.926526334745
O   -0.000000000000  1.734595764193  7.056719470767  0.000000000000  0.000000000000 -0.926567472396
O    1.502203916922  0.867297731876  9.613212759177  0.000000000000  0.000000000000 -0.926572100382
Zn  -0.000000000000  1.734595764193  15.338162961502  0.000000000000  0.000000000000  0.926586498559
Zn   1.502203916922  0.867297731876  12.781669673092  0.000000000000 -0.000000000000  0.926553331329
O   -0.000000000000  1.734595764193  12.169706047587  0.000000000000  0.000000000000 -0.926569786389
O    1.502203916922  0.867297731876  14.726199636438  0.000000000000 -0.000000000000 -0.926567986617