# total energy = -36806.45479608198 eV

CRYSTAL
PRIMVEC
3.387949124333044 0.0 0.0
-1.693974562166522 2.934048640400525 0.0
0.0 0.0 17.623484574192492
PRIMCOORD
12 1
Zn  -0.013854679149  1.956983424253  5.837895747127 -0.302456348364  0.169146449223  0.044552846910
Zn   1.667473007731  0.980023573323  2.912867521270  0.001489697172 -0.116413380495 -0.045292553289
O   -0.012717683423  1.894441883418  2.228890395919 -0.057876046381  0.194477471789  0.122125857499
O    1.590440869696  1.010668928332  5.161955853484  0.404404702474 -0.199891443715 -0.018867783439
Zn   0.012758000018  1.952986660671  11.729408160711 -0.111580734993 -0.054545696456 -0.015068207187
Zn   1.661220547622  0.948664038638  8.818762795272  0.029512407637  0.157780116368 -0.278057864915
O   -0.012442581954  1.982195186457  8.100317014325 -0.058068622008 -0.176148334462  0.230408381357
O    1.658567105868  0.960340266500  11.050253103349  0.140399458997  0.015398079723  0.060033459044
Zn  -0.002192003083  1.921525487513  17.656742715566  0.073127059003  0.045850225565 -0.653700664764
Zn   1.673204062470  1.014151401237  14.657567867944  0.239943317431 -0.233108553897  0.063053733927
O    0.024100514891  1.903016782651  13.994012622325 -0.224900049945  0.264591197887 -0.114121242027
O    1.728297535950  0.978932653705  16.879822626708 -0.133994583912 -0.067136131527  0.604934293994