# total energy = -36808.49374983701 eV

CRYSTAL
PRIMVEC
9.780305553333779 0.0 0.0
-1.630054185657481 2.8233297056086286 0.0
0.0 0.0 5.652811223410304
PRIMCOORD
12 1
Zn   0.044358575837  1.842889282987  5.711004041453 -0.736782263877  0.178070491186 -0.287042327801
Zn   1.586416418340  1.023225347295  2.796388875931  0.469901498625 -0.498976304504  0.487028388113
O   -0.026289461327  1.865237281176  2.232513183498  0.056300731474  0.825505377546 -0.734317861497
O    1.601079052425  0.985300256451  4.962588653687  0.180183680874 -0.625135451532  0.019167574067
Zn   3.262979869025  1.711276689186  5.685622192481  0.196217337298  0.770644206731 -0.301354887769
Zn   4.919613013055  0.972810806260  2.760774871290 -0.038475273257 -0.016648664300  0.329689987269
O    3.283709226646  1.909894156333  2.063137851926 -0.114185519606 -0.121244483335  0.471965580243
O    4.881841473008  0.877121274756  4.998397286409  0.317382116435 -0.084551498790 -0.385929269377
Zn   6.493483255430  1.895485810192  5.674028618278  0.144745394671 -0.385496809826 -0.386572045168
Zn   8.063458980135  1.013996650975  2.741274898077  0.381348849095  0.165594984426  0.787439938132
O    6.555786735897  2.036255704082  2.089741261061 -0.722304381975 -0.914080395673  0.041906153315
O    8.166819205284  0.884803704768  4.993256757810 -0.134332169757  0.706318290960 -0.041981229528