# total energy = -24534.039111623268 eV

CRYSTAL
PRIMVEC
3.004407833844898 0.0 0.0
-1.502203916922449 2.601892294305528 0.0
0.0 0.0 8.68242918580487
PRIMCOORD
8 1
Zn   0.090305589347  1.742497957677  4.405106630338 -0.076129079054 -0.849384755266 -8.964685189950
Zn   1.446322832535  0.807256443961  2.050850248211 -0.285858334796  3.724836082622  0.872249318569
O   -0.071871444201  1.797162857773  1.636038869170  0.228713253043 -3.657857559719  1.411927214557
O    1.578036973293  0.834479683785  3.864127848282  0.275943903895  0.986158187475 -0.045735040143
Zn  -0.012725469821  1.724786372615  8.574670690910  1.337732119301  0.445280614752 -1.266299931502
Zn   1.412717930032  0.864984638285  6.423846969383  2.772409997292 -0.558993822708 -0.324862998194
O    0.040801661028  1.746387764500  5.992429627364 -3.187345938314  0.502565050296  7.694441186198
O    1.536643143481  0.880712412854  8.185167842581 -1.065465921368 -0.592604054563  0.622965183353