# total energy = -110420.30329160356 eV

CRYSTAL
PRIMVEC
10.163846843821924 0.0 0.0
-5.081923421910962 8.802145462920882 0.0
0.0 0.0 5.004200485096256
PRIMCOORD
36 1
Zn   0.061703697804  1.962978298027  4.929886502513 -0.356097016507 -0.446863642969  0.127338769159
Zn   1.310995981767  1.064347877638  2.574293030295  10.600285524023 -5.965194590123  5.208797894449
O    0.101158734867  1.698122678662  1.910774747867 -10.292234969401  6.363517348068 -5.569911390334
O    1.797433626173  0.903890211130  4.407494249896  0.042536073590  0.595299599117  0.624441767899
Zn  -1.598501733822  4.839305283056  4.997826736740 -0.464086434605  0.011285085996  0.017080095411
Zn  -0.063879777413  3.850356886844  2.366879407753  1.388172535340 -0.092790341760  0.249548701731
O   -1.593828397044  4.781356110276  2.029239464756 -1.672706494897  0.390563682825 -0.987970043873
O    0.074975649013  3.866341568775  4.286445883141 -0.091319670752 -0.681380390068  1.180564953927
Zn  -3.519138462282  7.780147285927  5.015636845565  0.147450452307  0.027337254362 -0.771377228243
Zn  -1.689435638765  6.892715391991  2.653154317956 -0.166985437016  0.259713300969 -3.957842820834
O   -3.413635699274  7.917812525888  1.858495985241  0.431296641768 -0.932422902736  1.654790533849
O   -1.544815278409  6.683735520650  4.348876295994 -0.140551925415  0.346567993971  3.571990427441
Zn   3.263629516476  2.134360067122  5.114886809995  0.343080549643 -0.988434127994 -0.027641158756
Zn   4.778972688191  0.995578273508  2.473816289551  6.680136103975 -4.871040556791  1.837626821854
O    3.592413699718  2.025935198147  2.153372559028 -6.297478563370  4.405771157622 -2.933632049461
O    5.250256036954  0.850801389911  4.496270370154 -0.999644137777  0.972249290704 -1.200251633723
Zn   1.737197587853  4.778886295493  5.098038201082 -1.339453729978  1.265970316077 -2.796824678691
Zn   3.350582242609  3.915480719111  2.612470471810 -0.335860120635  0.300862778624 -1.689943427601
O    1.749478563995  4.926875971078  1.828821617996 -0.394483072485 -0.626189346718  3.131177875763
O    3.247067528044  3.992123239006  4.407913000386  1.660075950617 -1.164411741206  2.044173308992
Zn   0.039079991114  7.855264212411  5.015536223481  0.176940234236 -0.717098926515 -2.114541317193
Zn   1.635682101962  6.932669473934  2.371028290035  1.209507862214 -0.876044781056  0.686146701108
O    0.066043660406  7.654446926471  1.779725155817 -1.803301823320  0.772610329319  2.368727003475
O    1.876892548029  6.843821190364  4.301968110040 -3.738251070476 -2.046751611242 -0.283432756073
Zn   6.798696759532  1.931720403443  4.960335354888  0.159341290207  0.067639810636 -1.195092972340
Zn   8.517648209531  0.780057966724  2.663223641024 -0.690957749343 -0.360047773625 -1.514087941789
O    6.692084104448  1.806082043453  1.759054940491  0.716212924366  0.452217708192  3.004195975723
O    8.608909390341  0.772060035642  4.536960314608 -0.013351224496  1.752153839691  0.048370163773
Zn   4.982423426849  4.830247262749  5.276872102684  0.430035258558  0.508610485159 -1.938744966753
Zn   6.769257177148  3.734754309227  2.470870806736  0.229040297365 -0.016027228666  0.376132337891
O    5.048020894379  4.728729744088  2.131142193212  0.640600894157  0.622934330116  0.051088591146
O    6.725703060653  4.033643569748  4.569387051579  0.274407412646 -0.910443570251 -0.516762424842
Zn   3.232233393575  7.693655998440  4.913246252460  2.883009342208  1.298852411517  1.766463314335
Zn   5.167509110644  6.711200267592  2.486233461240 -0.532981457804  0.605832894549  0.455654758898
O    3.433005958589  7.654783349801  2.046750756483  0.262418358605  0.669557172180 -0.737101337779
O    4.980718949733  6.873760834012  4.512186954311  1.055196421121 -0.994405257976 -0.169152105650