# total energy = -110410.77323856778 eV

CRYSTAL
PRIMVEC
9.204993617601557 0.0 0.0
-1.5341686712647988 2.65725153256113 0.0
0.0 0.0 14.483035703004496
PRIMCOORD
36 1
Zn  -0.156134181242  1.729934032028  4.734299430414  2.693039271372  2.911321044669  0.708227849278
Zn   1.471333543832  0.966708429721  2.281482521605  7.343902894726 -5.126858379361  2.539662940499
O    0.104321113168  1.699902740351  2.113602768507 -9.104773802575  4.945190657742 -3.628016050877
O    1.460454161876  0.969894278012  4.223561280041  1.410438545827 -0.722985467203  0.474949088351
Zn  -0.201618816205  1.880056431939  9.788635317426  4.915028275226  3.611228547006 -1.617854065834
Zn   1.547572062471  0.942115448272  7.198119068093 -0.092045236064 -0.477623806970 -1.106610771037
O   -0.031443337698  1.776570211693  6.693765501293  1.032989031786  0.860844933387 -1.448352804374
O    1.515314082838  0.997234950055  8.975599653655 -0.579621012040 -0.393107789404  3.390977565798
Zn   0.184145897320  1.780806349755  14.310504666631 -10.233715118789  5.887616180216  5.758217443205
Zn   1.475833865212  0.857646744840  12.081113203908  5.609076747680 -3.421649540961 -5.912277944629
O    0.176538890595  1.692500084484  11.521642896824 -4.864444648741  2.808112078679 -0.547497906253
O    1.354931797041  1.021977052399  13.688831615176  9.201090926541 -5.883963413955  4.027688895093
Zn   3.225325747180  1.838313626882  4.831820814796 -0.683773572890 -4.082535667730  0.310778237966
Zn   4.372344353380  0.822805843997  2.206152535836  10.182745569719 -5.801853434727  5.448980581584
O    3.159971212994  1.675140387020  1.836014219476 -8.619791241247  6.330854053507 -2.290831319439
O    4.700644132749  0.773996365340  4.288200586222 -0.034069173770  4.196180998562 -2.950194581806
Zn   3.123663036169  1.841943155865  9.720989660329 -0.385904329677 -2.866090969187  0.227465753789
Zn   4.494006754024  0.816874146110  7.198232289515  0.740567184840  2.539668082705 -0.892027786748
O    3.076967944545  1.831233145791  6.696090682681 -0.122063122582 -2.463226871727 -1.393017779247
O    4.517984841898  0.734312717355  8.956681550772  1.057335578951  3.415928836427  2.454825792148
Zn   2.960894816026  1.779742252493  14.522886881873  0.647628233318 -0.947769560395 -1.967045613470
Zn   4.622108047703  0.698382865767  12.034818529507  0.780125406749  1.297173224042 -1.124723935698
O    3.191193630846  1.678675104569  11.623564268155 -1.719435009302 -2.016077064977 -1.664418029636
O    4.496339299406  0.780433417377  13.788309060702  0.366907476859  1.828329198602  3.714185030666
Zn   6.170839939370  2.095171609786  4.976183650200 -0.183813564317 -14.417079425202  3.041376955648
Zn   7.590643928931  0.830060299467  2.343777315912  0.067429237287  4.821432406846  2.819017155627
O    6.040491706749  1.930072685260  1.761579879586 -0.219804123479 -4.631804549840  1.794546959945
O    7.654387589234  0.764394636497  4.346838236565 -2.904862947748  13.859351870801 -9.330390933191
Zn   6.181016980314  1.725055385411  9.739045255310 -1.520565836203 -0.120993543667 -4.796194972435
Zn   7.743239710627  0.976194175643  7.288208340629 -1.780478654778 -1.843113556000  0.944099310632
O    6.140745133237  1.585096218954  6.570970886434  0.121427031660 -0.380625597776  5.006627939112
O    7.755026704954  0.925684534665  9.254133555530 -3.451168376355 -3.553727367466 -2.844606316950
Zn   6.170296844747  1.666719658859  14.576725969043 -0.277238197227 -0.070009853530 -4.647114697835
Zn   7.680521486614  0.857637539846  12.069722024306 -0.434123569694 -0.635203120181 -5.601200944476
O    6.032458508819  1.721010711216  11.416103963000  0.988418701375  0.604039807204  4.283783368363
O    7.687488746283  1.010397170428  13.706263111590  0.053541423562 -0.060973454360  6.816965843343