# total energy = -24537.944795155552 eV

CRYSTAL
PRIMVEC
3.387949124333044 0.0 0.0
-1.693974562166522 2.934048640400525 0.0
0.0 0.0 11.31384265991537
PRIMCOORD
8 1
Zn   0.040306091937  1.963627870076  5.636554673797 -0.200920913421  0.052935928767  0.381607759184
Zn   1.820953201372  0.994657141976  2.759268410615 -1.342693577072 -0.681657554988  1.044938490838
O   -0.057807559524  1.889845452841  2.193321334448  1.268409778756  0.834297007695 -0.440533072765
O    1.691608079703  1.022294336957  5.044893402571  0.261824176664 -0.237422607892 -0.600942656336
Zn  -0.019318085907  2.008766871439  11.455620877281 -0.077890798940 -0.041208870138 -1.679463354005
Zn   1.778551662901  0.935351770144  8.411386645099 -0.448868589214 -0.174278628243  0.364839795697
O    0.017975780464  1.837519256205  7.801178046392  0.311691750919  0.418533942786 -0.325014693280
O    1.602858719622  1.034125394095  10.561974083267  0.228448172307 -0.171199475097  1.254567216446