# total energy = -24537.93656997055 eV

CRYSTAL
PRIMVEC
6.903745345495471 0.0 0.0
-1.7259363363738678 2.98941148328903 0.0
0.0 0.0 5.098616146263425
PRIMCOORD
8 1
Zn  -0.022957024397  1.798224073137  5.114786098612  0.259496556973  0.287828828258 -2.064139724812
Zn   1.772190739814  0.912505992914  2.405507890207 -0.301167454349 -0.146623071310  0.479516396007
O   -0.117494842035  1.902236590887  1.809296990297  0.334161649887  0.251186494445  2.267301611748
O    1.754626921281  1.078286320269  4.595706603200 -0.324410998258 -0.612930167715 -0.920506096693
Zn   3.440476660306  2.009529078051  5.017870631077 -0.115310634350 -0.304179501702  0.110629941044
Zn   5.117733997874  0.952068595990  2.550080602236  0.513662445761 -0.263347555288 -3.893436686644
O    3.494151899618  1.797248573920  2.038346001497 -0.822475846691  0.745041161451 -1.383737382387
O    5.169704702461  0.902851105048  4.251353308363  0.456044538137  0.043023811860  5.404371684626