# total energy = -12267.779801672019 eV

CRYSTAL
PRIMVEC
3.004407833844898 0.0 0.0
-1.502203916922449 2.601892294305528 0.0
0.0 0.0 4.534159166195871
PRIMCOORD
4 1
Zn  -0.004777609337  1.689105424299  4.549461216175 -0.903555584882  1.159842376668 -1.326607727253
Zn   1.499988767027  0.883999235024  2.354318272929  1.343616088886 -0.692151512541 -5.448624998017
O    0.065451925983  1.724100766748  1.741390232509 -1.198296309769  0.733766616979  1.770198355898
O    1.467546870796  0.901236123649  3.991643028652  0.758235805765 -1.201457223995  5.005034626483