# total energy = -73615.55033383658 eV

CRYSTAL
PRIMVEC
9.013222972357486 0.0 0.0
-3.004404653044838 5.203784283090595 0.0
0.0 0.0 5.305931139036321
PRIMCOORD
24 1
Zn  -0.006101050630  1.675847475019  5.254242107934  0.655778887449  0.067385528534  1.827911908559
Zn   1.543488295670  0.872017605386  2.589195214344 -1.369153313925  3.380313401216  2.207272266470
O   -0.022592544703  1.856533753301  2.026506013436  0.524986098304 -1.725509754741 -1.372182330559
O    1.546875464863  0.892766044668  4.645324086401  0.444687461253 -0.648490581318 -0.661441227941
Zn  -1.425019394243  4.304140247972  5.292337396149 -1.119980507476  0.615572233323  0.863656691804
Zn  -0.097971931065  3.512350241586  2.713504684257  1.012937512452  0.200593097768  0.736155943147
O   -1.472257695841  4.469193992331  2.059300625221 -1.599094525838 -3.567965108332 -2.523422310270
O    0.013936245360  3.405266843418  4.625895182962  0.014148780697  0.350714669149 -0.400725968070
Zn   2.977275753220  1.843405994042  5.426482094969  0.694547266467 -2.365323377110  0.177693567462
Zn   4.551765029303  0.754762785094  2.551098123485  0.398251795498  3.018132640409  1.895930442691
O    3.056933716528  1.703432443926  2.001828710260  0.692774233727  0.922911877921 -0.241250723389
O    4.561789535893  0.816256400145  4.670949580634 -1.109034292877  0.769960807511 -0.788843503348
Zn   1.494185966011  4.287356725475  5.274855348872 -0.224197367451  0.451033972296  1.429783011792
Zn   2.977728217014  3.455916649911  2.738405515362  1.172091626349 -0.847934653083  0.905013143264
O    1.543411683274  4.306830695030  2.109515994367 -1.214103966225 -2.209902505004 -2.374438709148
O    3.026086862227  3.459725637939  4.717758852818 -0.215290551879  0.877352187014 -1.701228513596
Zn   6.049347177730  1.680196355103  5.323773715232  0.075736985822  0.230038399612  0.634446701630
Zn   7.477477035221  0.855533321892  2.634136946729  3.151436111791 -1.411973494414  1.790758182327
O    6.150715291211  1.732241408512  2.025454170315 -3.229613845844 -0.036157937978 -2.451891906330
O    7.552607656630  0.847705337740  4.616966684285 -0.947265881286 -0.730231607242 -0.739618961994
Zn   4.591431322282  4.243290177041  5.221415949869 -3.470854027710  3.110116169996  2.840703125241
Zn   5.971509885463  3.379488124395  2.601287354284  0.688920150088  1.992905254846  1.402428788149
O    4.508850370765  4.310854197764  2.047822285766 -0.302583360860 -0.103959213892 -1.279402530322
O    5.934178918556  3.461841041371  4.673693205707  5.274874474363 -2.339581235149 -2.177306830456