# total energy = -49073.598264032174 eV

CRYSTAL
PRIMVEC
7.031592442324853 0.0 0.0
-3.5157962211624265 6.089534844864382 0.0
0.0 0.0 5.531711584822308
PRIMCOORD
16 1
Zn   0.037108525955  1.919818808706  5.364047481991 -0.480331178599  0.310113093578  0.757326920797
Zn   1.485853533739  0.987800918935  2.778841034174  0.653280289397  0.297934549234 -0.247052931893
O   -0.077938170631  2.001288245061  1.915291869492  0.602734201019  0.304058145633  1.173732504386
O    1.805489334549  0.954497890809  4.816692856777 -0.417876768818 -0.141116539669  0.191162805593
Zn  -1.543295315560  5.066173053471  5.443356813148 -0.617811407067 -0.132242377108  0.549180179051
Zn  -0.136595714785  4.018830016053  2.767624941070  0.273314436692  0.150267352930 -0.306663444466
O   -1.811032338872  5.230196900895  2.018676670012  0.221535504348 -0.550970695293  0.524269274742
O    0.050138769910  3.956421820491  4.998477803551 -0.412112098420  0.397333654559 -1.139956950598
Zn   3.343417435598  1.856851601544  5.824604130096  0.714589529830  0.783168564451 -0.059225104210
Zn   5.316689003732  0.962987132365  2.901102144606 -0.828647008498  0.861029281484 -0.718756516723
O    3.655982267048  2.145141266406  2.266071999547 -0.649846838236 -0.108336259914 -1.042246802939
O    5.232060272893  1.070567684096  4.836101458236  0.546296172635 -0.480343262783  0.578652220369
Zn   1.867226716193  5.175096639358  5.533112981196 -0.044139156411 -0.100603924267  0.382391688538
Zn   3.516105611230  4.316035036972  2.903587812534 -0.251862694576 -0.964191453396 -0.265110817836
O    1.720338859551  5.319357493064  2.070233712118  0.206300432566 -1.249608072669  0.020432813933
O    3.367815655054  4.049632609906  4.905255060428  0.484576584139  0.623508200341 -0.398135838746