# total energy = -73577.33420020479 eV

CRYSTAL
PRIMVEC
8.629681152692129 0.0 0.0
-1.438283068675739 2.4911732067534005 0.0
0.0 0.0 8.312963224707175
PRIMCOORD
24 1
Zn   0.057176815445  1.637993738816  4.131317462112 -4.233763841911  2.854246925364 -4.036761032598
Zn   1.403899830059  0.733597976205  2.007653897704  0.241037578936  10.494945627733 -1.323792369292
O   -0.047546954247  1.752244676501  1.604200770390  0.451511683264 -9.734777380833  5.108431540114
O    1.310398960706  0.791589433551  3.659012423721  5.624554788711 -1.483195108864  1.703515252748
Zn  -0.056223235678  1.583305723415  8.351370483645  3.253334586500 -0.437036886686 -6.439617887877
Zn   1.577382310272  0.811868321292  6.350891302851 -1.414210868385 -1.078540238053 -10.403239777287
O    0.098899597882  1.639253672264  5.716475978071  0.008309548307 -0.198177289238  7.911412982435
O    1.432013605318  0.752517689164  7.875264933675 -2.387973510410 -0.269398646578  9.493941633494
Zn   2.862665446951  1.592980458955  4.119453376464 -3.092162156621  0.417268188700 -1.546808829060
Zn   4.186712248400  0.854493768377  2.061719713094  12.828044597592 -8.386067165253 -1.858466384307
O    2.968015731495  1.529293412048  1.622432697761 -14.034661254301  8.348969489070 -1.626851898457
O    4.259576961212  0.804817871790  3.667885461882  3.695580528191 -1.275822526281  6.093731236244
Zn   2.810093429369  1.654605012067  8.265736431631  2.196498058672  1.269378827538 -2.136458171871
Zn   4.339303996478  0.853129415787  6.180522411599  0.257253269464  2.549337230364 -1.433924287654
O    2.890201033573  1.735688633209  5.816935822305  0.811361739055 -1.411334061058  0.022744235675
O    4.392000281469  0.850243650410  7.864080866901 -0.647246424498  0.633699024831  2.631554681704
Zn   5.743327230977  1.697459145703  4.209671515106 -0.849846782504 -2.942658164219 -9.608039221372
Zn   7.150722081903  0.857964626137  2.188571711198  0.279311020595 -1.854918519055 -14.469683938771
O    5.714655978316  1.521276438257  1.545504268094 -0.944785023845  0.663527678157  10.737556978915
O    7.205279789119  0.808815140100  3.668483498786 -0.514203920087  1.002391104395  13.638574070554
Zn   5.853305613523  1.746693202615  8.350149383762 -0.634503265900 -0.607406152573 -8.809325510098
Zn   7.195838917938  0.823836826082  6.185083198088  1.115539440985  4.128467140154 -1.950873631696
O    5.782454205324  1.739559908174  5.753184915758  0.388314481780 -3.053049249780  8.338801290288
O    7.211471585346  0.830563662541  7.850261295503 -2.397294273590  0.370150152166 -0.036420704721