# total energy = -36802.62452590682 eV

CRYSTAL
PRIMVEC
2.876560207838307 0.0 0.0
-1.4382801039191535 2.49117305399317 0.0
0.0 0.0 14.132039779633438
PRIMCOORD
12 1
Zn  -0.000000000000  1.660782898964  4.709944773641  0.000000000000 -0.000000000000  0.663136613366
Zn   1.438280103919  0.830391305654  2.354604906254  0.000000000000  0.000000000000  0.663123757850
O   -0.000000000000  1.660782898964  1.790793064741  0.000000000000  0.000000000000 -0.663102160584
O    1.438280103919  0.830391305654  4.146132644472  0.000000000000  0.000000000000 -0.663137641807
Zn  -0.000000000000  1.660782898964  9.420624508414  0.000000000000  0.000000000000  0.663110902334
Zn   1.438280103919  0.830391305654  7.065284641028  0.000000000000  0.000000000000  0.663119644085
O   -0.000000000000  1.660782898964  6.501472511859  0.000000000000  0.000000000000 -0.663145869337
O    1.438280103919  0.830391305654  8.856812379246  0.000000000000  0.000000000000 -0.663088533737
Zn  -0.000000000000  1.660782898964  14.131303955532  0.000000000000  0.000000000000  0.663121700968
Zn   1.438280103919  0.830391305654  11.775964088145  0.000000000000  0.000000000000  0.663122472299
O   -0.000000000000  1.660782898964  11.212152246633  0.000000000000  0.000000000000 -0.663120158306
O    1.438280103919  0.830391305654  13.567491826364  0.000000000000 -0.000000000000 -0.663140470021