# total energy = -24533.770782479936 eV

CRYSTAL
PRIMVEC
5.753120944853822 0.0 0.0
-1.4382802362134555 2.4911761596939876 0.0
0.0 0.0 4.987777512438973
PRIMCOORD
8 1
Zn   0.030768841437  1.592401168517  4.967332646537  3.443342709663  4.076631900651  3.076474056462
Zn   1.526938706534  0.632839276749  2.423685147266 -2.318291472533  4.686963197290  4.766919106289
O    0.122640429806  1.664560838592  1.752192952136 -0.989181290572 -6.690670942068  0.497802853021
O    1.402950320491  0.799934647408  4.513892364899  5.136570721553 -0.067277285090 -4.088593443888
Zn   2.946728412031  1.684543153570  4.916983633276 -1.733339020978  0.012314555701  1.110797298315
Zn   4.220617244430  0.754195034648  2.443665160995  5.378123035342 -0.610482991726  2.733264694551
O    2.910769104877  1.573721935433  1.901382309166 -1.973602954973  2.969766590400 -3.158472192702
O    4.456644209001  0.943654512355  4.419722980026 -6.943621470392 -4.377245025158 -4.938192629158