# total energy = -49079.22906358568 eV

CRYSTAL
PRIMVEC
6.136662235341968 0.0 0.0
-3.068331117670984 5.314502912362029 0.0
0.0 0.0 5.418820033700607
PRIMCOORD
16 1
Zn   0.038966577862  1.713835369428  5.433838287189 -0.374539282373  0.124778464631  0.632848503905
Zn   1.575650622879  0.934233185384  2.682798994733 -0.610637772136 -0.443136314716  0.863217290274
O   -0.002310453332  1.771777734254  1.974013279219  0.015230186686 -0.151633380040  0.409822016834
O    1.547652715096  0.838822201948  4.780479518651  0.284935822981  0.826570071365 -1.317769560136
Zn  -1.566810760929  4.436661357257  5.390768123290  0.010446392144 -0.762315632261  1.284705430593
Zn   0.053023216378  3.512707081117  2.758694778595 -0.183060488201  0.094973979675  0.530668493401
O   -1.465739320247  4.448246761891  2.101093735453 -0.197049089171 -0.069888240351 -0.688696721223
O   -0.033188910367  3.501290434695  4.888201873864  0.160667722328 -0.067669635433 -1.530842792649
Zn   3.069844418578  1.718633625630  5.469545683738  0.244324477218  0.567761798708  0.289345264903
Zn   4.626808291284  0.893885244853  2.771224615547 -0.219261363602  0.049580124921  0.215926642801
O    3.056066998194  1.815839582770  2.026200682200  0.957555436137 -0.243453644577 -0.414370041216
O    4.620129148107  0.835548906311  4.789321835265 -0.229894674946  0.716263060877 -1.041742095388
Zn   1.516879808651  4.403826532301  5.394020554275  0.082033360354 -0.357302092559  1.185083667733
Zn   3.107682464255  3.567608729806  2.717341039123  0.139426039341  0.259230704906  0.646223639661
O    1.557231431179  4.433036430875  2.063240961787 -0.102124474677  0.199758774792 -0.522430164651
O    3.054644519888  3.537657522434  4.749564855308  0.021947450805 -0.743517525718 -0.541989574840