# total energy = -36805.217177853156 eV

CRYSTAL
PRIMVEC
9.396764262845632 0.0 0.0
-1.5661305093956932 2.712610923576963 0.0
0.0 0.0 5.531715376544755
PRIMCOORD
12 1
Zn   0.119301319081  1.551664190813  5.482714069943 -8.840227856104  2.697454626831  3.690103564237
Zn   1.675778532550  0.803236348864  2.850462394989  0.498935938184  7.135905791184  2.506654089673
O    0.026048770213  2.074210734058  2.143145396691 -0.400298136504 -7.351150834537 -3.527706003702
O    1.528590436166  1.171007848260  4.911987497293  3.979070619865 -4.366724585242 -4.582654056257
Zn   3.075787405248  1.727925875826  5.373580989471  3.170274584654  2.042055491318  1.812330766291
Zn   4.624315895827  0.818591601346  2.688420833335  1.096327129723  2.221617736558  1.061633434996
O    3.250875434405  1.892797742876  2.127714970095 -1.662242105031 -2.254601390573 -1.378563808606
O    4.566034344839  0.878057144631  4.750053058751  1.468679431747 -0.063752302656  0.028316844667
Zn   6.302124129457  1.757528502283  5.472110761149 -2.757473944807  1.037931977614  1.746773549216
Zn   7.891018300279  1.016230925058  2.824395770924 -0.727004101444 -0.215969837335 -3.062388010683
O    6.111391427479  1.981579311308  1.955129299261  1.245379636410 -0.026851315865 -0.516841357709
O    7.570819799317  0.954947107888  4.561173398686  2.928578546198 -0.855915614406  2.222340730767