# total energy = -24533.43483073473 eV

CRYSTAL
PRIMVEC
3.196178479088971 0.0 0.0
-1.5980892395444855 2.767970467353026 0.0
0.0 0.0 9.441885180110873
PRIMCOORD
8 1
Zn   0.121398529464  2.029156232930  4.925355782775  1.689920544783 -1.665689440149 -15.935003452907
Zn   1.722995255272  1.009871264228  2.467888301544 -4.482092555192 -2.268283516046 -0.632176160429
O   -0.192109823282  1.795568323053  1.787482311119  3.753447832821  3.086105923125  10.762130554489
O    1.731912593228  0.748600932926  4.164383721428 -0.278431960425  3.967572903638  0.839194702107
Zn  -0.092302757915  1.773199548350  9.710557221534  0.654352953636  0.399756405068 -13.916347828570
Zn   1.648015145477  0.885471203554  6.959267609664 -0.708606315663  0.177128438987  2.545808134165
O   -0.036218455289  1.818642174730  6.373225912274 -1.177449034006 -2.962595012353  17.060313343015
O    1.445298164677  1.048084134888  8.884049757799  0.548858534046 -0.733995445160 -0.723919548981