# total energy = -49075.66646090906 eV

CRYSTAL
PRIMVEC
7.031592442324853 0.0 0.0
-3.5157962211624265 6.089534844864382 0.0
0.0 0.0 5.418819368160782
PRIMCOORD
16 1
Zn  -0.000000000000  2.029845651447  5.417976280227  0.000000000000 -0.000006170648  0.012917222282
Zn   1.757898110581  1.014923177303  2.708565892987 -0.000002828213 -0.000001542662  0.012925706923
O   -0.000000000000  2.029845651447  2.059997119840  0.000000000000 -0.000001799772 -0.012921336047
O    1.757898110581  1.014923177303  4.769408210239 -0.000001028441 -0.000000514221 -0.012921078937
Zn  -1.757898110581  5.074614480198  5.417976280227 -0.000005399317  0.000003085324  0.012917222282
Zn  -0.000000000000  4.059692006054  2.708565892987  0.000000000000  0.000000000000  0.012925964033
O   -1.757898110581  5.074614480198  2.059997119840 -0.000001542662  0.000000771331 -0.012921336047
O   -0.000000000000  4.059692006054  4.769408210239  0.000000000000 -0.000000000000 -0.012922107378
Zn   3.515796221162  2.029845651447  5.417976280227  0.000000000000  0.000000000000  0.012916965172
Zn   5.273694331744  1.014923177303  2.708565892987  0.000002828213 -0.000001542662  0.012925706923
O    3.515796221162  2.029845651447  2.059997119840  0.000000000000  0.000000000000 -0.012921593158
O    5.273694331744  1.014923177303  4.769408210239  0.000001028441 -0.000000514221 -0.012921078937
Zn   1.757898110581  5.074614480198  5.417976280227  0.000005399317  0.000003085324  0.012917222282
Zn   3.515796221162  4.059692006054  2.708565892987  0.000000000000  0.000003342434  0.012925706923
O    1.757898110581  5.074614480198  2.059997119840  0.000001542662  0.000000771331 -0.012921336047
O    3.515796221162  4.059692006054  4.769408210239  0.000000000000  0.000001285552 -0.012921078937