# total energy = -73615.03266664685 eV

CRYSTAL
PRIMVEC
10.54738813431007 0.0 0.0
-1.7579015381810565 3.0447672696719597 0.0
0.0 0.0 10.386076380183932
PRIMCOORD
24 1
Zn  -0.000000000000  2.029845901187  5.192227095944  0.000002571103  0.000001542662 -0.215106975114
Zn   1.757898373965  1.014922423224  2.595709055637 -0.000003085324 -0.000001799772 -0.215106460893
O   -0.000000000000  2.029845901187  1.974164129748 -0.000000771331 -0.000000514221  0.215104918231
O    1.757898373965  1.014922423224  4.570682170055 -0.000001285552 -0.000000771331  0.215106975114
Zn  -0.000000000000  2.029845901187  10.385264231298  0.000000514221  0.000000257110 -0.215109546217
Zn   1.757898373965  1.014922423224  7.788745136252 -0.000003085324 -0.000001799772 -0.215104146900
O   -0.000000000000  2.029845901187  7.167201265101 -0.000000771331 -0.000000514221  0.215106718003
O    1.757898373965  1.014922423224  9.763719305408  0.000001285552  0.000000771331  0.215109031996
Zn   3.515795693190  2.029845901187  5.192227095944  0.000002571103  0.000001542662 -0.215109031996
Zn   5.273694067155  1.014922423224  2.595709055637  0.000001542662  0.000001028441 -0.215102347128
O    3.515795693190  2.029845901187  1.974164129748  0.000002828213  0.000001799772  0.215106460893
O    5.273694067155  1.014922423224  4.570682170055 -0.000000771331 -0.000000514221  0.215104404010
Zn   3.515795693190  2.029845901187  10.385264231298  0.000001028441  0.000000514221 -0.215109031996
Zn   5.273694067155  1.014922423224  7.788745136252 -0.000002056883 -0.000001285552 -0.215103632680
O    3.515795693190  2.029845901187  7.167201265101  0.000003856655  0.000002313993  0.215106460893
O    5.273694067155  1.014922423224  9.763719305408  0.000000257110  0.000000000000  0.215106718003
Zn   7.031592441120  2.029845901187  5.192227095944 -0.000002828213 -0.000001542662 -0.215108260665
Zn   8.789489760345  1.014922423224  2.595709055637 -0.000001285552 -0.000000771331 -0.215103118459
O    7.031592441120  2.029845901187  1.974164129748  0.000000771331  0.000000514221  0.215105689562
O    8.789489760345  1.014922423224  4.570682170055 -0.000005656427 -0.000003342434  0.215106975114
Zn   7.031592441120  2.029845901187  10.385264231298 -0.000000000000 -0.000000000000 -0.215109803327
Zn   8.789489760345  1.014922423224  7.788745136252  0.000002571103  0.000001542662 -0.215104404010
O    7.031592441120  2.029845901187  7.167201265101  0.000000771331  0.000000257110  0.215104918231
O    8.789489760345  1.014922423224  9.763719305408  0.000001028441  0.000000514221  0.215107232224