# total energy = -110429.58924941024 eV

CRYSTAL
PRIMVEC
9.780305553333779 0.0 0.0
-4.8901527766668895 8.469989116825886 0.0
0.0 0.0 5.129408391418094
PRIMCOORD
36 1
Zn   0.064224332477  1.874997048088  5.054404206160 -1.174388907023  0.263921168403  0.682888342072
Zn   1.627700066111  0.930680184027  2.498193227794 -0.082062928040  0.569250210328  0.349147581773
O   -0.015756072246  1.910370457213  1.972650464946 -0.008598540302 -0.966230595314 -0.376158306033
O    1.596378637576  1.007896674402  4.521349190617  1.259045821043 -1.247930684966 -0.341811967343
Zn  -1.600992985736  4.744033055639  5.212395262069 -0.105529900814 -0.858527855218 -1.175770874973
Zn   0.045565465542  3.722769637638  2.541972809542 -0.165786531612  0.377035823542  0.398911283459
O   -1.609500873537  4.605960570020  1.932539475811 -0.249043479960  0.796263964182  1.191947741843
O    0.000246463700  3.715814862359  4.539825165838  0.044476485146  0.959859144570 -0.033084441259
Zn  -3.275506484378  7.506854944881  5.145439290251 -0.169092713167  0.563982791282 -0.478872334665
Zn  -1.573288314195  6.641048505619  2.520751502552 -0.206900270933 -0.775236196977  0.420466898143
O   -3.219311782760  7.544746782686  1.955303136986 -0.354239908694 -0.409950057772  0.162588593500
O   -1.686889497289  6.556083079155  4.593317569032  0.409624299001  0.364262325927 -0.923681409097
Zn   3.289669344850  1.919368338322  5.094017377743 -0.113441442351 -0.299701154216  0.119942733805
Zn   4.869595552424  1.021219406626  2.558135742499 -0.259890707087 -0.604342168936 -0.044211918631
O    3.249305045801  1.930690020031  1.960618733055 -0.132957658007 -0.308495355469 -0.129097917942
O    4.896033674396  0.909246644407  4.512396298914 -0.074423923438  0.064311003373  0.173620682944
Zn   1.651858398858  4.713767900104  5.185577664241 -0.397233638646 -0.279275282261 -0.310155516780
Zn   3.252371171592  3.796575735465  2.575694325059 -0.132015605809 -0.316526196193  0.178331458156
O    1.658074761068  4.720625850358  2.010091430666 -0.342954051367  0.213074260954 -0.159193451775
O    3.232232544427  3.773161683971  4.535677338253  0.386405180572  0.232294799747  0.119875370902
Zn  -0.010659555023  7.480750331328  5.094860440081  0.228621721771  0.266059554902 -0.211050802766
Zn   1.669314288210  6.620669282938  2.580210870164 -0.476697181390 -0.263802897657 -0.028114498848
O    0.008378787768  7.524100557663  1.899485955163  0.236950553351  0.166026672647  0.655272380127
O    1.686224436511  6.562604586898  4.538581110972 -0.598546131079  0.153961513953 -0.168881882708
Zn   6.536525402140  1.914645428771  5.120390949698 -0.027590508024 -0.192029010248  0.049975560587
Zn   8.130853109642  0.882495552658  2.578221556014  0.084709107414  0.475920194015 -0.634070292128
O    6.468397749717  1.855173346762  1.986207924504  0.770180379721  0.242964363646 -0.456972449268
O    8.160827790102  0.936989459140  4.472493630287 -0.151423063801 -0.093858378013  0.797647474793
Zn   4.863543499348  4.782861846716  5.171074449136  0.064807226283 -0.627363826642 -0.462555085562
Zn   6.500593537568  3.760010107093  2.616499715889  0.281059370745 -0.145050327506 -0.840519848677
O    4.857560886441  4.649825240427  1.968579901775  0.482696079286  0.808225764530 -0.022749892102
O    6.464006392523  3.773183200643  4.483166877737  0.189198996999  0.229297407681  1.187351637832
Zn   3.255140954124  7.524940685910  5.173942034725  0.058781588915  0.405108927629 -1.461906888910
Zn   4.916156653072  6.577782643086  2.569635425769 -0.109631581687 -0.098311271578 -0.630932003609
O    3.243602149633  7.484179306455  1.872234111769  0.589409973106  0.233374405964  1.594008112454
O    4.862782591576  6.605944054897  4.455758549454  0.246482146991  0.101436704581  0.807816444906