# total energy = -24539.393835224564 eV

CRYSTAL
PRIMVEC
3.3240255759183532 0.0 0.0
-1.6620127879591766 2.878689249384692 0.0
0.0 0.0 10.88690507468258
PRIMCOORD
8 1
Zn  -0.000000000000  1.919127163464  5.442603581209  0.000000000000  0.000000000000  0.053563020828
Zn   1.662012787959  0.959563415531  2.720877146337  0.000000000000  0.000000000000  0.053567134593
O   -0.000000000000  1.919127163464  2.069361153004  0.000000000000 -0.000000000000 -0.053557364401
O    1.662012787959  0.959563415531  4.791087255473  0.000000000000  0.000000000000 -0.053564563490
Zn  -0.000000000000  1.919127163464  10.886056450953  0.000000000000  0.000000000000  0.053559421284
Zn   1.662012787959  0.959563415531  8.164330016081  0.000000000000  0.000000000000  0.053559678394
O   -0.000000000000  1.919127163464  7.512813690345  0.000000000000 -0.000000000000 -0.053565077711
O    1.662012787959  0.959563415531  10.234540125217  0.000000000000  0.000000000000 -0.053562249497