# total energy = -98155.26484093403 eV

CRYSTAL
PRIMVEC
6.520203525830115 0.0 0.0
-3.2601017629150575 5.646659258457025 0.0
0.0 0.0 11.514992396385223
PRIMCOORD
32 1
Zn  -0.050501584389  1.804847105659  5.843317073061  0.308177052897  0.390027093596 -0.249606037332
Zn   1.685411973534  0.957165225572  2.892732631619 -0.421328731922  0.097959801776 -0.205774641969
O   -0.109011282748  1.922229677715  2.179690998278  1.169929071480 -0.075563950579 -0.017524639147
O    1.648701923643  0.958463398094  5.151954464423 -0.272406065945 -0.191194173052 -0.403212224827
Zn   0.032915291439  1.906647043308  11.496450893619 -0.092001270200 -0.221977734092  0.018385701596
Zn   1.576588472647  0.993478195068  8.651138398203  0.590371565688 -0.340447225785  0.194954668535
O   -0.005416985089  1.922264886814  7.992329209709 -0.232506401537 -0.375782667862 -0.462784685074
O    1.699296746943  0.924432499831  10.790503893735 -0.414342530413  0.203217165655  0.261316640900
Zn  -1.553402628910  4.681195117838  5.714480459472 -0.504965946428  0.271158309581  0.234702637857
Zn  -0.012658975145  3.805683053041  2.853646619563 -0.254074871736 -0.313223871293  0.098568124784
O   -1.711802497305  4.700157173732  2.158158026134  0.764425993736  0.642237401320  0.083902038131
O   -0.012962164609  3.742626816763  5.067080975127  0.382595577018 -0.284423402121 -0.015264639469
Zn  -1.734267858553  4.704281854482  11.474800557811  1.140508966447  0.308510782088  0.053725257438
Zn  -0.013044971194  3.767610932633  8.642266357265  0.307797043850  0.199677270822  0.446333738607
O   -1.517810793923  4.767564993843  7.989183863528 -1.099105720909 -0.260615243958 -0.291676998360
O   -0.024909785550  3.719032156264  10.777036413352  0.270452027543  0.507822956261  0.299885245202
Zn   3.275766551886  1.905405596557  5.772711093120 -0.080148741736 -0.175741843052  0.170229912095
Zn   4.908911921937  0.972287533609  2.880273826721 -0.299752833389 -0.375185657707  0.067131760651
O    3.297343861414  1.913770365660  2.154236775733 -0.490898412591 -0.311485805556  0.198885371048
O    4.864220490910  0.887040436651  5.062759384230  0.141935178916  0.409083596007  0.028098043788
Zn   3.263255585361  1.972902743456  11.517452469176  0.206381936536 -1.337074688223  0.139479775397
Zn   4.934398745499  0.861976122278  8.673284269478 -0.346105966733  0.742216290408  0.340159776452
O    3.259096347531  1.853962494779  7.978827172248  0.316188867458  0.185744719901 -0.175842116076
O    4.938291307004  0.912653100141  10.850931183951 -0.159024273187  0.083741087073 -0.078264123119
Zn   1.663399114411  4.705306830476  5.760328574604 -0.315022615064 -0.325775482705  0.030990020624
Zn   3.256505218650  3.799783572890  2.822746071013 -0.203450621822 -0.371993376022  0.384134382260
O    1.618456003528  4.650968758333  2.185720882499 -0.133824376883  0.585607054420 -0.149954963896
O    3.238102596219  3.747706707330  5.075482909391  0.419324299898  0.205291531685  0.028340241706
Zn   1.667577260830  4.709752305240  11.537845057723 -0.531458850512 -0.093118157413 -0.182873054781
Zn   3.296982642139  3.715612961535  8.573118294833  0.175611745232  0.348122225832 -0.028863718309
O    1.654021105680  4.731381776397  8.000920881895  0.275678823159 -0.725723949180 -0.422442019591
O    3.290819093746  3.723728658863  10.840186540561 -0.618958890408  0.598909427956 -0.395138960901