# total energy = -24539.451587577227 eV

CRYSTAL
PRIMVEC
6.648050622659499 0.0 0.0
-1.6620126556648747 2.8786923442696573 0.0
0.0 0.0 5.33671598928929
PRIMCOORD
8 1
Zn   0.044770632113  1.898909956358  5.290332540095 -0.309750310922  0.252438878795  0.336921729130
Zn   1.637554477424  0.943456109700  2.663111353093 -0.004412527245 -0.067865553494  0.068964957205
O    0.050447402540  1.939502953460  2.026383003022 -0.645775753490 -0.327617935231 -0.029488753488
O    1.656518041825  0.975844082723  4.712178169645  0.323416752665 -0.215809143387 -0.305892113518
Zn   3.337306786864  1.914466394815  5.380498056275 -0.099880158727  0.065798900773 -0.727839452861
Zn   4.963632706786  0.865144732585  2.669100581899  0.172366755933  0.587204480814  0.049515590232
O    3.252724968402  1.912515856762  1.952683378624  0.551518083156 -0.072620037460  0.984268426652
O    4.984834669832  0.989249876804  4.714098126665  0.012517158630 -0.221530105031 -0.376450383353