# total energy = -36806.84202699979 eV

CRYSTAL
PRIMVEC
10.163846843821924 0.0 0.0
-1.6939778619192687 2.934048487640294 0.0
0.0 0.0 5.1129841378656815
PRIMCOORD
12 1
Zn   0.057807895309  2.101151730330  5.099088126461 -0.434602566213 -3.133951581853 -1.265209783762
Zn   1.637889689496  1.069567012992  2.481208455361  0.256478081861 -0.107582412467 -0.043621850455
O   -0.226721882391  2.048759132619  1.764325911464  1.160982660920  0.196400914064  2.730605145441
O    1.634326244793  0.849892742003  4.617736471015  0.501321150587  3.721573095600 -1.922508193179
Zn   3.316349390054  2.006161434112  5.023525007100  0.480610400402 -0.554190487782  0.697942922412
Zn   5.105331777577  0.955657732260  2.566672177932 -0.858916863127 -0.199045550775  0.622982923965
O    3.419150602572  2.027873443740  1.944804323485 -1.298631810866 -1.323693124710  0.364749807086
O    5.407972513968  0.847017389731  4.638615045201 -2.855017742092 -0.446507802291 -1.799923136656
Zn   6.821275745295  1.867411711693  5.154543091225  0.993858898554  1.026850522988 -0.160317795188
Zn   8.603455470125  0.992460005297  2.614015376530 -1.427812004108 -0.846806453016 -1.640705773621
O    6.551623806605  1.785996249320  1.890670658810  2.576640803275  1.995177595820  0.579272884672
O    8.416003642784  1.104956511318  4.390066301713  0.905089247918 -0.328224458467  1.836732592175