# total energy = -73612.2370066202 eV

CRYSTAL
PRIMVEC
7.031592442324853 0.0 0.0
-1.7578981105812133 3.0447709382284116 0.0
0.0 0.0 16.595141786059365
PRIMCOORD
24 1
Zn   0.010339956686  1.980910690163  5.488709178082 -0.100153466993  0.155077372725 -0.130988964317
Zn   1.776028368535  0.997264739203  2.771841787057 -0.191649515422  0.052810973153  0.054209139053
O    0.028142542432  2.083401072125  2.163784127448 -0.226696993944 -0.296420940803 -0.366906962638
O    1.717701309225  0.989925866171  4.893257757403  0.058731966624  0.002537164600  0.181446606747
Zn   0.023868037386  1.972097995356  11.085812463140  0.021987817125  0.145346518590 -0.285889445144
Zn   1.751185752436  1.049681041905  8.255001632384 -0.110227306289 -0.097031119314  0.348712294007
O   -0.046772746608  2.038654830459  7.716925193398  0.249757475308 -0.012652141546 -0.444455804858
O    1.741461060088  1.063807511122  10.432761752970  0.084380006209 -0.136411677994  0.058987534278
Zn   0.005288460676  2.021225622272  16.523918786211 -0.033063358213  0.104242806571  0.313960749459
Zn   1.755496821762  0.974315730949  13.735913477607  0.015216816950  0.119311527979  0.467030090614
O   -0.007023154531  1.981204610728  13.208077849853  0.135710281052  0.163445027963 -0.331225964297
O    1.777938149042  1.114797806876  15.954982094314 -0.191456425574 -0.403987669541 -0.356039423796
Zn   3.535829931190  2.038108475726  5.591763493757 -0.081379528820 -0.070391919460 -0.471744465371
Zn   5.270909117977  0.974949277428  2.725646334189  0.037827355260  0.189100780858  0.196901764959
O    3.443832091471  2.051196378739  2.138350857584  0.344786990811 -0.046310195920 -0.406058950248
O    5.221346938648  1.024994527158  4.765923353025  0.161158545922 -0.048534714376  0.787308554761
Zn   3.546392789357  2.068215645087  11.090915289776 -0.176884698408 -0.108745065317 -0.332156960752
Zn   5.325197230587  0.994184198554  8.296726398777 -0.096219679156  0.046740598590  0.171036981378
O    3.508351874244  2.021153900029  7.645763368403 -0.015048152582  0.068131405561 -0.166647079840
O    5.276659554277  1.009323920241  10.362820612424  0.072015828217  0.029523463380  0.391260451782
Zn   3.507434251430  1.955762902953  16.637009996939  0.036093146178  0.176390275270 -0.031222705460
Zn   5.274168964233  0.943484307567  13.786119750804  0.008629136430  0.251517395422  0.512508791772
O    3.540542504445  2.050538221687  13.152193565759 -0.143956066000 -0.243165423913 -0.146466234017
O    5.253669762786  1.078290482075  15.916821642129  0.140440082427 -0.040524956697 -0.013560512293