# total energy = -110381.14971137555 eV

CRYSTAL
PRIMVEC
9.013222972357486 0.0 0.0
-1.5022068331339051 2.6018921415452976 0.0
0.0 0.0 13.313062110327374
PRIMCOORD
36 1
Zn  -0.105067140189  1.793370889355  4.549067371668 -0.167389614433 -0.761380522041 -2.049143508513
Zn   1.465166993329  1.080570966454  2.146823526894 -7.068463184160 -7.907884657567  4.586527937390
O    0.057779265864  1.790030588922  1.730241374335 -2.864468860202  4.020904782292  8.585908729567
O    1.622505418824  0.954546280210  4.048102524319 -11.614276160330 -6.955480169503 -2.803218240922
Zn  -0.086085292609  1.878388115042  8.898708171849  0.026431454719 -2.665772208126 -2.778561618715
Zn   1.654769151776  0.840620944484  6.688288244984 -10.643486999111 -4.784423433722 -4.520856563335
O    0.239022561326  1.828783842414  6.271649309120 -2.554976688038 -4.490329855501 -1.049224005588
O    1.696503078104  0.854205674148  8.226584022900 -8.006139107765 -1.904445422141  9.407159188491
Zn  -0.061240343486  1.755937171706  13.488518015319  2.761349625712  5.103943936656 -7.648663208632
Zn   1.511790593120  0.838036853458  10.912808385186 -4.282300613169  2.364325017753  2.739361037256
O    0.001148284607  1.820943239750  10.581610296488 -1.067747261203 -5.577381987680  2.186944867766
O    1.342378054132  1.019455906768  12.759767391723  3.718299052834 -0.968518877127  1.176587200226
Zn   2.907884752201  1.757287352508  4.260031337390  10.135454755053  1.629517361104  4.718639959568
Zn   4.295063932439  0.646394101330  2.137689526734  2.773381617176  7.600966416777 -0.813388539677
O    2.843591630094  1.661265882894  1.850143378214  10.179964921650 -1.396645605808 -0.891684030255
O    4.576242238929  0.742498492595  3.817938158530  0.850645624257  5.207378388394  2.421531548871
Zn   2.927651651501  1.637912622173  8.813273633939  4.776626563385  6.536029371329  4.020447125929
Zn   4.597691005637  1.101222964250  6.707582851401 -6.359758138136 -3.272878827180 -9.600318969910
O    2.767635397462  1.636475914431  6.123853182787  14.988500160819  10.598201387801 -5.767967323503
O    4.408178078098  0.971256795601  8.248794406948  0.889858289900 -3.014119919705  9.772394419854
Zn   3.133360439400  1.727144430921  13.521825479491 -2.588709304403  0.860394733224 -5.988721726710
Zn   4.814056127055  0.632027925235  11.246074107233  2.175066114051 -2.684860077995 -13.855440965782
O    2.974214862699  1.527222132171  10.655626883537  6.727431546627  2.778773477616 -0.646340367744
O    4.426675915604  0.984133987261  12.662707598823 -0.220020610365  1.890315667607  12.690163277031
Zn   6.074928507170  1.800293044598  4.344534809368  2.924519545637 -29.103542070362  7.308778540219
Zn   7.655776612060  0.938218826795  2.270046903438 -1.740560992647 -0.513829053246  0.287153142348
O    6.085958889444  1.761564126808  1.868072481350 -1.789364644414 -1.271062128778 -2.252413381783
O    7.420106969680  0.515549143440  4.015860423102 -2.296426811249  30.005764281144 -5.649678837472
Zn   5.990340310897  1.693167284282  8.758809431484 -1.183654391486  1.489493540279 -4.417847114950
Zn   7.645834125800  0.933885269190  6.669665123679  1.821249666048 -0.170575468360 -17.584818387918
O    5.980258119680  1.773198395021  6.265905182120  6.008109130098  1.702393480439 -3.568440248196
O    7.503441426638  1.011539593031  8.127790987222 -0.313173220560 -0.585823027086  18.115008913241
Zn   5.965225866407  1.986795555664  13.293305125572 -0.309622269984 -3.554094006777  2.182362647712
Zn   7.463436236475  0.857803752758  11.345772971820 -2.678795359858 -2.218555295583 -23.035141856683
O    6.197161330510  1.719055964626  10.374399905643 -0.795042690180  0.779973711662  6.657434034392
O    7.728015791539  0.992626245946  12.738412362535 -2.212510632050  1.233226545987  18.065466840646