# total energy = -73613.13000831891 eV

CRYSTAL
PRIMVEC
9.780305553333779 0.0 0.0
-3.2600985910094087 5.646659411217257 0.0
0.0 0.0 5.3387753923983094
PRIMCOORD
24 1
Zn  -0.119260067887  1.949310743774  5.422759854215  1.448990180848 -0.091347438666 -0.062760113946
Zn   1.708180244448  0.964251082839  2.555786513106 -0.077154692105  1.134121060642  0.519140181046
O   -0.045541992809  1.792126563073  2.146841618973  0.378598540044  0.916519344131 -1.277509169954
O    1.706384580348  0.962137558809  4.755600223017 -1.660924928881 -0.675707508052 -0.561928222746
Zn  -1.469631745788  4.714655951848  5.303367752204 -0.830286343874  0.045565090224 -0.717307442981
Zn  -0.205953674342  3.948256538231  2.456920338359  7.171245604136 -5.014079767404  2.405759887859
O   -1.504593404050  4.740079856134  1.980329960867 -7.035423222986  3.700274848343 -2.875051520814
O    0.036045316117  3.836248566912  4.296045181738  0.081848755147 -0.134758715772  3.503719153869
Zn   3.294294451346  1.740677265710  5.161072130647  0.822200738652  1.606768497443  0.837748970800
Zn   5.077130702174  0.769377516659  2.511559971393  1.654968711298  14.958946872642  5.052689766467
O    3.374449923539  1.936321519968  2.066068031470 -0.673279101117 -0.018373360301 -0.168220337864
O    4.965673362058  1.032122491257  4.728507798604  0.845013108561 -0.924188173531  0.089556408204
Zn   1.536828313123  4.775664519860  5.466368280617  0.716603732046 -0.008601111405 -1.715548529763
Zn   3.192969507783  3.845533989004  2.688328235934  0.751479717988 -0.807674262901  0.045095349677
O    1.563283061614  5.005085059346  2.081870071152 -1.923817913130 -14.745490802868 -4.666120549513
O    3.271666736418  3.845377504115  4.697252876147 -1.909510495368 -0.589925222179 -0.309673949158
Zn   6.684603140340  1.933759079913  5.537986524092 -0.556941568164 -1.267732807294 -0.592711526675
Zn   7.975602495349  0.991230055708  2.764508991950  2.915799649266 -1.957321958425  0.518905953548
O    6.663788694061  1.996141780855  2.167286369702 -2.123424478615  0.463822125200 -1.296511164978
O    8.253960749733  0.997896311973  4.672601616000 -1.015030133315 -0.842079994075  0.657701815504
Zn   4.842476721186  4.559969661186  5.264148726935  1.104333544967  0.978489358076  1.025533861060
Zn   6.626817183008  3.831459151282  2.707813538688 -1.113448105674  0.288298825916  0.510212796649
O    4.935345612568  4.618907738512  2.030289717694 -0.299613993819  0.856614440246  0.140056988056
O    6.444586617817  3.599178850452  4.804022515811  1.327772951206  2.127860917120 -1.062778604344