# total energy = -36809.41757754376 eV

CRYSTAL
PRIMVEC
9.588534908089704 0.0 0.0
-1.5980923475265867 2.7679703145927954 0.0
0.0 0.0 4.8235700167239735
PRIMCOORD
12 1
Zn   0.040425263173  1.893199645246  4.792840680051 -0.537196010106 -0.733051336079 -0.162956004142
Zn   1.597379919383  0.903260124265  2.409750321254  0.102304966119  0.523831672984 -1.308797181434
O   -0.079886878587  1.835943626750  1.856737323551  1.231291019527  0.250259611755  0.152334519872
O    1.614413951647  0.922939633311  4.245686277176 -0.141212698927  0.308604884463  0.809811620959
Zn   3.162300730395  1.869204336639  4.845610223064  0.787387230518 -0.208319776988 -1.577248890718
Zn   4.812193220056  0.975563430593  2.394376064383 -0.177377064663  0.265881377453 -0.315955925512
O    3.235396049706  1.940033885151  1.822548443483 -0.715309952935 -0.955186164574  1.607836533697
O    4.836677543943  0.901019283657  4.256230789015 -0.525709863844  0.497779198872  0.589291702360
Zn   6.410099550005  1.873150977607  4.836993006742 -0.039311653115 -0.327915411867 -1.364402686614
Zn   7.956226832597  0.957492877706  2.441847941859 -0.232363448201 -0.634628992845 -1.294774384793
O    6.406952592848  1.843816772763  1.818193330928 -0.120632046562  0.514360757379  1.461158440779
O    7.998439398676  0.906039840535  4.248446816376  0.368129522192  0.498383922335  1.403702512655