# total energy = -110417.63630958529 eV

CRYSTAL
PRIMVEC
9.97207619857785 0.0 0.0
-1.6620160237883748 2.8786890966244614 0.0
0.0 0.0 17.611165226346017
PRIMCOORD
36 1
Zn   0.023095328476  1.886864403499  5.716168588358 -0.148026636525  0.510894653208  0.628544477213
Zn   1.816478498066  1.076944341142  2.845639641687 -1.679261522407 -0.909512059576  0.251766792428
O    0.168284769097  2.047638204803  2.188082931568 -0.498107014525 -0.078013183451  0.224293526709
O    1.614692538980  0.985866377597  5.216114838550  1.650936964431  0.127458582566 -0.235972762819
Zn  -0.135677077135  1.973914645467  11.587192550797  0.849312764378 -0.185320230769  0.289042903171
Zn   1.748792033661  1.050920213886  8.912528144365 -0.830723431411 -0.905367955500 -0.285020669386
O    0.165000964405  1.914667549148  8.099117855338 -0.773301184738  0.084040877702  0.677990390549
O    1.734088207306  0.874135247038  10.915501419874 -0.353346193235  0.726275965029  0.481531369554
Zn  -0.085305128633  2.144328452832  17.551639909101 -0.203513356739 -5.385348349446  2.017497856584
Zn   1.666435647960  1.047689261198  14.800629287293 -0.725866645405 -0.488070456224 -1.060937180260
O   -0.026941558266  1.864608723839  13.905086984280  0.771898390853  0.666427111192  0.543738182100
O    1.549281702363  0.820050694567  16.950547088834  1.402140053264  5.961270829588 -2.092980046082
Zn   3.310949680812  1.899781233799  6.036899477926 -0.002731797109  0.060412696760 -0.769760518575
Zn   4.908948964236  0.960949150800  2.897547289924  1.249912491283  0.351028600845  0.208342659807
O    3.373679026139  1.957981262116  2.273711155470  0.588893181370  0.583552742994 -0.702717718093
O    5.239973030855  1.052636408200  5.271179646111 -2.965522213302 -1.635540941590 -0.607567360741
Zn   3.406584883179  1.938013176736  11.747033962976 -0.266417452462  0.037931999159 -1.031099270962
Zn   4.942344450217  0.872806966488  8.593018834132  0.390589908078  0.738234422942  1.282890488871
O    3.334347163197  1.902922437801  8.117790568020  0.484847835522 -0.033641342204 -0.902231723864
O    4.913391524182  0.935393711126  10.849844272975  0.340745473752 -0.016058596125  1.083572658271
Zn   3.294363126471  1.995321701442  17.597645085436  0.185401477629 -0.032341392445 -0.342022283582
Zn   4.878457346843  0.929985854203  14.662058313645  0.787785237287  1.159728733908 -0.197076085754
O    3.280456069004  2.052738921778  13.920216618288  0.014120498562 -1.029995496375  0.404991942436
O    5.167739299703  1.081104691332  16.803712255640 -3.241812444793 -1.919081426886 -0.255947149058
Zn   6.572408944658  1.869447175210  6.127025108193  2.363815167996  1.438156837678 -0.136115229800
Zn   8.130052232914  1.158313491299  2.861294804111  2.859090112389 -1.116990057389  1.055622452915
O    6.695763527234  1.815464337917  2.117115654093 -2.546602347931  1.179748885784 -0.699924214508
O    8.392845359767  1.014633823015  5.307690408697 -1.115519900601 -0.449412891753 -0.164142825361
Zn   6.792291230421  1.908142819691  11.834250738616 -2.698195875872  1.174060834260  0.827511095122
Zn   8.275306492030  0.959220989995  8.788344882256  0.683588710573  0.656699856602 -0.213604422426
O    6.650580049978  1.985446354383  8.149370138926 -0.178817139544 -0.528660976052  0.035446770843
O    8.160382302672  1.096842621988  11.085304936176  2.269229939119 -1.680298191201 -0.964920618253
Zn   6.614877025565  1.851168359538  17.482802667103  2.875763459279  1.577763882681  0.636127945988
Zn   8.342250036758  1.009612882649  14.606070091828 -0.076857986800 -0.124426737718  0.427560828875
O    6.664633696965  1.975660756009  14.072531107353 -0.448226327644 -0.429642651105 -0.683225156586
O    8.520942661784  0.908387334365  16.854779257853 -1.015222708942 -0.085963805756  0.268793151783