
     Program PWSCF v.7.0 starts on 14Sep2025 at 13:38:37 

     This program is part of the open-source Quantum ESPRESSO suite
     for quantum simulation of materials; please cite
         "P. Giannozzi et al., J. Phys.:Condens. Matter 21 395502 (2009);
         "P. Giannozzi et al., J. Phys.:Condens. Matter 29 465901 (2017);
         "P. Giannozzi et al., J. Chem. Phys. 152 154105 (2020);
          URL http://www.quantum-espresso.org", 
     in publications or presentations arising from this work. More details at
     http://www.quantum-espresso.org/quote

     Parallel version (MPI & OpenMP), running on      64 processor cores
     Number of MPI processes:                32
     Threads/MPI process:                     2

     MPI processes distributed on     1 nodes
     K-points division:     npool     =       8
     R & G space division:  proc/nbgrp/npool/nimage =       4
     106926 MiB available memory on the printing compute node when the environment starts

     Reading input from /home/jvc/QEspresso7.2/ZnO_database/scripts/cell133.in/ZnO-3.60-1.52-133.in
Warning: card &CELL ignored
Warning: card / ignored
Warning: card &FCP ignored
Warning: card / ignored
Warning: card &RISM ignored
Warning: card / ignored

     Current dimensions of program PWSCF are:
     Max number of different atomic species (ntypx) = 10
     Max number of k-points (npk) =  40000
     Max angular momentum in pseudopotentials (lmaxx) =  4
     file Zn.upf: wavefunction(s)  3D renormalized
     Found identity + (  0.0000  0.0000  0.3333) symmetry
     This is a supercell, fractional translations are disabled
     Message from routine setup:
     using ibrav=0 with symmetry is DISCOURAGED, use correct ibrav instead

     Subspace diagonalization in iterative solution of the eigenvalue problem:
     one sub-group per band group will be used
     scalapack distributed-memory algorithm (size of sub-group:  2*  2 procs)


     Parallelization info
     --------------------
     sticks:   dense  smooth     PW     G-vecs:    dense   smooth      PW
     Min         955     480    138               125436    44376    6916
     Max         957     481    140               125439    44379    6918
     Sum        3825    1921    555               501749   177511   27669

     Using Slab Decomposition



     bravais-lattice index     =            0
     lattice parameter (alat)  =       6.7967  a.u.
     unit-cell volume          =    3713.6656 (a.u.)^3
     number of atoms/cell      =           36
     number of atomic types    =            2
     number of electrons       =       324.00
     number of Kohn-Sham states=          162
     kinetic-energy cutoff     =      50.0000  Ry
     charge density cutoff     =     400.0000  Ry
     scf convergence threshold =      1.0E-08
     mixing beta               =       0.3000
     number of iterations used =            8  plain     mixing
     Exchange-correlation= PBE
                           (   1   4   3   4   0   0   0)

     celldm(1)=   6.796739  celldm(2)=   0.000000  celldm(3)=   0.000000
     celldm(4)=   0.000000  celldm(5)=   0.000000  celldm(6)=   0.000000

     crystal axes: (cart. coord. in units of alat)
               a(1) = (   1.000000   0.000000   0.000000 )  
               a(2) = (  -1.500000   2.598076   0.000000 )  
               a(3) = (   0.000000   0.000000   4.552491 )  

     reciprocal axes: (cart. coord. in units 2 pi/alat)
               b(1) = (  1.000000  0.577350 -0.000000 )  
               b(2) = (  0.000000  0.384900  0.000000 )  
               b(3) = (  0.000000 -0.000000  0.219660 )  


     PseudoPot. # 1 for Zn read from file:
     /home/jvc/QEspresso7.2/ZnO_database/pseudos/Zn.upf
     MD5 check sum: 7f56cabf9682ed8c977c2f7d0c5985c5
     Pseudo is Ultrasoft + core correction, Zval = 12.0
     Generated using &quot;atomic&quot; code by A. Dal Corso  v.6.2.2
     Using radial grid of 1201 points,  6 beta functions with: 
                l(1) =   0
                l(2) =   0
                l(3) =   1
                l(4) =   1
                l(5) =   2
                l(6) =   2
     Q(r) pseudized with 0 coefficients 


     PseudoPot. # 2 for O  read from file:
     /home/jvc/QEspresso7.2/ZnO_database/pseudos/O.upf
     MD5 check sum: 91400c9766925bcf19f520983a725ff0
     Pseudo is Ultrasoft + core correction, Zval =  6.0
     Generated using &quot;atomic&quot; code by A. Dal Corso  v.6.3MaX
     Using radial grid of 1095 points,  4 beta functions with: 
                l(1) =   0
                l(2) =   0
                l(3) =   1
                l(4) =   1
     Q(r) pseudized with 0 coefficients 


     atomic species   valence    mass     pseudopotential
        Zn            12.00    65.38000     Zn( 1.00)
        O              6.00    15.99900     O ( 1.00)

      2 Sym. Ops. (no inversion) found


                                    s                        frac. trans.

      isym =  1     identity                                     

 cryst.   s( 1) = (     1          0          0      )
                  (     0          1          0      )
                  (     0          0          1      )

 cart.    s( 1) = (  1.0000000  0.0000000  0.0000000 )
                  (  0.0000000  1.0000000  0.0000000 )
                  (  0.0000000  0.0000000  1.0000000 )


      isym =  2     inv. 180 deg rotation - cart. axis [1,0,0]   

 cryst.   s( 2) = (    -1          0          0      )
                  (     3          1          0      )
                  (     0          0          1      )

 cart.    s( 2) = ( -1.0000000 -0.0000000  0.0000000 )
                  (  0.0000000  1.0000000  0.0000000 )
                  (  0.0000000  0.0000000  1.0000000 )


   Cartesian axes

     site n.     atom                  positions (alat units)
         1           Zn  tau(   1) = (   0.5000000   0.2886751   0.7597099  )
         2           Zn  tau(   2) = (  -0.0000000   0.5773503   0.0009615  )
         3           O   tau(   3) = (   0.5000000   0.2886751   1.3349062  )
         4           O   tau(   4) = (  -0.0000000   0.5773503   0.5761578  )
         5           Zn  tau(   5) = (   0.5000000   0.2886751   2.2772067  )
         6           Zn  tau(   6) = (  -0.0000000   0.5773503   1.5184583  )
         7           O   tau(   7) = (   0.5000000   0.2886751   2.8524030  )
         8           O   tau(   8) = (  -0.0000000   0.5773503   2.0936546  )
         9           Zn  tau(   9) = (   0.5000000   0.2886751   3.7947036  )
        10           Zn  tau(  10) = (  -0.0000000   0.5773503   3.0359552  )
        11           O   tau(  11) = (   0.5000000   0.2886751   4.3698999  )
        12           O   tau(  12) = (  -0.0000000   0.5773503   3.6111515  )
        13           Zn  tau(  13) = (   0.0000000   1.1547005   0.7597099  )
        14           Zn  tau(  14) = (  -0.5000000   1.4433757   0.0009615  )
        15           O   tau(  15) = (   0.0000000   1.1547005   1.3349062  )
        16           O   tau(  16) = (  -0.5000000   1.4433757   0.5761578  )
        17           Zn  tau(  17) = (   0.0000000   1.1547005   2.2772067  )
        18           Zn  tau(  18) = (  -0.5000000   1.4433757   1.5184583  )
        19           O   tau(  19) = (   0.0000000   1.1547005   2.8524030  )
        20           O   tau(  20) = (  -0.5000000   1.4433757   2.0936546  )
        21           Zn  tau(  21) = (   0.0000000   1.1547005   3.7947036  )
        22           Zn  tau(  22) = (  -0.5000000   1.4433757   3.0359552  )
        23           O   tau(  23) = (   0.0000000   1.1547005   4.3698999  )
        24           O   tau(  24) = (  -0.5000000   1.4433757   3.6111515  )
        25           Zn  tau(  25) = (  -0.5000000   2.0207259   0.7597099  )
        26           Zn  tau(  26) = (  -1.0000000   2.3094011   0.0009615  )
        27           O   tau(  27) = (  -0.5000000   2.0207259   1.3349062  )
        28           O   tau(  28) = (  -1.0000000   2.3094011   0.5761578  )
        29           Zn  tau(  29) = (  -0.5000000   2.0207259   2.2772067  )
        30           Zn  tau(  30) = (  -1.0000000   2.3094011   1.5184583  )
        31           O   tau(  31) = (  -0.5000000   2.0207259   2.8524030  )
        32           O   tau(  32) = (  -1.0000000   2.3094011   2.0936546  )
        33           Zn  tau(  33) = (  -0.5000000   2.0207259   3.7947036  )
        34           Zn  tau(  34) = (  -1.0000000   2.3094011   3.0359552  )
        35           O   tau(  35) = (  -0.5000000   2.0207259   4.3698999  )
        36           O   tau(  36) = (  -1.0000000   2.3094011   3.6111515  )

   Crystallographic axes

     site n.     atom                  positions (cryst. coord.)
         1           Zn  tau(   1) = (  0.6666667  0.1111111  0.1668779  )
         2           Zn  tau(   2) = (  0.3333333  0.2222222  0.0002112  )
         3           O   tau(   3) = (  0.6666667  0.1111111  0.2932255  )
         4           O   tau(   4) = (  0.3333333  0.2222222  0.1265588  )
         5           Zn  tau(   5) = (  0.6666667  0.1111111  0.5002112  )
         6           Zn  tau(   6) = (  0.3333333  0.2222222  0.3335445  )
         7           O   tau(   7) = (  0.6666667  0.1111111  0.6265588  )
         8           O   tau(   8) = (  0.3333333  0.2222222  0.4598921  )
         9           Zn  tau(   9) = (  0.6666667  0.1111111  0.8335445  )
        10           Zn  tau(  10) = (  0.3333333  0.2222222  0.6668779  )
        11           O   tau(  11) = (  0.6666667  0.1111111  0.9598921  )
        12           O   tau(  12) = (  0.3333333  0.2222222  0.7932255  )
        13           Zn  tau(  13) = (  0.6666667  0.4444444  0.1668779  )
        14           Zn  tau(  14) = (  0.3333333  0.5555556  0.0002112  )
        15           O   tau(  15) = (  0.6666667  0.4444444  0.2932255  )
        16           O   tau(  16) = (  0.3333333  0.5555556  0.1265588  )
        17           Zn  tau(  17) = (  0.6666667  0.4444444  0.5002112  )
        18           Zn  tau(  18) = (  0.3333333  0.5555556  0.3335445  )
        19           O   tau(  19) = (  0.6666667  0.4444444  0.6265588  )
        20           O   tau(  20) = (  0.3333333  0.5555556  0.4598921  )
        21           Zn  tau(  21) = (  0.6666667  0.4444444  0.8335445  )
        22           Zn  tau(  22) = (  0.3333333  0.5555556  0.6668779  )
        23           O   tau(  23) = (  0.6666667  0.4444444  0.9598921  )
        24           O   tau(  24) = (  0.3333333  0.5555556  0.7932255  )
        25           Zn  tau(  25) = (  0.6666667  0.7777778  0.1668779  )
        26           Zn  tau(  26) = (  0.3333333  0.8888889  0.0002112  )
        27           O   tau(  27) = (  0.6666667  0.7777778  0.2932255  )
        28           O   tau(  28) = (  0.3333333  0.8888889  0.1265588  )
        29           Zn  tau(  29) = (  0.6666667  0.7777778  0.5002112  )
        30           Zn  tau(  30) = (  0.3333333  0.8888889  0.3335445  )
        31           O   tau(  31) = (  0.6666667  0.7777778  0.6265588  )
        32           O   tau(  32) = (  0.3333333  0.8888889  0.4598921  )
        33           Zn  tau(  33) = (  0.6666667  0.7777778  0.8335445  )
        34           Zn  tau(  34) = (  0.3333333  0.8888889  0.6668779  )
        35           O   tau(  35) = (  0.6666667  0.7777778  0.9598921  )
        36           O   tau(  36) = (  0.3333333  0.8888889  0.7932255  )

     number of k points=    68
                       cart. coord. in units 2pi/alat
        k(    1) = (   0.0000000   0.0000000   0.0000000), wk =   0.0092593
        k(    2) = (   0.0000000   0.0000000   0.0366100), wk =   0.0185185
        k(    3) = (   0.0000000   0.0000000   0.0732200), wk =   0.0185185
        k(    4) = (   0.0000000   0.0000000  -0.1098300), wk =   0.0092593
        k(    5) = (   0.0000000   0.0641500   0.0000000), wk =   0.0185185
        k(    6) = (   0.0000000   0.0641500   0.0366100), wk =   0.0185185
        k(    7) = (   0.0000000   0.0641500   0.0732200), wk =   0.0185185
        k(    8) = (   0.0000000   0.0641500  -0.1098300), wk =   0.0185185
        k(    9) = (   0.0000000   0.1283001   0.0000000), wk =   0.0185185
        k(   10) = (   0.0000000   0.1283001   0.0366100), wk =   0.0185185
        k(   11) = (   0.0000000   0.1283001   0.0732200), wk =   0.0185185
        k(   12) = (   0.0000000   0.1283001  -0.1098300), wk =   0.0185185
        k(   13) = (   0.0000000  -0.1924501   0.0000000), wk =   0.0092593
        k(   14) = (   0.0000000  -0.1924501   0.0366100), wk =   0.0185185
        k(   15) = (   0.0000000  -0.1924501   0.0732200), wk =   0.0185185
        k(   16) = (   0.0000000  -0.1924501  -0.1098300), wk =   0.0092593
        k(   17) = (   0.1666667   0.0962250   0.0000000), wk =   0.0370370
        k(   18) = (   0.1666667   0.0962250   0.0366100), wk =   0.0370370
        k(   19) = (   0.1666667   0.0962250   0.0732200), wk =   0.0370370
        k(   20) = (   0.1666667   0.0962250  -0.1098300), wk =   0.0370370
        k(   21) = (   0.1666667   0.1603751   0.0000000), wk =   0.0370370
        k(   22) = (   0.1666667   0.1603751   0.0366100), wk =   0.0370370
        k(   23) = (   0.1666667   0.1603751   0.0732200), wk =   0.0370370
        k(   24) = (   0.1666667   0.1603751  -0.1098300), wk =   0.0370370
        k(   25) = (   0.1666667  -0.0320750   0.0000000), wk =   0.0370370
        k(   26) = (   0.1666667  -0.0320750   0.0366100), wk =   0.0370370
        k(   27) = (   0.1666667  -0.0320750   0.0732200), wk =   0.0370370
        k(   28) = (   0.1666667  -0.0320750  -0.1098300), wk =   0.0370370
        k(   29) = (   0.3333333   0.1924501   0.0000000), wk =   0.0185185
        k(   30) = (   0.3333333   0.1924501   0.0366100), wk =   0.0370370
        k(   31) = (   0.3333333   0.1924501   0.0732200), wk =   0.0370370
        k(   32) = (   0.3333333   0.1924501  -0.1098300), wk =   0.0185185
        k(   33) = (   0.3333333   0.2566001   0.0000000), wk =   0.0370370
        k(   34) = (   0.3333333   0.2566001   0.0366100), wk =   0.0370370
        k(   35) = (   0.3333333   0.2566001   0.0732200), wk =   0.0370370
        k(   36) = (   0.3333333   0.2566001  -0.1098300), wk =   0.0370370
        k(   37) = (   0.3333333   0.3207501   0.0000000), wk =   0.0370370
        k(   38) = (   0.3333333   0.3207501   0.0366100), wk =   0.0370370
        k(   39) = (   0.3333333   0.3207501   0.0732200), wk =   0.0370370
        k(   40) = (   0.3333333   0.3207501  -0.1098300), wk =   0.0370370
        k(   41) = (   0.3333333   0.0000000   0.0000000), wk =   0.0185185
        k(   42) = (   0.3333333   0.0000000   0.0366100), wk =   0.0370370
        k(   43) = (   0.3333333   0.0000000   0.0732200), wk =   0.0370370
        k(   44) = (   0.3333333   0.0000000  -0.1098300), wk =   0.0185185
        k(   45) = (  -0.5000000  -0.2886751   0.0000000), wk =   0.0185185
        k(   46) = (  -0.5000000  -0.2886751   0.0366100), wk =   0.0370370
        k(   47) = (  -0.5000000  -0.2886751   0.0732200), wk =   0.0370370
        k(   48) = (  -0.5000000  -0.2886751  -0.1098300), wk =   0.0185185
        k(   49) = (  -0.5000000  -0.2245251   0.0000000), wk =   0.0370370
        k(   50) = (  -0.5000000  -0.2245251   0.0366100), wk =   0.0370370
        k(   51) = (  -0.5000000  -0.2245251   0.0732200), wk =   0.0370370
        k(   52) = (  -0.5000000  -0.2245251  -0.1098300), wk =   0.0370370
        k(   53) = (   0.0000000   0.0641500  -0.0366100), wk =   0.0185185
        k(   54) = (   0.0000000   0.0641500  -0.0732200), wk =   0.0185185
        k(   55) = (   0.0000000   0.1283001  -0.0366100), wk =   0.0185185
        k(   56) = (   0.0000000   0.1283001  -0.0732200), wk =   0.0185185
        k(   57) = (  -0.1666667   0.0962250  -0.0366100), wk =   0.0370370
        k(   58) = (  -0.1666667   0.0962250  -0.0732200), wk =   0.0370370
        k(   59) = (  -0.1666667   0.1603751  -0.0366100), wk =   0.0370370
        k(   60) = (  -0.1666667   0.1603751  -0.0732200), wk =   0.0370370
        k(   61) = (  -0.1666667  -0.0320750  -0.0366100), wk =   0.0370370
        k(   62) = (  -0.1666667  -0.0320750  -0.0732200), wk =   0.0370370
        k(   63) = (  -0.3333333   0.2566001  -0.0366100), wk =   0.0370370
        k(   64) = (  -0.3333333   0.2566001  -0.0732200), wk =   0.0370370
        k(   65) = (  -0.3333333   0.3207501  -0.0366100), wk =   0.0370370
        k(   66) = (  -0.3333333   0.3207501  -0.0732200), wk =   0.0370370
        k(   67) = (   0.5000000  -0.2245251  -0.0366100), wk =   0.0370370
        k(   68) = (   0.5000000  -0.2245251  -0.0732200), wk =   0.0370370

                       cryst. coord.
        k(    1) = (   0.0000000   0.0000000   0.0000000), wk =   0.0092593
        k(    2) = (   0.0000000   0.0000000   0.1666667), wk =   0.0185185
        k(    3) = (   0.0000000   0.0000000   0.3333333), wk =   0.0185185
        k(    4) = (   0.0000000   0.0000000  -0.5000000), wk =   0.0092593
        k(    5) = (   0.0000000   0.1666667   0.0000000), wk =   0.0185185
        k(    6) = (   0.0000000   0.1666667   0.1666667), wk =   0.0185185
        k(    7) = (   0.0000000   0.1666667   0.3333333), wk =   0.0185185
        k(    8) = (   0.0000000   0.1666667  -0.5000000), wk =   0.0185185
        k(    9) = (   0.0000000   0.3333333   0.0000000), wk =   0.0185185
        k(   10) = (   0.0000000   0.3333333   0.1666667), wk =   0.0185185
        k(   11) = (   0.0000000   0.3333333   0.3333333), wk =   0.0185185
        k(   12) = (   0.0000000   0.3333333  -0.5000000), wk =   0.0185185
        k(   13) = (   0.0000000  -0.5000000   0.0000000), wk =   0.0092593
        k(   14) = (   0.0000000  -0.5000000   0.1666667), wk =   0.0185185
        k(   15) = (   0.0000000  -0.5000000   0.3333333), wk =   0.0185185
        k(   16) = (   0.0000000  -0.5000000  -0.5000000), wk =   0.0092593
        k(   17) = (   0.1666667  -0.0000000   0.0000000), wk =   0.0370370
        k(   18) = (   0.1666667  -0.0000000   0.1666667), wk =   0.0370370
        k(   19) = (   0.1666667  -0.0000000   0.3333333), wk =   0.0370370
        k(   20) = (   0.1666667  -0.0000000  -0.5000000), wk =   0.0370370
        k(   21) = (   0.1666667   0.1666667   0.0000000), wk =   0.0370370
        k(   22) = (   0.1666667   0.1666667   0.1666667), wk =   0.0370370
        k(   23) = (   0.1666667   0.1666667   0.3333333), wk =   0.0370370
        k(   24) = (   0.1666667   0.1666667  -0.5000000), wk =   0.0370370
        k(   25) = (   0.1666667  -0.3333333   0.0000000), wk =   0.0370370
        k(   26) = (   0.1666667  -0.3333333   0.1666667), wk =   0.0370370
        k(   27) = (   0.1666667  -0.3333333   0.3333333), wk =   0.0370370
        k(   28) = (   0.1666667  -0.3333333  -0.5000000), wk =   0.0370370
        k(   29) = (   0.3333333  -0.0000000   0.0000000), wk =   0.0185185
        k(   30) = (   0.3333333  -0.0000000   0.1666667), wk =   0.0370370
        k(   31) = (   0.3333333  -0.0000000   0.3333333), wk =   0.0370370
        k(   32) = (   0.3333333  -0.0000000  -0.5000000), wk =   0.0185185
        k(   33) = (   0.3333333   0.1666667   0.0000000), wk =   0.0370370
        k(   34) = (   0.3333333   0.1666667   0.1666667), wk =   0.0370370
        k(   35) = (   0.3333333   0.1666667   0.3333333), wk =   0.0370370
        k(   36) = (   0.3333333   0.1666667  -0.5000000), wk =   0.0370370
        k(   37) = (   0.3333333   0.3333333   0.0000000), wk =   0.0370370
        k(   38) = (   0.3333333   0.3333333   0.1666667), wk =   0.0370370
        k(   39) = (   0.3333333   0.3333333   0.3333333), wk =   0.0370370
        k(   40) = (   0.3333333   0.3333333  -0.5000000), wk =   0.0370370
        k(   41) = (   0.3333333  -0.5000000   0.0000000), wk =   0.0185185
        k(   42) = (   0.3333333  -0.5000000   0.1666667), wk =   0.0370370
        k(   43) = (   0.3333333  -0.5000000   0.3333333), wk =   0.0370370
        k(   44) = (   0.3333333  -0.5000000  -0.5000000), wk =   0.0185185
        k(   45) = (  -0.5000000   0.0000000   0.0000000), wk =   0.0185185
        k(   46) = (  -0.5000000   0.0000000   0.1666667), wk =   0.0370370
        k(   47) = (  -0.5000000   0.0000000   0.3333333), wk =   0.0370370
        k(   48) = (  -0.5000000   0.0000000  -0.5000000), wk =   0.0185185
        k(   49) = (  -0.5000000   0.1666667   0.0000000), wk =   0.0370370
        k(   50) = (  -0.5000000   0.1666667   0.1666667), wk =   0.0370370
        k(   51) = (  -0.5000000   0.1666667   0.3333333), wk =   0.0370370
        k(   52) = (  -0.5000000   0.1666667  -0.5000000), wk =   0.0370370
        k(   53) = (   0.0000000   0.1666667  -0.1666667), wk =   0.0185185
        k(   54) = (   0.0000000   0.1666667  -0.3333333), wk =   0.0185185
        k(   55) = (   0.0000000   0.3333333  -0.1666667), wk =   0.0185185
        k(   56) = (   0.0000000   0.3333333  -0.3333333), wk =   0.0185185
        k(   57) = (  -0.1666667   0.5000000  -0.1666667), wk =   0.0370370
        k(   58) = (  -0.1666667   0.5000000  -0.3333333), wk =   0.0370370
        k(   59) = (  -0.1666667   0.6666667  -0.1666667), wk =   0.0370370
        k(   60) = (  -0.1666667   0.6666667  -0.3333333), wk =   0.0370370
        k(   61) = (  -0.1666667   0.1666667  -0.1666667), wk =   0.0370370
        k(   62) = (  -0.1666667   0.1666667  -0.3333333), wk =   0.0370370
        k(   63) = (  -0.3333333   1.1666667  -0.1666667), wk =   0.0370370
        k(   64) = (  -0.3333333   1.1666667  -0.3333333), wk =   0.0370370
        k(   65) = (  -0.3333333   1.3333333  -0.1666667), wk =   0.0370370
        k(   66) = (  -0.3333333   1.3333333  -0.3333333), wk =   0.0370370
        k(   67) = (   0.5000000  -1.3333333  -0.1666667), wk =   0.0370370
        k(   68) = (   0.5000000  -1.3333333  -0.3333333), wk =   0.0370370

     Dense  grid:   501749 G-vectors     FFT dimensions: (  45, 135, 200)

     Smooth grid:   177511 G-vectors     FFT dimensions: (  32,  96, 144)

     Dynamical RAM for                 wfc:      13.70 MB

     Dynamical RAM for     wfc (w. buffer):     137.02 MB

     Dynamical RAM for           str. fact:       3.83 MB

     Dynamical RAM for           local pot:       0.00 MB

     Dynamical RAM for          nlocal pot:      39.58 MB

     Dynamical RAM for                qrad:       3.21 MB

     Dynamical RAM for          rho,v,vnew:      12.69 MB

     Dynamical RAM for               rhoin:       4.23 MB

     Dynamical RAM for            rho*nmix:      30.62 MB

     Dynamical RAM for           G-vectors:       7.52 MB

     Dynamical RAM for          h,s,v(r/c):       1.20 MB

     Dynamical RAM for          <psi|beta>:       1.16 MB

     Dynamical RAM for                 psi:      27.40 MB

     Dynamical RAM for                hpsi:      27.40 MB

     Dynamical RAM for                spsi:      27.40 MB

     Dynamical RAM for      wfcinit/wfcrot:      40.84 MB

     Dynamical RAM for           addusdens:      50.48 MB

     Dynamical RAM for          addusforce:      57.97 MB

     Estimated static dynamical RAM per process >     225.41 MB

     Estimated max dynamical RAM per process >     340.61 MB

     Estimated total dynamical RAM >       9.81 GB

     Check: negative core charge=   -0.000002

     Initial potential from superposition of free atoms

     starting charge     323.9329, renormalised to     324.0000
     Starting wfcs are  234 randomized atomic wfcs

     total cpu time spent up to now is       37.9 secs

     per-process dynamical memory:   256.7 Mb

     Self-consistent Calculation

     iteration #  1     ecut=    50.00 Ry     beta= 0.30
     Davidson diagonalization with overlap

---- Real-time Memory Report at c_bands before calling an iterative solver
           303 MiB given to the printing process from OS
           250 MiB allocation reported by mallinfo(arena+hblkhd)
         98719 MiB available memory on the node where the printing process lives
------------------
     ethr =  1.00E-02,  avg # of iterations =  1.6

     total cpu time spent up to now is      100.2 secs

     total energy              =   -3252.45110463 Ry
     estimated scf accuracy    <       7.26809961 Ry

     iteration #  2     ecut=    50.00 Ry     beta= 0.30
     Davidson diagonalization with overlap

---- Real-time Memory Report at c_bands before calling an iterative solver
           369 MiB given to the printing process from OS
           296 MiB allocation reported by mallinfo(arena+hblkhd)
         97351 MiB available memory on the node where the printing process lives
------------------
     ethr =  2.24E-03,  avg # of iterations =  2.6

     total cpu time spent up to now is      177.7 secs

     total energy              =   -3253.51251051 Ry
     estimated scf accuracy    <       0.85715632 Ry

     iteration #  3     ecut=    50.00 Ry     beta= 0.30
     Davidson diagonalization with overlap

---- Real-time Memory Report at c_bands before calling an iterative solver
           372 MiB given to the printing process from OS
           297 MiB allocation reported by mallinfo(arena+hblkhd)
         97343 MiB available memory on the node where the printing process lives
------------------
     ethr =  2.65E-04,  avg # of iterations =  7.9

     total cpu time spent up to now is      307.3 secs

     total energy              =   -3253.54227008 Ry
     estimated scf accuracy    <       1.29790974 Ry

     iteration #  4     ecut=    50.00 Ry     beta= 0.30
     Davidson diagonalization with overlap

---- Real-time Memory Report at c_bands before calling an iterative solver
           377 MiB given to the printing process from OS
           298 MiB allocation reported by mallinfo(arena+hblkhd)
         97408 MiB available memory on the node where the printing process lives
------------------
     ethr =  2.65E-04,  avg # of iterations = 11.6

     total cpu time spent up to now is      500.3 secs

     total energy              =   -3254.64275307 Ry
     estimated scf accuracy    <       3.24902107 Ry

     iteration #  5     ecut=    50.00 Ry     beta= 0.30
     Davidson diagonalization with overlap

---- Real-time Memory Report at c_bands before calling an iterative solver
           379 MiB given to the printing process from OS
           300 MiB allocation reported by mallinfo(arena+hblkhd)
         97348 MiB available memory on the node where the printing process lives
------------------
     ethr =  2.65E-04,  avg # of iterations =  1.1

     total cpu time spent up to now is      559.9 secs

     total energy              =   -3253.19284010 Ry
     estimated scf accuracy    <       2.45925772 Ry

     iteration #  6     ecut=    50.00 Ry     beta= 0.30
     Davidson diagonalization with overlap

---- Real-time Memory Report at c_bands before calling an iterative solver
           379 MiB given to the printing process from OS
           301 MiB allocation reported by mallinfo(arena+hblkhd)
         97352 MiB available memory on the node where the printing process lives
------------------
     ethr =  2.65E-04,  avg # of iterations =  8.3

     total cpu time spent up to now is      689.0 secs

     total energy              =   -3254.16028831 Ry
     estimated scf accuracy    <       1.10860765 Ry

     iteration #  7     ecut=    50.00 Ry     beta= 0.30
     Davidson diagonalization with overlap

---- Real-time Memory Report at c_bands before calling an iterative solver
           380 MiB given to the printing process from OS
           303 MiB allocation reported by mallinfo(arena+hblkhd)
         97317 MiB available memory on the node where the printing process lives
------------------
     ethr =  2.65E-04,  avg # of iterations =  1.5

     total cpu time spent up to now is      751.4 secs

     total energy              =   -3254.20056721 Ry
     estimated scf accuracy    <       0.47911908 Ry

     iteration #  8     ecut=    50.00 Ry     beta= 0.30
     Davidson diagonalization with overlap

---- Real-time Memory Report at c_bands before calling an iterative solver
           380 MiB given to the printing process from OS
           304 MiB allocation reported by mallinfo(arena+hblkhd)
         97304 MiB available memory on the node where the printing process lives
------------------
     ethr =  1.48E-04,  avg # of iterations =  1.4

     total cpu time spent up to now is      813.4 secs

     total energy              =   -3254.18143101 Ry
     estimated scf accuracy    <       0.44734195 Ry

     iteration #  9     ecut=    50.00 Ry     beta= 0.30
     Davidson diagonalization with overlap

---- Real-time Memory Report at c_bands before calling an iterative solver
           380 MiB given to the printing process from OS
           305 MiB allocation reported by mallinfo(arena+hblkhd)
         97293 MiB available memory on the node where the printing process lives
------------------
     ethr =  1.38E-04,  avg # of iterations =  1.1

     total cpu time spent up to now is      874.0 secs

     total energy              =   -3254.17303972 Ry
     estimated scf accuracy    <       0.32330219 Ry

     iteration # 10     ecut=    50.00 Ry     beta= 0.30
     Davidson diagonalization with overlap

---- Real-time Memory Report at c_bands before calling an iterative solver
           382 MiB given to the printing process from OS
           307 MiB allocation reported by mallinfo(arena+hblkhd)
         97260 MiB available memory on the node where the printing process lives
------------------
     ethr =  9.98E-05,  avg # of iterations =  2.3

     total cpu time spent up to now is      945.8 secs

     total energy              =   -3254.19437715 Ry
     estimated scf accuracy    <       0.17006388 Ry

     iteration # 11     ecut=    50.00 Ry     beta= 0.30
     Davidson diagonalization with overlap

---- Real-time Memory Report at c_bands before calling an iterative solver
           383 MiB given to the printing process from OS
           307 MiB allocation reported by mallinfo(arena+hblkhd)
         97272 MiB available memory on the node where the printing process lives
------------------
     ethr =  5.25E-05,  avg # of iterations =  4.2

     total cpu time spent up to now is     1020.4 secs

     total energy              =   -3254.19790835 Ry
     estimated scf accuracy    <       0.14072938 Ry

     iteration # 12     ecut=    50.00 Ry     beta= 0.30
     Davidson diagonalization with overlap

---- Real-time Memory Report at c_bands before calling an iterative solver
           383 MiB given to the printing process from OS
           307 MiB allocation reported by mallinfo(arena+hblkhd)
         97277 MiB available memory on the node where the printing process lives
------------------
     ethr =  4.34E-05,  avg # of iterations =  2.0

     total cpu time spent up to now is     1084.4 secs

     total energy              =   -3254.16850213 Ry
     estimated scf accuracy    <       0.11681067 Ry

     iteration # 13     ecut=    50.00 Ry     beta= 0.30
     Davidson diagonalization with overlap

---- Real-time Memory Report at c_bands before calling an iterative solver
           383 MiB given to the printing process from OS
           307 MiB allocation reported by mallinfo(arena+hblkhd)
         97401 MiB available memory on the node where the printing process lives
------------------
     ethr =  3.61E-05,  avg # of iterations =  5.8

     total cpu time spent up to now is     1167.2 secs

     total energy              =   -3254.17066463 Ry
     estimated scf accuracy    <       0.02151749 Ry

     iteration # 14     ecut=    50.00 Ry     beta= 0.30
     Davidson diagonalization with overlap

---- Real-time Memory Report at c_bands before calling an iterative solver
           383 MiB given to the printing process from OS
           307 MiB allocation reported by mallinfo(arena+hblkhd)
         97346 MiB available memory on the node where the printing process lives
------------------
     c_bands:  1 eigenvalues not converged
     ethr =  6.64E-06,  avg # of iterations = 11.9

     total cpu time spent up to now is     1344.7 secs

     total energy              =   -3254.19241266 Ry
     estimated scf accuracy    <       0.08086854 Ry

     iteration # 15     ecut=    50.00 Ry     beta= 0.30
     Davidson diagonalization with overlap

---- Real-time Memory Report at c_bands before calling an iterative solver
           386 MiB given to the printing process from OS
           307 MiB allocation reported by mallinfo(arena+hblkhd)
         97318 MiB available memory on the node where the printing process lives
------------------
     ethr =  6.64E-06,  avg # of iterations =  4.1

     total cpu time spent up to now is     1426.0 secs

     total energy              =   -3254.17173633 Ry
     estimated scf accuracy    <       0.03726243 Ry

     iteration # 16     ecut=    50.00 Ry     beta= 0.30
     Davidson diagonalization with overlap

---- Real-time Memory Report at c_bands before calling an iterative solver
           386 MiB given to the printing process from OS
           307 MiB allocation reported by mallinfo(arena+hblkhd)
         97378 MiB available memory on the node where the printing process lives
------------------
     ethr =  6.64E-06,  avg # of iterations =  9.7

     total cpu time spent up to now is     1577.2 secs

     total energy              =   -3254.20895252 Ry
     estimated scf accuracy    <       0.04985951 Ry

     iteration # 17     ecut=    50.00 Ry     beta= 0.30
     Davidson diagonalization with overlap

---- Real-time Memory Report at c_bands before calling an iterative solver
           386 MiB given to the printing process from OS
           307 MiB allocation reported by mallinfo(arena+hblkhd)
         97268 MiB available memory on the node where the printing process lives
------------------
     ethr =  6.64E-06,  avg # of iterations =  1.0

     total cpu time spent up to now is     1634.6 secs

     total energy              =   -3254.18391230 Ry
     estimated scf accuracy    <       0.05097663 Ry

     iteration # 18     ecut=    50.00 Ry     beta= 0.30
     Davidson diagonalization with overlap

---- Real-time Memory Report at c_bands before calling an iterative solver
           386 MiB given to the printing process from OS
           307 MiB allocation reported by mallinfo(arena+hblkhd)
         97251 MiB available memory on the node where the printing process lives
------------------
     ethr =  6.64E-06,  avg # of iterations =  7.4

     total cpu time spent up to now is     1752.0 secs

     total energy              =   -3254.19512947 Ry
     estimated scf accuracy    <       0.00083192 Ry

     iteration # 19     ecut=    50.00 Ry     beta= 0.30
     Davidson diagonalization with overlap

---- Real-time Memory Report at c_bands before calling an iterative solver
           387 MiB given to the printing process from OS
           307 MiB allocation reported by mallinfo(arena+hblkhd)
         97336 MiB available memory on the node where the printing process lives
------------------
     ethr =  2.57E-07,  avg # of iterations =  8.8

     total cpu time spent up to now is     1891.4 secs

     total energy              =   -3254.19522367 Ry
     estimated scf accuracy    <       0.00134632 Ry

     iteration # 20     ecut=    50.00 Ry     beta= 0.30
     Davidson diagonalization with overlap

---- Real-time Memory Report at c_bands before calling an iterative solver
           388 MiB given to the printing process from OS
           307 MiB allocation reported by mallinfo(arena+hblkhd)
         97378 MiB available memory on the node where the printing process lives
------------------
     ethr =  2.57E-07,  avg # of iterations =  7.9

     total cpu time spent up to now is     2010.4 secs

     total energy              =   -3254.19575721 Ry
     estimated scf accuracy    <       0.00024670 Ry

     iteration # 21     ecut=    50.00 Ry     beta= 0.30
     Davidson diagonalization with overlap

---- Real-time Memory Report at c_bands before calling an iterative solver
           388 MiB given to the printing process from OS
           307 MiB allocation reported by mallinfo(arena+hblkhd)
         97267 MiB available memory on the node where the printing process lives
------------------
     ethr =  7.61E-08,  avg # of iterations =  3.1

     total cpu time spent up to now is     2082.0 secs

     total energy              =   -3254.19591296 Ry
     estimated scf accuracy    <       0.00038071 Ry

     iteration # 22     ecut=    50.00 Ry     beta= 0.30
     Davidson diagonalization with overlap

---- Real-time Memory Report at c_bands before calling an iterative solver
           388 MiB given to the printing process from OS
           307 MiB allocation reported by mallinfo(arena+hblkhd)
         97279 MiB available memory on the node where the printing process lives
------------------
     ethr =  7.61E-08,  avg # of iterations =  6.0

     total cpu time spent up to now is     2183.0 secs

     total energy              =   -3254.19587649 Ry
     estimated scf accuracy    <       0.00138139 Ry

     iteration # 23     ecut=    50.00 Ry     beta= 0.30
     Davidson diagonalization with overlap

---- Real-time Memory Report at c_bands before calling an iterative solver
           388 MiB given to the printing process from OS
           307 MiB allocation reported by mallinfo(arena+hblkhd)
         97272 MiB available memory on the node where the printing process lives
------------------
     ethr =  7.61E-08,  avg # of iterations =  1.0

     total cpu time spent up to now is     2240.4 secs

     total energy              =   -3254.19547059 Ry
     estimated scf accuracy    <       0.00118566 Ry

     iteration # 24     ecut=    50.00 Ry     beta= 0.30
     Davidson diagonalization with overlap

---- Real-time Memory Report at c_bands before calling an iterative solver
           388 MiB given to the printing process from OS
           307 MiB allocation reported by mallinfo(arena+hblkhd)
         97284 MiB available memory on the node where the printing process lives
------------------
     ethr =  7.61E-08,  avg # of iterations =  7.3

     total cpu time spent up to now is     2356.2 secs

     total energy              =   -3254.19562827 Ry
     estimated scf accuracy    <       0.00002543 Ry

     iteration # 25     ecut=    50.00 Ry     beta= 0.30
     Davidson diagonalization with overlap

---- Real-time Memory Report at c_bands before calling an iterative solver
           388 MiB given to the printing process from OS
           307 MiB allocation reported by mallinfo(arena+hblkhd)
         97343 MiB available memory on the node where the printing process lives
------------------
     ethr =  7.85E-09,  avg # of iterations = 10.4

     total cpu time spent up to now is     2497.7 secs

     total energy              =   -3254.19564442 Ry
     estimated scf accuracy    <       0.00003565 Ry

     iteration # 26     ecut=    50.00 Ry     beta= 0.30
     Davidson diagonalization with overlap

---- Real-time Memory Report at c_bands before calling an iterative solver
           388 MiB given to the printing process from OS
           307 MiB allocation reported by mallinfo(arena+hblkhd)
         97264 MiB available memory on the node where the printing process lives
------------------
     ethr =  7.85E-09,  avg # of iterations =  2.0

     total cpu time spent up to now is     2562.4 secs

     total energy              =   -3254.19563578 Ry
     estimated scf accuracy    <       0.00001477 Ry

     iteration # 27     ecut=    50.00 Ry     beta= 0.30
     Davidson diagonalization with overlap

---- Real-time Memory Report at c_bands before calling an iterative solver
           388 MiB given to the printing process from OS
           307 MiB allocation reported by mallinfo(arena+hblkhd)
         97177 MiB available memory on the node where the printing process lives
------------------
     ethr =  4.56E-09,  avg # of iterations =  9.9

     total cpu time spent up to now is     2710.6 secs

     total energy              =   -3254.19564977 Ry
     estimated scf accuracy    <       0.00002725 Ry

     iteration # 28     ecut=    50.00 Ry     beta= 0.30
     Davidson diagonalization with overlap

---- Real-time Memory Report at c_bands before calling an iterative solver
           388 MiB given to the printing process from OS
           307 MiB allocation reported by mallinfo(arena+hblkhd)
         97337 MiB available memory on the node where the printing process lives
------------------
     ethr =  4.56E-09,  avg # of iterations =  1.0

     total cpu time spent up to now is     2769.0 secs

     total energy              =   -3254.19564312 Ry
     estimated scf accuracy    <       0.00001936 Ry

     iteration # 29     ecut=    50.00 Ry     beta= 0.30
     Davidson diagonalization with overlap

---- Real-time Memory Report at c_bands before calling an iterative solver
           388 MiB given to the printing process from OS
           307 MiB allocation reported by mallinfo(arena+hblkhd)
         97333 MiB available memory on the node where the printing process lives
------------------
     ethr =  4.56E-09,  avg # of iterations =  5.3

     total cpu time spent up to now is     2857.2 secs

     total energy              =   -3254.19564552 Ry
     estimated scf accuracy    <       0.00000380 Ry

     iteration # 30     ecut=    50.00 Ry     beta= 0.30
     Davidson diagonalization with overlap

---- Real-time Memory Report at c_bands before calling an iterative solver
           388 MiB given to the printing process from OS
           307 MiB allocation reported by mallinfo(arena+hblkhd)
         97361 MiB available memory on the node where the printing process lives
------------------
[barbara][[29331,1],18][../../../../../../opal/mca/btl/tcp/btl_tcp.c:559:mca_btl_tcp_recv_blocking] recv(18) failed: Connection reset by peer (104)
     ethr =  1.17E-09,  avg # of iterations =  5.4

     total cpu time spent up to now is     2972.9 secs

     total energy              =   -3254.19564646 Ry
     estimated scf accuracy    <       0.00000047 Ry

     iteration # 31     ecut=    50.00 Ry     beta= 0.30
     Davidson diagonalization with overlap

---- Real-time Memory Report at c_bands before calling an iterative solver
           388 MiB given to the printing process from OS
           307 MiB allocation reported by mallinfo(arena+hblkhd)
         97318 MiB available memory on the node where the printing process lives
------------------
     ethr =  1.44E-10,  avg # of iterations =  9.1

     total cpu time spent up to now is     3106.8 secs

     total energy              =   -3254.19564668 Ry
     estimated scf accuracy    <       0.00000041 Ry

     iteration # 32     ecut=    50.00 Ry     beta= 0.30
     Davidson diagonalization with overlap

---- Real-time Memory Report at c_bands before calling an iterative solver
           388 MiB given to the printing process from OS
           307 MiB allocation reported by mallinfo(arena+hblkhd)
         97297 MiB available memory on the node where the printing process lives
------------------
     ethr =  1.28E-10,  avg # of iterations =  6.0

     total cpu time spent up to now is     3198.2 secs

     End of self-consistent calculation

          k = 0.0000 0.0000 0.0000 ( 22157 PWs)   bands (ev):

   -12.4296 -12.3148 -12.3148 -12.1731 -12.1731 -12.1036 -12.1036 -12.1036
   -12.1036 -12.0813 -12.0813 -11.9700 -11.9700 -11.9700 -11.9700 -11.9630
   -11.9064 -11.9064  -0.9520  -0.9520  -0.9520  -0.9520  -0.9199  -0.9199
    -0.8995  -0.8995  -0.8636  -0.8522  -0.8520  -0.8452  -0.8452  -0.8452
    -0.8452  -0.8358  -0.8358  -0.8356  -0.8356  -0.7678  -0.7678  -0.7676
    -0.7676  -0.7625  -0.7625  -0.7485  -0.7485  -0.7168  -0.7168  -0.7140
    -0.7138  -0.6933  -0.6933  -0.6933  -0.6933  -0.6237  -0.6237  -0.6237
    -0.6237  -0.5794  -0.5794  -0.5794  -0.5794  -0.5711  -0.5711  -0.5590
    -0.5590  -0.5590  -0.5590  -0.4799  -0.4799  -0.4096  -0.4096  -0.3151
    -0.3151  -0.2832  -0.2832  -0.2678  -0.2678  -0.2660  -0.2660  -0.2659
    -0.2659  -0.2446  -0.2446  -0.2446  -0.2446  -0.2432  -0.2432  -0.2432
    -0.2432  -0.1946  -0.1946  -0.1946  -0.1946  -0.1883  -0.1883  -0.1883
    -0.1883  -0.1745  -0.1744  -0.1546  -0.1546  -0.1345  -0.1268  -0.1268
    -0.1268  -0.1268  -0.0284  -0.0284   0.2341   0.9024   0.9024   1.0821
     1.0821   1.0821   1.0821   1.3520   1.3520   1.4731   1.4731   1.4731
     1.4731   1.5128   1.5128   2.0921   2.0921   2.6210   2.6210   2.6267
     2.6267   2.6267   2.6267   2.7070   2.7070   2.8887   2.8887   2.8888
     2.8888   3.3339   3.3345   3.3963   3.3963   3.3963   3.3963   3.4690
     3.4690   3.4846   3.4846   3.4846   3.4846   3.5034   3.5034   3.5039
     3.5039   3.6420   3.6420   3.8308   3.8308   3.8314   3.8314   3.9885
     3.9891   4.0242

     occupation numbers 
     1.0000   1.0000   1.0000   1.0000   1.0000   1.0000   1.0000   1.0000
     1.0000   1.0000   1.0000   1.0000   1.0000   1.0000   1.0000   1.0000
     1.0000   1.0000   1.0000   1.0000   1.0000   1.0000   1.0000   1.0000
     1.0000   1.0000   1.0000   1.0000   1.0000   1.0000   1.0000   1.0000
     1.0000   1.0000   1.0000   1.0000   1.0000   1.0000   1.0000   1.0000
     1.0000   1.0000   1.0000   1.0000   1.0000   1.0000   1.0000   1.0000
     1.0000   1.0000   1.0000   1.0000   1.0000   1.0000   1.0000   1.0000
     1.0000   1.0000   1.0000   1.0000   1.0000   1.0000   1.0000   1.0000
     1.0000   1.0000   1.0000   1.0000   1.0000   1.0000   1.0000   1.0000
     1.0000   1.0000   1.0000   1.0000   1.0000   1.0000   1.0000   1.0000
     1.0000   1.0000   1.0000   1.0000   1.0000   1.0000   1.0000   1.0000
     1.0000   1.0000   1.0000   1.0000   1.0000   1.0000   1.0000   1.0000
     1.0000   1.0000   1.0000   1.0000   1.0000   1.0000   1.0000   1.0000
     1.0000   1.0000   1.0000   1.0000   1.0000   1.0000   1.0000   1.0000
     1.0000   1.0000   1.0000   1.0000   1.0000   1.0000   1.0000   1.0000
     1.0000   1.0000   1.0000   1.0000   1.0000   1.0000   1.0000   1.0000
     1.0000   1.0000   1.0000   1.0000   1.0000   1.0000   1.0000   1.0000
     1.0000   1.0000   1.0000   1.0000   1.0000   1.0000   1.0000   1.0000
     1.0000   1.0000   1.0000   1.0000   1.0000   1.0000   1.0000   1.0000
     1.0000   1.0000   1.0000   1.0000   1.0000   1.0000   1.0000   1.0000
     1.0000   1.0000

          k = 0.0000 0.0000 0.0366 ( 22207 PWs)   bands (ev):

   -12.4262 -12.3477 -12.2782 -12.1710 -12.1710 -12.1233 -12.1233 -12.1185
   -12.0820 -12.0820 -12.0476 -11.9906 -11.9906 -11.9666 -11.9516 -11.9516
   -11.9083 -11.9083  -0.9560  -0.9560  -0.9425  -0.9425  -0.9238  -0.9103
    -0.9018  -0.9018  -0.8827  -0.8827  -0.8662  -0.8520  -0.8518  -0.8419
    -0.8417  -0.8283  -0.8281  -0.8263  -0.8076  -0.8076  -0.7818  -0.7816
    -0.7541  -0.7539  -0.7469  -0.7469  -0.7207  -0.7207  -0.7159  -0.7158
    -0.7098  -0.7098  -0.6806  -0.6744  -0.6744  -0.6299  -0.6299  -0.6129
    -0.6129  -0.6008  -0.6008  -0.5825  -0.5825  -0.5731  -0.5731  -0.5494
    -0.5494  -0.5372  -0.5372  -0.4824  -0.4824  -0.4146  -0.4146  -0.3137
    -0.3136  -0.2865  -0.2865  -0.2792  -0.2792  -0.2671  -0.2671  -0.2632
    -0.2632  -0.2521  -0.2521  -0.2504  -0.2504  -0.2352  -0.2352  -0.2246
    -0.2246  -0.2043  -0.2034  -0.2034  -0.1978  -0.1978  -0.1878  -0.1878
    -0.1794  -0.1794  -0.1750  -0.1750  -0.1557  -0.1557  -0.1455  -0.1455
    -0.1084  -0.1084  -0.0348  -0.0348   0.3184   0.9081   0.9081   1.0313
     1.0313   1.1270   1.1387   1.1387   1.4050   1.4050   1.5293   1.5293
     1.5337   1.5337   1.5782   2.0944   2.0944   2.4443   2.4443   2.4802
     2.6293   2.6293   2.8135   2.8136   2.8151   2.8151   2.9367   2.9710
     2.9710   3.3178   3.3178   3.3391   3.3397   3.4103   3.4103   3.4553
     3.4559   3.4668   3.4668   3.4772   3.4772   3.5244   3.5244   3.5561
     3.5567   3.6345   3.6345   3.7801   3.7807   3.8762   3.8768   3.8862
     3.9837   3.9843

     occupation numbers 
     1.0000   1.0000   1.0000   1.0000   1.0000   1.0000   1.0000   1.0000
     1.0000   1.0000   1.0000   1.0000   1.0000   1.0000   1.0000   1.0000
     1.0000   1.0000   1.0000   1.0000   1.0000   1.0000   1.0000   1.0000
     1.0000   1.0000   1.0000   1.0000   1.0000   1.0000   1.0000   1.0000
     1.0000   1.0000   1.0000   1.0000   1.0000   1.0000   1.0000   1.0000
     1.0000   1.0000   1.0000   1.0000   1.0000   1.0000   1.0000   1.0000
     1.0000   1.0000   1.0000   1.0000   1.0000   1.0000   1.0000   1.0000
     1.0000   1.0000   1.0000   1.0000   1.0000   1.0000   1.0000   1.0000
     1.0000   1.0000   1.0000   1.0000   1.0000   1.0000   1.0000   1.0000
     1.0000   1.0000   1.0000   1.0000   1.0000   1.0000   1.0000   1.0000
     1.0000   1.0000   1.0000   1.0000   1.0000   1.0000   1.0000   1.0000
     1.0000   1.0000   1.0000   1.0000   1.0000   1.0000   1.0000   1.0000
     1.0000   1.0000   1.0000   1.0000   1.0000   1.0000   1.0000   1.0000
     1.0000   1.0000   1.0000   1.0000   1.0000   1.0000   1.0000   1.0000
     1.0000   1.0000   1.0000   1.0000   1.0000   1.0000   1.0000   1.0000
     1.0000   1.0000   1.0000   1.0000   1.0000   1.0000   1.0000   1.0000
     1.0000   1.0000   1.0000   1.0000   1.0000   1.0000   1.0000   1.0000
     1.0000   1.0000   1.0000   1.0000   1.0000   1.0000   1.0000   1.0000
     1.0000   1.0000   1.0000   1.0000   1.0000   1.0000   1.0000   1.0000
     1.0000   1.0000   1.0000   1.0000   1.0000   1.0000   1.0000   1.0000
     1.0000   1.0000

          k = 0.0000 0.0000 0.0732 ( 22224 PWs)   bands (ev):

   -12.4159 -12.3761 -12.2391 -12.1647 -12.1647 -12.1580 -12.1404 -12.1404
   -12.0592 -12.0592 -12.0185 -12.0127 -12.0127 -11.9773 -11.9359 -11.9359
   -11.9140 -11.9139  -0.9521  -0.9521  -0.9304  -0.9304  -0.9190  -0.9150
    -0.9150  -0.9082  -0.9082  -0.8976  -0.8736  -0.8724  -0.8511  -0.8508
    -0.8461  -0.8459  -0.8190  -0.8188  -0.7955  -0.7953  -0.7751  -0.7751
    -0.7423  -0.7423  -0.7412  -0.7410  -0.7318  -0.7318  -0.7237  -0.7237
    -0.7213  -0.7212  -0.6532  -0.6532  -0.6305  -0.6305  -0.6158  -0.6158
    -0.6066  -0.6066  -0.6002  -0.6002  -0.5803  -0.5790  -0.5790  -0.5178
    -0.5178  -0.5102  -0.5102  -0.4898  -0.4898  -0.4330  -0.4330  -0.3333
    -0.3089  -0.3089  -0.2914  -0.2914  -0.2911  -0.2910  -0.2791  -0.2791
    -0.2650  -0.2650  -0.2566  -0.2566  -0.2386  -0.2386  -0.2264  -0.2264
    -0.2138  -0.2138  -0.2074  -0.2074  -0.2042  -0.2042  -0.1824  -0.1823
    -0.1764  -0.1764  -0.1713  -0.1713  -0.1645  -0.1645  -0.1591  -0.1591
    -0.0896  -0.0896  -0.0506  -0.0506   0.4906   0.9058   0.9248   0.9248
     0.9875   0.9875   1.2005   1.2005   1.3350   1.3350   1.5654   1.5654
     1.5770   1.5770   1.8044   2.1120   2.1121   2.2549   2.2852   2.2852
     2.6540   2.6540   2.7479   2.7479   2.9967   2.9967   3.0576   3.0576
     3.1708   3.2336   3.2336   3.3014   3.3014   3.3546   3.3551   3.4137
     3.4142   3.4980   3.4980   3.5274   3.5275   3.5338   3.5338   3.6119
     3.6125   3.6125   3.6125   3.6523   3.7256   3.7262   3.9152   3.9158
     3.9697   3.9702

     occupation numbers 
     1.0000   1.0000   1.0000   1.0000   1.0000   1.0000   1.0000   1.0000
     1.0000   1.0000   1.0000   1.0000   1.0000   1.0000   1.0000   1.0000
     1.0000   1.0000   1.0000   1.0000   1.0000   1.0000   1.0000   1.0000
     1.0000   1.0000   1.0000   1.0000   1.0000   1.0000   1.0000   1.0000
     1.0000   1.0000   1.0000   1.0000   1.0000   1.0000   1.0000   1.0000
     1.0000   1.0000   1.0000   1.0000   1.0000   1.0000   1.0000   1.0000
     1.0000   1.0000   1.0000   1.0000   1.0000   1.0000   1.0000   1.0000
     1.0000   1.0000   1.0000   1.0000   1.0000   1.0000   1.0000   1.0000
     1.0000   1.0000   1.0000   1.0000   1.0000   1.0000   1.0000   1.0000
     1.0000   1.0000   1.0000   1.0000   1.0000   1.0000   1.0000   1.0000
     1.0000   1.0000   1.0000   1.0000   1.0000   1.0000   1.0000   1.0000
     1.0000   1.0000   1.0000   1.0000   1.0000   1.0000   1.0000   1.0000
     1.0000   1.0000   1.0000   1.0000   1.0000   1.0000   1.0000   1.0000
     1.0000   1.0000   1.0000   1.0000   1.0000   1.0000   1.0000   1.0000
     1.0000   1.0000   1.0000   1.0000   1.0000   1.0000   1.0000   1.0000
     1.0000   1.0000   1.0000   1.0000   1.0000   1.0000   1.0000   1.0000
     1.0000   1.0000   1.0000   1.0000   1.0000   1.0000   1.0000   1.0000
     1.0000   1.0000   1.0000   1.0000   1.0000   1.0000   1.0000   1.0000
     1.0000   1.0000   1.0000   1.0000   1.0000   1.0000   1.0000   1.0000
     1.0000   1.0000   1.0000   1.0000   1.0000   1.0000   1.0000   1.0000
     1.0000   1.0000

          k = 0.0000 0.0000-0.1098 ( 22262 PWs)   bands (ev):

   -12.3990 -12.3990 -12.1986 -12.1986 -12.1544 -12.1544 -12.1543 -12.1543
   -12.0358 -12.0358 -12.0358 -12.0358 -11.9948 -11.9948 -11.9232 -11.9232
   -11.9232 -11.9232  -0.9386  -0.9386  -0.9386  -0.9386  -0.9183  -0.9183
    -0.9183  -0.9183  -0.9024  -0.9024  -0.8847  -0.8847  -0.8492  -0.8492
    -0.8490  -0.8490  -0.8079  -0.8079  -0.8078  -0.8078  -0.7499  -0.7499
    -0.7499  -0.7499  -0.7345  -0.7345  -0.7345  -0.7345  -0.7301  -0.7301
    -0.7300  -0.7300  -0.6304  -0.6304  -0.6304  -0.6304  -0.6257  -0.6257
    -0.6257  -0.6257  -0.5884  -0.5884  -0.5884  -0.5884  -0.5018  -0.5018
    -0.5018  -0.5018  -0.4675  -0.4675  -0.4675  -0.4675  -0.4634  -0.4634
    -0.3013  -0.3013  -0.3012  -0.3012  -0.2895  -0.2895  -0.2895  -0.2895
    -0.2615  -0.2615  -0.2615  -0.2615  -0.2257  -0.2257  -0.2256  -0.2256
    -0.2170  -0.2170  -0.2170  -0.2170  -0.1842  -0.1842  -0.1842  -0.1842
    -0.1789  -0.1788  -0.1788  -0.1788  -0.1645  -0.1645  -0.1645  -0.1644
    -0.0701  -0.0701  -0.0701  -0.0701   0.6915   0.6915   0.9517   0.9517
     0.9517   0.9517   1.2663   1.2663   1.2663   1.2663   1.5890   1.5890
     1.5890   1.5890   2.0300   2.0300   2.1705   2.1705   2.1705   2.1705
     2.6940   2.6940   2.6940   2.6940   3.1460   3.1460   3.1460   3.1460
     3.1615   3.1615   3.1615   3.1615   3.3797   3.3797   3.3802   3.3802
     3.4099   3.4099   3.5210   3.5210   3.5210   3.5211   3.5765   3.5765
     3.5765   3.5765   3.6690   3.6690   3.6696   3.6696   3.9466   3.9466
     3.9472   3.9472

     occupation numbers 
     1.0000   1.0000   1.0000   1.0000   1.0000   1.0000   1.0000   1.0000
     1.0000   1.0000   1.0000   1.0000   1.0000   1.0000   1.0000   1.0000
     1.0000   1.0000   1.0000   1.0000   1.0000   1.0000   1.0000   1.0000
     1.0000   1.0000   1.0000   1.0000   1.0000   1.0000   1.0000   1.0000
     1.0000   1.0000   1.0000   1.0000   1.0000   1.0000   1.0000   1.0000
     1.0000   1.0000   1.0000   1.0000   1.0000   1.0000   1.0000   1.0000
     1.0000   1.0000   1.0000   1.0000   1.0000   1.0000   1.0000   1.0000
     1.0000   1.0000   1.0000   1.0000   1.0000   1.0000   1.0000   1.0000
     1.0000   1.0000   1.0000   1.0000   1.0000   1.0000   1.0000   1.0000
     1.0000   1.0000   1.0000   1.0000   1.0000   1.0000   1.0000   1.0000
     1.0000   1.0000   1.0000   1.0000   1.0000   1.0000   1.0000   1.0000
     1.0000   1.0000   1.0000   1.0000   1.0000   1.0000   1.0000   1.0000
     1.0000   1.0000   1.0000   1.0000   1.0000   1.0000   1.0000   1.0000
     1.0000   1.0000   1.0000   1.0000   1.0000   1.0000   1.0000   1.0000
     1.0000   1.0000   1.0000   1.0000   1.0000   1.0000   1.0000   1.0000
     1.0000   1.0000   1.0000   1.0000   1.0000   1.0000   1.0000   1.0000
     1.0000   1.0000   1.0000   1.0000   1.0000   1.0000   1.0000   1.0000
     1.0000   1.0000   1.0000   1.0000   1.0000   1.0000   1.0000   1.0000
     1.0000   1.0000   1.0000   1.0000   1.0000   1.0000   1.0000   1.0000
     1.0000   1.0000   1.0000   1.0000   1.0000   1.0000   1.0000   1.0000
     1.0000   1.0000

          k = 0.0000 0.0642 0.0000 ( 22242 PWs)   bands (ev):

   -12.4204 -12.3069 -12.3068 -12.2352 -12.1530 -12.1530 -12.1170 -12.0765
   -12.0765 -12.0605 -12.0605 -11.9919 -11.9919 -11.9600 -11.9546 -11.9546
   -11.9136 -11.9056  -0.9525  -0.9525  -0.9497  -0.9497  -0.9232  -0.9232
    -0.9038  -0.8935  -0.8709  -0.8469  -0.8454  -0.8454  -0.8436  -0.8405
    -0.8405  -0.8315  -0.8315  -0.8295  -0.8295  -0.7828  -0.7828  -0.7645
    -0.7599  -0.7599  -0.7512  -0.7442  -0.7442  -0.7384  -0.7207  -0.7207
    -0.7124  -0.7059  -0.6844  -0.6844  -0.6734  -0.6734  -0.6691  -0.6290
    -0.6201  -0.6201  -0.6076  -0.6076  -0.5607  -0.5607  -0.5390  -0.5390
    -0.5364  -0.5188  -0.5188  -0.4987  -0.4446  -0.4316  -0.3807  -0.3185
    -0.3158  -0.2930  -0.2897  -0.2726  -0.2667  -0.2667  -0.2664  -0.2664
    -0.2615  -0.2615  -0.2559  -0.2559  -0.2438  -0.2281  -0.2281  -0.2172
    -0.2172  -0.2123  -0.1945  -0.1945  -0.1921  -0.1921  -0.1906  -0.1906
    -0.1860  -0.1860  -0.1736  -0.1581  -0.1518  -0.1428  -0.1428  -0.1141
    -0.1141  -0.0987  -0.0394  -0.0300   0.2605   0.7893   0.8745   0.8955
     0.8955   1.2377   1.2377   1.2477   1.2477   1.3576   1.3576   1.3859
     1.7450   1.7450   1.8075   1.9393   2.3333   2.4935   2.6480   2.6480
     2.6604   2.6604   2.6722   2.6722   2.7755   2.7792   2.7792   3.0220
     3.0220   3.2463   3.3046   3.3049   3.3161   3.3161   3.4248   3.4248
     3.4338   3.4338   3.4786   3.4787   3.4934   3.4934   3.5436   3.5436
     3.5753   3.6310   3.6776   3.7220   3.8011   3.8011   3.8145   3.8145
     3.9764   4.0169

     occupation numbers 
     1.0000   1.0000   1.0000   1.0000   1.0000   1.0000   1.0000   1.0000
     1.0000   1.0000   1.0000   1.0000   1.0000   1.0000   1.0000   1.0000
     1.0000   1.0000   1.0000   1.0000   1.0000   1.0000   1.0000   1.0000
     1.0000   1.0000   1.0000   1.0000   1.0000   1.0000   1.0000   1.0000
     1.0000   1.0000   1.0000   1.0000   1.0000   1.0000   1.0000   1.0000
     1.0000   1.0000   1.0000   1.0000   1.0000   1.0000   1.0000   1.0000
     1.0000   1.0000   1.0000   1.0000   1.0000   1.0000   1.0000   1.0000
     1.0000   1.0000   1.0000   1.0000   1.0000   1.0000   1.0000   1.0000
     1.0000   1.0000   1.0000   1.0000   1.0000   1.0000   1.0000   1.0000
     1.0000   1.0000   1.0000   1.0000   1.0000   1.0000   1.0000   1.0000
     1.0000   1.0000   1.0000   1.0000   1.0000   1.0000   1.0000   1.0000
     1.0000   1.0000   1.0000   1.0000   1.0000   1.0000   1.0000   1.0000
     1.0000   1.0000   1.0000   1.0000   1.0000   1.0000   1.0000   1.0000
     1.0000   1.0000   1.0000   1.0000   1.0000   1.0000   1.0000   1.0000
     1.0000   1.0000   1.0000   1.0000   1.0000   1.0000   1.0000   1.0000
     1.0000   1.0000   1.0000   1.0000   1.0000   1.0000   1.0000   1.0000
     1.0000   1.0000   1.0000   1.0000   1.0000   1.0000   1.0000   1.0000
     1.0000   1.0000   1.0000   1.0000   1.0000   1.0000   1.0000   1.0000
     1.0000   1.0000   1.0000   1.0000   1.0000   1.0000   1.0000   1.0000
     1.0000   1.0000   1.0000   1.0000   1.0000   1.0000   1.0000   1.0000
     1.0000   1.0000

          k = 0.0000 0.0642 0.0366 ( 22221 PWs)   bands (ev):

   -12.4169 -12.3394 -12.2707 -12.2327 -12.1763 -12.1272 -12.1153 -12.1132
   -12.0764 -12.0433 -12.0431 -12.0170 -11.9706 -11.9694 -11.9635 -11.9403
   -11.9159 -11.9071  -0.9559  -0.9543  -0.9437  -0.9394  -0.9268  -0.9137
    -0.9058  -0.8960  -0.8813  -0.8806  -0.8729  -0.8464  -0.8438  -0.8371
    -0.8357  -0.8338  -0.8221  -0.8215  -0.8138  -0.7962  -0.7741  -0.7727
    -0.7633  -0.7565  -0.7539  -0.7460  -0.7366  -0.7341  -0.7144  -0.7078
    -0.7052  -0.6927  -0.6898  -0.6749  -0.6747  -0.6733  -0.6512  -0.6489
    -0.6311  -0.6280  -0.5883  -0.5778  -0.5681  -0.5509  -0.5475  -0.5453
    -0.5387  -0.5250  -0.5006  -0.4942  -0.4499  -0.4343  -0.3847  -0.3168
    -0.3141  -0.3011  -0.2887  -0.2815  -0.2805  -0.2797  -0.2717  -0.2655
    -0.2527  -0.2525  -0.2455  -0.2433  -0.2413  -0.2407  -0.2337  -0.2328
    -0.2226  -0.2033  -0.2015  -0.2008  -0.1996  -0.1941  -0.1873  -0.1843
    -0.1813  -0.1777  -0.1740  -0.1607  -0.1591  -0.1531  -0.1367  -0.1307
    -0.1252  -0.0976  -0.0428  -0.0402   0.3413   0.8149   0.8647   0.8668
     0.9367   1.1367   1.1577   1.1706   1.3027   1.3349   1.3958   1.5789
     1.6687   1.8103   1.8176   1.9555   2.3285   2.4472   2.4566   2.5024
     2.5194   2.6992   2.7831   2.8368   2.8421   2.8665   2.8725   2.9526
     3.0981   3.2333   3.2517   3.3102   3.3165   3.3752   3.3812   3.3905
     3.4204   3.4294   3.4385   3.4493   3.4920   3.5328   3.5591   3.5674
     3.6070   3.6219   3.6354   3.7151   3.7432   3.7625   3.8537   3.8612
     3.9716   4.0022

     occupation numbers 
     1.0000   1.0000   1.0000   1.0000   1.0000   1.0000   1.0000   1.0000
     1.0000   1.0000   1.0000   1.0000   1.0000   1.0000   1.0000   1.0000
     1.0000   1.0000   1.0000   1.0000   1.0000   1.0000   1.0000   1.0000
     1.0000   1.0000   1.0000   1.0000   1.0000   1.0000   1.0000   1.0000
     1.0000   1.0000   1.0000   1.0000   1.0000   1.0000   1.0000   1.0000
     1.0000   1.0000   1.0000   1.0000   1.0000   1.0000   1.0000   1.0000
     1.0000   1.0000   1.0000   1.0000   1.0000   1.0000   1.0000   1.0000
     1.0000   1.0000   1.0000   1.0000   1.0000   1.0000   1.0000   1.0000
     1.0000   1.0000   1.0000   1.0000   1.0000   1.0000   1.0000   1.0000
     1.0000   1.0000   1.0000   1.0000   1.0000   1.0000   1.0000   1.0000
     1.0000   1.0000   1.0000   1.0000   1.0000   1.0000   1.0000   1.0000
     1.0000   1.0000   1.0000   1.0000   1.0000   1.0000   1.0000   1.0000
     1.0000   1.0000   1.0000   1.0000   1.0000   1.0000   1.0000   1.0000
     1.0000   1.0000   1.0000   1.0000   1.0000   1.0000   1.0000   1.0000
     1.0000   1.0000   1.0000   1.0000   1.0000   1.0000   1.0000   1.0000
     1.0000   1.0000   1.0000   1.0000   1.0000   1.0000   1.0000   1.0000
     1.0000   1.0000   1.0000   1.0000   1.0000   1.0000   1.0000   1.0000
     1.0000   1.0000   1.0000   1.0000   1.0000   1.0000   1.0000   1.0000
     1.0000   1.0000   1.0000   1.0000   1.0000   1.0000   1.0000   1.0000
     1.0000   1.0000   1.0000   1.0000   1.0000   1.0000   1.0000   1.0000
     1.0000   1.0000

          k = 0.0000 0.0642 0.0732 ( 22190 PWs)   bands (ev):

   -12.4067 -12.3674 -12.2321 -12.2252 -12.1966 -12.1521 -12.1101 -12.0999
   -12.0903 -12.0439 -12.0248 -12.0146 -11.9880 -11.9741 -11.9500 -11.9282
   -11.9229 -11.9114  -0.9512  -0.9510  -0.9324  -0.9266  -0.9220  -0.9145
    -0.9127  -0.9118  -0.9031  -0.9015  -0.8790  -0.8763  -0.8453  -0.8440
    -0.8410  -0.8402  -0.8138  -0.8118  -0.7901  -0.7890  -0.7878  -0.7613
    -0.7596  -0.7538  -0.7449  -0.7411  -0.7330  -0.7310  -0.7200  -0.7131
    -0.7090  -0.6911  -0.6885  -0.6877  -0.6683  -0.6598  -0.6485  -0.6374
    -0.6266  -0.5783  -0.5728  -0.5710  -0.5700  -0.5606  -0.5455  -0.5310
    -0.5208  -0.5079  -0.5066  -0.4727  -0.4650  -0.4423  -0.4069  -0.3423
    -0.3132  -0.3114  -0.3093  -0.2991  -0.2929  -0.2916  -0.2855  -0.2737
    -0.2681  -0.2486  -0.2420  -0.2389  -0.2384  -0.2368  -0.2343  -0.2196
    -0.2163  -0.2139  -0.2124  -0.2117  -0.2021  -0.1820  -0.1817  -0.1794
    -0.1778  -0.1753  -0.1732  -0.1698  -0.1631  -0.1620  -0.1569  -0.1474
    -0.1069  -0.0813  -0.0629  -0.0523   0.5095   0.8466   0.8517   0.8816
     0.9187   0.9865   1.0644   1.1049   1.3593   1.4084   1.4201   1.5875
     1.7990   1.8423   1.8533   2.0128   2.2329   2.2757   2.3222   2.4023
     2.5289   2.6292   2.8058   2.8920   2.9583   3.0122   3.0147   3.0823
     3.1443   3.1785   3.2675   3.2878   3.3260   3.3262   3.3365   3.3420
     3.3480   3.3867   3.4227   3.4545   3.4795   3.5442   3.5540   3.5900
     3.6155   3.6407   3.6449   3.6816   3.6946   3.7067   3.9000   3.9012
     3.9571   3.9733

     occupation numbers 
     1.0000   1.0000   1.0000   1.0000   1.0000   1.0000   1.0000   1.0000
     1.0000   1.0000   1.0000   1.0000   1.0000   1.0000   1.0000   1.0000
     1.0000   1.0000   1.0000   1.0000   1.0000   1.0000   1.0000   1.0000
     1.0000   1.0000   1.0000   1.0000   1.0000   1.0000   1.0000   1.0000
     1.0000   1.0000   1.0000   1.0000   1.0000   1.0000   1.0000   1.0000
     1.0000   1.0000   1.0000   1.0000   1.0000   1.0000   1.0000   1.0000
     1.0000   1.0000   1.0000   1.0000   1.0000   1.0000   1.0000   1.0000
     1.0000   1.0000   1.0000   1.0000   1.0000   1.0000   1.0000   1.0000
     1.0000   1.0000   1.0000   1.0000   1.0000   1.0000   1.0000   1.0000
     1.0000   1.0000   1.0000   1.0000   1.0000   1.0000   1.0000   1.0000
     1.0000   1.0000   1.0000   1.0000   1.0000   1.0000   1.0000   1.0000
     1.0000   1.0000   1.0000   1.0000   1.0000   1.0000   1.0000   1.0000
     1.0000   1.0000   1.0000   1.0000   1.0000   1.0000   1.0000   1.0000
     1.0000   1.0000   1.0000   1.0000   1.0000   1.0000   1.0000   1.0000
     1.0000   1.0000   1.0000   1.0000   1.0000   1.0000   1.0000   1.0000
     1.0000   1.0000   1.0000   1.0000   1.0000   1.0000   1.0000   1.0000
     1.0000   1.0000   1.0000   1.0000   1.0000   1.0000   1.0000   1.0000
     1.0000   1.0000   1.0000   1.0000   1.0000   1.0000   1.0000   1.0000
     1.0000   1.0000   1.0000   1.0000   1.0000   1.0000   1.0000   1.0000
     1.0000   1.0000   1.0000   1.0000   1.0000   1.0000   1.0000   1.0000
     1.0000   1.0000

          k = 0.0000 0.0642-0.1098 ( 22198 PWs)   bands (ev):

   -12.3901 -12.3901 -12.2131 -12.2130 -12.1922 -12.1922 -12.1017 -12.1017
   -12.0718 -12.0718 -12.0063 -12.0063 -11.9913 -11.9913 -11.9344 -11.9344
   -11.9185 -11.9184  -0.9380  -0.9380  -0.9369  -0.9369  -0.9210  -0.9210
    -0.9137  -0.9137  -0.9056  -0.9056  -0.8891  -0.8891  -0.8433  -0.8433
    -0.8432  -0.8432  -0.8024  -0.8023  -0.8005  -0.8005  -0.7732  -0.7732
    -0.7535  -0.7535  -0.7290  -0.7290  -0.7218  -0.7218  -0.7217  -0.7217
    -0.7179  -0.7179  -0.6812  -0.6812  -0.6687  -0.6687  -0.6472  -0.6472
    -0.6002  -0.6002  -0.5672  -0.5672  -0.5565  -0.5564  -0.5166  -0.5165
    -0.4866  -0.4866  -0.4645  -0.4645  -0.4576  -0.4576  -0.4553  -0.4553
    -0.3116  -0.3116  -0.3035  -0.3035  -0.3017  -0.3016  -0.2806  -0.2806
    -0.2605  -0.2605  -0.2399  -0.2398  -0.2259  -0.2259  -0.2248  -0.2248
    -0.2230  -0.2230  -0.2095  -0.2095  -0.1991  -0.1991  -0.1779  -0.1779
    -0.1717  -0.1717  -0.1668  -0.1668  -0.1646  -0.1646  -0.1627  -0.1627
    -0.0864  -0.0864  -0.0658  -0.0658   0.7074   0.7074   0.8426   0.8426
     0.9698   0.9698   1.0430   1.0430   1.3977   1.3978   1.5043   1.5043
     1.8622   1.8622   2.0171   2.0171   2.1219   2.1219   2.3378   2.3378
     2.5717   2.5717   2.8425   2.8425   3.0518   3.0518   3.1650   3.1650
     3.1790   3.1790   3.2606   3.2606   3.2702   3.2702   3.3164   3.3164
     3.3518   3.3518   3.3881   3.3881   3.5062   3.5062   3.6179   3.6179
     3.6486   3.6486   3.6504   3.6504   3.6611   3.6611   3.9335   3.9335
     3.9396   3.9396

     occupation numbers 
     1.0000   1.0000   1.0000   1.0000   1.0000   1.0000   1.0000   1.0000
     1.0000   1.0000   1.0000   1.0000   1.0000   1.0000   1.0000   1.0000
     1.0000   1.0000   1.0000   1.0000   1.0000   1.0000   1.0000   1.0000
     1.0000   1.0000   1.0000   1.0000   1.0000   1.0000   1.0000   1.0000
     1.0000   1.0000   1.0000   1.0000   1.0000   1.0000   1.0000   1.0000
     1.0000   1.0000   1.0000   1.0000   1.0000   1.0000   1.0000   1.0000
     1.0000   1.0000   1.0000   1.0000   1.0000   1.0000   1.0000   1.0000
     1.0000   1.0000   1.0000   1.0000   1.0000   1.0000   1.0000   1.0000
     1.0000   1.0000   1.0000   1.0000   1.0000   1.0000   1.0000   1.0000
     1.0000   1.0000   1.0000   1.0000   1.0000   1.0000   1.0000   1.0000
     1.0000   1.0000   1.0000   1.0000   1.0000   1.0000   1.0000   1.0000
     1.0000   1.0000   1.0000   1.0000   1.0000   1.0000   1.0000   1.0000
     1.0000   1.0000   1.0000   1.0000   1.0000   1.0000   1.0000   1.0000
     1.0000   1.0000   1.0000   1.0000   1.0000   1.0000   1.0000   1.0000
     1.0000   1.0000   1.0000   1.0000   1.0000   1.0000   1.0000   1.0000
     1.0000   1.0000   1.0000   1.0000   1.0000   1.0000   1.0000   1.0000
     1.0000   1.0000   1.0000   1.0000   1.0000   1.0000   1.0000   1.0000
     1.0000   1.0000   1.0000   1.0000   1.0000   1.0000   1.0000   1.0000
     1.0000   1.0000   1.0000   1.0000   1.0000   1.0000   1.0000   1.0000
     1.0000   1.0000   1.0000   1.0000   1.0000   1.0000   1.0000   1.0000
     1.0000   1.0000

          k = 0.0000 0.1283 0.0000 ( 22184 PWs)   bands (ev):

   -12.3932 -12.2963 -12.2839 -12.2838 -12.2029 -12.2029 -12.0753 -12.0628
   -12.0628 -12.0298 -12.0297 -12.0172 -12.0172 -11.9514 -11.9469 -11.9468
   -11.9254 -11.9099  -0.9489  -0.9489  -0.9475  -0.9475  -0.9313  -0.9313
    -0.9023  -0.8895  -0.8825  -0.8402  -0.8402  -0.8350  -0.8350  -0.8317
    -0.8261  -0.8251  -0.8251  -0.8114  -0.8114  -0.7892  -0.7892  -0.7859
    -0.7782  -0.7525  -0.7525  -0.7374  -0.7374  -0.7337  -0.7337  -0.7333
    -0.7205  -0.7205  -0.7066  -0.6815  -0.6698  -0.6616  -0.6616  -0.6590
    -0.6590  -0.6573  -0.6573  -0.6128  -0.5930  -0.5305  -0.5305  -0.4922
    -0.4922  -0.4858  -0.4836  -0.4836  -0.4224  -0.3996  -0.3576  -0.3270
    -0.3159  -0.3052  -0.2954  -0.2690  -0.2690  -0.2687  -0.2687  -0.2672
    -0.2672  -0.2638  -0.2638  -0.2581  -0.2548  -0.2242  -0.2151  -0.2151
    -0.1939  -0.1939  -0.1920  -0.1920  -0.1845  -0.1845  -0.1843  -0.1843
    -0.1842  -0.1842  -0.1706  -0.1622  -0.1587  -0.1587  -0.1501  -0.1123
    -0.1123  -0.0801  -0.0626  -0.0342   0.3402   0.6257   0.7543   0.7543
     0.7778   1.0659   1.0659   1.3447   1.3447   1.3475   1.3702   1.3702
     1.9018   2.0318   2.0318   2.1926   2.4090   2.5217   2.5217   2.6228
     2.6900   2.6901   2.7071   2.7071   2.8109   2.8109   2.9390   2.9893
     3.1635   3.1635   3.1714   3.2206   3.2530   3.2530   3.2632   3.2632
     3.2812   3.3747   3.3747   3.4064   3.4064   3.5310   3.5954   3.5954
     3.6012   3.6012   3.7339   3.7339   3.7657   3.7657   3.7729   3.8048
     3.9392   3.9682

     occupation numbers 
     1.0000   1.0000   1.0000   1.0000   1.0000   1.0000   1.0000   1.0000
     1.0000   1.0000   1.0000   1.0000   1.0000   1.0000   1.0000   1.0000
     1.0000   1.0000   1.0000   1.0000   1.0000   1.0000   1.0000   1.0000
     1.0000   1.0000   1.0000   1.0000   1.0000   1.0000   1.0000   1.0000
     1.0000   1.0000   1.0000   1.0000   1.0000   1.0000   1.0000   1.0000
     1.0000   1.0000   1.0000   1.0000   1.0000   1.0000   1.0000   1.0000
     1.0000   1.0000   1.0000   1.0000   1.0000   1.0000   1.0000   1.0000
     1.0000   1.0000   1.0000   1.0000   1.0000   1.0000   1.0000   1.0000
     1.0000   1.0000   1.0000   1.0000   1.0000   1.0000   1.0000   1.0000
     1.0000   1.0000   1.0000   1.0000   1.0000   1.0000   1.0000   1.0000
     1.0000   1.0000   1.0000   1.0000   1.0000   1.0000   1.0000   1.0000
     1.0000   1.0000   1.0000   1.0000   1.0000   1.0000   1.0000   1.0000
     1.0000   1.0000   1.0000   1.0000   1.0000   1.0000   1.0000   1.0000
     1.0000   1.0000   1.0000   1.0000   1.0000   1.0000   1.0000   1.0000
     1.0000   1.0000   1.0000   1.0000   1.0000   1.0000   1.0000   1.0000
     1.0000   1.0000   1.0000   1.0000   1.0000   1.0000   1.0000   1.0000
     1.0000   1.0000   1.0000   1.0000   1.0000   1.0000   1.0000   1.0000
     1.0000   1.0000   1.0000   1.0000   1.0000   1.0000   1.0000   1.0000
     1.0000   1.0000   1.0000   1.0000   1.0000   1.0000   1.0000   1.0000
     1.0000   1.0000   1.0000   1.0000   1.0000   1.0000   1.0000   1.0000
     1.0000   1.0000

          k = 0.0000 0.1283 0.0366 ( 22203 PWs)   bands (ev):

   -12.3899 -12.3152 -12.2935 -12.2491 -12.2295 -12.1734 -12.0979 -12.0739
   -12.0464 -12.0425 -12.0310 -12.0159 -11.9909 -11.9592 -11.9548 -11.9360
   -11.9282 -11.9110  -0.9526  -0.9519  -0.9404  -0.9370  -0.9348  -0.9223
    -0.9042  -0.8920  -0.8844  -0.8787  -0.8738  -0.8482  -0.8313  -0.8267
    -0.8259  -0.8183  -0.8152  -0.8047  -0.8027  -0.7850  -0.7849  -0.7799
    -0.7630  -0.7593  -0.7525  -0.7522  -0.7401  -0.7390  -0.7313  -0.7229
    -0.7202  -0.7088  -0.6911  -0.6835  -0.6829  -0.6751  -0.6721  -0.6598
    -0.6402  -0.6372  -0.6211  -0.6091  -0.5951  -0.5305  -0.5271  -0.5211
    -0.4978  -0.4900  -0.4683  -0.4657  -0.4242  -0.4024  -0.3598  -0.3255
    -0.3143  -0.3089  -0.3038  -0.2881  -0.2838  -0.2804  -0.2796  -0.2753
    -0.2546  -0.2536  -0.2529  -0.2516  -0.2491  -0.2240  -0.2180  -0.2117
    -0.2034  -0.2025  -0.1997  -0.1958  -0.1912  -0.1861  -0.1830  -0.1769
    -0.1748  -0.1745  -0.1711  -0.1695  -0.1630  -0.1516  -0.1431  -0.1218
    -0.1036  -0.0951  -0.0812  -0.0502   0.4105   0.6671   0.7345   0.7697
     0.7860   0.9982   1.1359   1.1625   1.2040   1.3395   1.4769   1.5754
     1.9313   1.9339   2.1176   2.1979   2.3444   2.4184   2.5021   2.6137
     2.6239   2.6910   2.6969   2.7978   2.8711   2.9460   2.9462   2.9933
     3.1001   3.1776   3.1862   3.1886   3.2263   3.2331   3.2529   3.3270
     3.3401   3.3464   3.3538   3.3670   3.4643   3.4985   3.5230   3.5284
     3.6556   3.6573   3.6796   3.7100   3.7736   3.7985   3.8027   3.8156
     3.9340   3.9617

     occupation numbers 
     1.0000   1.0000   1.0000   1.0000   1.0000   1.0000   1.0000   1.0000
     1.0000   1.0000   1.0000   1.0000   1.0000   1.0000   1.0000   1.0000
     1.0000   1.0000   1.0000   1.0000   1.0000   1.0000   1.0000   1.0000
     1.0000   1.0000   1.0000   1.0000   1.0000   1.0000   1.0000   1.0000
     1.0000   1.0000   1.0000   1.0000   1.0000   1.0000   1.0000   1.0000
     1.0000   1.0000   1.0000   1.0000   1.0000   1.0000   1.0000   1.0000
     1.0000   1.0000   1.0000   1.0000   1.0000   1.0000   1.0000   1.0000
     1.0000   1.0000   1.0000   1.0000   1.0000   1.0000   1.0000   1.0000
     1.0000   1.0000   1.0000   1.0000   1.0000   1.0000   1.0000   1.0000
     1.0000   1.0000   1.0000   1.0000   1.0000   1.0000   1.0000   1.0000
     1.0000   1.0000   1.0000   1.0000   1.0000   1.0000   1.0000   1.0000
     1.0000   1.0000   1.0000   1.0000   1.0000   1.0000   1.0000   1.0000
     1.0000   1.0000   1.0000   1.0000   1.0000   1.0000   1.0000   1.0000
     1.0000   1.0000   1.0000   1.0000   1.0000   1.0000   1.0000   1.0000
     1.0000   1.0000   1.0000   1.0000   1.0000   1.0000   1.0000   1.0000
     1.0000   1.0000   1.0000   1.0000   1.0000   1.0000   1.0000   1.0000
     1.0000   1.0000   1.0000   1.0000   1.0000   1.0000   1.0000   1.0000
     1.0000   1.0000   1.0000   1.0000   1.0000   1.0000   1.0000   1.0000
     1.0000   1.0000   1.0000   1.0000   1.0000   1.0000   1.0000   1.0000
     1.0000   1.0000   1.0000   1.0000   1.0000   1.0000   1.0000   1.0000
     1.0000   1.0000

          k = 0.0000 0.1283 0.0732 ( 22207 PWs)   bands (ev):

   -12.3801 -12.3422 -12.2850 -12.2525 -12.2120 -12.1420 -12.1352 -12.0775
   -12.0697 -12.0537 -12.0036 -12.0014 -11.9726 -11.9683 -11.9649 -11.9365
   -11.9268 -11.9142  -0.9497  -0.9467  -0.9299  -0.9295  -0.9239  -0.9132
    -0.9107  -0.9097  -0.9068  -0.8994  -0.8901  -0.8860  -0.8298  -0.8279
    -0.8278  -0.8235  -0.8006  -0.7982  -0.7922  -0.7844  -0.7823  -0.7721
    -0.7714  -0.7666  -0.7392  -0.7361  -0.7330  -0.7259  -0.7250  -0.7150
    -0.7124  -0.7095  -0.7038  -0.7008  -0.6929  -0.6891  -0.6786  -0.6458
    -0.6247  -0.6102  -0.6014  -0.5710  -0.5512  -0.5392  -0.5271  -0.5204
    -0.5104  -0.4999  -0.4533  -0.4427  -0.4300  -0.4107  -0.3884  -0.3600
    -0.3256  -0.3178  -0.3097  -0.3056  -0.2999  -0.2977  -0.2921  -0.2854
    -0.2450  -0.2398  -0.2389  -0.2374  -0.2293  -0.2232  -0.2203  -0.2157
    -0.2143  -0.2140  -0.2084  -0.2076  -0.1974  -0.1919  -0.1800  -0.1755
    -0.1728  -0.1693  -0.1654  -0.1649  -0.1561  -0.1558  -0.1344  -0.1323
    -0.1266  -0.0959  -0.0844  -0.0809   0.5660   0.7279   0.7515   0.7721
     0.8275   0.9349   0.9555   1.0569   1.2045   1.3127   1.6009   1.7761
     1.8287   2.0178   2.1608   2.1812   2.2093   2.3183   2.4461   2.5509
     2.5940   2.6181   2.8464   2.8930   2.9665   2.9991   3.0352   3.0449
     3.0856   3.0915   3.1393   3.1814   3.2260   3.2432   3.2789   3.3066
     3.3081   3.3312   3.3753   3.4062   3.4073   3.4565   3.4989   3.5254
     3.5755   3.6502   3.7073   3.7324   3.7725   3.7798   3.8585   3.8614
     3.9185   3.9417

     occupation numbers 
     1.0000   1.0000   1.0000   1.0000   1.0000   1.0000   1.0000   1.0000
     1.0000   1.0000   1.0000   1.0000   1.0000   1.0000   1.0000   1.0000
     1.0000   1.0000   1.0000   1.0000   1.0000   1.0000   1.0000   1.0000
     1.0000   1.0000   1.0000   1.0000   1.0000   1.0000   1.0000   1.0000
     1.0000   1.0000   1.0000   1.0000   1.0000   1.0000   1.0000   1.0000
     1.0000   1.0000   1.0000   1.0000   1.0000   1.0000   1.0000   1.0000
     1.0000   1.0000   1.0000   1.0000   1.0000   1.0000   1.0000   1.0000
     1.0000   1.0000   1.0000   1.0000   1.0000   1.0000   1.0000   1.0000
     1.0000   1.0000   1.0000   1.0000   1.0000   1.0000   1.0000   1.0000
     1.0000   1.0000   1.0000   1.0000   1.0000   1.0000   1.0000   1.0000
     1.0000   1.0000   1.0000   1.0000   1.0000   1.0000   1.0000   1.0000
     1.0000   1.0000   1.0000   1.0000   1.0000   1.0000   1.0000   1.0000
     1.0000   1.0000   1.0000   1.0000   1.0000   1.0000   1.0000   1.0000
     1.0000   1.0000   1.0000   1.0000   1.0000   1.0000   1.0000   1.0000
     1.0000   1.0000   1.0000   1.0000   1.0000   1.0000   1.0000   1.0000
     1.0000   1.0000   1.0000   1.0000   1.0000   1.0000   1.0000   1.0000
     1.0000   1.0000   1.0000   1.0000   1.0000   1.0000   1.0000   1.0000
     1.0000   1.0000   1.0000   1.0000   1.0000   1.0000   1.0000   1.0000
     1.0000   1.0000   1.0000   1.0000   1.0000   1.0000   1.0000   1.0000
     1.0000   1.0000   1.0000   1.0000   1.0000   1.0000   1.0000   1.0000
     1.0000   1.0000

          k = 0.0000 0.1283-0.1098 ( 22204 PWs)   bands (ev):

   -12.3640 -12.3640 -12.2712 -12.2712 -12.1736 -12.1736 -12.1097 -12.1097
   -12.0629 -12.0629 -11.9869 -11.9869 -11.9813 -11.9813 -11.9499 -11.9499
   -11.9195 -11.9195  -0.9369  -0.9369  -0.9318  -0.9318  -0.9186  -0.9186
    -0.9139  -0.9139  -0.9106  -0.9106  -0.8992  -0.8992  -0.8285  -0.8285
    -0.8273  -0.8273  -0.7912  -0.7912  -0.7868  -0.7868  -0.7800  -0.7800
    -0.7778  -0.7778  -0.7269  -0.7269  -0.7250  -0.7250  -0.7149  -0.7149
    -0.7099  -0.7099  -0.6980  -0.6980  -0.6894  -0.6894  -0.6847  -0.6846
    -0.6115  -0.6114  -0.5813  -0.5813  -0.5203  -0.5203  -0.5110  -0.5110
    -0.4659  -0.4659  -0.4590  -0.4590  -0.4400  -0.4400  -0.4242  -0.4242
    -0.3196  -0.3196  -0.3095  -0.3095  -0.3021  -0.3021  -0.2937  -0.2937
    -0.2313  -0.2313  -0.2265  -0.2265  -0.2261  -0.2261  -0.2223  -0.2223
    -0.2220  -0.2220  -0.2100  -0.2100  -0.2029  -0.2029  -0.1757  -0.1757
    -0.1696  -0.1696  -0.1619  -0.1619  -0.1536  -0.1536  -0.1437  -0.1437
    -0.1071  -0.1071  -0.0894  -0.0894   0.7347   0.7347   0.7540   0.7540
     0.8776   0.8776   0.9090   0.9090   1.2658   1.2658   1.7178   1.7178
     1.9714   1.9714   2.1518   2.1519   2.2107   2.2107   2.4909   2.4909
     2.5862   2.5862   2.9650   2.9650   2.9898   2.9898   2.9999   2.9999
     3.1239   3.1239   3.1735   3.1735   3.2374   3.2374   3.2708   3.2708
     3.2793   3.2793   3.3818   3.3819   3.4597   3.4597   3.4912   3.4912
     3.5881   3.5881   3.7491   3.7491   3.7615   3.7616   3.8931   3.8931
     3.9081   3.9081

     occupation numbers 
     1.0000   1.0000   1.0000   1.0000   1.0000   1.0000   1.0000   1.0000
     1.0000   1.0000   1.0000   1.0000   1.0000   1.0000   1.0000   1.0000
     1.0000   1.0000   1.0000   1.0000   1.0000   1.0000   1.0000   1.0000
     1.0000   1.0000   1.0000   1.0000   1.0000   1.0000   1.0000   1.0000
     1.0000   1.0000   1.0000   1.0000   1.0000   1.0000   1.0000   1.0000
     1.0000   1.0000   1.0000   1.0000   1.0000   1.0000   1.0000   1.0000
     1.0000   1.0000   1.0000   1.0000   1.0000   1.0000   1.0000   1.0000
     1.0000   1.0000   1.0000   1.0000   1.0000   1.0000   1.0000   1.0000
     1.0000   1.0000   1.0000   1.0000   1.0000   1.0000   1.0000   1.0000
     1.0000   1.0000   1.0000   1.0000   1.0000   1.0000   1.0000   1.0000
     1.0000   1.0000   1.0000   1.0000   1.0000   1.0000   1.0000   1.0000
     1.0000   1.0000   1.0000   1.0000   1.0000   1.0000   1.0000   1.0000
     1.0000   1.0000   1.0000   1.0000   1.0000   1.0000   1.0000   1.0000
     1.0000   1.0000   1.0000   1.0000   1.0000   1.0000   1.0000   1.0000
     1.0000   1.0000   1.0000   1.0000   1.0000   1.0000   1.0000   1.0000
     1.0000   1.0000   1.0000   1.0000   1.0000   1.0000   1.0000   1.0000
     1.0000   1.0000   1.0000   1.0000   1.0000   1.0000   1.0000   1.0000
     1.0000   1.0000   1.0000   1.0000   1.0000   1.0000   1.0000   1.0000
     1.0000   1.0000   1.0000   1.0000   1.0000   1.0000   1.0000   1.0000
     1.0000   1.0000   1.0000   1.0000   1.0000   1.0000   1.0000   1.0000
     1.0000   1.0000

          k = 0.0000-0.1925 0.0000 ( 22196 PWs)   bands (ev):

   -12.3506 -12.3506 -12.2480 -12.2480 -12.2480 -12.2480 -12.0592 -12.0420
   -12.0420 -12.0420 -12.0420 -12.0182 -12.0182 -11.9450 -11.9450 -11.9391
   -11.9391 -11.9131  -0.9469  -0.9469  -0.9410  -0.9410  -0.9410  -0.9410
    -0.8943  -0.8943  -0.8881  -0.8326  -0.8326  -0.8310  -0.8310  -0.8310
    -0.8310  -0.8098  -0.8098  -0.8034  -0.8034  -0.7843  -0.7843  -0.7843
    -0.7843  -0.7704  -0.7704  -0.7704  -0.7704  -0.7319  -0.7021  -0.7021
    -0.7021  -0.7021  -0.6943  -0.6943  -0.6925  -0.6925  -0.6925  -0.6925
    -0.6578  -0.6578  -0.6430  -0.6430  -0.5745  -0.5228  -0.5228  -0.5173
    -0.4831  -0.4831  -0.4562  -0.4562  -0.3889  -0.3846  -0.3402  -0.3402
    -0.3133  -0.3133  -0.2834  -0.2834  -0.2702  -0.2702  -0.2702  -0.2702
    -0.2671  -0.2671  -0.2671  -0.2671  -0.2404  -0.2162  -0.2096  -0.2096
    -0.1931  -0.1931  -0.1931  -0.1931  -0.1840  -0.1840  -0.1729  -0.1729
    -0.1729  -0.1729  -0.1665  -0.1665  -0.1621  -0.1621  -0.1496  -0.1215
    -0.1215  -0.1206  -0.0430  -0.0430   0.4673   0.4673   0.7037   0.7037
     0.7385   0.9997   0.9997   1.3282   1.3750   1.3750   1.3750   1.3750
     1.9101   2.3027   2.3027   2.3027   2.3027   2.3793   2.6071   2.6071
     2.6819   2.6819   2.7104   2.7105   2.9381   2.9381   3.0230   3.0230
     3.0230   3.0230   3.0933   3.0933   3.1177   3.2447   3.2447   3.2968
     3.2968   3.2968   3.2968   3.3540   3.3540   3.5156   3.6632   3.6632
     3.6632   3.6632   3.6898   3.6898   3.6898   3.6898   3.8801   3.8801
     3.8864   3.8864

     occupation numbers 
     1.0000   1.0000   1.0000   1.0000   1.0000   1.0000   1.0000   1.0000
     1.0000   1.0000   1.0000   1.0000   1.0000   1.0000   1.0000   1.0000
     1.0000   1.0000   1.0000   1.0000   1.0000   1.0000   1.0000   1.0000
     1.0000   1.0000   1.0000   1.0000   1.0000   1.0000   1.0000   1.0000
     1.0000   1.0000   1.0000   1.0000   1.0000   1.0000   1.0000   1.0000
     1.0000   1.0000   1.0000   1.0000   1.0000   1.0000   1.0000   1.0000
     1.0000   1.0000   1.0000   1.0000   1.0000   1.0000   1.0000   1.0000
     1.0000   1.0000   1.0000   1.0000   1.0000   1.0000   1.0000   1.0000
     1.0000   1.0000   1.0000   1.0000   1.0000   1.0000   1.0000   1.0000
     1.0000   1.0000   1.0000   1.0000   1.0000   1.0000   1.0000   1.0000
     1.0000   1.0000   1.0000   1.0000   1.0000   1.0000   1.0000   1.0000
     1.0000   1.0000   1.0000   1.0000   1.0000   1.0000   1.0000   1.0000
     1.0000   1.0000   1.0000   1.0000   1.0000   1.0000   1.0000   1.0000
     1.0000   1.0000   1.0000   1.0000   1.0000   1.0000   1.0000   1.0000
     1.0000   1.0000   1.0000   1.0000   1.0000   1.0000   1.0000   1.0000
     1.0000   1.0000   1.0000   1.0000   1.0000   1.0000   1.0000   1.0000
     1.0000   1.0000   1.0000   1.0000   1.0000   1.0000   1.0000   1.0000
     1.0000   1.0000   1.0000   1.0000   1.0000   1.0000   1.0000   1.0000
     1.0000   1.0000   1.0000   1.0000   1.0000   1.0000   1.0000   1.0000
     1.0000   1.0000   1.0000   1.0000   1.0000   1.0000   1.0000   1.0000
     1.0000   1.0000

          k = 0.0000-0.1925 0.0366 ( 22178 PWs)   bands (ev):

   -12.3475 -12.3475 -12.2774 -12.2773 -12.2155 -12.2155 -12.0746 -12.0746
   -12.0579 -12.0296 -12.0126 -12.0126 -12.0059 -11.9557 -11.9422 -11.9422
   -11.9355 -11.9140  -0.9519  -0.9441  -0.9441  -0.9362  -0.9325  -0.9325
    -0.8961  -0.8961  -0.8908  -0.8775  -0.8626  -0.8626  -0.8170  -0.8170
    -0.8092  -0.8092  -0.8043  -0.8043  -0.7927  -0.7926  -0.7802  -0.7771
    -0.7771  -0.7742  -0.7742  -0.7499  -0.7499  -0.7295  -0.7255  -0.7255
    -0.7181  -0.7181  -0.6964  -0.6964  -0.6866  -0.6866  -0.6797  -0.6450
    -0.6450  -0.6373  -0.6373  -0.6325  -0.5870  -0.5243  -0.5188  -0.5181
    -0.5127  -0.4736  -0.4558  -0.4375  -0.3915  -0.3863  -0.3400  -0.3400
    -0.3118  -0.3118  -0.3028  -0.3028  -0.2874  -0.2874  -0.2796  -0.2796
    -0.2538  -0.2538  -0.2524  -0.2524  -0.2360  -0.2161  -0.2117  -0.2071
    -0.2031  -0.2031  -0.1903  -0.1866  -0.1866  -0.1846  -0.1846  -0.1769
    -0.1762  -0.1672  -0.1672  -0.1600  -0.1600  -0.1512  -0.1502  -0.1239
    -0.1205  -0.1199  -0.0668  -0.0668   0.5233   0.5233   0.6888   0.7307
     0.7311   0.9318   1.0718   1.1930   1.1930   1.3137   1.5504   1.5504
     1.9434   2.1688   2.1688   2.3889   2.4249   2.4249   2.5256   2.5976
     2.6099   2.6099   2.7738   2.8871   2.9233   2.9233   2.9395   2.9395
     3.0996   3.0996   3.1230   3.1230   3.1336   3.1581   3.2392   3.2393
     3.3225   3.3344   3.3378   3.3601   3.3601   3.5074   3.5675   3.5675
     3.6288   3.6288   3.7436   3.7436   3.7446   3.7446   3.8744   3.8744
     3.8837   3.8837

     occupation numbers 
     1.0000   1.0000   1.0000   1.0000   1.0000   1.0000   1.0000   1.0000
     1.0000   1.0000   1.0000   1.0000   1.0000   1.0000   1.0000   1.0000
     1.0000   1.0000   1.0000   1.0000   1.0000   1.0000   1.0000   1.0000
     1.0000   1.0000   1.0000   1.0000   1.0000   1.0000   1.0000   1.0000
     1.0000   1.0000   1.0000   1.0000   1.0000   1.0000   1.0000   1.0000
     1.0000   1.0000   1.0000   1.0000   1.0000   1.0000   1.0000   1.0000
     1.0000   1.0000   1.0000   1.0000   1.0000   1.0000   1.0000   1.0000
     1.0000   1.0000   1.0000   1.0000   1.0000   1.0000   1.0000   1.0000
     1.0000   1.0000   1.0000   1.0000   1.0000   1.0000   1.0000   1.0000
     1.0000   1.0000   1.0000   1.0000   1.0000   1.0000   1.0000   1.0000
     1.0000   1.0000   1.0000   1.0000   1.0000   1.0000   1.0000   1.0000
     1.0000   1.0000   1.0000   1.0000   1.0000   1.0000   1.0000   1.0000
     1.0000   1.0000   1.0000   1.0000   1.0000   1.0000   1.0000   1.0000
     1.0000   1.0000   1.0000   1.0000   1.0000   1.0000   1.0000   1.0000
     1.0000   1.0000   1.0000   1.0000   1.0000   1.0000   1.0000   1.0000
     1.0000   1.0000   1.0000   1.0000   1.0000   1.0000   1.0000   1.0000
     1.0000   1.0000   1.0000   1.0000   1.0000   1.0000   1.0000   1.0000
     1.0000   1.0000   1.0000   1.0000   1.0000   1.0000   1.0000   1.0000
     1.0000   1.0000   1.0000   1.0000   1.0000   1.0000   1.0000   1.0000
     1.0000   1.0000   1.0000   1.0000   1.0000   1.0000   1.0000   1.0000
     1.0000   1.0000

          k = 0.0000-0.1925 0.0732 ( 22206 PWs)   bands (ev):

   -12.3383 -12.3383 -12.3027 -12.3027 -12.1808 -12.1808 -12.1093 -12.1093
   -12.0541 -12.0397 -11.9930 -11.9872 -11.9872 -11.9676 -11.9515 -11.9515
   -11.9276 -11.9167  -0.9492  -0.9390  -0.9390  -0.9229  -0.9213  -0.9213
    -0.9125  -0.9016  -0.9016  -0.8982  -0.8973  -0.8973  -0.8126  -0.8126
    -0.8074  -0.8074  -0.8068  -0.8068  -0.7991  -0.7991  -0.7725  -0.7725
    -0.7623  -0.7623  -0.7467  -0.7467  -0.7338  -0.7338  -0.7295  -0.7294
    -0.7239  -0.7231  -0.7030  -0.7030  -0.6981  -0.6724  -0.6724  -0.6509
    -0.6509  -0.6208  -0.6047  -0.5577  -0.5577  -0.5437  -0.5238  -0.5198
    -0.5120  -0.4891  -0.4322  -0.4193  -0.3996  -0.3921  -0.3753  -0.3753
    -0.3249  -0.3249  -0.3075  -0.3075  -0.3032  -0.3031  -0.2908  -0.2908
    -0.2403  -0.2403  -0.2348  -0.2348  -0.2247  -0.2155  -0.2146  -0.2146
    -0.2134  -0.2040  -0.2016  -0.2016  -0.1957  -0.1922  -0.1778  -0.1778
    -0.1694  -0.1693  -0.1693  -0.1555  -0.1468  -0.1468  -0.1407  -0.1278
    -0.1201  -0.1196  -0.1049  -0.1049   0.6573   0.6573   0.6866   0.7138
     0.7681   0.8698   1.0080   1.0080   1.1450   1.2734   1.7176   1.7176
     2.0265   2.0265   2.0369   2.3433   2.4170   2.5235   2.5272   2.5272
     2.6121   2.6121   2.8702   2.8816   2.8816   2.8884   2.8884   3.0456
     3.0651   3.1181   3.1181   3.1768   3.1892   3.1892   3.2330   3.2330
     3.2752   3.2940   3.3894   3.4270   3.4270   3.4607   3.4607   3.4831
     3.5634   3.5634   3.7916   3.7916   3.8057   3.8057   3.8574   3.8574
     3.8728   3.8728

     occupation numbers 
     1.0000   1.0000   1.0000   1.0000   1.0000   1.0000   1.0000   1.0000
     1.0000   1.0000   1.0000   1.0000   1.0000   1.0000   1.0000   1.0000
     1.0000   1.0000   1.0000   1.0000   1.0000   1.0000   1.0000   1.0000
     1.0000   1.0000   1.0000   1.0000   1.0000   1.0000   1.0000   1.0000
     1.0000   1.0000   1.0000   1.0000   1.0000   1.0000   1.0000   1.0000
     1.0000   1.0000   1.0000   1.0000   1.0000   1.0000   1.0000   1.0000
     1.0000   1.0000   1.0000   1.0000   1.0000   1.0000   1.0000   1.0000
     1.0000   1.0000   1.0000   1.0000   1.0000   1.0000   1.0000   1.0000
     1.0000   1.0000   1.0000   1.0000   1.0000   1.0000   1.0000   1.0000
     1.0000   1.0000   1.0000   1.0000   1.0000   1.0000   1.0000   1.0000
     1.0000   1.0000   1.0000   1.0000   1.0000   1.0000   1.0000   1.0000
     1.0000   1.0000   1.0000   1.0000   1.0000   1.0000   1.0000   1.0000
     1.0000   1.0000   1.0000   1.0000   1.0000   1.0000   1.0000   1.0000
     1.0000   1.0000   1.0000   1.0000   1.0000   1.0000   1.0000   1.0000
     1.0000   1.0000   1.0000   1.0000   1.0000   1.0000   1.0000   1.0000
     1.0000   1.0000   1.0000   1.0000   1.0000   1.0000   1.0000   1.0000
     1.0000   1.0000   1.0000   1.0000   1.0000   1.0000   1.0000   1.0000
     1.0000   1.0000   1.0000   1.0000   1.0000   1.0000   1.0000   1.0000
     1.0000   1.0000   1.0000   1.0000   1.0000   1.0000   1.0000   1.0000
     1.0000   1.0000   1.0000   1.0000   1.0000   1.0000   1.0000   1.0000
     1.0000   1.0000

          k = 0.0000-0.1925-0.1098 ( 22228 PWs)   bands (ev):

   -12.3232 -12.3232 -12.3232 -12.3232 -12.1451 -12.1451 -12.1451 -12.1451
   -12.0479 -12.0479 -11.9801 -11.9801 -11.9666 -11.9666 -11.9666 -11.9666
   -11.9213 -11.9213  -0.9364  -0.9364  -0.9236  -0.9236  -0.9236  -0.9236
    -0.9104  -0.9104  -0.9104  -0.9104  -0.9094  -0.9094  -0.8097  -0.8097
    -0.8097  -0.8097  -0.8041  -0.8041  -0.8041  -0.8041  -0.7619  -0.7619
    -0.7619  -0.7619  -0.7488  -0.7488  -0.7488  -0.7488  -0.7140  -0.7140
    -0.7140  -0.7139  -0.7126  -0.7126  -0.6689  -0.6689  -0.6602  -0.6602
    -0.6602  -0.6602  -0.5748  -0.5748  -0.5220  -0.5220  -0.5021  -0.5021
    -0.4641  -0.4641  -0.4641  -0.4641  -0.4134  -0.4134  -0.4036  -0.4036
    -0.3165  -0.3165  -0.3164  -0.3164  -0.3004  -0.3004  -0.3004  -0.3004
    -0.2270  -0.2270  -0.2270  -0.2270  -0.2178  -0.2178  -0.2178  -0.2178
    -0.2147  -0.2147  -0.2091  -0.2091  -0.2003  -0.2003  -0.1728  -0.1728
    -0.1728  -0.1728  -0.1619  -0.1619  -0.1333  -0.1333  -0.1303  -0.1303
    -0.1303  -0.1303  -0.1197  -0.1197   0.6962   0.6963   0.8149   0.8149
     0.8259   0.8259   0.8259   0.8259   1.2144   1.2145   1.8762   1.8762
     1.8762   1.8762   2.1756   2.1756   2.4625   2.4626   2.5923   2.5923
     2.5923   2.5923   2.8638   2.8638   2.8638   2.8638   2.9682   2.9682
     3.1484   3.1484   3.1484   3.1484   3.1774   3.1774   3.2353   3.2353
     3.3474   3.3474   3.3474   3.3474   3.4434   3.4434   3.4955   3.4955
     3.4955   3.4955   3.8295   3.8295   3.8295   3.8295   3.8483   3.8483
     3.8483   3.8483

     occupation numbers 
     1.0000   1.0000   1.0000   1.0000   1.0000   1.0000   1.0000   1.0000
     1.0000   1.0000   1.0000   1.0000   1.0000   1.0000   1.0000   1.0000
     1.0000   1.0000   1.0000   1.0000   1.0000   1.0000   1.0000   1.0000
     1.0000   1.0000   1.0000   1.0000   1.0000   1.0000   1.0000   1.0000
     1.0000   1.0000   1.0000   1.0000   1.0000   1.0000   1.0000   1.0000
     1.0000   1.0000   1.0000   1.0000   1.0000   1.0000   1.0000   1.0000
     1.0000   1.0000   1.0000   1.0000   1.0000   1.0000   1.0000   1.0000
     1.0000   1.0000   1.0000   1.0000   1.0000   1.0000   1.0000   1.0000
     1.0000   1.0000   1.0000   1.0000   1.0000   1.0000   1.0000   1.0000
     1.0000   1.0000   1.0000   1.0000   1.0000   1.0000   1.0000   1.0000
     1.0000   1.0000   1.0000   1.0000   1.0000   1.0000   1.0000   1.0000
     1.0000   1.0000   1.0000   1.0000   1.0000   1.0000   1.0000   1.0000
     1.0000   1.0000   1.0000   1.0000   1.0000   1.0000   1.0000   1.0000
     1.0000   1.0000   1.0000   1.0000   1.0000   1.0000   1.0000   1.0000
     1.0000   1.0000   1.0000   1.0000   1.0000   1.0000   1.0000   1.0000
     1.0000   1.0000   1.0000   1.0000   1.0000   1.0000   1.0000   1.0000
     1.0000   1.0000   1.0000   1.0000   1.0000   1.0000   1.0000   1.0000
     1.0000   1.0000   1.0000   1.0000   1.0000   1.0000   1.0000   1.0000
     1.0000   1.0000   1.0000   1.0000   1.0000   1.0000   1.0000   1.0000
     1.0000   1.0000   1.0000   1.0000   1.0000   1.0000   1.0000   1.0000
     1.0000   1.0000

          k = 0.1667 0.0962 0.0000 ( 22178 PWs)   bands (ev):

   -12.3506 -12.2480 -12.2480 -12.2216 -12.1420 -12.1420 -12.0624 -12.0420
   -12.0420 -12.0202 -12.0201 -11.9866 -11.9866 -11.9442 -11.9442 -11.9391
   -11.9113 -11.9109  -0.9410  -0.9410  -0.9204  -0.9204  -0.8941  -0.8832
    -0.8832  -0.8562  -0.8486  -0.8354  -0.8354  -0.8310  -0.8310  -0.8100
    -0.8062  -0.8034  -0.7966  -0.7966  -0.7845  -0.7845  -0.7703  -0.7703
    -0.7405  -0.7369  -0.7369  -0.7279  -0.7022  -0.7022  -0.6942  -0.6925
    -0.6925  -0.6829  -0.6829  -0.6802  -0.6802  -0.6431  -0.6421  -0.6313
    -0.6313  -0.5874  -0.5874  -0.5689  -0.5530  -0.5530  -0.5223  -0.5120
    -0.4997  -0.4997  -0.4816  -0.4816  -0.3992  -0.3600  -0.3514  -0.3403
    -0.3206  -0.3133  -0.2858  -0.2838  -0.2833  -0.2702  -0.2702  -0.2675
    -0.2675  -0.2670  -0.2670  -0.2588  -0.2489  -0.2489  -0.2471  -0.2470
    -0.2221  -0.2221  -0.1931  -0.1931  -0.1865  -0.1865  -0.1729  -0.1729
    -0.1665  -0.1575  -0.1435  -0.1347  -0.1347  -0.1339  -0.1339  -0.0713
    -0.0713  -0.0429  -0.0380  -0.0254   0.4673   0.8211   0.8750   0.8750
     0.8965   1.1347   1.1347   1.2585   1.2585   1.3410   1.3750   1.3750
     1.7277   1.7277   1.8989   1.9650   2.0955   2.1645   2.2464   2.2464
     2.3028   2.3028   2.6074   2.6909   2.7224   2.7224   2.8359   2.8359
     2.8372   2.8372   2.9384   2.9489   2.9489   3.0234   3.0234   3.0929
     3.1257   3.2780   3.2964   3.2964   3.3358   3.3358   3.3986   3.3986
     3.5717   3.5717   3.5909   3.6102   3.6634   3.6634   3.6894   3.6894
     3.8797   3.8864

     occupation numbers 
     1.0000   1.0000   1.0000   1.0000   1.0000   1.0000   1.0000   1.0000
     1.0000   1.0000   1.0000   1.0000   1.0000   1.0000   1.0000   1.0000
     1.0000   1.0000   1.0000   1.0000   1.0000   1.0000   1.0000   1.0000
     1.0000   1.0000   1.0000   1.0000   1.0000   1.0000   1.0000   1.0000
     1.0000   1.0000   1.0000   1.0000   1.0000   1.0000   1.0000   1.0000
     1.0000   1.0000   1.0000   1.0000   1.0000   1.0000   1.0000   1.0000
     1.0000   1.0000   1.0000   1.0000   1.0000   1.0000   1.0000   1.0000
     1.0000   1.0000   1.0000   1.0000   1.0000   1.0000   1.0000   1.0000
     1.0000   1.0000   1.0000   1.0000   1.0000   1.0000   1.0000   1.0000
     1.0000   1.0000   1.0000   1.0000   1.0000   1.0000   1.0000   1.0000
     1.0000   1.0000   1.0000   1.0000   1.0000   1.0000   1.0000   1.0000
     1.0000   1.0000   1.0000   1.0000   1.0000   1.0000   1.0000   1.0000
     1.0000   1.0000   1.0000   1.0000   1.0000   1.0000   1.0000   1.0000
     1.0000   1.0000   1.0000   1.0000   1.0000   1.0000   1.0000   1.0000
     1.0000   1.0000   1.0000   1.0000   1.0000   1.0000   1.0000   1.0000
     1.0000   1.0000   1.0000   1.0000   1.0000   1.0000   1.0000   1.0000
     1.0000   1.0000   1.0000   1.0000   1.0000   1.0000   1.0000   1.0000
     1.0000   1.0000   1.0000   1.0000   1.0000   1.0000   1.0000   1.0000
     1.0000   1.0000   1.0000   1.0000   1.0000   1.0000   1.0000   1.0000
     1.0000   1.0000   1.0000   1.0000   1.0000   1.0000   1.0000   1.0000
     1.0000   1.0000

          k = 0.1667 0.0962 0.0366 ( 22182 PWs)   bands (ev):

   -12.3475 -12.2774 -12.2191 -12.2155 -12.1646 -12.1171 -12.0746 -12.0611
   -12.0319 -12.0126 -12.0107 -12.0074 -11.9649 -11.9554 -11.9422 -11.9344
   -11.9136 -11.9118  -0.9441  -0.9324  -0.9270  -0.9081  -0.8960  -0.8901
    -0.8724  -0.8637  -0.8625  -0.8587  -0.8488  -0.8314  -0.8169  -0.8156
    -0.8094  -0.8058  -0.8043  -0.7928  -0.7770  -0.7744  -0.7659  -0.7498
    -0.7417  -0.7398  -0.7310  -0.7294  -0.7254  -0.7182  -0.6963  -0.6867
    -0.6858  -0.6830  -0.6771  -0.6621  -0.6575  -0.6451  -0.6439  -0.6373
    -0.6081  -0.5852  -0.5765  -0.5673  -0.5596  -0.5478  -0.5238  -0.5168
    -0.5146  -0.5100  -0.4819  -0.4474  -0.4037  -0.3564  -0.3554  -0.3400
    -0.3394  -0.3118  -0.3028  -0.2898  -0.2874  -0.2870  -0.2814  -0.2796
    -0.2595  -0.2551  -0.2538  -0.2527  -0.2524  -0.2459  -0.2399  -0.2386
    -0.2237  -0.2223  -0.2031  -0.1941  -0.1866  -0.1846  -0.1789  -0.1672
    -0.1600  -0.1584  -0.1533  -0.1441  -0.1404  -0.1254  -0.1165  -0.0819
    -0.0668  -0.0616  -0.0389  -0.0344   0.5233   0.8449   0.8587   0.8897
     0.9013   1.0789   1.1720   1.1914   1.1930   1.3369   1.3416   1.5504
     1.6546   1.7958   1.9098   1.9585   2.1155   2.1478   2.1689   2.1892
     2.3545   2.4251   2.5536   2.6102   2.6872   2.6908   2.7767   2.8091
     2.8951   2.9071   2.9235   2.9398   3.0268   3.0299   3.0992   3.1233
     3.1399   3.2388   3.2581   3.2696   3.3597   3.3721   3.3937   3.4079
     3.4899   3.5678   3.5830   3.6164   3.6226   3.6284   3.7437   3.7442
     3.8740   3.8837

     occupation numbers 
     1.0000   1.0000   1.0000   1.0000   1.0000   1.0000   1.0000   1.0000
     1.0000   1.0000   1.0000   1.0000   1.0000   1.0000   1.0000   1.0000
     1.0000   1.0000   1.0000   1.0000   1.0000   1.0000   1.0000   1.0000
     1.0000   1.0000   1.0000   1.0000   1.0000   1.0000   1.0000   1.0000
     1.0000   1.0000   1.0000   1.0000   1.0000   1.0000   1.0000   1.0000
     1.0000   1.0000   1.0000   1.0000   1.0000   1.0000   1.0000   1.0000
     1.0000   1.0000   1.0000   1.0000   1.0000   1.0000   1.0000   1.0000
     1.0000   1.0000   1.0000   1.0000   1.0000   1.0000   1.0000   1.0000
     1.0000   1.0000   1.0000   1.0000   1.0000   1.0000   1.0000   1.0000
     1.0000   1.0000   1.0000   1.0000   1.0000   1.0000   1.0000   1.0000
     1.0000   1.0000   1.0000   1.0000   1.0000   1.0000   1.0000   1.0000
     1.0000   1.0000   1.0000   1.0000   1.0000   1.0000   1.0000   1.0000
     1.0000   1.0000   1.0000   1.0000   1.0000   1.0000   1.0000   1.0000
     1.0000   1.0000   1.0000   1.0000   1.0000   1.0000   1.0000   1.0000
     1.0000   1.0000   1.0000   1.0000   1.0000   1.0000   1.0000   1.0000
     1.0000   1.0000   1.0000   1.0000   1.0000   1.0000   1.0000   1.0000
     1.0000   1.0000   1.0000   1.0000   1.0000   1.0000   1.0000   1.0000
     1.0000   1.0000   1.0000   1.0000   1.0000   1.0000   1.0000   1.0000
     1.0000   1.0000   1.0000   1.0000   1.0000   1.0000   1.0000   1.0000
     1.0000   1.0000   1.0000   1.0000   1.0000   1.0000   1.0000   1.0000
     1.0000   1.0000

          k = 0.1667 0.0962 0.0732 ( 22196 PWs)   bands (ev):

   -12.3383 -12.3027 -12.2119 -12.1842 -12.1808 -12.1093 -12.0907 -12.0571
   -12.0423 -12.0367 -11.9941 -11.9872 -11.9677 -11.9515 -11.9463 -11.9261
   -11.9203 -11.9147  -0.9389  -0.9251  -0.9213  -0.9015  -0.8972  -0.8929
    -0.8919  -0.8900  -0.8663  -0.8616  -0.8605  -0.8500  -0.8125  -0.8076
    -0.8067  -0.8065  -0.8048  -0.7993  -0.7724  -0.7625  -0.7518  -0.7466
    -0.7445  -0.7398  -0.7340  -0.7332  -0.7294  -0.7220  -0.7029  -0.6964
    -0.6725  -0.6675  -0.6619  -0.6587  -0.6510  -0.6493  -0.6363  -0.6281
    -0.5975  -0.5776  -0.5577  -0.5491  -0.5416  -0.5307  -0.5282  -0.5232
    -0.5225  -0.5220  -0.4612  -0.4176  -0.4151  -0.3868  -0.3753  -0.3674
    -0.3461  -0.3249  -0.3112  -0.3075  -0.3032  -0.2908  -0.2878  -0.2752
    -0.2710  -0.2626  -0.2425  -0.2403  -0.2348  -0.2329  -0.2302  -0.2280
    -0.2275  -0.2242  -0.2145  -0.2016  -0.1984  -0.1778  -0.1722  -0.1718
    -0.1693  -0.1614  -0.1468  -0.1451  -0.1443  -0.1153  -0.1048  -0.0979
    -0.0930  -0.0552  -0.0533  -0.0417   0.6573   0.8535   0.8742   0.9076
     0.9362   1.0080   1.0261   1.0821   1.2449   1.3212   1.4221   1.5786
     1.7176   1.8558   1.9385   1.9415   2.0265   2.0623   2.1748   2.2625
     2.4000   2.4689   2.5253   2.5274   2.6125   2.6934   2.7013   2.7327
     2.8819   2.8887   2.9856   3.0514   3.1053   3.1177   3.1642   3.1717
     3.1882   3.1888   3.2333   3.2510   3.3235   3.3525   3.3793   3.4266
     3.4609   3.4707   3.5598   3.5630   3.6311   3.6448   3.7911   3.8058
     3.8569   3.8729

     occupation numbers 
     1.0000   1.0000   1.0000   1.0000   1.0000   1.0000   1.0000   1.0000
     1.0000   1.0000   1.0000   1.0000   1.0000   1.0000   1.0000   1.0000
     1.0000   1.0000   1.0000   1.0000   1.0000   1.0000   1.0000   1.0000
     1.0000   1.0000   1.0000   1.0000   1.0000   1.0000   1.0000   1.0000
     1.0000   1.0000   1.0000   1.0000   1.0000   1.0000   1.0000   1.0000
     1.0000   1.0000   1.0000   1.0000   1.0000   1.0000   1.0000   1.0000
     1.0000   1.0000   1.0000   1.0000   1.0000   1.0000   1.0000   1.0000
     1.0000   1.0000   1.0000   1.0000   1.0000   1.0000   1.0000   1.0000
     1.0000   1.0000   1.0000   1.0000   1.0000   1.0000   1.0000   1.0000
     1.0000   1.0000   1.0000   1.0000   1.0000   1.0000   1.0000   1.0000
     1.0000   1.0000   1.0000   1.0000   1.0000   1.0000   1.0000   1.0000
     1.0000   1.0000   1.0000   1.0000   1.0000   1.0000   1.0000   1.0000
     1.0000   1.0000   1.0000   1.0000   1.0000   1.0000   1.0000   1.0000
     1.0000   1.0000   1.0000   1.0000   1.0000   1.0000   1.0000   1.0000
     1.0000   1.0000   1.0000   1.0000   1.0000   1.0000   1.0000   1.0000
     1.0000   1.0000   1.0000   1.0000   1.0000   1.0000   1.0000   1.0000
     1.0000   1.0000   1.0000   1.0000   1.0000   1.0000   1.0000   1.0000
     1.0000   1.0000   1.0000   1.0000   1.0000   1.0000   1.0000   1.0000
     1.0000   1.0000   1.0000   1.0000   1.0000   1.0000   1.0000   1.0000
     1.0000   1.0000   1.0000   1.0000   1.0000   1.0000   1.0000   1.0000
     1.0000   1.0000

          k = 0.1667 0.0962-0.1098 ( 22200 PWs)   bands (ev):

   -12.3232 -12.3232 -12.2001 -12.2001 -12.1451 -12.1451 -12.0636 -12.0636
   -12.0508 -12.0508 -11.9807 -11.9807 -11.9666 -11.9666 -11.9313 -11.9313
   -11.9195 -11.9195  -0.9236  -0.9236  -0.9133  -0.9133  -0.9103  -0.9103
    -0.8804  -0.8804  -0.8782  -0.8781  -0.8539  -0.8539  -0.8096  -0.8096
    -0.8043  -0.8043  -0.8042  -0.8042  -0.7618  -0.7618  -0.7489  -0.7489
    -0.7477  -0.7477  -0.7373  -0.7373  -0.7139  -0.7139  -0.7103  -0.7103
    -0.6603  -0.6603  -0.6576  -0.6576  -0.6458  -0.6458  -0.6283  -0.6283
    -0.6066  -0.6066  -0.5346  -0.5346  -0.5337  -0.5337  -0.5305  -0.5305
    -0.4641  -0.4641  -0.4520  -0.4520  -0.4386  -0.4386  -0.3877  -0.3877
    -0.3306  -0.3306  -0.3165  -0.3165  -0.3003  -0.3003  -0.2815  -0.2815
    -0.2692  -0.2692  -0.2337  -0.2337  -0.2277  -0.2277  -0.2270  -0.2270
    -0.2238  -0.2238  -0.2177  -0.2177  -0.1899  -0.1899  -0.1728  -0.1728
    -0.1659  -0.1659  -0.1456  -0.1456  -0.1303  -0.1303  -0.1043  -0.1043
    -0.0776  -0.0776  -0.0465  -0.0465   0.8259   0.8259   0.8597   0.8597
     0.9782   0.9782   0.9914   0.9914   1.2899   1.2899   1.5010   1.5010
     1.8762   1.8762   1.9041   1.9041   1.9928   1.9928   2.2712   2.2712
     2.3786   2.3786   2.5857   2.5857   2.5926   2.5926   2.7056   2.7056
     2.8641   2.8641   3.0628   3.0628   3.1480   3.1480   3.1641   3.1641
     3.2488   3.2488   3.2690   3.2690   3.2748   3.2748   3.3477   3.3477
     3.4950   3.4951   3.5219   3.5220   3.6444   3.6444   3.8291   3.8291
     3.8484   3.8484

     occupation numbers 
     1.0000   1.0000   1.0000   1.0000   1.0000   1.0000   1.0000   1.0000
     1.0000   1.0000   1.0000   1.0000   1.0000   1.0000   1.0000   1.0000
     1.0000   1.0000   1.0000   1.0000   1.0000   1.0000   1.0000   1.0000
     1.0000   1.0000   1.0000   1.0000   1.0000   1.0000   1.0000   1.0000
     1.0000   1.0000   1.0000   1.0000   1.0000   1.0000   1.0000   1.0000
     1.0000   1.0000   1.0000   1.0000   1.0000   1.0000   1.0000   1.0000
     1.0000   1.0000   1.0000   1.0000   1.0000   1.0000   1.0000   1.0000
     1.0000   1.0000   1.0000   1.0000   1.0000   1.0000   1.0000   1.0000
     1.0000   1.0000   1.0000   1.0000   1.0000   1.0000   1.0000   1.0000
     1.0000   1.0000   1.0000   1.0000   1.0000   1.0000   1.0000   1.0000
     1.0000   1.0000   1.0000   1.0000   1.0000   1.0000   1.0000   1.0000
     1.0000   1.0000   1.0000   1.0000   1.0000   1.0000   1.0000   1.0000
     1.0000   1.0000   1.0000   1.0000   1.0000   1.0000   1.0000   1.0000
     1.0000   1.0000   1.0000   1.0000   1.0000   1.0000   1.0000   1.0000
     1.0000   1.0000   1.0000   1.0000   1.0000   1.0000   1.0000   1.0000
     1.0000   1.0000   1.0000   1.0000   1.0000   1.0000   1.0000   1.0000
     1.0000   1.0000   1.0000   1.0000   1.0000   1.0000   1.0000   1.0000
     1.0000   1.0000   1.0000   1.0000   1.0000   1.0000   1.0000   1.0000
     1.0000   1.0000   1.0000   1.0000   1.0000   1.0000   1.0000   1.0000
     1.0000   1.0000   1.0000   1.0000   1.0000   1.0000   1.0000   1.0000
     1.0000   1.0000

          k = 0.1667 0.1604 0.0000 ( 22200 PWs)   bands (ev):

   -12.3188 -12.2745 -12.2215 -12.2214 -12.1849 -12.1849 -12.0324 -12.0272
   -12.0272 -12.0078 -12.0077 -11.9993 -11.9993 -11.9424 -11.9423 -11.9307
   -11.9207 -11.9188  -0.9430  -0.9430  -0.9364  -0.9364  -0.8950  -0.8829
    -0.8819  -0.8819  -0.8529  -0.8344  -0.8344  -0.8336  -0.8336  -0.8009
    -0.8003  -0.7865  -0.7801  -0.7801  -0.7754  -0.7754  -0.7628  -0.7628
    -0.7611  -0.7472  -0.7472  -0.7306  -0.7172  -0.7172  -0.6911  -0.6910
    -0.6833  -0.6760  -0.6760  -0.6721  -0.6721  -0.6666  -0.6530  -0.6530
    -0.6329  -0.6329  -0.6122  -0.5669  -0.5442  -0.5010  -0.5010  -0.4829
    -0.4829  -0.4644  -0.4576  -0.4576  -0.4125  -0.3548  -0.3481  -0.3218
    -0.3148  -0.3114  -0.2936  -0.2928  -0.2705  -0.2705  -0.2699  -0.2699
    -0.2659  -0.2651  -0.2651  -0.2587  -0.2587  -0.2432  -0.2415  -0.2415
    -0.2310  -0.2310  -0.1925  -0.1925  -0.1909  -0.1909  -0.1642  -0.1642
    -0.1640  -0.1609  -0.1513  -0.1513  -0.1313  -0.1005  -0.1005  -0.0899
    -0.0732  -0.0732  -0.0366  -0.0313   0.5611   0.6867   0.7973   0.7973
     0.8347   1.0386   1.0386   1.3222   1.3308   1.3309   1.3648   1.3648
     1.7692   1.9491   1.9491   2.1477   2.1477   2.1613   2.1613   2.1928
     2.2487   2.3594   2.3971   2.6808   2.7865   2.7865   2.8605   2.8605
     2.8964   2.8983   2.8983   2.9273   2.9273   3.0008   3.0286   3.0403
     3.0403   3.2005   3.2005   3.2357   3.3507   3.3507   3.4868   3.4868
     3.6071   3.6071   3.6098   3.6098   3.6424   3.6424   3.7152   3.7306
     3.8184   3.8234

     occupation numbers 
     1.0000   1.0000   1.0000   1.0000   1.0000   1.0000   1.0000   1.0000
     1.0000   1.0000   1.0000   1.0000   1.0000   1.0000   1.0000   1.0000
     1.0000   1.0000   1.0000   1.0000   1.0000   1.0000   1.0000   1.0000
     1.0000   1.0000   1.0000   1.0000   1.0000   1.0000   1.0000   1.0000
     1.0000   1.0000   1.0000   1.0000   1.0000   1.0000   1.0000   1.0000
     1.0000   1.0000   1.0000   1.0000   1.0000   1.0000   1.0000   1.0000
     1.0000   1.0000   1.0000   1.0000   1.0000   1.0000   1.0000   1.0000
     1.0000   1.0000   1.0000   1.0000   1.0000   1.0000   1.0000   1.0000
     1.0000   1.0000   1.0000   1.0000   1.0000   1.0000   1.0000   1.0000
     1.0000   1.0000   1.0000   1.0000   1.0000   1.0000   1.0000   1.0000
     1.0000   1.0000   1.0000   1.0000   1.0000   1.0000   1.0000   1.0000
     1.0000   1.0000   1.0000   1.0000   1.0000   1.0000   1.0000   1.0000
     1.0000   1.0000   1.0000   1.0000   1.0000   1.0000   1.0000   1.0000
     1.0000   1.0000   1.0000   1.0000   1.0000   1.0000   1.0000   1.0000
     1.0000   1.0000   1.0000   1.0000   1.0000   1.0000   1.0000   1.0000
     1.0000   1.0000   1.0000   1.0000   1.0000   1.0000   1.0000   1.0000
     1.0000   1.0000   1.0000   1.0000   1.0000   1.0000   1.0000   1.0000
     1.0000   1.0000   1.0000   1.0000   1.0000   1.0000   1.0000   1.0000
     1.0000   1.0000   1.0000   1.0000   1.0000   1.0000   1.0000   1.0000
     1.0000   1.0000   1.0000   1.0000   1.0000   1.0000   1.0000   1.0000
     1.0000   1.0000

          k = 0.1667 0.1604 0.0366 ( 22205 PWs)   bands (ev):

   -12.3158 -12.2717 -12.2493 -12.2104 -12.1907 -12.1567 -12.0578 -12.0355
   -12.0313 -12.0084 -11.9996 -11.9895 -11.9828 -11.9505 -11.9353 -11.9337
   -11.9233 -11.9194  -0.9463  -0.9407  -0.9343  -0.9264  -0.8970  -0.8877
    -0.8851  -0.8725  -0.8669  -0.8667  -0.8529  -0.8217  -0.8129  -0.8118
    -0.8004  -0.8000  -0.7876  -0.7815  -0.7691  -0.7672  -0.7623  -0.7563
    -0.7481  -0.7365  -0.7346  -0.7315  -0.7198  -0.7090  -0.7066  -0.7045
    -0.6900  -0.6856  -0.6817  -0.6687  -0.6661  -0.6578  -0.6507  -0.6218
    -0.6159  -0.6143  -0.6035  -0.5692  -0.5536  -0.5258  -0.4929  -0.4929
    -0.4752  -0.4674  -0.4665  -0.4262  -0.4174  -0.3537  -0.3482  -0.3293
    -0.3258  -0.3172  -0.3026  -0.2936  -0.2905  -0.2891  -0.2769  -0.2691
    -0.2633  -0.2526  -0.2511  -0.2494  -0.2474  -0.2444  -0.2424  -0.2387
    -0.2316  -0.2315  -0.2027  -0.2004  -0.1838  -0.1822  -0.1795  -0.1683
    -0.1648  -0.1619  -0.1495  -0.1347  -0.1307  -0.1088  -0.0926  -0.0888
    -0.0746  -0.0737  -0.0554  -0.0448   0.6083   0.7230   0.7875   0.8173
     0.8286   0.9810   1.1005   1.2053   1.2055   1.3101   1.4486   1.5158
     1.7824   1.8587   2.0322   2.0362   2.0552   2.1935   2.2487   2.2753
     2.2761   2.3641   2.4001   2.6482   2.6749   2.7562   2.7640   2.7932
     2.8966   2.9364   2.9651   2.9841   3.0174   3.0201   3.0309   3.0675
     3.1066   3.1433   3.2268   3.2649   3.3068   3.3650   3.4150   3.5157
     3.5250   3.5518   3.5603   3.6697   3.6781   3.7080   3.7174   3.7338
     3.8117   3.8236

     occupation numbers 
     1.0000   1.0000   1.0000   1.0000   1.0000   1.0000   1.0000   1.0000
     1.0000   1.0000   1.0000   1.0000   1.0000   1.0000   1.0000   1.0000
     1.0000   1.0000   1.0000   1.0000   1.0000   1.0000   1.0000   1.0000
     1.0000   1.0000   1.0000   1.0000   1.0000   1.0000   1.0000   1.0000
     1.0000   1.0000   1.0000   1.0000   1.0000   1.0000   1.0000   1.0000
     1.0000   1.0000   1.0000   1.0000   1.0000   1.0000   1.0000   1.0000
     1.0000   1.0000   1.0000   1.0000   1.0000   1.0000   1.0000   1.0000
     1.0000   1.0000   1.0000   1.0000   1.0000   1.0000   1.0000   1.0000
     1.0000   1.0000   1.0000   1.0000   1.0000   1.0000   1.0000   1.0000
     1.0000   1.0000   1.0000   1.0000   1.0000   1.0000   1.0000   1.0000
     1.0000   1.0000   1.0000   1.0000   1.0000   1.0000   1.0000   1.0000
     1.0000   1.0000   1.0000   1.0000   1.0000   1.0000   1.0000   1.0000
     1.0000   1.0000   1.0000   1.0000   1.0000   1.0000   1.0000   1.0000
     1.0000   1.0000   1.0000   1.0000   1.0000   1.0000   1.0000   1.0000
     1.0000   1.0000   1.0000   1.0000   1.0000   1.0000   1.0000   1.0000
     1.0000   1.0000   1.0000   1.0000   1.0000   1.0000   1.0000   1.0000
     1.0000   1.0000   1.0000   1.0000   1.0000   1.0000   1.0000   1.0000
     1.0000   1.0000   1.0000   1.0000   1.0000   1.0000   1.0000   1.0000
     1.0000   1.0000   1.0000   1.0000   1.0000   1.0000   1.0000   1.0000
     1.0000   1.0000   1.0000   1.0000   1.0000   1.0000   1.0000   1.0000
     1.0000   1.0000

          k = 0.1667 0.1604 0.0732 ( 22191 PWs)   bands (ev):

   -12.3071 -12.2732 -12.2636 -12.2325 -12.1579 -12.1267 -12.0905 -12.0652
   -12.0282 -12.0165 -11.9793 -11.9758 -11.9613 -11.9595 -11.9423 -11.9311
   -11.9294 -11.9214  -0.9413  -0.9368  -0.9228  -0.9138  -0.9026  -0.9006
    -0.8986  -0.8913  -0.8865  -0.8631  -0.8541  -0.8537  -0.8038  -0.8016
    -0.7993  -0.7991  -0.7898  -0.7870  -0.7691  -0.7652  -0.7612  -0.7475
    -0.7443  -0.7331  -0.7293  -0.7251  -0.7234  -0.7175  -0.7059  -0.6965
    -0.6921  -0.6900  -0.6747  -0.6715  -0.6676  -0.6429  -0.6355  -0.6205
    -0.5998  -0.5809  -0.5757  -0.5630  -0.5474  -0.5351  -0.4937  -0.4861
    -0.4847  -0.4718  -0.4544  -0.4288  -0.3916  -0.3851  -0.3813  -0.3389
    -0.3388  -0.3302  -0.3097  -0.3062  -0.3021  -0.2909  -0.2873  -0.2781
    -0.2576  -0.2480  -0.2398  -0.2395  -0.2365  -0.2364  -0.2333  -0.2326
    -0.2323  -0.2297  -0.2138  -0.2095  -0.1957  -0.1861  -0.1765  -0.1748
    -0.1670  -0.1644  -0.1342  -0.1283  -0.1175  -0.1168  -0.0892  -0.0858
    -0.0857  -0.0776  -0.0761  -0.0722   0.7256   0.7882   0.8140   0.8165
     0.8466   0.9291   1.0408   1.0732   1.1640   1.2757   1.5590   1.6578
     1.7633   1.8209   1.9171   1.9608   2.1037   2.1867   2.3321   2.3513
     2.3865   2.3963   2.4029   2.5305   2.6093   2.6398   2.6641   2.7136
     2.9002   2.9412   3.0403   3.0438   3.0592   3.0871   3.0961   3.1506
     3.1782   3.1905   3.2037   3.2455   3.3304   3.3395   3.3435   3.4017
     3.4184   3.4855   3.6080   3.6873   3.7197   3.7214   3.7392   3.7721
     3.7931   3.8200

     occupation numbers 
     1.0000   1.0000   1.0000   1.0000   1.0000   1.0000   1.0000   1.0000
     1.0000   1.0000   1.0000   1.0000   1.0000   1.0000   1.0000   1.0000
     1.0000   1.0000   1.0000   1.0000   1.0000   1.0000   1.0000   1.0000
     1.0000   1.0000   1.0000   1.0000   1.0000   1.0000   1.0000   1.0000
     1.0000   1.0000   1.0000   1.0000   1.0000   1.0000   1.0000   1.0000
     1.0000   1.0000   1.0000   1.0000   1.0000   1.0000   1.0000   1.0000
     1.0000   1.0000   1.0000   1.0000   1.0000   1.0000   1.0000   1.0000
     1.0000   1.0000   1.0000   1.0000   1.0000   1.0000   1.0000   1.0000
     1.0000   1.0000   1.0000   1.0000   1.0000   1.0000   1.0000   1.0000
     1.0000   1.0000   1.0000   1.0000   1.0000   1.0000   1.0000   1.0000
     1.0000   1.0000   1.0000   1.0000   1.0000   1.0000   1.0000   1.0000
     1.0000   1.0000   1.0000   1.0000   1.0000   1.0000   1.0000   1.0000
     1.0000   1.0000   1.0000   1.0000   1.0000   1.0000   1.0000   1.0000
     1.0000   1.0000   1.0000   1.0000   1.0000   1.0000   1.0000   1.0000
     1.0000   1.0000   1.0000   1.0000   1.0000   1.0000   1.0000   1.0000
     1.0000   1.0000   1.0000   1.0000   1.0000   1.0000   1.0000   1.0000
     1.0000   1.0000   1.0000   1.0000   1.0000   1.0000   1.0000   1.0000
     1.0000   1.0000   1.0000   1.0000   1.0000   1.0000   1.0000   1.0000
     1.0000   1.0000   1.0000   1.0000   1.0000   1.0000   1.0000   1.0000
     1.0000   1.0000   1.0000   1.0000   1.0000   1.0000   1.0000   1.0000
     1.0000   1.0000

          k = 0.1667 0.1604-0.1098 ( 22198 PWs)   bands (ev):

   -12.2927 -12.2927 -12.2504 -12.2504 -12.1242 -12.1242 -12.0959 -12.0959
   -12.0232 -12.0232 -11.9692 -11.9692 -11.9565 -11.9565 -11.9439 -11.9439
   -11.9248 -11.9247  -0.9263  -0.9263  -0.9228  -0.9228  -0.9117  -0.9117
    -0.9013  -0.9013  -0.8756  -0.8756  -0.8567  -0.8567  -0.7999  -0.7999
    -0.7989  -0.7989  -0.7905  -0.7905  -0.7681  -0.7681  -0.7510  -0.7510
    -0.7364  -0.7364  -0.7330  -0.7330  -0.7195  -0.7195  -0.7030  -0.7029
    -0.6843  -0.6843  -0.6819  -0.6819  -0.6302  -0.6302  -0.6226  -0.6225
    -0.6005  -0.6005  -0.5862  -0.5862  -0.4907  -0.4907  -0.4788  -0.4788
    -0.4611  -0.4611  -0.4567  -0.4567  -0.4417  -0.4416  -0.3612  -0.3612
    -0.3266  -0.3266  -0.3209  -0.3209  -0.2961  -0.2961  -0.2856  -0.2856
    -0.2523  -0.2523  -0.2363  -0.2363  -0.2342  -0.2342  -0.2270  -0.2270
    -0.2261  -0.2261  -0.2129  -0.2129  -0.2041  -0.2041  -0.1711  -0.1711
    -0.1688  -0.1688  -0.1236  -0.1236  -0.1156  -0.1156  -0.0974  -0.0974
    -0.0816  -0.0816  -0.0801  -0.0801   0.7983   0.7983   0.8770   0.8770
     0.8841   0.8841   0.9399   0.9399   1.2246   1.2246   1.6636   1.6636
     1.7912   1.7912   1.8815   1.8816   2.1574   2.1575   2.3856   2.3856
     2.4412   2.4412   2.4670   2.4670   2.5186   2.5187   2.6699   2.6699
     2.9135   2.9135   3.0614   3.0614   3.0867   3.0867   3.1956   3.1956
     3.2089   3.2089   3.2807   3.2807   3.2845   3.2845   3.3001   3.3001
     3.4143   3.4143   3.6536   3.6536   3.7377   3.7377   3.7627   3.7627
     3.8051   3.8051

     occupation numbers 
     1.0000   1.0000   1.0000   1.0000   1.0000   1.0000   1.0000   1.0000
     1.0000   1.0000   1.0000   1.0000   1.0000   1.0000   1.0000   1.0000
     1.0000   1.0000   1.0000   1.0000   1.0000   1.0000   1.0000   1.0000
     1.0000   1.0000   1.0000   1.0000   1.0000   1.0000   1.0000   1.0000
     1.0000   1.0000   1.0000   1.0000   1.0000   1.0000   1.0000   1.0000
     1.0000   1.0000   1.0000   1.0000   1.0000   1.0000   1.0000   1.0000
     1.0000   1.0000   1.0000   1.0000   1.0000   1.0000   1.0000   1.0000
     1.0000   1.0000   1.0000   1.0000   1.0000   1.0000   1.0000   1.0000
     1.0000   1.0000   1.0000   1.0000   1.0000   1.0000   1.0000   1.0000
     1.0000   1.0000   1.0000   1.0000   1.0000   1.0000   1.0000   1.0000
     1.0000   1.0000   1.0000   1.0000   1.0000   1.0000   1.0000   1.0000
     1.0000   1.0000   1.0000   1.0000   1.0000   1.0000   1.0000   1.0000
     1.0000   1.0000   1.0000   1.0000   1.0000   1.0000   1.0000   1.0000
     1.0000   1.0000   1.0000   1.0000   1.0000   1.0000   1.0000   1.0000
     1.0000   1.0000   1.0000   1.0000   1.0000   1.0000   1.0000   1.0000
     1.0000   1.0000   1.0000   1.0000   1.0000   1.0000   1.0000   1.0000
     1.0000   1.0000   1.0000   1.0000   1.0000   1.0000   1.0000   1.0000
     1.0000   1.0000   1.0000   1.0000   1.0000   1.0000   1.0000   1.0000
     1.0000   1.0000   1.0000   1.0000   1.0000   1.0000   1.0000   1.0000
     1.0000   1.0000   1.0000   1.0000   1.0000   1.0000   1.0000   1.0000
     1.0000   1.0000

          k = 0.1667-0.0321 0.0000 ( 22175 PWs)   bands (ev):

   -12.3673 -12.2620 -12.2620 -12.1648 -12.1096 -12.0970 -12.0970 -12.0547
   -12.0547 -12.0500 -12.0500 -11.9670 -11.9670 -11.9522 -11.9522 -11.9437
   -11.9054 -11.9050  -0.9363  -0.9363  -0.9009  -0.9009  -0.8879  -0.8879
    -0.8878  -0.8408  -0.8349  -0.8319  -0.8319  -0.8238  -0.8238  -0.8211
    -0.8176  -0.8176  -0.8111  -0.8027  -0.8027  -0.7978  -0.7781  -0.7781
    -0.7638  -0.7149  -0.7149  -0.7033  -0.7033  -0.7005  -0.6989  -0.6988
    -0.6857  -0.6742  -0.6742  -0.6574  -0.6524  -0.6524  -0.6269  -0.6158
    -0.6158  -0.6108  -0.5999  -0.5999  -0.5746  -0.5487  -0.5487  -0.5438
    -0.5438  -0.5078  -0.5078  -0.4538  -0.3986  -0.3829  -0.3685  -0.3341
    -0.3160  -0.3157  -0.2981  -0.2781  -0.2752  -0.2727  -0.2700  -0.2700
    -0.2673  -0.2672  -0.2628  -0.2628  -0.2561  -0.2561  -0.2326  -0.2326
    -0.2220  -0.2220  -0.1934  -0.1934  -0.1774  -0.1774  -0.1772  -0.1772
    -0.1681  -0.1606  -0.1606  -0.1536  -0.1490  -0.1141  -0.1141  -0.0901
    -0.0901  -0.0482  -0.0180  -0.0162   0.4178   0.9263   0.9542   1.0053
     1.0053   1.1447   1.1447   1.2984   1.2984   1.3760   1.3760   1.4492
     1.5035   1.5035   1.6771   1.9835   1.9918   2.2100   2.3901   2.3901
     2.4035   2.4035   2.4443   2.6071   2.6071   2.7277   2.7277   2.7729
     2.7729   2.7958   2.9532   3.0444   3.0444   3.1120   3.1120   3.1805
     3.1805   3.2046   3.2952   3.3301   3.3301   3.3580   3.4613   3.4628
     3.4628   3.4680   3.5228   3.5228   3.6932   3.6932   3.7101   3.7102
     3.8925   3.9197

     occupation numbers 
     1.0000   1.0000   1.0000   1.0000   1.0000   1.0000   1.0000   1.0000
     1.0000   1.0000   1.0000   1.0000   1.0000   1.0000   1.0000   1.0000
     1.0000   1.0000   1.0000   1.0000   1.0000   1.0000   1.0000   1.0000
     1.0000   1.0000   1.0000   1.0000   1.0000   1.0000   1.0000   1.0000
     1.0000   1.0000   1.0000   1.0000   1.0000   1.0000   1.0000   1.0000
     1.0000   1.0000   1.0000   1.0000   1.0000   1.0000   1.0000   1.0000
     1.0000   1.0000   1.0000   1.0000   1.0000   1.0000   1.0000   1.0000
     1.0000   1.0000   1.0000   1.0000   1.0000   1.0000   1.0000   1.0000
     1.0000   1.0000   1.0000   1.0000   1.0000   1.0000   1.0000   1.0000
     1.0000   1.0000   1.0000   1.0000   1.0000   1.0000   1.0000   1.0000
     1.0000   1.0000   1.0000   1.0000   1.0000   1.0000   1.0000   1.0000
     1.0000   1.0000   1.0000   1.0000   1.0000   1.0000   1.0000   1.0000
     1.0000   1.0000   1.0000   1.0000   1.0000   1.0000   1.0000   1.0000
     1.0000   1.0000   1.0000   1.0000   1.0000   1.0000   1.0000   1.0000
     1.0000   1.0000   1.0000   1.0000   1.0000   1.0000   1.0000   1.0000
     1.0000   1.0000   1.0000   1.0000   1.0000   1.0000   1.0000   1.0000
     1.0000   1.0000   1.0000   1.0000   1.0000   1.0000   1.0000   1.0000
     1.0000   1.0000   1.0000   1.0000   1.0000   1.0000   1.0000   1.0000
     1.0000   1.0000   1.0000   1.0000   1.0000   1.0000   1.0000   1.0000
     1.0000   1.0000   1.0000   1.0000   1.0000   1.0000   1.0000   1.0000
     1.0000   1.0000

          k = 0.1667-0.0321 0.0366 ( 22179 PWs)   bands (ev):

   -12.3641 -12.2921 -12.2286 -12.1627 -12.1162 -12.1079 -12.0836 -12.0759
   -12.0702 -12.0379 -12.0196 -11.9870 -11.9677 -11.9492 -11.9470 -11.9385
   -11.9072 -11.9064  -0.9396  -0.9275  -0.9096  -0.8966  -0.8898  -0.8864
    -0.8747  -0.8572  -0.8556  -0.8456  -0.8414  -0.8367  -0.8206  -0.8163
    -0.8132  -0.8118  -0.8074  -0.7983  -0.7968  -0.7947  -0.7814  -0.7652
    -0.7560  -0.7359  -0.7300  -0.7027  -0.7026  -0.7000  -0.6915  -0.6878
    -0.6760  -0.6623  -0.6594  -0.6526  -0.6465  -0.6463  -0.6308  -0.6254
    -0.6176  -0.6127  -0.6103  -0.5766  -0.5695  -0.5688  -0.5599  -0.5373
    -0.5201  -0.5196  -0.4784  -0.4567  -0.4028  -0.3850  -0.3681  -0.3324
    -0.3324  -0.3157  -0.3108  -0.2959  -0.2865  -0.2851  -0.2800  -0.2747
    -0.2701  -0.2620  -0.2538  -0.2530  -0.2424  -0.2404  -0.2385  -0.2270
    -0.2258  -0.2198  -0.2033  -0.1901  -0.1854  -0.1804  -0.1725  -0.1687
    -0.1654  -0.1607  -0.1572  -0.1546  -0.1500  -0.1329  -0.1068  -0.0954
    -0.0751  -0.0735  -0.0239  -0.0197   0.4791   0.9359   0.9514   0.9762
     1.0423   1.0926   1.1831   1.1999   1.2428   1.3514   1.4424   1.4502
     1.5604   1.5638   1.6758   2.0071   2.0153   2.2168   2.2405   2.3155
     2.4454   2.5008   2.5036   2.5301   2.5798   2.6018   2.6943   2.7991
     2.8874   2.8961   2.9436   3.0043   3.0318   3.1001   3.1283   3.2009
     3.2033   3.2601   3.2786   3.3055   3.3510   3.3884   3.4303   3.4554
     3.4625   3.4629   3.4746   3.5498   3.6067   3.6498   3.7585   3.7740
     3.8869   3.9163

     occupation numbers 
     1.0000   1.0000   1.0000   1.0000   1.0000   1.0000   1.0000   1.0000
     1.0000   1.0000   1.0000   1.0000   1.0000   1.0000   1.0000   1.0000
     1.0000   1.0000   1.0000   1.0000   1.0000   1.0000   1.0000   1.0000
     1.0000   1.0000   1.0000   1.0000   1.0000   1.0000   1.0000   1.0000
     1.0000   1.0000   1.0000   1.0000   1.0000   1.0000   1.0000   1.0000
     1.0000   1.0000   1.0000   1.0000   1.0000   1.0000   1.0000   1.0000
     1.0000   1.0000   1.0000   1.0000   1.0000   1.0000   1.0000   1.0000
     1.0000   1.0000   1.0000   1.0000   1.0000   1.0000   1.0000   1.0000
     1.0000   1.0000   1.0000   1.0000   1.0000   1.0000   1.0000   1.0000
     1.0000   1.0000   1.0000   1.0000   1.0000   1.0000   1.0000   1.0000
     1.0000   1.0000   1.0000   1.0000   1.0000   1.0000   1.0000   1.0000
     1.0000   1.0000   1.0000   1.0000   1.0000   1.0000   1.0000   1.0000
     1.0000   1.0000   1.0000   1.0000   1.0000   1.0000   1.0000   1.0000
     1.0000   1.0000   1.0000   1.0000   1.0000   1.0000   1.0000   1.0000
     1.0000   1.0000   1.0000   1.0000   1.0000   1.0000   1.0000   1.0000
     1.0000   1.0000   1.0000   1.0000   1.0000   1.0000   1.0000   1.0000
     1.0000   1.0000   1.0000   1.0000   1.0000   1.0000   1.0000   1.0000
     1.0000   1.0000   1.0000   1.0000   1.0000   1.0000   1.0000   1.0000
     1.0000   1.0000   1.0000   1.0000   1.0000   1.0000   1.0000   1.0000
     1.0000   1.0000   1.0000   1.0000   1.0000   1.0000   1.0000   1.0000
     1.0000   1.0000

          k = 0.1667-0.0321 0.0732 ( 22185 PWs)   bands (ev):

   -12.3546 -12.3181 -12.1929 -12.1565 -12.1329 -12.1193 -12.1029 -12.0837
   -12.0537 -12.0202 -12.0085 -11.9935 -11.9845 -11.9565 -11.9339 -11.9268
   -11.9127 -11.9106  -0.9346  -0.9160  -0.9102  -0.8977  -0.8955  -0.8919
    -0.8824  -0.8712  -0.8696  -0.8608  -0.8438  -0.8427  -0.8193  -0.8164
    -0.8132  -0.8117  -0.8039  -0.7994  -0.7880  -0.7815  -0.7750  -0.7692
    -0.7550  -0.7444  -0.7352  -0.7092  -0.7023  -0.6929  -0.6862  -0.6819
    -0.6677  -0.6652  -0.6576  -0.6447  -0.6410  -0.6366  -0.6296  -0.6188
    -0.6180  -0.6013  -0.5930  -0.5823  -0.5820  -0.5636  -0.5632  -0.5068
    -0.4973  -0.4834  -0.4653  -0.4512  -0.4152  -0.4006  -0.3919  -0.3698
    -0.3416  -0.3244  -0.3197  -0.3076  -0.3073  -0.3017  -0.2941  -0.2915
    -0.2597  -0.2487  -0.2446  -0.2402  -0.2359  -0.2312  -0.2291  -0.2276
    -0.2227  -0.2197  -0.2144  -0.2042  -0.1789  -0.1784  -0.1706  -0.1670
    -0.1588  -0.1574  -0.1534  -0.1524  -0.1514  -0.1496  -0.1230  -0.1146
    -0.0765  -0.0573  -0.0388  -0.0289   0.6215   0.9466   0.9564   0.9622
     0.9887   1.0439   1.0859   1.1875   1.2578   1.3800   1.3970   1.4471
     1.6092   1.6676   1.7447   2.0727   2.0829   2.0861   2.2366   2.2438
     2.3492   2.4388   2.4517   2.5080   2.6048   2.6553   2.7860   2.7984
     2.8158   2.9214   2.9608   2.9666   3.1108   3.1292   3.1982   3.2042
     3.2371   3.3018   3.3075   3.3301   3.3547   3.3620   3.3694   3.4298
     3.4362   3.4472   3.4986   3.5143   3.5485   3.5866   3.8056   3.8335
     3.8702   3.9036

     occupation numbers 
     1.0000   1.0000   1.0000   1.0000   1.0000   1.0000   1.0000   1.0000
     1.0000   1.0000   1.0000   1.0000   1.0000   1.0000   1.0000   1.0000
     1.0000   1.0000   1.0000   1.0000   1.0000   1.0000   1.0000   1.0000
     1.0000   1.0000   1.0000   1.0000   1.0000   1.0000   1.0000   1.0000
     1.0000   1.0000   1.0000   1.0000   1.0000   1.0000   1.0000   1.0000
     1.0000   1.0000   1.0000   1.0000   1.0000   1.0000   1.0000   1.0000
     1.0000   1.0000   1.0000   1.0000   1.0000   1.0000   1.0000   1.0000
     1.0000   1.0000   1.0000   1.0000   1.0000   1.0000   1.0000   1.0000
     1.0000   1.0000   1.0000   1.0000   1.0000   1.0000   1.0000   1.0000
     1.0000   1.0000   1.0000   1.0000   1.0000   1.0000   1.0000   1.0000
     1.0000   1.0000   1.0000   1.0000   1.0000   1.0000   1.0000   1.0000
     1.0000   1.0000   1.0000   1.0000   1.0000   1.0000   1.0000   1.0000
     1.0000   1.0000   1.0000   1.0000   1.0000   1.0000   1.0000   1.0000
     1.0000   1.0000   1.0000   1.0000   1.0000   1.0000   1.0000   1.0000
     1.0000   1.0000   1.0000   1.0000   1.0000   1.0000   1.0000   1.0000
     1.0000   1.0000   1.0000   1.0000   1.0000   1.0000   1.0000   1.0000
     1.0000   1.0000   1.0000   1.0000   1.0000   1.0000   1.0000   1.0000
     1.0000   1.0000   1.0000   1.0000   1.0000   1.0000   1.0000   1.0000
     1.0000   1.0000   1.0000   1.0000   1.0000   1.0000   1.0000   1.0000
     1.0000   1.0000   1.0000   1.0000   1.0000   1.0000   1.0000   1.0000
     1.0000   1.0000

          k = 0.1667-0.0321-0.1098 ( 22194 PWs)   bands (ev):

   -12.3391 -12.3391 -12.1562 -12.1561 -12.1465 -12.1465 -12.0947 -12.0947
   -12.0310 -12.0310 -12.0022 -12.0022 -11.9722 -11.9722 -11.9217 -11.9216
   -11.9174 -11.9174  -0.9191  -0.9191  -0.9046  -0.9046  -0.9010  -0.9010
    -0.8892  -0.8892  -0.8541  -0.8541  -0.8499  -0.8499  -0.8174  -0.8174
    -0.8139  -0.8139  -0.8007  -0.8007  -0.7776  -0.7776  -0.7744  -0.7744
    -0.7564  -0.7564  -0.7199  -0.7199  -0.6986  -0.6986  -0.6743  -0.6743
    -0.6702  -0.6702  -0.6544  -0.6544  -0.6274  -0.6274  -0.6264  -0.6264
    -0.6146  -0.6146  -0.5911  -0.5911  -0.5808  -0.5808  -0.4793  -0.4793
    -0.4652  -0.4652  -0.4464  -0.4464  -0.4429  -0.4429  -0.4267  -0.4267
    -0.3274  -0.3274  -0.3147  -0.3146  -0.3111  -0.3111  -0.3009  -0.3009
    -0.2514  -0.2514  -0.2385  -0.2385  -0.2272  -0.2272  -0.2225  -0.2225
    -0.2217  -0.2217  -0.2194  -0.2194  -0.1739  -0.1739  -0.1679  -0.1679
    -0.1618  -0.1618  -0.1557  -0.1557  -0.1386  -0.1386  -0.1378  -0.1378
    -0.0574  -0.0574  -0.0421  -0.0421   0.7983   0.7983   0.9469   0.9469
     0.9997   0.9997   1.1347   1.1347   1.3181   1.3181   1.4302   1.4302
     1.6459   1.6459   1.9177   1.9177   2.1577   2.1577   2.2012   2.2012
     2.3123   2.3123   2.4702   2.4702   2.7117   2.7117   2.7533   2.7533
     2.8797   2.8797   2.9242   2.9242   3.2093   3.2093   3.2465   3.2465
     3.2595   3.2595   3.2659   3.2659   3.3874   3.3874   3.3948   3.3948
     3.4024   3.4024   3.5229   3.5229   3.5276   3.5276   3.8428   3.8429
     3.8769   3.8769

     occupation numbers 
     1.0000   1.0000   1.0000   1.0000   1.0000   1.0000   1.0000   1.0000
     1.0000   1.0000   1.0000   1.0000   1.0000   1.0000   1.0000   1.0000
     1.0000   1.0000   1.0000   1.0000   1.0000   1.0000   1.0000   1.0000
     1.0000   1.0000   1.0000   1.0000   1.0000   1.0000   1.0000   1.0000
     1.0000   1.0000   1.0000   1.0000   1.0000   1.0000   1.0000   1.0000
     1.0000   1.0000   1.0000   1.0000   1.0000   1.0000   1.0000   1.0000
     1.0000   1.0000   1.0000   1.0000   1.0000   1.0000   1.0000   1.0000
     1.0000   1.0000   1.0000   1.0000   1.0000   1.0000   1.0000   1.0000
     1.0000   1.0000   1.0000   1.0000   1.0000   1.0000   1.0000   1.0000
     1.0000   1.0000   1.0000   1.0000   1.0000   1.0000   1.0000   1.0000
     1.0000   1.0000   1.0000   1.0000   1.0000   1.0000   1.0000   1.0000
     1.0000   1.0000   1.0000   1.0000   1.0000   1.0000   1.0000   1.0000
     1.0000   1.0000   1.0000   1.0000   1.0000   1.0000   1.0000   1.0000
     1.0000   1.0000   1.0000   1.0000   1.0000   1.0000   1.0000   1.0000
     1.0000   1.0000   1.0000   1.0000   1.0000   1.0000   1.0000   1.0000
     1.0000   1.0000   1.0000   1.0000   1.0000   1.0000   1.0000   1.0000
     1.0000   1.0000   1.0000   1.0000   1.0000   1.0000   1.0000   1.0000
     1.0000   1.0000   1.0000   1.0000   1.0000   1.0000   1.0000   1.0000
     1.0000   1.0000   1.0000   1.0000   1.0000   1.0000   1.0000   1.0000
     1.0000   1.0000   1.0000   1.0000   1.0000   1.0000   1.0000   1.0000
     1.0000   1.0000

          k = 0.3333 0.1925 0.0000 ( 22118 PWs)   bands (ev):

   -12.1731 -12.1731 -12.1036 -12.1036 -12.1036 -12.1036 -11.9700 -11.9700
   -11.9700 -11.9700 -11.9602 -11.9601 -11.9550 -11.9550 -11.9550 -11.9550
   -11.9064 -11.9064  -0.9519  -0.9519  -0.9519  -0.9519  -0.8994  -0.8994
    -0.8502  -0.8451  -0.8451  -0.8451  -0.8451  -0.7649  -0.7649  -0.7649
    -0.7649  -0.7533  -0.7533  -0.7486  -0.7486  -0.7168  -0.7168  -0.6935
    -0.6935  -0.6935  -0.6935  -0.6314  -0.6313  -0.6236  -0.6236  -0.6236
    -0.6236  -0.5793  -0.5793  -0.5793  -0.5793  -0.5710  -0.5710  -0.5591
    -0.5591  -0.5591  -0.5591  -0.4851  -0.4851  -0.4800  -0.4800  -0.4096
    -0.4096  -0.4091  -0.4091  -0.4091  -0.4091  -0.3463  -0.3447  -0.3446
    -0.2954  -0.2954  -0.2832  -0.2832  -0.2709  -0.2709  -0.2678  -0.2678
    -0.2558  -0.2445  -0.2445  -0.2445  -0.2445  -0.2432  -0.2432  -0.2432
    -0.2432  -0.2195  -0.1883  -0.1883  -0.1883  -0.1883  -0.1546  -0.1546
    -0.1268  -0.1268  -0.1268  -0.1268  -0.0992  -0.0992  -0.0377  -0.0377
    -0.0377  -0.0377  -0.0284  -0.0284   0.9025   0.9025   0.9688   0.9688
     0.9688   0.9688   1.0822   1.0822   1.0822   1.0822   1.1645   1.1645
     1.2089   1.4733   1.4733   1.4733   1.4733   1.5131   1.5131   1.6924
     1.6924   2.0923   2.0923   2.5325   2.5325   2.6206   2.6206   2.6235
     2.6235   2.6269   2.6269   2.6269   2.6269   2.8883   2.8883   2.8884
     2.8884   2.9500   3.1651   3.1651   3.1651   3.1651   3.3959   3.3959
     3.3959   3.3959   3.4690   3.4690   3.4847   3.4847   3.4847   3.4848
     3.6415   3.6415

     occupation numbers 
     1.0000   1.0000   1.0000   1.0000   1.0000   1.0000   1.0000   1.0000
     1.0000   1.0000   1.0000   1.0000   1.0000   1.0000   1.0000   1.0000
     1.0000   1.0000   1.0000   1.0000   1.0000   1.0000   1.0000   1.0000
     1.0000   1.0000   1.0000   1.0000   1.0000   1.0000   1.0000   1.0000
     1.0000   1.0000   1.0000   1.0000   1.0000   1.0000   1.0000   1.0000
     1.0000   1.0000   1.0000   1.0000   1.0000   1.0000   1.0000   1.0000
     1.0000   1.0000   1.0000   1.0000   1.0000   1.0000   1.0000   1.0000
     1.0000   1.0000   1.0000   1.0000   1.0000   1.0000   1.0000   1.0000
     1.0000   1.0000   1.0000   1.0000   1.0000   1.0000   1.0000   1.0000
     1.0000   1.0000   1.0000   1.0000   1.0000   1.0000   1.0000   1.0000
     1.0000   1.0000   1.0000   1.0000   1.0000   1.0000   1.0000   1.0000
     1.0000   1.0000   1.0000   1.0000   1.0000   1.0000   1.0000   1.0000
     1.0000   1.0000   1.0000   1.0000   1.0000   1.0000   1.0000   1.0000
     1.0000   1.0000   1.0000   1.0000   1.0000   1.0000   1.0000   1.0000
     1.0000   1.0000   1.0000   1.0000   1.0000   1.0000   1.0000   1.0000
     1.0000   1.0000   1.0000   1.0000   1.0000   1.0000   1.0000   1.0000
     1.0000   1.0000   1.0000   1.0000   1.0000   1.0000   1.0000   1.0000
     1.0000   1.0000   1.0000   1.0000   1.0000   1.0000   1.0000   1.0000
     1.0000   1.0000   1.0000   1.0000   1.0000   1.0000   1.0000   1.0000
     1.0000   1.0000   1.0000   1.0000   1.0000   1.0000   1.0000   1.0000
     1.0000   1.0000

          k = 0.3333 0.1925 0.0366 ( 22135 PWs)   bands (ev):

   -12.1710 -12.1710 -12.1233 -12.1233 -12.0820 -12.0820 -11.9906 -11.9906
   -11.9600 -11.9599 -11.9562 -11.9561 -11.9541 -11.9541 -11.9516 -11.9516
   -11.9083 -11.9083  -0.9559  -0.9559  -0.9424  -0.9424  -0.9017  -0.9017
    -0.8827  -0.8827  -0.8475  -0.8075  -0.8075  -0.7892  -0.7892  -0.7829
    -0.7471  -0.7471  -0.7352  -0.7352  -0.7206  -0.7206  -0.7187  -0.7100
    -0.7100  -0.6745  -0.6745  -0.6363  -0.6363  -0.6298  -0.6298  -0.6128
    -0.6128  -0.6007  -0.6007  -0.5826  -0.5826  -0.5731  -0.5731  -0.5494
    -0.5494  -0.5373  -0.5373  -0.5367  -0.4825  -0.4825  -0.4356  -0.4162
    -0.4162  -0.4146  -0.4146  -0.3994  -0.3994  -0.3486  -0.3486  -0.3476
    -0.2944  -0.2933  -0.2865  -0.2865  -0.2755  -0.2671  -0.2671  -0.2667
    -0.2632  -0.2632  -0.2563  -0.2503  -0.2503  -0.2352  -0.2352  -0.2268
    -0.2245  -0.2245  -0.1978  -0.1978  -0.1793  -0.1793  -0.1557  -0.1557
    -0.1455  -0.1455  -0.1084  -0.1084  -0.0957  -0.0956  -0.0480  -0.0480
    -0.0347  -0.0347  -0.0301  -0.0301   0.9082   0.9082   0.9454   0.9454
     1.0008   1.0008   1.0315   1.0315   1.1389   1.1389   1.1533   1.1533
     1.2253   1.4051   1.4052   1.5295   1.5295   1.5339   1.5339   1.5633
     1.8306   2.0946   2.0946   2.4023   2.4445   2.4445   2.6290   2.6290
     2.6483   2.6483   2.6506   2.8132   2.8132   2.8152   2.8152   2.9371
     2.9706   2.9706   3.0565   3.0565   3.2514   3.2514   3.3174   3.3174
     3.4104   3.4104   3.4664   3.4664   3.4772   3.4772   3.5245   3.5245
     3.6341   3.6341

     occupation numbers 
     1.0000   1.0000   1.0000   1.0000   1.0000   1.0000   1.0000   1.0000
     1.0000   1.0000   1.0000   1.0000   1.0000   1.0000   1.0000   1.0000
     1.0000   1.0000   1.0000   1.0000   1.0000   1.0000   1.0000   1.0000
     1.0000   1.0000   1.0000   1.0000   1.0000   1.0000   1.0000   1.0000
     1.0000   1.0000   1.0000   1.0000   1.0000   1.0000   1.0000   1.0000
     1.0000   1.0000   1.0000   1.0000   1.0000   1.0000   1.0000   1.0000
     1.0000   1.0000   1.0000   1.0000   1.0000   1.0000   1.0000   1.0000
     1.0000   1.0000   1.0000   1.0000   1.0000   1.0000   1.0000   1.0000
     1.0000   1.0000   1.0000   1.0000   1.0000   1.0000   1.0000   1.0000
     1.0000   1.0000   1.0000   1.0000   1.0000   1.0000   1.0000   1.0000
     1.0000   1.0000   1.0000   1.0000   1.0000   1.0000   1.0000   1.0000
     1.0000   1.0000   1.0000   1.0000   1.0000   1.0000   1.0000   1.0000
     1.0000   1.0000   1.0000   1.0000   1.0000   1.0000   1.0000   1.0000
     1.0000   1.0000   1.0000   1.0000   1.0000   1.0000   1.0000   1.0000
     1.0000   1.0000   1.0000   1.0000   1.0000   1.0000   1.0000   1.0000
     1.0000   1.0000   1.0000   1.0000   1.0000   1.0000   1.0000   1.0000
     1.0000   1.0000   1.0000   1.0000   1.0000   1.0000   1.0000   1.0000
     1.0000   1.0000   1.0000   1.0000   1.0000   1.0000   1.0000   1.0000
     1.0000   1.0000   1.0000   1.0000   1.0000   1.0000   1.0000   1.0000
     1.0000   1.0000   1.0000   1.0000   1.0000   1.0000   1.0000   1.0000
     1.0000   1.0000

          k = 0.3333 0.1925 0.0732 ( 22133 PWs)   bands (ev):

   -12.1647 -12.1647 -12.1404 -12.1404 -12.0592 -12.0592 -12.0127 -12.0127
   -11.9594 -11.9593 -11.9573 -11.9573 -11.9535 -11.9535 -11.9359 -11.9359
   -11.9140 -11.9140  -0.9521  -0.9521  -0.9304  -0.9304  -0.9150  -0.9150
    -0.9082  -0.9082  -0.8394  -0.8068  -0.8051  -0.8051  -0.7750  -0.7750
    -0.7424  -0.7424  -0.7318  -0.7318  -0.7239  -0.7239  -0.7036  -0.7035
    -0.6791  -0.6534  -0.6534  -0.6511  -0.6511  -0.6304  -0.6304  -0.6157
    -0.6157  -0.6067  -0.6067  -0.6002  -0.6002  -0.5872  -0.5789  -0.5789
    -0.5180  -0.5180  -0.5102  -0.5102  -0.4899  -0.4899  -0.4329  -0.4329
    -0.4204  -0.4204  -0.3933  -0.3870  -0.3870  -0.3593  -0.3592  -0.3525
    -0.2914  -0.2914  -0.2895  -0.2873  -0.2803  -0.2791  -0.2791  -0.2650
    -0.2650  -0.2630  -0.2577  -0.2565  -0.2565  -0.2463  -0.2264  -0.2264
    -0.2074  -0.2074  -0.2042  -0.2042  -0.1713  -0.1713  -0.1645  -0.1645
    -0.1591  -0.1591  -0.0896  -0.0896  -0.0862  -0.0862  -0.0602  -0.0602
    -0.0505  -0.0505  -0.0254  -0.0254   0.9249   0.9250   0.9314   0.9314
     0.9876   0.9876   1.0400   1.0400   1.1234   1.1234   1.2006   1.2006
     1.2734   1.3352   1.3352   1.4473   1.5656   1.5656   1.5772   1.5772
     1.9742   2.1122   2.1122   2.2635   2.2854   2.2854   2.6536   2.6536
     2.7176   2.7176   2.7475   2.7475   2.7532   2.8989   2.9367   2.9368
     2.9968   2.9969   3.0572   3.0572   3.2332   3.2332   3.3015   3.3015
     3.3067   3.3067   3.4980   3.4980   3.5270   3.5270   3.5338   3.5338
     3.6121   3.6121

     occupation numbers 
     1.0000   1.0000   1.0000   1.0000   1.0000   1.0000   1.0000   1.0000
     1.0000   1.0000   1.0000   1.0000   1.0000   1.0000   1.0000   1.0000
     1.0000   1.0000   1.0000   1.0000   1.0000   1.0000   1.0000   1.0000
     1.0000   1.0000   1.0000   1.0000   1.0000   1.0000   1.0000   1.0000
     1.0000   1.0000   1.0000   1.0000   1.0000   1.0000   1.0000   1.0000
     1.0000   1.0000   1.0000   1.0000   1.0000   1.0000   1.0000   1.0000
     1.0000   1.0000   1.0000   1.0000   1.0000   1.0000   1.0000   1.0000
     1.0000   1.0000   1.0000   1.0000   1.0000   1.0000   1.0000   1.0000
     1.0000   1.0000   1.0000   1.0000   1.0000   1.0000   1.0000   1.0000
     1.0000   1.0000   1.0000   1.0000   1.0000   1.0000   1.0000   1.0000
     1.0000   1.0000   1.0000   1.0000   1.0000   1.0000   1.0000   1.0000
     1.0000   1.0000   1.0000   1.0000   1.0000   1.0000   1.0000   1.0000
     1.0000   1.0000   1.0000   1.0000   1.0000   1.0000   1.0000   1.0000
     1.0000   1.0000   1.0000   1.0000   1.0000   1.0000   1.0000   1.0000
     1.0000   1.0000   1.0000   1.0000   1.0000   1.0000   1.0000   1.0000
     1.0000   1.0000   1.0000   1.0000   1.0000   1.0000   1.0000   1.0000
     1.0000   1.0000   1.0000   1.0000   1.0000   1.0000   1.0000   1.0000
     1.0000   1.0000   1.0000   1.0000   1.0000   1.0000   1.0000   1.0000
     1.0000   1.0000   1.0000   1.0000   1.0000   1.0000   1.0000   1.0000
     1.0000   1.0000   1.0000   1.0000   1.0000   1.0000   1.0000   1.0000
     1.0000   1.0000

          k = 0.3333 0.1925-0.1098 ( 22150 PWs)   bands (ev):

   -12.1544 -12.1544 -12.1543 -12.1543 -12.0358 -12.0358 -12.0358 -12.0358
   -11.9585 -11.9585 -11.9585 -11.9584 -11.9533 -11.9533 -11.9232 -11.9232
   -11.9232 -11.9232  -0.9386  -0.9386  -0.9386  -0.9386  -0.9183  -0.9183
    -0.9183  -0.9183  -0.8258  -0.8258  -0.8106  -0.8106  -0.7499  -0.7499
    -0.7499  -0.7499  -0.7347  -0.7347  -0.7346  -0.7346  -0.6744  -0.6744
    -0.6744  -0.6744  -0.6351  -0.6351  -0.6305  -0.6305  -0.6305  -0.6305
    -0.6256  -0.6256  -0.6256  -0.6256  -0.5883  -0.5883  -0.5883  -0.5883
    -0.5019  -0.5019  -0.5019  -0.5019  -0.4675  -0.4675  -0.4675  -0.4675
    -0.4218  -0.4218  -0.3731  -0.3731  -0.3730  -0.3730  -0.3655  -0.3655
    -0.2894  -0.2894  -0.2894  -0.2894  -0.2850  -0.2850  -0.2701  -0.2701
    -0.2614  -0.2614  -0.2614  -0.2614  -0.2599  -0.2599  -0.2170  -0.2170
    -0.2170  -0.2170  -0.1841  -0.1841  -0.1841  -0.1841  -0.1645  -0.1645
    -0.1644  -0.1644  -0.0736  -0.0736  -0.0735  -0.0735  -0.0701  -0.0701
    -0.0701  -0.0701  -0.0238  -0.0238   0.9267   0.9267   0.9518   0.9518
     0.9518   0.9518   1.0829   1.0829   1.0829   1.0829   1.2664   1.2664
     1.2664   1.2664   1.3490   1.3490   1.5892   1.5892   1.5892   1.5892
     2.1196   2.1196   2.1707   2.1707   2.1707   2.1707   2.6936   2.6936
     2.6936   2.6937   2.8188   2.8188   2.8188   2.8188   2.8369   2.8369
     3.1456   3.1456   3.1456   3.1456   3.1616   3.1616   3.1616   3.1616
     3.3258   3.3258   3.5211   3.5211   3.5211   3.5211   3.5760   3.5760
     3.5761   3.5761

     occupation numbers 
     1.0000   1.0000   1.0000   1.0000   1.0000   1.0000   1.0000   1.0000
     1.0000   1.0000   1.0000   1.0000   1.0000   1.0000   1.0000   1.0000
     1.0000   1.0000   1.0000   1.0000   1.0000   1.0000   1.0000   1.0000
     1.0000   1.0000   1.0000   1.0000   1.0000   1.0000   1.0000   1.0000
     1.0000   1.0000   1.0000   1.0000   1.0000   1.0000   1.0000   1.0000
     1.0000   1.0000   1.0000   1.0000   1.0000   1.0000   1.0000   1.0000
     1.0000   1.0000   1.0000   1.0000   1.0000   1.0000   1.0000   1.0000
     1.0000   1.0000   1.0000   1.0000   1.0000   1.0000   1.0000   1.0000
     1.0000   1.0000   1.0000   1.0000   1.0000   1.0000   1.0000   1.0000
     1.0000   1.0000   1.0000   1.0000   1.0000   1.0000   1.0000   1.0000
     1.0000   1.0000   1.0000   1.0000   1.0000   1.0000   1.0000   1.0000
     1.0000   1.0000   1.0000   1.0000   1.0000   1.0000   1.0000   1.0000
     1.0000   1.0000   1.0000   1.0000   1.0000   1.0000   1.0000   1.0000
     1.0000   1.0000   1.0000   1.0000   1.0000   1.0000   1.0000   1.0000
     1.0000   1.0000   1.0000   1.0000   1.0000   1.0000   1.0000   1.0000
     1.0000   1.0000   1.0000   1.0000   1.0000   1.0000   1.0000   1.0000
     1.0000   1.0000   1.0000   1.0000   1.0000   1.0000   1.0000   1.0000
     1.0000   1.0000   1.0000   1.0000   1.0000   1.0000   1.0000   1.0000
     1.0000   1.0000   1.0000   1.0000   1.0000   1.0000   1.0000   1.0000
     1.0000   1.0000   1.0000   1.0000   1.0000   1.0000   1.0000   1.0000
     1.0000   1.0000

          k = 0.3333 0.2566 0.0000 ( 22137 PWs)   bands (ev):

   -12.1992 -12.1398 -12.1242 -12.1242 -12.0778 -12.0777 -11.9894 -11.9787
   -11.9786 -11.9714 -11.9714 -11.9601 -11.9601 -11.9452 -11.9452 -11.9372
   -11.9087 -11.9050  -0.9456  -0.9456  -0.9429  -0.9429  -0.8936  -0.8884
    -0.8483  -0.8420  -0.8420  -0.8377  -0.8377  -0.8007  -0.8006  -0.7661
    -0.7661  -0.7617  -0.7474  -0.7288  -0.7243  -0.7243  -0.7093  -0.7093
    -0.6859  -0.6839  -0.6839  -0.6717  -0.6544  -0.6544  -0.6047  -0.6019
    -0.6019  -0.5958  -0.5945  -0.5945  -0.5763  -0.5763  -0.5603  -0.5603
    -0.5434  -0.5321  -0.5321  -0.4999  -0.4895  -0.4895  -0.4463  -0.4388
    -0.4388  -0.4202  -0.4195  -0.4195  -0.3910  -0.3890  -0.3525  -0.3182
    -0.2932  -0.2816  -0.2816  -0.2803  -0.2784  -0.2593  -0.2593  -0.2588
    -0.2582  -0.2580  -0.2580  -0.2454  -0.2454  -0.2422  -0.2422  -0.2414
    -0.2273  -0.2273  -0.1880  -0.1880  -0.1833  -0.1833  -0.1559  -0.1527
    -0.1321  -0.1321  -0.1185  -0.1160  -0.1160  -0.0773  -0.0599  -0.0599
    -0.0341  -0.0341  -0.0290  -0.0271   0.8671   0.9135   0.9155   0.9155
     0.9908   0.9908   1.0143   1.0143   1.0254   1.1708   1.1708   1.2016
     1.3459   1.3459   1.3998   1.4374   1.5965   1.5965   1.6537   1.7771
     1.7771   1.9971   2.1767   2.4340   2.5037   2.5841   2.5841   2.6183
     2.6183   2.6421   2.6422   2.6593   2.8031   2.8031   2.8040   2.9120
     2.9120   2.9968   3.0652   3.0652   3.2571   3.2571   3.2985   3.2985
     3.3766   3.3942   3.3942   3.4669   3.4669   3.5274   3.5274   3.5430
     3.5693   3.6471

     occupation numbers 
     1.0000   1.0000   1.0000   1.0000   1.0000   1.0000   1.0000   1.0000
     1.0000   1.0000   1.0000   1.0000   1.0000   1.0000   1.0000   1.0000
     1.0000   1.0000   1.0000   1.0000   1.0000   1.0000   1.0000   1.0000
     1.0000   1.0000   1.0000   1.0000   1.0000   1.0000   1.0000   1.0000
     1.0000   1.0000   1.0000   1.0000   1.0000   1.0000   1.0000   1.0000
     1.0000   1.0000   1.0000   1.0000   1.0000   1.0000   1.0000   1.0000
     1.0000   1.0000   1.0000   1.0000   1.0000   1.0000   1.0000   1.0000
     1.0000   1.0000   1.0000   1.0000   1.0000   1.0000   1.0000   1.0000
     1.0000   1.0000   1.0000   1.0000   1.0000   1.0000   1.0000   1.0000
     1.0000   1.0000   1.0000   1.0000   1.0000   1.0000   1.0000   1.0000
     1.0000   1.0000   1.0000   1.0000   1.0000   1.0000   1.0000   1.0000
     1.0000   1.0000   1.0000   1.0000   1.0000   1.0000   1.0000   1.0000
     1.0000   1.0000   1.0000   1.0000   1.0000   1.0000   1.0000   1.0000
     1.0000   1.0000   1.0000   1.0000   1.0000   1.0000   1.0000   1.0000
     1.0000   1.0000   1.0000   1.0000   1.0000   1.0000   1.0000   1.0000
     1.0000   1.0000   1.0000   1.0000   1.0000   1.0000   1.0000   1.0000
     1.0000   1.0000   1.0000   1.0000   1.0000   1.0000   1.0000   1.0000
     1.0000   1.0000   1.0000   1.0000   1.0000   1.0000   1.0000   1.0000
     1.0000   1.0000   1.0000   1.0000   1.0000   1.0000   1.0000   1.0000
     1.0000   1.0000   1.0000   1.0000   1.0000   1.0000   1.0000   1.0000
     1.0000   1.0000

          k = 0.3333 0.2566 0.0366 ( 22135 PWs)   bands (ev):

   -12.1969 -12.1455 -12.1379 -12.1008 -12.0953 -12.0586 -12.0012 -11.9889
   -11.9781 -11.9762 -11.9664 -11.9585 -11.9485 -11.9441 -11.9426 -11.9374
   -11.9108 -11.9067  -0.9497  -0.9476  -0.9360  -0.9327  -0.8958  -0.8907
    -0.8776  -0.8763  -0.8459  -0.8134  -0.8086  -0.7985  -0.7979  -0.7897
    -0.7610  -0.7511  -0.7460  -0.7315  -0.7230  -0.7096  -0.7041  -0.7011
    -0.6938  -0.6902  -0.6760  -0.6636  -0.6578  -0.6452  -0.6285  -0.6068
    -0.6013  -0.6002  -0.5981  -0.5843  -0.5787  -0.5643  -0.5572  -0.5551
    -0.5453  -0.5367  -0.5366  -0.5080  -0.5024  -0.4509  -0.4493  -0.4441
    -0.4306  -0.4250  -0.4247  -0.4042  -0.3954  -0.3936  -0.3544  -0.3229
    -0.3005  -0.2831  -0.2829  -0.2788  -0.2775  -0.2759  -0.2628  -0.2575
    -0.2572  -0.2566  -0.2559  -0.2540  -0.2464  -0.2410  -0.2354  -0.2330
    -0.2304  -0.2165  -0.1968  -0.1883  -0.1794  -0.1762  -0.1571  -0.1539
    -0.1507  -0.1340  -0.1160  -0.1138  -0.0980  -0.0744  -0.0721  -0.0494
    -0.0396  -0.0349  -0.0336  -0.0315   0.8825   0.9102   0.9104   0.9298
     0.9528   0.9777   1.0198   1.0375   1.0567   1.1046   1.1961   1.2388
     1.2799   1.4045   1.4074   1.4517   1.5267   1.6577   1.6580   1.6659
     1.9075   2.0073   2.1774   2.4419   2.4581   2.4616   2.4730   2.5122
     2.6662   2.6972   2.7128   2.7797   2.8182   2.8252   2.8373   2.9158
     2.9331   2.9850   2.9968   3.1756   3.1797   3.2140   3.3128   3.3138
     3.3734   3.3868   3.4105   3.4486   3.4655   3.4899   3.5495   3.5616
     3.5748   3.6399

     occupation numbers 
     1.0000   1.0000   1.0000   1.0000   1.0000   1.0000   1.0000   1.0000
     1.0000   1.0000   1.0000   1.0000   1.0000   1.0000   1.0000   1.0000
     1.0000   1.0000   1.0000   1.0000   1.0000   1.0000   1.0000   1.0000
     1.0000   1.0000   1.0000   1.0000   1.0000   1.0000   1.0000   1.0000
     1.0000   1.0000   1.0000   1.0000   1.0000   1.0000   1.0000   1.0000
     1.0000   1.0000   1.0000   1.0000   1.0000   1.0000   1.0000   1.0000
     1.0000   1.0000   1.0000   1.0000   1.0000   1.0000   1.0000   1.0000
     1.0000   1.0000   1.0000   1.0000   1.0000   1.0000   1.0000   1.0000
     1.0000   1.0000   1.0000   1.0000   1.0000   1.0000   1.0000   1.0000
     1.0000   1.0000   1.0000   1.0000   1.0000   1.0000   1.0000   1.0000
     1.0000   1.0000   1.0000   1.0000   1.0000   1.0000   1.0000   1.0000
     1.0000   1.0000   1.0000   1.0000   1.0000   1.0000   1.0000   1.0000
     1.0000   1.0000   1.0000   1.0000   1.0000   1.0000   1.0000   1.0000
     1.0000   1.0000   1.0000   1.0000   1.0000   1.0000   1.0000   1.0000
     1.0000   1.0000   1.0000   1.0000   1.0000   1.0000   1.0000   1.0000
     1.0000   1.0000   1.0000   1.0000   1.0000   1.0000   1.0000   1.0000
     1.0000   1.0000   1.0000   1.0000   1.0000   1.0000   1.0000   1.0000
     1.0000   1.0000   1.0000   1.0000   1.0000   1.0000   1.0000   1.0000
     1.0000   1.0000   1.0000   1.0000   1.0000   1.0000   1.0000   1.0000
     1.0000   1.0000   1.0000   1.0000   1.0000   1.0000   1.0000   1.0000
     1.0000   1.0000

          k = 0.3333 0.2566 0.0732 ( 22137 PWs)   bands (ev):

   -12.1901 -12.1640 -12.1322 -12.1105 -12.0760 -12.0384 -12.0254 -11.9975
   -11.9871 -11.9806 -11.9614 -11.9523 -11.9412 -11.9406 -11.9380 -11.9305
   -11.9170 -11.9115  -0.9460  -0.9445  -0.9239  -0.9200  -0.9091  -0.9086
    -0.9020  -0.8972  -0.8386  -0.8218  -0.8118  -0.8100  -0.7823  -0.7629
    -0.7598  -0.7427  -0.7377  -0.7340  -0.7306  -0.7139  -0.7021  -0.6884
    -0.6782  -0.6764  -0.6699  -0.6549  -0.6461  -0.6409  -0.6334  -0.6194
    -0.6176  -0.6127  -0.6016  -0.5942  -0.5842  -0.5800  -0.5719  -0.5511
    -0.5373  -0.5135  -0.5097  -0.5067  -0.4860  -0.4582  -0.4454  -0.4410
    -0.4386  -0.4319  -0.4158  -0.4046  -0.3992  -0.3803  -0.3630  -0.3343
    -0.3100  -0.2951  -0.2860  -0.2811  -0.2750  -0.2719  -0.2718  -0.2668
    -0.2612  -0.2595  -0.2552  -0.2548  -0.2515  -0.2415  -0.2299  -0.2219
    -0.2180  -0.2108  -0.2021  -0.1844  -0.1717  -0.1698  -0.1690  -0.1602
    -0.1573  -0.1520  -0.1088  -0.0949  -0.0852  -0.0800  -0.0669  -0.0535
    -0.0476  -0.0458  -0.0410  -0.0319   0.9063   0.9141   0.9234   0.9254
     0.9483   0.9518   1.0030   1.0403   1.0912   1.1019   1.1776   1.2139
     1.3088   1.4262   1.4538   1.4569   1.4774   1.5556   1.6939   1.7006
     2.0446   2.0479   2.1883   2.2741   2.3237   2.3299   2.5379   2.5389
     2.6389   2.6875   2.7681   2.7738   2.8204   2.8808   2.9094   2.9534
     2.9827   3.0489   3.0791   3.0924   3.1265   3.2262   3.2669   3.3198
     3.3350   3.3414   3.4132   3.4326   3.4887   3.5254   3.5390   3.5642
     3.5940   3.6197

     occupation numbers 
     1.0000   1.0000   1.0000   1.0000   1.0000   1.0000   1.0000   1.0000
     1.0000   1.0000   1.0000   1.0000   1.0000   1.0000   1.0000   1.0000
     1.0000   1.0000   1.0000   1.0000   1.0000   1.0000   1.0000   1.0000
     1.0000   1.0000   1.0000   1.0000   1.0000   1.0000   1.0000   1.0000
     1.0000   1.0000   1.0000   1.0000   1.0000   1.0000   1.0000   1.0000
     1.0000   1.0000   1.0000   1.0000   1.0000   1.0000   1.0000   1.0000
     1.0000   1.0000   1.0000   1.0000   1.0000   1.0000   1.0000   1.0000
     1.0000   1.0000   1.0000   1.0000   1.0000   1.0000   1.0000   1.0000
     1.0000   1.0000   1.0000   1.0000   1.0000   1.0000   1.0000   1.0000
     1.0000   1.0000   1.0000   1.0000   1.0000   1.0000   1.0000   1.0000
     1.0000   1.0000   1.0000   1.0000   1.0000   1.0000   1.0000   1.0000
     1.0000   1.0000   1.0000   1.0000   1.0000   1.0000   1.0000   1.0000
     1.0000   1.0000   1.0000   1.0000   1.0000   1.0000   1.0000   1.0000
     1.0000   1.0000   1.0000   1.0000   1.0000   1.0000   1.0000   1.0000
     1.0000   1.0000   1.0000   1.0000   1.0000   1.0000   1.0000   1.0000
     1.0000   1.0000   1.0000   1.0000   1.0000   1.0000   1.0000   1.0000
     1.0000   1.0000   1.0000   1.0000   1.0000   1.0000   1.0000   1.0000
     1.0000   1.0000   1.0000   1.0000   1.0000   1.0000   1.0000   1.0000
     1.0000   1.0000   1.0000   1.0000   1.0000   1.0000   1.0000   1.0000
     1.0000   1.0000   1.0000   1.0000   1.0000   1.0000   1.0000   1.0000
     1.0000   1.0000

          k = 0.3333 0.2566-0.1098 ( 22142 PWs)   bands (ev):

   -12.1790 -12.1790 -12.1230 -12.1230 -12.0506 -12.0506 -12.0178 -12.0178
   -11.9843 -11.9843 -11.9566 -11.9566 -11.9390 -11.9390 -11.9272 -11.9272
   -11.9195 -11.9195  -0.9325  -0.9325  -0.9316  -0.9316  -0.9119  -0.9119
    -0.9075  -0.9075  -0.8269  -0.8269  -0.8210  -0.8210  -0.7651  -0.7651
    -0.7426  -0.7426  -0.7403  -0.7403  -0.7159  -0.7159  -0.7077  -0.7077
    -0.6642  -0.6642  -0.6437  -0.6437  -0.6384  -0.6384  -0.6292  -0.6292
    -0.6219  -0.6219  -0.6175  -0.6175  -0.5937  -0.5937  -0.5603  -0.5603
    -0.5215  -0.5215  -0.4760  -0.4760  -0.4651  -0.4651  -0.4592  -0.4592
    -0.4435  -0.4435  -0.4181  -0.4181  -0.3788  -0.3788  -0.3528  -0.3528
    -0.3077  -0.3077  -0.2824  -0.2824  -0.2733  -0.2733  -0.2709  -0.2709
    -0.2672  -0.2672  -0.2544  -0.2544  -0.2467  -0.2467  -0.2206  -0.2206
    -0.2149  -0.2149  -0.1890  -0.1890  -0.1696  -0.1696  -0.1652  -0.1652
    -0.1625  -0.1625  -0.0980  -0.0980  -0.0748  -0.0748  -0.0622  -0.0622
    -0.0572  -0.0572  -0.0351  -0.0351   0.9099   0.9099   0.9270   0.9270
     0.9782   0.9782   0.9786   0.9786   1.1446   1.1446   1.1504   1.1504
     1.3807   1.3807   1.4763   1.4763   1.4831   1.4831   1.7128   1.7128
     2.1367   2.1367   2.1846   2.1846   2.2328   2.2328   2.5803   2.5803
     2.6517   2.6517   2.7234   2.7235   2.8797   2.8797   2.9830   2.9830
     3.0169   3.0169   3.1127   3.1127   3.1999   3.1999   3.2199   3.2199
     3.3198   3.3198   3.4421   3.4421   3.5051   3.5051   3.5663   3.5663
     3.5979   3.5979

     occupation numbers 
     1.0000   1.0000   1.0000   1.0000   1.0000   1.0000   1.0000   1.0000
     1.0000   1.0000   1.0000   1.0000   1.0000   1.0000   1.0000   1.0000
     1.0000   1.0000   1.0000   1.0000   1.0000   1.0000   1.0000   1.0000
     1.0000   1.0000   1.0000   1.0000   1.0000   1.0000   1.0000   1.0000
     1.0000   1.0000   1.0000   1.0000   1.0000   1.0000   1.0000   1.0000
     1.0000   1.0000   1.0000   1.0000   1.0000   1.0000   1.0000   1.0000
     1.0000   1.0000   1.0000   1.0000   1.0000   1.0000   1.0000   1.0000
     1.0000   1.0000   1.0000   1.0000   1.0000   1.0000   1.0000   1.0000
     1.0000   1.0000   1.0000   1.0000   1.0000   1.0000   1.0000   1.0000
     1.0000   1.0000   1.0000   1.0000   1.0000   1.0000   1.0000   1.0000
     1.0000   1.0000   1.0000   1.0000   1.0000   1.0000   1.0000   1.0000
     1.0000   1.0000   1.0000   1.0000   1.0000   1.0000   1.0000   1.0000
     1.0000   1.0000   1.0000   1.0000   1.0000   1.0000   1.0000   1.0000
     1.0000   1.0000   1.0000   1.0000   1.0000   1.0000   1.0000   1.0000
     1.0000   1.0000   1.0000   1.0000   1.0000   1.0000   1.0000   1.0000
     1.0000   1.0000   1.0000   1.0000   1.0000   1.0000   1.0000   1.0000
     1.0000   1.0000   1.0000   1.0000   1.0000   1.0000   1.0000   1.0000
     1.0000   1.0000   1.0000   1.0000   1.0000   1.0000   1.0000   1.0000
     1.0000   1.0000   1.0000   1.0000   1.0000   1.0000   1.0000   1.0000
     1.0000   1.0000   1.0000   1.0000   1.0000   1.0000   1.0000   1.0000
     1.0000   1.0000

          k = 0.3333 0.3208 0.0000 ( 22139 PWs)   bands (ev):

   -12.2159 -12.1374 -12.1374 -12.1019 -12.0491 -12.0490 -12.0241 -11.9936
   -11.9936 -11.9845 -11.9845 -11.9509 -11.9509 -11.9419 -11.9419 -11.9210
   -11.9106 -11.9060  -0.9299  -0.9299  -0.9186  -0.9186  -0.8735  -0.8665
    -0.8450  -0.8423  -0.8423  -0.8363  -0.8363  -0.8195  -0.8195  -0.7869
    -0.7775  -0.7775  -0.7495  -0.7296  -0.7288  -0.7288  -0.7116  -0.6964
    -0.6964  -0.6780  -0.6780  -0.6748  -0.6748  -0.6319  -0.6317  -0.6229
    -0.6229  -0.5848  -0.5848  -0.5758  -0.5758  -0.5687  -0.5343  -0.5343
    -0.5304  -0.5153  -0.5153  -0.5094  -0.5037  -0.5037  -0.4702  -0.4702
    -0.4566  -0.4546  -0.4546  -0.4210  -0.3973  -0.3718  -0.3713  -0.3107
    -0.3101  -0.2844  -0.2839  -0.2806  -0.2654  -0.2654  -0.2617  -0.2617
    -0.2596  -0.2557  -0.2466  -0.2466  -0.2430  -0.2430  -0.2377  -0.2376
    -0.2183  -0.2183  -0.1869  -0.1869  -0.1651  -0.1651  -0.1570  -0.1494
    -0.1342  -0.1342  -0.1333  -0.0970  -0.0970  -0.0957  -0.0957  -0.0545
    -0.0472  -0.0472  -0.0305  -0.0259   0.8339   0.8761   0.8761   0.8998
     0.9166   0.9166   0.9342   1.0643   1.0643   1.2300   1.2300   1.2351
     1.2351   1.2656   1.3985   1.6617   1.6912   1.6912   1.8327   1.9528
     1.9865   1.9865   2.1711   2.2587   2.3094   2.4894   2.4894   2.6763
     2.6856   2.6856   2.7214   2.7214   2.7848   2.7848   2.8742   2.8742
     2.9665   2.9665   2.9698   3.1197   3.1323   3.1323   3.2634   3.3360
     3.3360   3.3557   3.3557   3.4383   3.4425   3.4425   3.5607   3.5607
     3.5926   3.6125

     occupation numbers 
     1.0000   1.0000   1.0000   1.0000   1.0000   1.0000   1.0000   1.0000
     1.0000   1.0000   1.0000   1.0000   1.0000   1.0000   1.0000   1.0000
     1.0000   1.0000   1.0000   1.0000   1.0000   1.0000   1.0000   1.0000
     1.0000   1.0000   1.0000   1.0000   1.0000   1.0000   1.0000   1.0000
     1.0000   1.0000   1.0000   1.0000   1.0000   1.0000   1.0000   1.0000
     1.0000   1.0000   1.0000   1.0000   1.0000   1.0000   1.0000   1.0000
     1.0000   1.0000   1.0000   1.0000   1.0000   1.0000   1.0000   1.0000
     1.0000   1.0000   1.0000   1.0000   1.0000   1.0000   1.0000   1.0000
     1.0000   1.0000   1.0000   1.0000   1.0000   1.0000   1.0000   1.0000
     1.0000   1.0000   1.0000   1.0000   1.0000   1.0000   1.0000   1.0000
     1.0000   1.0000   1.0000   1.0000   1.0000   1.0000   1.0000   1.0000
     1.0000   1.0000   1.0000   1.0000   1.0000   1.0000   1.0000   1.0000
     1.0000   1.0000   1.0000   1.0000   1.0000   1.0000   1.0000   1.0000
     1.0000   1.0000   1.0000   1.0000   1.0000   1.0000   1.0000   1.0000
     1.0000   1.0000   1.0000   1.0000   1.0000   1.0000   1.0000   1.0000
     1.0000   1.0000   1.0000   1.0000   1.0000   1.0000   1.0000   1.0000
     1.0000   1.0000   1.0000   1.0000   1.0000   1.0000   1.0000   1.0000
     1.0000   1.0000   1.0000   1.0000   1.0000   1.0000   1.0000   1.0000
     1.0000   1.0000   1.0000   1.0000   1.0000   1.0000   1.0000   1.0000
     1.0000   1.0000   1.0000   1.0000   1.0000   1.0000   1.0000   1.0000
     1.0000   1.0000

          k = 0.3333 0.3208 0.0366 ( 22144 PWs)   bands (ev):

   -12.2135 -12.1597 -12.1129 -12.1002 -12.0639 -12.0328 -12.0231 -12.0083
   -12.0020 -11.9846 -11.9657 -11.9632 -11.9492 -11.9378 -11.9356 -11.9215
   -11.9128 -11.9073  -0.9353  -0.9244  -0.9190  -0.9077  -0.8756  -0.8683
    -0.8680  -0.8575  -0.8508  -0.8435  -0.8334  -0.8105  -0.8062  -0.7866
    -0.7808  -0.7576  -0.7490  -0.7364  -0.7313  -0.7195  -0.7147  -0.6917
    -0.6888  -0.6798  -0.6761  -0.6684  -0.6576  -0.6509  -0.6373  -0.6336
    -0.6057  -0.5802  -0.5790  -0.5748  -0.5683  -0.5644  -0.5507  -0.5414
    -0.5325  -0.5323  -0.5145  -0.5119  -0.5028  -0.4869  -0.4748  -0.4699
    -0.4610  -0.4468  -0.4276  -0.4262  -0.3999  -0.3750  -0.3733  -0.3223
    -0.3196  -0.2870  -0.2843  -0.2825  -0.2800  -0.2676  -0.2567  -0.2561
    -0.2561  -0.2549  -0.2509  -0.2448  -0.2397  -0.2372  -0.2372  -0.2314
    -0.2229  -0.2154  -0.1947  -0.1790  -0.1644  -0.1619  -0.1581  -0.1528
    -0.1505  -0.1327  -0.1160  -0.1125  -0.1067  -0.0847  -0.0815  -0.0535
    -0.0513  -0.0454  -0.0346  -0.0333   0.8557   0.8731   0.8885   0.8893
     0.8932   0.9280   0.9537   1.0171   1.1143   1.1546   1.1678   1.2595
     1.2906   1.3136   1.4024   1.6193   1.6670   1.7564   1.8382   1.8817
     1.9719   2.1035   2.1781   2.2883   2.3201   2.3738   2.5237   2.6011
     2.6081   2.6326   2.6789   2.7744   2.8038   2.8465   2.8647   2.9358
     2.9625   2.9864   3.0481   3.1029   3.1104   3.2152   3.2758   3.2763
     3.2822   3.3608   3.4100   3.4282   3.4301   3.4420   3.4800   3.5954
     3.6082   3.6106

     occupation numbers 
     1.0000   1.0000   1.0000   1.0000   1.0000   1.0000   1.0000   1.0000
     1.0000   1.0000   1.0000   1.0000   1.0000   1.0000   1.0000   1.0000
     1.0000   1.0000   1.0000   1.0000   1.0000   1.0000   1.0000   1.0000
     1.0000   1.0000   1.0000   1.0000   1.0000   1.0000   1.0000   1.0000
     1.0000   1.0000   1.0000   1.0000   1.0000   1.0000   1.0000   1.0000
     1.0000   1.0000   1.0000   1.0000   1.0000   1.0000   1.0000   1.0000
     1.0000   1.0000   1.0000   1.0000   1.0000   1.0000   1.0000   1.0000
     1.0000   1.0000   1.0000   1.0000   1.0000   1.0000   1.0000   1.0000
     1.0000   1.0000   1.0000   1.0000   1.0000   1.0000   1.0000   1.0000
     1.0000   1.0000   1.0000   1.0000   1.0000   1.0000   1.0000   1.0000
     1.0000   1.0000   1.0000   1.0000   1.0000   1.0000   1.0000   1.0000
     1.0000   1.0000   1.0000   1.0000   1.0000   1.0000   1.0000   1.0000
     1.0000   1.0000   1.0000   1.0000   1.0000   1.0000   1.0000   1.0000
     1.0000   1.0000   1.0000   1.0000   1.0000   1.0000   1.0000   1.0000
     1.0000   1.0000   1.0000   1.0000   1.0000   1.0000   1.0000   1.0000
     1.0000   1.0000   1.0000   1.0000   1.0000   1.0000   1.0000   1.0000
     1.0000   1.0000   1.0000   1.0000   1.0000   1.0000   1.0000   1.0000
     1.0000   1.0000   1.0000   1.0000   1.0000   1.0000   1.0000   1.0000
     1.0000   1.0000   1.0000   1.0000   1.0000   1.0000   1.0000   1.0000
     1.0000   1.0000   1.0000   1.0000   1.0000   1.0000   1.0000   1.0000
     1.0000   1.0000

          k = 0.3333 0.3208 0.0732 ( 22154 PWs)   bands (ev):

   -12.2063 -12.1790 -12.0954 -12.0869 -12.0769 -12.0337 -12.0203 -12.0159
   -12.0094 -11.9818 -11.9753 -11.9573 -11.9449 -11.9303 -11.9266 -11.9233
   -11.9194 -11.9113  -0.9326  -0.9225  -0.9055  -0.8978  -0.8949  -0.8890
    -0.8821  -0.8737  -0.8536  -0.8392  -0.8313  -0.8303  -0.7948  -0.7865
    -0.7536  -0.7474  -0.7473  -0.7403  -0.7355  -0.7233  -0.7089  -0.6916
    -0.6829  -0.6582  -0.6576  -0.6566  -0.6522  -0.6513  -0.6391  -0.6332
    -0.6260  -0.5929  -0.5865  -0.5785  -0.5641  -0.5581  -0.5543  -0.5466
    -0.5384  -0.5193  -0.5192  -0.4933  -0.4909  -0.4903  -0.4804  -0.4712
    -0.4482  -0.4416  -0.4263  -0.4091  -0.3973  -0.3926  -0.3865  -0.3374
    -0.3334  -0.3073  -0.2869  -0.2812  -0.2744  -0.2735  -0.2707  -0.2622
    -0.2510  -0.2487  -0.2426  -0.2425  -0.2386  -0.2309  -0.2284  -0.2249
    -0.2230  -0.2151  -0.1993  -0.1718  -0.1717  -0.1615  -0.1610  -0.1539
    -0.1534  -0.1303  -0.1278  -0.1168  -0.0973  -0.0743  -0.0666  -0.0573
    -0.0548  -0.0508  -0.0457  -0.0412   0.8738   0.8796   0.8799   0.9097
     0.9123   0.9128   0.9749   0.9989   1.0720   1.1074   1.1637   1.2404
     1.3445   1.3911   1.4030   1.5442   1.6867   1.7941   1.8088   1.8468
     2.0317   2.2062   2.2282   2.2513   2.3534   2.3715   2.3804   2.4846
     2.5054   2.6398   2.6889   2.7114   2.7493   2.9226   2.9323   2.9794
     3.0210   3.0733   3.0939   3.1120   3.1991   3.2098   3.2180   3.2849
     3.3069   3.3419   3.3504   3.3710   3.4076   3.4171   3.4908   3.5784
     3.6173   3.6318

     occupation numbers 
     1.0000   1.0000   1.0000   1.0000   1.0000   1.0000   1.0000   1.0000
     1.0000   1.0000   1.0000   1.0000   1.0000   1.0000   1.0000   1.0000
     1.0000   1.0000   1.0000   1.0000   1.0000   1.0000   1.0000   1.0000
     1.0000   1.0000   1.0000   1.0000   1.0000   1.0000   1.0000   1.0000
     1.0000   1.0000   1.0000   1.0000   1.0000   1.0000   1.0000   1.0000
     1.0000   1.0000   1.0000   1.0000   1.0000   1.0000   1.0000   1.0000
     1.0000   1.0000   1.0000   1.0000   1.0000   1.0000   1.0000   1.0000
     1.0000   1.0000   1.0000   1.0000   1.0000   1.0000   1.0000   1.0000
     1.0000   1.0000   1.0000   1.0000   1.0000   1.0000   1.0000   1.0000
     1.0000   1.0000   1.0000   1.0000   1.0000   1.0000   1.0000   1.0000
     1.0000   1.0000   1.0000   1.0000   1.0000   1.0000   1.0000   1.0000
     1.0000   1.0000   1.0000   1.0000   1.0000   1.0000   1.0000   1.0000
     1.0000   1.0000   1.0000   1.0000   1.0000   1.0000   1.0000   1.0000
     1.0000   1.0000   1.0000   1.0000   1.0000   1.0000   1.0000   1.0000
     1.0000   1.0000   1.0000   1.0000   1.0000   1.0000   1.0000   1.0000
     1.0000   1.0000   1.0000   1.0000   1.0000   1.0000   1.0000   1.0000
     1.0000   1.0000   1.0000   1.0000   1.0000   1.0000   1.0000   1.0000
     1.0000   1.0000   1.0000   1.0000   1.0000   1.0000   1.0000   1.0000
     1.0000   1.0000   1.0000   1.0000   1.0000   1.0000   1.0000   1.0000
     1.0000   1.0000   1.0000   1.0000   1.0000   1.0000   1.0000   1.0000
     1.0000   1.0000

          k = 0.3333 0.3208-0.1098 ( 22150 PWs)   bands (ev):

   -12.1947 -12.1947 -12.0875 -12.0875 -12.0602 -12.0602 -12.0156 -12.0156
   -11.9987 -11.9986 -11.9661 -11.9661 -11.9302 -11.9302 -11.9262 -11.9262
   -11.9177 -11.9177  -0.9201  -0.9201  -0.9109  -0.9109  -0.8925  -0.8925
    -0.8829  -0.8829  -0.8475  -0.8475  -0.8337  -0.8337  -0.7880  -0.7880
    -0.7463  -0.7463  -0.7396  -0.7396  -0.7355  -0.7355  -0.6967  -0.6967
    -0.6736  -0.6736  -0.6478  -0.6478  -0.6441  -0.6441  -0.6220  -0.6220
    -0.6165  -0.6165  -0.6072  -0.6072  -0.5647  -0.5647  -0.5474  -0.5474
    -0.5310  -0.5310  -0.4873  -0.4873  -0.4828  -0.4828  -0.4649  -0.4649
    -0.4536  -0.4536  -0.4256  -0.4256  -0.4054  -0.4054  -0.3613  -0.3613
    -0.3244  -0.3244  -0.2819  -0.2819  -0.2785  -0.2785  -0.2687  -0.2687
    -0.2465  -0.2465  -0.2424  -0.2424  -0.2348  -0.2348  -0.2231  -0.2231
    -0.2177  -0.2177  -0.1899  -0.1899  -0.1657  -0.1657  -0.1574  -0.1574
    -0.1420  -0.1420  -0.1250  -0.1250  -0.0770  -0.0770  -0.0650  -0.0650
    -0.0528  -0.0527  -0.0478  -0.0478   0.8711   0.8711   0.8940   0.8940
     0.9388   0.9388   0.9893   0.9893   1.0505   1.0505   1.2075   1.2075
     1.3844   1.3844   1.4679   1.4679   1.7282   1.7282   1.8403   1.8403
     2.1304   2.1304   2.2714   2.2714   2.3566   2.3566   2.4133   2.4133
     2.4944   2.4944   2.7112   2.7112   2.8200   2.8200   2.9997   2.9997
     3.0771   3.0772   3.1342   3.1342   3.2399   3.2399   3.2441   3.2441
     3.3022   3.3022   3.3265   3.3265   3.3908   3.3908   3.5416   3.5416
     3.6306   3.6306

     occupation numbers 
     1.0000   1.0000   1.0000   1.0000   1.0000   1.0000   1.0000   1.0000
     1.0000   1.0000   1.0000   1.0000   1.0000   1.0000   1.0000   1.0000
     1.0000   1.0000   1.0000   1.0000   1.0000   1.0000   1.0000   1.0000
     1.0000   1.0000   1.0000   1.0000   1.0000   1.0000   1.0000   1.0000
     1.0000   1.0000   1.0000   1.0000   1.0000   1.0000   1.0000   1.0000
     1.0000   1.0000   1.0000   1.0000   1.0000   1.0000   1.0000   1.0000
     1.0000   1.0000   1.0000   1.0000   1.0000   1.0000   1.0000   1.0000
     1.0000   1.0000   1.0000   1.0000   1.0000   1.0000   1.0000   1.0000
     1.0000   1.0000   1.0000   1.0000   1.0000   1.0000   1.0000   1.0000
     1.0000   1.0000   1.0000   1.0000   1.0000   1.0000   1.0000   1.0000
     1.0000   1.0000   1.0000   1.0000   1.0000   1.0000   1.0000   1.0000
     1.0000   1.0000   1.0000   1.0000   1.0000   1.0000   1.0000   1.0000
     1.0000   1.0000   1.0000   1.0000   1.0000   1.0000   1.0000   1.0000
     1.0000   1.0000   1.0000   1.0000   1.0000   1.0000   1.0000   1.0000
     1.0000   1.0000   1.0000   1.0000   1.0000   1.0000   1.0000   1.0000
     1.0000   1.0000   1.0000   1.0000   1.0000   1.0000   1.0000   1.0000
     1.0000   1.0000   1.0000   1.0000   1.0000   1.0000   1.0000   1.0000
     1.0000   1.0000   1.0000   1.0000   1.0000   1.0000   1.0000   1.0000
     1.0000   1.0000   1.0000   1.0000   1.0000   1.0000   1.0000   1.0000
     1.0000   1.0000   1.0000   1.0000   1.0000   1.0000   1.0000   1.0000
     1.0000   1.0000

          k = 0.3333 0.0000 0.0000 ( 22167 PWs)   bands (ev):

   -12.2216 -12.1420 -12.1420 -12.0624 -12.0624 -12.0202 -12.0202 -12.0201
   -12.0201 -11.9866 -11.9866 -11.9442 -11.9442 -11.9442 -11.9442 -11.9113
   -11.9109 -11.9109  -0.9204  -0.9204  -0.8832  -0.8832  -0.8832  -0.8832
    -0.8561  -0.8486  -0.8486  -0.8354  -0.8354  -0.8063  -0.7966  -0.7966
    -0.7966  -0.7966  -0.7406  -0.7406  -0.7368  -0.7368  -0.7279  -0.6829
    -0.6829  -0.6803  -0.6803  -0.6803  -0.6803  -0.6421  -0.6312  -0.6312
    -0.5875  -0.5875  -0.5690  -0.5690  -0.5529  -0.5529  -0.5529  -0.5529
    -0.5222  -0.5222  -0.5120  -0.4996  -0.4996  -0.4996  -0.4996  -0.4816
    -0.4816  -0.4816  -0.4816  -0.3992  -0.3992  -0.3600  -0.3514  -0.3514
    -0.3206  -0.2857  -0.2838  -0.2838  -0.2675  -0.2675  -0.2587  -0.2587
    -0.2489  -0.2489  -0.2489  -0.2489  -0.2470  -0.2470  -0.2221  -0.2221
    -0.2221  -0.2221  -0.1865  -0.1865  -0.1574  -0.1435  -0.1435  -0.1347
    -0.1347  -0.1339  -0.1339  -0.1339  -0.1339  -0.0713  -0.0713  -0.0713
    -0.0713  -0.0379  -0.0379  -0.0253   0.8211   0.8751   0.8751   0.8751
     0.8752   0.8968   0.8968   1.1348   1.1348   1.1348   1.1348   1.2586
     1.2586   1.3411   1.3411   1.7279   1.7279   1.8990   1.8990   1.9653
     2.0958   2.1643   2.1643   2.2462   2.2462   2.2462   2.2462   2.6905
     2.7226   2.7226   2.8356   2.8356   2.8371   2.8371   2.8371   2.8371
     2.9488   2.9488   2.9488   2.9488   3.1257   3.1257   3.2779   3.2779
     3.3355   3.3355   3.3986   3.3986   3.3986   3.3986   3.5717   3.5717
     3.5905   3.6102

     occupation numbers 
     1.0000   1.0000   1.0000   1.0000   1.0000   1.0000   1.0000   1.0000
     1.0000   1.0000   1.0000   1.0000   1.0000   1.0000   1.0000   1.0000
     1.0000   1.0000   1.0000   1.0000   1.0000   1.0000   1.0000   1.0000
     1.0000   1.0000   1.0000   1.0000   1.0000   1.0000   1.0000   1.0000
     1.0000   1.0000   1.0000   1.0000   1.0000   1.0000   1.0000   1.0000
     1.0000   1.0000   1.0000   1.0000   1.0000   1.0000   1.0000   1.0000
     1.0000   1.0000   1.0000   1.0000   1.0000   1.0000   1.0000   1.0000
     1.0000   1.0000   1.0000   1.0000   1.0000   1.0000   1.0000   1.0000
     1.0000   1.0000   1.0000   1.0000   1.0000   1.0000   1.0000   1.0000
     1.0000   1.0000   1.0000   1.0000   1.0000   1.0000   1.0000   1.0000
     1.0000   1.0000   1.0000   1.0000   1.0000   1.0000   1.0000   1.0000
     1.0000   1.0000   1.0000   1.0000   1.0000   1.0000   1.0000   1.0000
     1.0000   1.0000   1.0000   1.0000   1.0000   1.0000   1.0000   1.0000
     1.0000   1.0000   1.0000   1.0000   1.0000   1.0000   1.0000   1.0000
     1.0000   1.0000   1.0000   1.0000   1.0000   1.0000   1.0000   1.0000
     1.0000   1.0000   1.0000   1.0000   1.0000   1.0000   1.0000   1.0000
     1.0000   1.0000   1.0000   1.0000   1.0000   1.0000   1.0000   1.0000
     1.0000   1.0000   1.0000   1.0000   1.0000   1.0000   1.0000   1.0000
     1.0000   1.0000   1.0000   1.0000   1.0000   1.0000   1.0000   1.0000
     1.0000   1.0000   1.0000   1.0000   1.0000   1.0000   1.0000   1.0000
     1.0000   1.0000

          k = 0.3333 0.0000 0.0366 ( 22171 PWs)   bands (ev):

   -12.2191 -12.1646 -12.1171 -12.0611 -12.0611 -12.0319 -12.0319 -12.0107
   -12.0074 -12.0074 -11.9649 -11.9554 -11.9554 -11.9344 -11.9344 -11.9136
   -11.9118 -11.9118  -0.9269  -0.9080  -0.8901  -0.8901  -0.8724  -0.8724
    -0.8637  -0.8586  -0.8488  -0.8488  -0.8314  -0.8314  -0.8156  -0.8059
    -0.7659  -0.7659  -0.7418  -0.7418  -0.7397  -0.7309  -0.7294  -0.6858
    -0.6831  -0.6831  -0.6771  -0.6621  -0.6621  -0.6574  -0.6439  -0.6082
    -0.5851  -0.5765  -0.5765  -0.5674  -0.5596  -0.5596  -0.5477  -0.5477
    -0.5238  -0.5238  -0.5168  -0.5168  -0.5147  -0.5100  -0.5100  -0.4818
    -0.4818  -0.4475  -0.4475  -0.4037  -0.4037  -0.3565  -0.3554  -0.3554
    -0.3394  -0.2898  -0.2870  -0.2870  -0.2813  -0.2594  -0.2594  -0.2551
    -0.2527  -0.2527  -0.2459  -0.2399  -0.2399  -0.2385  -0.2237  -0.2237
    -0.2223  -0.2223  -0.1940  -0.1789  -0.1584  -0.1533  -0.1441  -0.1441
    -0.1404  -0.1404  -0.1253  -0.1253  -0.1165  -0.0819  -0.0819  -0.0616
    -0.0616  -0.0389  -0.0389  -0.0344   0.8450   0.8588   0.8588   0.8899
     0.8899   0.9015   0.9015   1.0790   1.0790   1.1721   1.1915   1.1915
     1.3369   1.3369   1.3417   1.6547   1.7960   1.9098   1.9098   1.9588
     2.1157   2.1477   2.1477   2.1890   2.1890   2.3544   2.3544   2.5538
     2.6871   2.6871   2.6904   2.7763   2.8089   2.8089   2.8953   2.9067
     3.0266   3.0266   3.0298   3.0298   3.1398   3.1398   3.2578   3.2694
     3.2694   3.3721   3.3721   3.3937   3.3937   3.4076   3.4900   3.5827
     3.6164   3.6227

     occupation numbers 
     1.0000   1.0000   1.0000   1.0000   1.0000   1.0000   1.0000   1.0000
     1.0000   1.0000   1.0000   1.0000   1.0000   1.0000   1.0000   1.0000
     1.0000   1.0000   1.0000   1.0000   1.0000   1.0000   1.0000   1.0000
     1.0000   1.0000   1.0000   1.0000   1.0000   1.0000   1.0000   1.0000
     1.0000   1.0000   1.0000   1.0000   1.0000   1.0000   1.0000   1.0000
     1.0000   1.0000   1.0000   1.0000   1.0000   1.0000   1.0000   1.0000
     1.0000   1.0000   1.0000   1.0000   1.0000   1.0000   1.0000   1.0000
     1.0000   1.0000   1.0000   1.0000   1.0000   1.0000   1.0000   1.0000
     1.0000   1.0000   1.0000   1.0000   1.0000   1.0000   1.0000   1.0000
     1.0000   1.0000   1.0000   1.0000   1.0000   1.0000   1.0000   1.0000
     1.0000   1.0000   1.0000   1.0000   1.0000   1.0000   1.0000   1.0000
     1.0000   1.0000   1.0000   1.0000   1.0000   1.0000   1.0000   1.0000
     1.0000   1.0000   1.0000   1.0000   1.0000   1.0000   1.0000   1.0000
     1.0000   1.0000   1.0000   1.0000   1.0000   1.0000   1.0000   1.0000
     1.0000   1.0000   1.0000   1.0000   1.0000   1.0000   1.0000   1.0000
     1.0000   1.0000   1.0000   1.0000   1.0000   1.0000   1.0000   1.0000
     1.0000   1.0000   1.0000   1.0000   1.0000   1.0000   1.0000   1.0000
     1.0000   1.0000   1.0000   1.0000   1.0000   1.0000   1.0000   1.0000
     1.0000   1.0000   1.0000   1.0000   1.0000   1.0000   1.0000   1.0000
     1.0000   1.0000   1.0000   1.0000   1.0000   1.0000   1.0000   1.0000
     1.0000   1.0000

          k = 0.3333 0.0000 0.0732 ( 22167 PWs)   bands (ev):

   -12.2119 -12.1842 -12.0907 -12.0572 -12.0571 -12.0423 -12.0423 -12.0367
   -11.9941 -11.9941 -11.9677 -11.9677 -11.9463 -11.9261 -11.9261 -11.9203
   -11.9147 -11.9147  -0.9251  -0.8928  -0.8919  -0.8900  -0.8900  -0.8662
    -0.8616  -0.8616  -0.8605  -0.8605  -0.8500  -0.8500  -0.8066  -0.8049
    -0.7519  -0.7519  -0.7446  -0.7446  -0.7397  -0.7332  -0.7220  -0.6964
    -0.6675  -0.6619  -0.6619  -0.6587  -0.6493  -0.6364  -0.6364  -0.6282
    -0.5975  -0.5975  -0.5776  -0.5776  -0.5492  -0.5415  -0.5415  -0.5307
    -0.5307  -0.5282  -0.5282  -0.5232  -0.5232  -0.5225  -0.5220  -0.4611
    -0.4611  -0.4176  -0.4176  -0.4151  -0.4151  -0.3867  -0.3674  -0.3674
    -0.3462  -0.3113  -0.2878  -0.2878  -0.2752  -0.2710  -0.2710  -0.2625
    -0.2425  -0.2425  -0.2329  -0.2329  -0.2302  -0.2280  -0.2275  -0.2275
    -0.2241  -0.2241  -0.1983  -0.1722  -0.1718  -0.1614  -0.1451  -0.1451
    -0.1443  -0.1443  -0.1152  -0.1152  -0.0978  -0.0930  -0.0930  -0.0551
    -0.0532  -0.0532  -0.0417  -0.0417   0.8537   0.8537   0.8744   0.8744
     0.9076   0.9363   0.9363   1.0263   1.0263   1.0822   1.2449   1.2449
     1.3212   1.3212   1.4223   1.5787   1.8560   1.9388   1.9415   1.9415
     2.0622   2.0622   2.1750   2.2623   2.2623   2.4002   2.4687   2.4687
     2.5252   2.5252   2.6931   2.7011   2.7011   2.7324   2.9853   3.0516
     3.1051   3.1051   3.1642   3.1642   3.1716   3.1716   3.1879   3.2508
     3.2508   3.3235   3.3235   3.3525   3.3525   3.3794   3.4704   3.5595
     3.6311   3.6449

     occupation numbers 
     1.0000   1.0000   1.0000   1.0000   1.0000   1.0000   1.0000   1.0000
     1.0000   1.0000   1.0000   1.0000   1.0000   1.0000   1.0000   1.0000
     1.0000   1.0000   1.0000   1.0000   1.0000   1.0000   1.0000   1.0000
     1.0000   1.0000   1.0000   1.0000   1.0000   1.0000   1.0000   1.0000
     1.0000   1.0000   1.0000   1.0000   1.0000   1.0000   1.0000   1.0000
     1.0000   1.0000   1.0000   1.0000   1.0000   1.0000   1.0000   1.0000
     1.0000   1.0000   1.0000   1.0000   1.0000   1.0000   1.0000   1.0000
     1.0000   1.0000   1.0000   1.0000   1.0000   1.0000   1.0000   1.0000
     1.0000   1.0000   1.0000   1.0000   1.0000   1.0000   1.0000   1.0000
     1.0000   1.0000   1.0000   1.0000   1.0000   1.0000   1.0000   1.0000
     1.0000   1.0000   1.0000   1.0000   1.0000   1.0000   1.0000   1.0000
     1.0000   1.0000   1.0000   1.0000   1.0000   1.0000   1.0000   1.0000
     1.0000   1.0000   1.0000   1.0000   1.0000   1.0000   1.0000   1.0000
     1.0000   1.0000   1.0000   1.0000   1.0000   1.0000   1.0000   1.0000
     1.0000   1.0000   1.0000   1.0000   1.0000   1.0000   1.0000   1.0000
     1.0000   1.0000   1.0000   1.0000   1.0000   1.0000   1.0000   1.0000
     1.0000   1.0000   1.0000   1.0000   1.0000   1.0000   1.0000   1.0000
     1.0000   1.0000   1.0000   1.0000   1.0000   1.0000   1.0000   1.0000
     1.0000   1.0000   1.0000   1.0000   1.0000   1.0000   1.0000   1.0000
     1.0000   1.0000   1.0000   1.0000   1.0000   1.0000   1.0000   1.0000
     1.0000   1.0000

          k = 0.3333 0.0000-0.1098 ( 22166 PWs)   bands (ev):

   -12.2001 -12.2001 -12.0636 -12.0636 -12.0508 -12.0508 -12.0508 -12.0508
   -11.9807 -11.9807 -11.9807 -11.9807 -11.9313 -11.9313 -11.9195 -11.9195
   -11.9195 -11.9195  -0.9133  -0.9133  -0.8804  -0.8804  -0.8804  -0.8804
    -0.8781  -0.8781  -0.8539  -0.8539  -0.8539  -0.8539  -0.8044  -0.8044
    -0.7478  -0.7478  -0.7478  -0.7478  -0.7373  -0.7373  -0.7102  -0.7102
    -0.6576  -0.6576  -0.6459  -0.6459  -0.6283  -0.6283  -0.6283  -0.6283
    -0.6067  -0.6067  -0.6067  -0.6067  -0.5345  -0.5345  -0.5345  -0.5345
    -0.5338  -0.5338  -0.5305  -0.5304  -0.5304  -0.5304  -0.4520  -0.4520
    -0.4385  -0.4385  -0.4385  -0.4385  -0.3877  -0.3877  -0.3877  -0.3877
    -0.3306  -0.3306  -0.2815  -0.2815  -0.2815  -0.2815  -0.2691  -0.2691
    -0.2337  -0.2337  -0.2337  -0.2337  -0.2277  -0.2277  -0.2277  -0.2277
    -0.2238  -0.2238  -0.1899  -0.1899  -0.1659  -0.1659  -0.1456  -0.1456
    -0.1456  -0.1456  -0.1043  -0.1043  -0.1043  -0.1043  -0.0775  -0.0775
    -0.0465  -0.0465  -0.0465  -0.0465   0.8599   0.8599   0.8599   0.8599
     0.9783   0.9783   0.9783   0.9783   0.9915   0.9915   1.2900   1.2900
     1.2900   1.2900   1.5012   1.5012   1.9043   1.9043   1.9927   1.9927
     1.9927   1.9927   2.2714   2.2714   2.3784   2.3785   2.3785   2.3785
     2.5855   2.5855   2.5856   2.5856   2.7052   2.7052   3.0626   3.0626
     3.1639   3.1639   3.1639   3.1639   3.2488   3.2488   3.2690   3.2690
     3.2690   3.2690   3.2748   3.2748   3.2748   3.2748   3.5216   3.5216
     3.6444   3.6444

     occupation numbers 
     1.0000   1.0000   1.0000   1.0000   1.0000   1.0000   1.0000   1.0000
     1.0000   1.0000   1.0000   1.0000   1.0000   1.0000   1.0000   1.0000
     1.0000   1.0000   1.0000   1.0000   1.0000   1.0000   1.0000   1.0000
     1.0000   1.0000   1.0000   1.0000   1.0000   1.0000   1.0000   1.0000
     1.0000   1.0000   1.0000   1.0000   1.0000   1.0000   1.0000   1.0000
     1.0000   1.0000   1.0000   1.0000   1.0000   1.0000   1.0000   1.0000
     1.0000   1.0000   1.0000   1.0000   1.0000   1.0000   1.0000   1.0000
     1.0000   1.0000   1.0000   1.0000   1.0000   1.0000   1.0000   1.0000
     1.0000   1.0000   1.0000   1.0000   1.0000   1.0000   1.0000   1.0000
     1.0000   1.0000   1.0000   1.0000   1.0000   1.0000   1.0000   1.0000
     1.0000   1.0000   1.0000   1.0000   1.0000   1.0000   1.0000   1.0000
     1.0000   1.0000   1.0000   1.0000   1.0000   1.0000   1.0000   1.0000
     1.0000   1.0000   1.0000   1.0000   1.0000   1.0000   1.0000   1.0000
     1.0000   1.0000   1.0000   1.0000   1.0000   1.0000   1.0000   1.0000
     1.0000   1.0000   1.0000   1.0000   1.0000   1.0000   1.0000   1.0000
     1.0000   1.0000   1.0000   1.0000   1.0000   1.0000   1.0000   1.0000
     1.0000   1.0000   1.0000   1.0000   1.0000   1.0000   1.0000   1.0000
     1.0000   1.0000   1.0000   1.0000   1.0000   1.0000   1.0000   1.0000
     1.0000   1.0000   1.0000   1.0000   1.0000   1.0000   1.0000   1.0000
     1.0000   1.0000   1.0000   1.0000   1.0000   1.0000   1.0000   1.0000
     1.0000   1.0000

          k =-0.5000-0.2887 0.0000 ( 22174 PWs)   bands (ev):

   -12.0624 -12.0624 -12.0592 -12.0202 -12.0202 -12.0201 -12.0201 -12.0182
   -12.0182 -11.9450 -11.9450 -11.9442 -11.9442 -11.9442 -11.9442 -11.9131
   -11.9109 -11.9109  -0.9469  -0.9469  -0.8881  -0.8832  -0.8832  -0.8832
    -0.8832  -0.8486  -0.8486  -0.8326  -0.8326  -0.7966  -0.7966  -0.7966
    -0.7966  -0.7406  -0.7406  -0.7321  -0.6802  -0.6802  -0.6802  -0.6802
    -0.6580  -0.6580  -0.5745  -0.5689  -0.5689  -0.5529  -0.5529  -0.5529
    -0.5529  -0.5227  -0.5227  -0.5222  -0.5222  -0.5172  -0.4997  -0.4997
    -0.4997  -0.4997  -0.4832  -0.4832  -0.4817  -0.4817  -0.4817  -0.4817
    -0.4561  -0.4561  -0.3993  -0.3993  -0.3890  -0.3846  -0.3515  -0.3515
    -0.2839  -0.2839  -0.2587  -0.2587  -0.2489  -0.2489  -0.2489  -0.2489
    -0.2403  -0.2220  -0.2220  -0.2220  -0.2220  -0.2162  -0.2096  -0.2096
    -0.1840  -0.1840  -0.1620  -0.1620  -0.1496  -0.1434  -0.1434  -0.1339
    -0.1339  -0.1339  -0.1339  -0.1215  -0.1215  -0.1206  -0.0713  -0.0713
    -0.0713  -0.0713  -0.0379  -0.0379   0.7039   0.7039   0.7388   0.8752
     0.8752   0.8752   0.8752   0.8968   0.8968   0.9999   0.9999   1.1349
     1.1349   1.1349   1.1349   1.3284   1.3413   1.3413   1.8987   1.8987
     1.9101   2.1644   2.1644   2.2461   2.2461   2.2461   2.2461   2.3789
     2.6815   2.6815   2.7105   2.7105   2.8371   2.8372   2.8372   2.8372
     2.9487   2.9487   2.9487   2.9487   3.1177   3.1256   3.1257   3.2443
     3.2443   3.2778   3.2778   3.3541   3.3541   3.3986   3.3986   3.3986
     3.3986   3.5151

     occupation numbers 
     1.0000   1.0000   1.0000   1.0000   1.0000   1.0000   1.0000   1.0000
     1.0000   1.0000   1.0000   1.0000   1.0000   1.0000   1.0000   1.0000
     1.0000   1.0000   1.0000   1.0000   1.0000   1.0000   1.0000   1.0000
     1.0000   1.0000   1.0000   1.0000   1.0000   1.0000   1.0000   1.0000
     1.0000   1.0000   1.0000   1.0000   1.0000   1.0000   1.0000   1.0000
     1.0000   1.0000   1.0000   1.0000   1.0000   1.0000   1.0000   1.0000
     1.0000   1.0000   1.0000   1.0000   1.0000   1.0000   1.0000   1.0000
     1.0000   1.0000   1.0000   1.0000   1.0000   1.0000   1.0000   1.0000
     1.0000   1.0000   1.0000   1.0000   1.0000   1.0000   1.0000   1.0000
     1.0000   1.0000   1.0000   1.0000   1.0000   1.0000   1.0000   1.0000
     1.0000   1.0000   1.0000   1.0000   1.0000   1.0000   1.0000   1.0000
     1.0000   1.0000   1.0000   1.0000   1.0000   1.0000   1.0000   1.0000
     1.0000   1.0000   1.0000   1.0000   1.0000   1.0000   1.0000   1.0000
     1.0000   1.0000   1.0000   1.0000   1.0000   1.0000   1.0000   1.0000
     1.0000   1.0000   1.0000   1.0000   1.0000   1.0000   1.0000   1.0000
     1.0000   1.0000   1.0000   1.0000   1.0000   1.0000   1.0000   1.0000
     1.0000   1.0000   1.0000   1.0000   1.0000   1.0000   1.0000   1.0000
     1.0000   1.0000   1.0000   1.0000   1.0000   1.0000   1.0000   1.0000
     1.0000   1.0000   1.0000   1.0000   1.0000   1.0000   1.0000   1.0000
     1.0000   1.0000   1.0000   1.0000   1.0000   1.0000   1.0000   1.0000
     1.0000   1.0000

          k =-0.5000-0.2887 0.0366 ( 22156 PWs)   bands (ev):

   -12.0611 -12.0611 -12.0579 -12.0319 -12.0319 -12.0296 -12.0074 -12.0074
   -12.0059 -11.9558 -11.9554 -11.9554 -11.9355 -11.9344 -11.9344 -11.9140
   -11.9118 -11.9118  -0.9519  -0.9362  -0.8908  -0.8901  -0.8901  -0.8775
    -0.8724  -0.8724  -0.8488  -0.8488  -0.8314  -0.8314  -0.7802  -0.7660
    -0.7660  -0.7418  -0.7418  -0.7297  -0.6830  -0.6830  -0.6799  -0.6621
    -0.6621  -0.6327  -0.5870  -0.5764  -0.5764  -0.5596  -0.5596  -0.5477
    -0.5477  -0.5242  -0.5237  -0.5237  -0.5187  -0.5180  -0.5168  -0.5168
    -0.5129  -0.5100  -0.5100  -0.4818  -0.4818  -0.4735  -0.4560  -0.4475
    -0.4475  -0.4374  -0.4037  -0.4037  -0.3916  -0.3863  -0.3554  -0.3554
    -0.2870  -0.2870  -0.2594  -0.2594  -0.2527  -0.2527  -0.2399  -0.2399
    -0.2360  -0.2237  -0.2237  -0.2223  -0.2223  -0.2161  -0.2117  -0.2071
    -0.1902  -0.1769  -0.1761  -0.1512  -0.1501  -0.1440  -0.1440  -0.1403
    -0.1403  -0.1253  -0.1253  -0.1238  -0.1204  -0.1198  -0.0819  -0.0819
    -0.0615  -0.0615  -0.0389  -0.0389   0.6890   0.7308   0.7314   0.8588
     0.8588   0.8899   0.8899   0.9015   0.9015   0.9320   1.0720   1.0790
     1.0790   1.1916   1.1916   1.3139   1.3371   1.3371   1.9095   1.9096
     1.9434   2.1475   2.1475   2.1891   2.1891   2.3542   2.3542   2.3885
     2.5257   2.5972   2.6872   2.6872   2.7734   2.8088   2.8088   2.8871
     3.0265   3.0265   3.0298   3.0299   3.1336   3.1398   3.1398   3.1577
     3.2693   3.2693   3.3221   3.3345   3.3378   3.3721   3.3721   3.3937
     3.3937   3.5070

     occupation numbers 
     1.0000   1.0000   1.0000   1.0000   1.0000   1.0000   1.0000   1.0000
     1.0000   1.0000   1.0000   1.0000   1.0000   1.0000   1.0000   1.0000
     1.0000   1.0000   1.0000   1.0000   1.0000   1.0000   1.0000   1.0000
     1.0000   1.0000   1.0000   1.0000   1.0000   1.0000   1.0000   1.0000
     1.0000   1.0000   1.0000   1.0000   1.0000   1.0000   1.0000   1.0000
     1.0000   1.0000   1.0000   1.0000   1.0000   1.0000   1.0000   1.0000
     1.0000   1.0000   1.0000   1.0000   1.0000   1.0000   1.0000   1.0000
     1.0000   1.0000   1.0000   1.0000   1.0000   1.0000   1.0000   1.0000
     1.0000   1.0000   1.0000   1.0000   1.0000   1.0000   1.0000   1.0000
     1.0000   1.0000   1.0000   1.0000   1.0000   1.0000   1.0000   1.0000
     1.0000   1.0000   1.0000   1.0000   1.0000   1.0000   1.0000   1.0000
     1.0000   1.0000   1.0000   1.0000   1.0000   1.0000   1.0000   1.0000
     1.0000   1.0000   1.0000   1.0000   1.0000   1.0000   1.0000   1.0000
     1.0000   1.0000   1.0000   1.0000   1.0000   1.0000   1.0000   1.0000
     1.0000   1.0000   1.0000   1.0000   1.0000   1.0000   1.0000   1.0000
     1.0000   1.0000   1.0000   1.0000   1.0000   1.0000   1.0000   1.0000
     1.0000   1.0000   1.0000   1.0000   1.0000   1.0000   1.0000   1.0000
     1.0000   1.0000   1.0000   1.0000   1.0000   1.0000   1.0000   1.0000
     1.0000   1.0000   1.0000   1.0000   1.0000   1.0000   1.0000   1.0000
     1.0000   1.0000   1.0000   1.0000   1.0000   1.0000   1.0000   1.0000
     1.0000   1.0000

          k =-0.5000-0.2887 0.0732 ( 22148 PWs)   bands (ev):

   -12.0572 -12.0571 -12.0541 -12.0423 -12.0423 -12.0397 -11.9941 -11.9941
   -11.9930 -11.9677 -11.9677 -11.9676 -11.9276 -11.9261 -11.9261 -11.9167
   -11.9147 -11.9147  -0.9492  -0.9229  -0.9125  -0.8982  -0.8900  -0.8900
    -0.8616  -0.8616  -0.8605  -0.8605  -0.8501  -0.8501  -0.7519  -0.7519
    -0.7446  -0.7446  -0.7239  -0.7232  -0.6982  -0.6619  -0.6619  -0.6364
    -0.6364  -0.6208  -0.6048  -0.5974  -0.5974  -0.5776  -0.5776  -0.5439
    -0.5415  -0.5415  -0.5307  -0.5307  -0.5281  -0.5281  -0.5237  -0.5232
    -0.5232  -0.5197  -0.5119  -0.4890  -0.4612  -0.4612  -0.4324  -0.4192
    -0.4176  -0.4176  -0.4152  -0.4152  -0.3998  -0.3921  -0.3675  -0.3675
    -0.2878  -0.2878  -0.2710  -0.2710  -0.2425  -0.2425  -0.2329  -0.2329
    -0.2275  -0.2275  -0.2246  -0.2241  -0.2241  -0.2154  -0.2134  -0.2040
    -0.1956  -0.1922  -0.1694  -0.1555  -0.1451  -0.1451  -0.1442  -0.1442
    -0.1406  -0.1278  -0.1200  -0.1195  -0.1152  -0.1152  -0.0930  -0.0930
    -0.0532  -0.0532  -0.0417  -0.0417   0.6868   0.7141   0.7683   0.8538
     0.8538   0.8699   0.8744   0.8744   0.9364   0.9364   1.0263   1.0263
     1.1452   1.2451   1.2451   1.2737   1.3214   1.3214   1.9412   1.9412
     2.0369   2.0620   2.0620   2.2624   2.2624   2.3433   2.4166   2.4686
     2.4686   2.5231   2.5253   2.5253   2.7010   2.7010   2.8698   3.0457
     3.0647   3.1050   3.1050   3.1642   3.1642   3.1715   3.1716   3.1768
     3.2508   3.2508   3.2753   3.2941   3.3235   3.3235   3.3526   3.3526
     3.3889   3.4827

     occupation numbers 
     1.0000   1.0000   1.0000   1.0000   1.0000   1.0000   1.0000   1.0000
     1.0000   1.0000   1.0000   1.0000   1.0000   1.0000   1.0000   1.0000
     1.0000   1.0000   1.0000   1.0000   1.0000   1.0000   1.0000   1.0000
     1.0000   1.0000   1.0000   1.0000   1.0000   1.0000   1.0000   1.0000
     1.0000   1.0000   1.0000   1.0000   1.0000   1.0000   1.0000   1.0000
     1.0000   1.0000   1.0000   1.0000   1.0000   1.0000   1.0000   1.0000
     1.0000   1.0000   1.0000   1.0000   1.0000   1.0000   1.0000   1.0000
     1.0000   1.0000   1.0000   1.0000   1.0000   1.0000   1.0000   1.0000
     1.0000   1.0000   1.0000   1.0000   1.0000   1.0000   1.0000   1.0000
     1.0000   1.0000   1.0000   1.0000   1.0000   1.0000   1.0000   1.0000
     1.0000   1.0000   1.0000   1.0000   1.0000   1.0000   1.0000   1.0000
     1.0000   1.0000   1.0000   1.0000   1.0000   1.0000   1.0000   1.0000
     1.0000   1.0000   1.0000   1.0000   1.0000   1.0000   1.0000   1.0000
     1.0000   1.0000   1.0000   1.0000   1.0000   1.0000   1.0000   1.0000
     1.0000   1.0000   1.0000   1.0000   1.0000   1.0000   1.0000   1.0000
     1.0000   1.0000   1.0000   1.0000   1.0000   1.0000   1.0000   1.0000
     1.0000   1.0000   1.0000   1.0000   1.0000   1.0000   1.0000   1.0000
     1.0000   1.0000   1.0000   1.0000   1.0000   1.0000   1.0000   1.0000
     1.0000   1.0000   1.0000   1.0000   1.0000   1.0000   1.0000   1.0000
     1.0000   1.0000   1.0000   1.0000   1.0000   1.0000   1.0000   1.0000
     1.0000   1.0000

          k =-0.5000-0.2887-0.1098 ( 22160 PWs)   bands (ev):

   -12.0508 -12.0508 -12.0508 -12.0508 -12.0479 -12.0479 -11.9807 -11.9807
   -11.9807 -11.9807 -11.9801 -11.9801 -11.9213 -11.9213 -11.9195 -11.9195
   -11.9195 -11.9195  -0.9364  -0.9364  -0.9095  -0.9094  -0.8804  -0.8804
    -0.8804  -0.8804  -0.8539  -0.8539  -0.8539  -0.8539  -0.7478  -0.7478
    -0.7478  -0.7478  -0.7128  -0.7128  -0.6689  -0.6689  -0.6283  -0.6283
    -0.6283  -0.6283  -0.6067  -0.6067  -0.6067  -0.6067  -0.5750  -0.5750
    -0.5345  -0.5345  -0.5345  -0.5345  -0.5305  -0.5305  -0.5305  -0.5305
    -0.5219  -0.5219  -0.5020  -0.5020  -0.4386  -0.4386  -0.4386  -0.4386
    -0.4135  -0.4135  -0.4035  -0.4035  -0.3877  -0.3877  -0.3877  -0.3877
    -0.2815  -0.2815  -0.2815  -0.2815  -0.2337  -0.2337  -0.2337  -0.2337
    -0.2277  -0.2277  -0.2277  -0.2277  -0.2147  -0.2147  -0.2091  -0.2091
    -0.2002  -0.2002  -0.1619  -0.1619  -0.1455  -0.1455  -0.1455  -0.1455
    -0.1332  -0.1332  -0.1196  -0.1196  -0.1042  -0.1042  -0.1042  -0.1042
    -0.0465  -0.0465  -0.0465  -0.0465   0.6965   0.6965   0.8151   0.8151
     0.8599   0.8599   0.8599   0.8599   0.9783   0.9783   0.9783   0.9784
     1.2147   1.2147   1.2901   1.2901   1.2901   1.2901   1.9925   1.9925
     1.9925   1.9925   2.1756   2.1756   2.3785   2.3785   2.3785   2.3785
     2.4622   2.4622   2.5854   2.5854   2.5854   2.5854   2.9678   2.9678
     3.1638   3.1638   3.1638   3.1639   3.1775   3.1775   3.2354   3.2354
     3.2690   3.2690   3.2690   3.2690   3.2748   3.2748   3.2748   3.2748
     3.4430   3.4430

     occupation numbers 
     1.0000   1.0000   1.0000   1.0000   1.0000   1.0000   1.0000   1.0000
     1.0000   1.0000   1.0000   1.0000   1.0000   1.0000   1.0000   1.0000
     1.0000   1.0000   1.0000   1.0000   1.0000   1.0000   1.0000   1.0000
     1.0000   1.0000   1.0000   1.0000   1.0000   1.0000   1.0000   1.0000
     1.0000   1.0000   1.0000   1.0000   1.0000   1.0000   1.0000   1.0000
     1.0000   1.0000   1.0000   1.0000   1.0000   1.0000   1.0000   1.0000
     1.0000   1.0000   1.0000   1.0000   1.0000   1.0000   1.0000   1.0000
     1.0000   1.0000   1.0000   1.0000   1.0000   1.0000   1.0000   1.0000
     1.0000   1.0000   1.0000   1.0000   1.0000   1.0000   1.0000   1.0000
     1.0000   1.0000   1.0000   1.0000   1.0000   1.0000   1.0000   1.0000
     1.0000   1.0000   1.0000   1.0000   1.0000   1.0000   1.0000   1.0000
     1.0000   1.0000   1.0000   1.0000   1.0000   1.0000   1.0000   1.0000
     1.0000   1.0000   1.0000   1.0000   1.0000   1.0000   1.0000   1.0000
     1.0000   1.0000   1.0000   1.0000   1.0000   1.0000   1.0000   1.0000
     1.0000   1.0000   1.0000   1.0000   1.0000   1.0000   1.0000   1.0000
     1.0000   1.0000   1.0000   1.0000   1.0000   1.0000   1.0000   1.0000
     1.0000   1.0000   1.0000   1.0000   1.0000   1.0000   1.0000   1.0000
     1.0000   1.0000   1.0000   1.0000   1.0000   1.0000   1.0000   1.0000
     1.0000   1.0000   1.0000   1.0000   1.0000   1.0000   1.0000   1.0000
     1.0000   1.0000   1.0000   1.0000   1.0000   1.0000   1.0000   1.0000
     1.0000   1.0000

          k =-0.5000-0.2245 0.0000 ( 22123 PWs)   bands (ev):

   -12.0633 -12.0609 -12.0597 -12.0207 -12.0207 -12.0193 -12.0193 -12.0185
   -12.0185 -11.9449 -11.9449 -11.9446 -11.9446 -11.9440 -11.9440 -11.9127
   -11.9118 -11.9102  -0.9389  -0.9389  -0.9165  -0.9165  -0.8825  -0.8672
    -0.8468  -0.8468  -0.8365  -0.8253  -0.8253  -0.8081  -0.8081  -0.8075
    -0.8075  -0.7399  -0.7348  -0.7347  -0.6750  -0.6750  -0.6716  -0.6716
    -0.6634  -0.6634  -0.5804  -0.5804  -0.5782  -0.5765  -0.5739  -0.5407
    -0.5251  -0.5251  -0.5206  -0.5206  -0.5010  -0.5010  -0.4989  -0.4971
    -0.4971  -0.4870  -0.4870  -0.4845  -0.4845  -0.4837  -0.4751  -0.4751
    -0.4635  -0.4635  -0.4388  -0.4197  -0.3666  -0.3665  -0.3568  -0.3436
    -0.2983  -0.2789  -0.2671  -0.2602  -0.2602  -0.2495  -0.2371  -0.2299
    -0.2299  -0.2248  -0.2248  -0.2219  -0.2152  -0.2152  -0.2147  -0.2147
    -0.1992  -0.1992  -0.1506  -0.1506  -0.1471  -0.1447  -0.1428  -0.1400
    -0.1400  -0.1308  -0.1308  -0.1118  -0.1118  -0.1047  -0.0906  -0.0906
    -0.0703  -0.0604  -0.0604  -0.0190   0.7257   0.7257   0.7577   0.7878
     0.7879   0.8130   0.9483   0.9483   0.9758   1.0209   1.0209   1.0746
     1.0746   1.1698   1.1698   1.3130   1.3348   1.3462   1.8977   1.9030
     1.9080   2.1025   2.1450   2.1450   2.2621   2.3466   2.4032   2.4032
     2.5638   2.5638   2.7867   2.7867   2.7873   2.7873   2.8352   2.8352
     2.9160   2.9161   3.0627   3.0627   3.1171   3.1186   3.1379   3.1855
     3.1855   3.1981   3.3707   3.3708   3.3870   3.3884   3.3884   3.4036
     3.4037   3.4793

     occupation numbers 
     1.0000   1.0000   1.0000   1.0000   1.0000   1.0000   1.0000   1.0000
     1.0000   1.0000   1.0000   1.0000   1.0000   1.0000   1.0000   1.0000
     1.0000   1.0000   1.0000   1.0000   1.0000   1.0000   1.0000   1.0000
     1.0000   1.0000   1.0000   1.0000   1.0000   1.0000   1.0000   1.0000
     1.0000   1.0000   1.0000   1.0000   1.0000   1.0000   1.0000   1.0000
     1.0000   1.0000   1.0000   1.0000   1.0000   1.0000   1.0000   1.0000
     1.0000   1.0000   1.0000   1.0000   1.0000   1.0000   1.0000   1.0000
     1.0000   1.0000   1.0000   1.0000   1.0000   1.0000   1.0000   1.0000
     1.0000   1.0000   1.0000   1.0000   1.0000   1.0000   1.0000   1.0000
     1.0000   1.0000   1.0000   1.0000   1.0000   1.0000   1.0000   1.0000
     1.0000   1.0000   1.0000   1.0000   1.0000   1.0000   1.0000   1.0000
     1.0000   1.0000   1.0000   1.0000   1.0000   1.0000   1.0000   1.0000
     1.0000   1.0000   1.0000   1.0000   1.0000   1.0000   1.0000   1.0000
     1.0000   1.0000   1.0000   1.0000   1.0000   1.0000   1.0000   1.0000
     1.0000   1.0000   1.0000   1.0000   1.0000   1.0000   1.0000   1.0000
     1.0000   1.0000   1.0000   1.0000   1.0000   1.0000   1.0000   1.0000
     1.0000   1.0000   1.0000   1.0000   1.0000   1.0000   1.0000   1.0000
     1.0000   1.0000   1.0000   1.0000   1.0000   1.0000   1.0000   1.0000
     1.0000   1.0000   1.0000   1.0000   1.0000   1.0000   1.0000   1.0000
     1.0000   1.0000   1.0000   1.0000   1.0000   1.0000   1.0000   1.0000
     1.0000   1.0000

          k =-0.5000-0.2245 0.0366 ( 22138 PWs)   bands (ev):

   -12.0620 -12.0596 -12.0584 -12.0326 -12.0309 -12.0300 -12.0078 -12.0067
   -12.0061 -11.9557 -11.9556 -11.9553 -11.9354 -11.9349 -11.9340 -11.9136
   -11.9128 -11.9112  -0.9440  -0.9285  -0.9218  -0.9062  -0.8849  -0.8699
    -0.8689  -0.8590  -0.8508  -0.8351  -0.8326  -0.8271  -0.7938  -0.7735
    -0.7608  -0.7390  -0.7384  -0.7329  -0.6929  -0.6851  -0.6644  -0.6618
    -0.6507  -0.6381  -0.5873  -0.5852  -0.5828  -0.5824  -0.5762  -0.5443
    -0.5320  -0.5199  -0.5197  -0.5197  -0.5192  -0.5156  -0.5151  -0.5147
    -0.5015  -0.4980  -0.4864  -0.4838  -0.4815  -0.4768  -0.4658  -0.4503
    -0.4436  -0.4422  -0.4397  -0.4217  -0.3692  -0.3673  -0.3599  -0.3476
    -0.3148  -0.2748  -0.2648  -0.2642  -0.2483  -0.2458  -0.2357  -0.2355
    -0.2263  -0.2254  -0.2252  -0.2217  -0.2174  -0.2170  -0.2148  -0.2122
    -0.2014  -0.2005  -0.1563  -0.1483  -0.1456  -0.1455  -0.1433  -0.1426
    -0.1379  -0.1325  -0.1215  -0.1157  -0.1089  -0.1048  -0.0981  -0.0841
    -0.0727  -0.0707  -0.0491  -0.0204   0.7099   0.7503   0.7533   0.7707
     0.8058   0.8161   0.9355   0.9539   0.9694   0.9703   1.0113   1.0915
     1.1230   1.1404   1.2152   1.3112   1.3220   1.3375   1.8999   1.9255
     1.9386   2.0549   2.1341   2.2494   2.2784   2.2927   2.3577   2.4377
     2.5158   2.6438   2.6782   2.6790   2.6804   2.7119   2.9403   2.9492
     2.9506   3.0057   3.0422   3.0963   3.1329   3.1339   3.1475   3.1514
     3.1897   3.2604   3.3536   3.3582   3.3672   3.3751   3.3783   3.3784
     3.4009   3.4709

     occupation numbers 
     1.0000   1.0000   1.0000   1.0000   1.0000   1.0000   1.0000   1.0000
     1.0000   1.0000   1.0000   1.0000   1.0000   1.0000   1.0000   1.0000
     1.0000   1.0000   1.0000   1.0000   1.0000   1.0000   1.0000   1.0000
     1.0000   1.0000   1.0000   1.0000   1.0000   1.0000   1.0000   1.0000
     1.0000   1.0000   1.0000   1.0000   1.0000   1.0000   1.0000   1.0000
     1.0000   1.0000   1.0000   1.0000   1.0000   1.0000   1.0000   1.0000
     1.0000   1.0000   1.0000   1.0000   1.0000   1.0000   1.0000   1.0000
     1.0000   1.0000   1.0000   1.0000   1.0000   1.0000   1.0000   1.0000
     1.0000   1.0000   1.0000   1.0000   1.0000   1.0000   1.0000   1.0000
     1.0000   1.0000   1.0000   1.0000   1.0000   1.0000   1.0000   1.0000
     1.0000   1.0000   1.0000   1.0000   1.0000   1.0000   1.0000   1.0000
     1.0000   1.0000   1.0000   1.0000   1.0000   1.0000   1.0000   1.0000
     1.0000   1.0000   1.0000   1.0000   1.0000   1.0000   1.0000   1.0000
     1.0000   1.0000   1.0000   1.0000   1.0000   1.0000   1.0000   1.0000
     1.0000   1.0000   1.0000   1.0000   1.0000   1.0000   1.0000   1.0000
     1.0000   1.0000   1.0000   1.0000   1.0000   1.0000   1.0000   1.0000
     1.0000   1.0000   1.0000   1.0000   1.0000   1.0000   1.0000   1.0000
     1.0000   1.0000   1.0000   1.0000   1.0000   1.0000   1.0000   1.0000
     1.0000   1.0000   1.0000   1.0000   1.0000   1.0000   1.0000   1.0000
     1.0000   1.0000   1.0000   1.0000   1.0000   1.0000   1.0000   1.0000
     1.0000   1.0000

          k =-0.5000-0.2245 0.0732 ( 22163 PWs)   bands (ev):

   -12.0580 -12.0558 -12.0546 -12.0430 -12.0411 -12.0401 -11.9944 -11.9936
   -11.9932 -11.9677 -11.9676 -11.9676 -11.9274 -11.9268 -11.9256 -11.9164
   -11.9156 -11.9141  -0.9413  -0.9196  -0.9155  -0.9048  -0.8940  -0.8918
    -0.8845  -0.8741  -0.8642  -0.8467  -0.8313  -0.8250  -0.7810  -0.7486
    -0.7362  -0.7285  -0.7272  -0.7193  -0.7019  -0.6886  -0.6450  -0.6394
    -0.6222  -0.6181  -0.6098  -0.6087  -0.5975  -0.5948  -0.5703  -0.5579
    -0.5527  -0.5472  -0.5360  -0.5323  -0.5206  -0.5170  -0.5137  -0.5123
    -0.5096  -0.5069  -0.4953  -0.4937  -0.4718  -0.4504  -0.4497  -0.4462
    -0.4274  -0.4177  -0.4147  -0.4135  -0.3789  -0.3777  -0.3701  -0.3662
    -0.3204  -0.2913  -0.2585  -0.2483  -0.2423  -0.2392  -0.2357  -0.2322
    -0.2302  -0.2279  -0.2217  -0.2212  -0.2208  -0.2193  -0.2159  -0.2094
    -0.2091  -0.2033  -0.1576  -0.1513  -0.1486  -0.1474  -0.1441  -0.1423
    -0.1345  -0.1239  -0.1209  -0.1104  -0.1069  -0.1063  -0.1050  -0.0854
    -0.0788  -0.0722  -0.0390  -0.0243   0.7068   0.7330   0.7659   0.7890
     0.7912   0.8538   0.8926   0.9329   0.9525   0.9547   1.0001   1.0779
     1.1627   1.2053   1.2553   1.2851   1.3035   1.3099   1.9100   1.9840
     1.9889   2.0246   2.1845   2.2234   2.2957   2.3283   2.3632   2.3912
     2.5145   2.5301   2.5336   2.5999   2.6298   2.7878   2.8539   2.9977
     3.0304   3.0860   3.1348   3.1484   3.1743   3.1756   3.1772   3.2042
     3.2127   3.2813   3.2993   3.3239   3.3294   3.3319   3.3537   3.3615
     3.3621   3.4463

     occupation numbers 
     1.0000   1.0000   1.0000   1.0000   1.0000   1.0000   1.0000   1.0000
     1.0000   1.0000   1.0000   1.0000   1.0000   1.0000   1.0000   1.0000
     1.0000   1.0000   1.0000   1.0000   1.0000   1.0000   1.0000   1.0000
     1.0000   1.0000   1.0000   1.0000   1.0000   1.0000   1.0000   1.0000
     1.0000   1.0000   1.0000   1.0000   1.0000   1.0000   1.0000   1.0000
     1.0000   1.0000   1.0000   1.0000   1.0000   1.0000   1.0000   1.0000
     1.0000   1.0000   1.0000   1.0000   1.0000   1.0000   1.0000   1.0000
     1.0000   1.0000   1.0000   1.0000   1.0000   1.0000   1.0000   1.0000
     1.0000   1.0000   1.0000   1.0000   1.0000   1.0000   1.0000   1.0000
     1.0000   1.0000   1.0000   1.0000   1.0000   1.0000   1.0000   1.0000
     1.0000   1.0000   1.0000   1.0000   1.0000   1.0000   1.0000   1.0000
     1.0000   1.0000   1.0000   1.0000   1.0000   1.0000   1.0000   1.0000
     1.0000   1.0000   1.0000   1.0000   1.0000   1.0000   1.0000   1.0000
     1.0000   1.0000   1.0000   1.0000   1.0000   1.0000   1.0000   1.0000
     1.0000   1.0000   1.0000   1.0000   1.0000   1.0000   1.0000   1.0000
     1.0000   1.0000   1.0000   1.0000   1.0000   1.0000   1.0000   1.0000
     1.0000   1.0000   1.0000   1.0000   1.0000   1.0000   1.0000   1.0000
     1.0000   1.0000   1.0000   1.0000   1.0000   1.0000   1.0000   1.0000
     1.0000   1.0000   1.0000   1.0000   1.0000   1.0000   1.0000   1.0000
     1.0000   1.0000   1.0000   1.0000   1.0000   1.0000   1.0000   1.0000
     1.0000   1.0000

          k =-0.5000-0.2245-0.1098 ( 22162 PWs)   bands (ev):

   -12.0516 -12.0516 -12.0495 -12.0495 -12.0484 -12.0484 -11.9809 -11.9809
   -11.9804 -11.9804 -11.9802 -11.9802 -11.9210 -11.9210 -11.9203 -11.9203
   -11.9190 -11.9190  -0.9286  -0.9286  -0.9075  -0.9075  -0.9025  -0.9025
    -0.8827  -0.8826  -0.8601  -0.8601  -0.8267  -0.8267  -0.7642  -0.7642
    -0.7309  -0.7309  -0.7177  -0.7177  -0.6635  -0.6635  -0.6478  -0.6478
    -0.6201  -0.6201  -0.6147  -0.6147  -0.5907  -0.5907  -0.5792  -0.5792
    -0.5622  -0.5622  -0.5394  -0.5394  -0.5170  -0.5170  -0.5125  -0.5125
    -0.5059  -0.5059  -0.5030  -0.5030  -0.4606  -0.4606  -0.4369  -0.4369
    -0.4108  -0.4108  -0.3932  -0.3932  -0.3897  -0.3897  -0.3882  -0.3882
    -0.3080  -0.3080  -0.2503  -0.2503  -0.2372  -0.2372  -0.2325  -0.2325
    -0.2271  -0.2271  -0.2238  -0.2238  -0.2184  -0.2184  -0.2182  -0.2182
    -0.2064  -0.2064  -0.1551  -0.1551  -0.1488  -0.1488  -0.1441  -0.1441
    -0.1271  -0.1271  -0.1150  -0.1150  -0.1057  -0.1057  -0.0982  -0.0982
    -0.0748  -0.0748  -0.0306  -0.0306   0.7158   0.7158   0.7731   0.7731
     0.8379   0.8379   0.8997   0.8997   0.9403   0.9403   1.0364   1.0364
     1.2295   1.2295   1.2640   1.2640   1.2855   1.2855   1.9359   1.9359
     2.0803   2.0803   2.1505   2.1505   2.3559   2.3559   2.4138   2.4138
     2.4477   2.4477   2.4816   2.4816   2.7434   2.7434   2.8946   2.8946
     3.0989   3.0989   3.2082   3.2082   3.2201   3.2201   3.2325   3.2325
     3.2492   3.2492   3.2619   3.2619   3.2864   3.2865   3.3224   3.3224
     3.4070   3.4070

     occupation numbers 
     1.0000   1.0000   1.0000   1.0000   1.0000   1.0000   1.0000   1.0000
     1.0000   1.0000   1.0000   1.0000   1.0000   1.0000   1.0000   1.0000
     1.0000   1.0000   1.0000   1.0000   1.0000   1.0000   1.0000   1.0000
     1.0000   1.0000   1.0000   1.0000   1.0000   1.0000   1.0000   1.0000
     1.0000   1.0000   1.0000   1.0000   1.0000   1.0000   1.0000   1.0000
     1.0000   1.0000   1.0000   1.0000   1.0000   1.0000   1.0000   1.0000
     1.0000   1.0000   1.0000   1.0000   1.0000   1.0000   1.0000   1.0000
     1.0000   1.0000   1.0000   1.0000   1.0000   1.0000   1.0000   1.0000
     1.0000   1.0000   1.0000   1.0000   1.0000   1.0000   1.0000   1.0000
     1.0000   1.0000   1.0000   1.0000   1.0000   1.0000   1.0000   1.0000
     1.0000   1.0000   1.0000   1.0000   1.0000   1.0000   1.0000   1.0000
     1.0000   1.0000   1.0000   1.0000   1.0000   1.0000   1.0000   1.0000
     1.0000   1.0000   1.0000   1.0000   1.0000   1.0000   1.0000   1.0000
     1.0000   1.0000   1.0000   1.0000   1.0000   1.0000   1.0000   1.0000
     1.0000   1.0000   1.0000   1.0000   1.0000   1.0000   1.0000   1.0000
     1.0000   1.0000   1.0000   1.0000   1.0000   1.0000   1.0000   1.0000
     1.0000   1.0000   1.0000   1.0000   1.0000   1.0000   1.0000   1.0000
     1.0000   1.0000   1.0000   1.0000   1.0000   1.0000   1.0000   1.0000
     1.0000   1.0000   1.0000   1.0000   1.0000   1.0000   1.0000   1.0000
     1.0000   1.0000   1.0000   1.0000   1.0000   1.0000   1.0000   1.0000
     1.0000   1.0000

          k = 0.0000 0.0642-0.0366 ( 22221 PWs)   bands (ev):

   -12.4169 -12.3394 -12.2707 -12.2327 -12.1763 -12.1272 -12.1153 -12.1132
   -12.0764 -12.0433 -12.0431 -12.0170 -11.9706 -11.9694 -11.9635 -11.9403
   -11.9159 -11.9071  -0.9559  -0.9543  -0.9437  -0.9394  -0.9268  -0.9137
    -0.9058  -0.8960  -0.8813  -0.8806  -0.8729  -0.8464  -0.8438  -0.8371
    -0.8357  -0.8338  -0.8221  -0.8215  -0.8138  -0.7962  -0.7741  -0.7727
    -0.7633  -0.7565  -0.7539  -0.7460  -0.7366  -0.7341  -0.7144  -0.7078
    -0.7052  -0.6927  -0.6898  -0.6749  -0.6747  -0.6733  -0.6512  -0.6489
    -0.6311  -0.6280  -0.5883  -0.5778  -0.5681  -0.5509  -0.5475  -0.5453
    -0.5387  -0.5250  -0.5006  -0.4942  -0.4499  -0.4343  -0.3847  -0.3168
    -0.3141  -0.3011  -0.2887  -0.2815  -0.2805  -0.2797  -0.2717  -0.2655
    -0.2527  -0.2525  -0.2455  -0.2433  -0.2413  -0.2407  -0.2337  -0.2328
    -0.2226  -0.2033  -0.2015  -0.2008  -0.1996  -0.1941  -0.1873  -0.1843
    -0.1813  -0.1777  -0.1740  -0.1607  -0.1591  -0.1531  -0.1367  -0.1307
    -0.1252  -0.0976  -0.0428  -0.0402   0.3413   0.8149   0.8647   0.8668
     0.9367   1.1367   1.1577   1.1706   1.3027   1.3349   1.3958   1.5789
     1.6687   1.8103   1.8176   1.9555   2.3285   2.4472   2.4566   2.5024
     2.5194   2.6992   2.7831   2.8368   2.8421   2.8665   2.8725   2.9526
     3.0981   3.2333   3.2517   3.3102   3.3165   3.3752   3.3812   3.3905
     3.4204   3.4294   3.4385   3.4493   3.4920   3.5328   3.5591   3.5674
     3.6069   3.6219   3.6354   3.7151   3.7432   3.7625   3.8537   3.8612
     3.9716   4.0022

     occupation numbers 
     1.0000   1.0000   1.0000   1.0000   1.0000   1.0000   1.0000   1.0000
     1.0000   1.0000   1.0000   1.0000   1.0000   1.0000   1.0000   1.0000
     1.0000   1.0000   1.0000   1.0000   1.0000   1.0000   1.0000   1.0000
     1.0000   1.0000   1.0000   1.0000   1.0000   1.0000   1.0000   1.0000
     1.0000   1.0000   1.0000   1.0000   1.0000   1.0000   1.0000   1.0000
     1.0000   1.0000   1.0000   1.0000   1.0000   1.0000   1.0000   1.0000
     1.0000   1.0000   1.0000   1.0000   1.0000   1.0000   1.0000   1.0000
     1.0000   1.0000   1.0000   1.0000   1.0000   1.0000   1.0000   1.0000
     1.0000   1.0000   1.0000   1.0000   1.0000   1.0000   1.0000   1.0000
     1.0000   1.0000   1.0000   1.0000   1.0000   1.0000   1.0000   1.0000
     1.0000   1.0000   1.0000   1.0000   1.0000   1.0000   1.0000   1.0000
     1.0000   1.0000   1.0000   1.0000   1.0000   1.0000   1.0000   1.0000
     1.0000   1.0000   1.0000   1.0000   1.0000   1.0000   1.0000   1.0000
     1.0000   1.0000   1.0000   1.0000   1.0000   1.0000   1.0000   1.0000
     1.0000   1.0000   1.0000   1.0000   1.0000   1.0000   1.0000   1.0000
     1.0000   1.0000   1.0000   1.0000   1.0000   1.0000   1.0000   1.0000
     1.0000   1.0000   1.0000   1.0000   1.0000   1.0000   1.0000   1.0000
     1.0000   1.0000   1.0000   1.0000   1.0000   1.0000   1.0000   1.0000
     1.0000   1.0000   1.0000   1.0000   1.0000   1.0000   1.0000   1.0000
     1.0000   1.0000   1.0000   1.0000   1.0000   1.0000   1.0000   1.0000
     1.0000   1.0000

          k = 0.0000 0.0642-0.0732 ( 22190 PWs)   bands (ev):

   -12.4067 -12.3674 -12.2321 -12.2252 -12.1966 -12.1521 -12.1101 -12.0999
   -12.0903 -12.0439 -12.0248 -12.0146 -11.9880 -11.9741 -11.9500 -11.9282
   -11.9229 -11.9114  -0.9512  -0.9510  -0.9324  -0.9266  -0.9220  -0.9145
    -0.9127  -0.9118  -0.9031  -0.9015  -0.8790  -0.8763  -0.8453  -0.8440
    -0.8410  -0.8402  -0.8138  -0.8118  -0.7901  -0.7890  -0.7878  -0.7613
    -0.7596  -0.7538  -0.7449  -0.7411  -0.7330  -0.7310  -0.7200  -0.7131
    -0.7090  -0.6911  -0.6885  -0.6877  -0.6683  -0.6598  -0.6485  -0.6374
    -0.6266  -0.5783  -0.5728  -0.5710  -0.5700  -0.5606  -0.5455  -0.5310
    -0.5208  -0.5079  -0.5066  -0.4727  -0.4650  -0.4423  -0.4069  -0.3423
    -0.3132  -0.3114  -0.3093  -0.2991  -0.2929  -0.2916  -0.2855  -0.2737
    -0.2681  -0.2486  -0.2420  -0.2389  -0.2384  -0.2368  -0.2343  -0.2196
    -0.2163  -0.2139  -0.2124  -0.2117  -0.2021  -0.1820  -0.1817  -0.1794
    -0.1778  -0.1753  -0.1732  -0.1698  -0.1631  -0.1620  -0.1569  -0.1474
    -0.1069  -0.0813  -0.0629  -0.0523   0.5095   0.8466   0.8517   0.8816
     0.9187   0.9865   1.0644   1.1049   1.3593   1.4084   1.4201   1.5875
     1.7990   1.8423   1.8533   2.0128   2.2329   2.2757   2.3222   2.4023
     2.5289   2.6292   2.8058   2.8920   2.9583   3.0122   3.0147   3.0823
     3.1443   3.1785   3.2675   3.2878   3.3260   3.3262   3.3365   3.3420
     3.3480   3.3867   3.4227   3.4545   3.4795   3.5442   3.5540   3.5900
     3.6155   3.6407   3.6449   3.6816   3.6946   3.7067   3.9000   3.9012
     3.9571   3.9733

     occupation numbers 
     1.0000   1.0000   1.0000   1.0000   1.0000   1.0000   1.0000   1.0000
     1.0000   1.0000   1.0000   1.0000   1.0000   1.0000   1.0000   1.0000
     1.0000   1.0000   1.0000   1.0000   1.0000   1.0000   1.0000   1.0000
     1.0000   1.0000   1.0000   1.0000   1.0000   1.0000   1.0000   1.0000
     1.0000   1.0000   1.0000   1.0000   1.0000   1.0000   1.0000   1.0000
     1.0000   1.0000   1.0000   1.0000   1.0000   1.0000   1.0000   1.0000
     1.0000   1.0000   1.0000   1.0000   1.0000   1.0000   1.0000   1.0000
     1.0000   1.0000   1.0000   1.0000   1.0000   1.0000   1.0000   1.0000
     1.0000   1.0000   1.0000   1.0000   1.0000   1.0000   1.0000   1.0000
     1.0000   1.0000   1.0000   1.0000   1.0000   1.0000   1.0000   1.0000
     1.0000   1.0000   1.0000   1.0000   1.0000   1.0000   1.0000   1.0000
     1.0000   1.0000   1.0000   1.0000   1.0000   1.0000   1.0000   1.0000
     1.0000   1.0000   1.0000   1.0000   1.0000   1.0000   1.0000   1.0000
     1.0000   1.0000   1.0000   1.0000   1.0000   1.0000   1.0000   1.0000
     1.0000   1.0000   1.0000   1.0000   1.0000   1.0000   1.0000   1.0000
     1.0000   1.0000   1.0000   1.0000   1.0000   1.0000   1.0000   1.0000
     1.0000   1.0000   1.0000   1.0000   1.0000   1.0000   1.0000   1.0000
     1.0000   1.0000   1.0000   1.0000   1.0000   1.0000   1.0000   1.0000
     1.0000   1.0000   1.0000   1.0000   1.0000   1.0000   1.0000   1.0000
     1.0000   1.0000   1.0000   1.0000   1.0000   1.0000   1.0000   1.0000
     1.0000   1.0000

          k = 0.0000 0.1283-0.0366 ( 22203 PWs)   bands (ev):

   -12.3899 -12.3152 -12.2935 -12.2491 -12.2295 -12.1734 -12.0979 -12.0739
   -12.0464 -12.0425 -12.0310 -12.0159 -11.9909 -11.9592 -11.9548 -11.9360
   -11.9282 -11.9110  -0.9526  -0.9519  -0.9404  -0.9370  -0.9348  -0.9223
    -0.9042  -0.8920  -0.8844  -0.8787  -0.8738  -0.8482  -0.8313  -0.8267
    -0.8259  -0.8183  -0.8152  -0.8047  -0.8027  -0.7850  -0.7849  -0.7799
    -0.7630  -0.7593  -0.7525  -0.7522  -0.7401  -0.7390  -0.7313  -0.7229
    -0.7202  -0.7088  -0.6911  -0.6835  -0.6829  -0.6751  -0.6721  -0.6598
    -0.6402  -0.6372  -0.6211  -0.6091  -0.5951  -0.5305  -0.5271  -0.5211
    -0.4978  -0.4900  -0.4683  -0.4657  -0.4242  -0.4024  -0.3598  -0.3255
    -0.3143  -0.3089  -0.3038  -0.2881  -0.2838  -0.2804  -0.2796  -0.2753
    -0.2546  -0.2536  -0.2529  -0.2516  -0.2491  -0.2240  -0.2180  -0.2117
    -0.2034  -0.2025  -0.1997  -0.1958  -0.1912  -0.1861  -0.1830  -0.1769
    -0.1748  -0.1745  -0.1711  -0.1695  -0.1630  -0.1516  -0.1431  -0.1218
    -0.1036  -0.0951  -0.0812  -0.0502   0.4105   0.6671   0.7345   0.7697
     0.7860   0.9982   1.1359   1.1625   1.2040   1.3395   1.4769   1.5754
     1.9313   1.9339   2.1176   2.1979   2.3444   2.4184   2.5021   2.6137
     2.6239   2.6910   2.6969   2.7978   2.8711   2.9460   2.9462   2.9933
     3.1001   3.1776   3.1862   3.1886   3.2263   3.2331   3.2529   3.3270
     3.3401   3.3464   3.3538   3.3670   3.4643   3.4985   3.5230   3.5284
     3.6556   3.6573   3.6796   3.7100   3.7736   3.7985   3.8027   3.8156
     3.9340   3.9617

     occupation numbers 
     1.0000   1.0000   1.0000   1.0000   1.0000   1.0000   1.0000   1.0000
     1.0000   1.0000   1.0000   1.0000   1.0000   1.0000   1.0000   1.0000
     1.0000   1.0000   1.0000   1.0000   1.0000   1.0000   1.0000   1.0000
     1.0000   1.0000   1.0000   1.0000   1.0000   1.0000   1.0000   1.0000
     1.0000   1.0000   1.0000   1.0000   1.0000   1.0000   1.0000   1.0000
     1.0000   1.0000   1.0000   1.0000   1.0000   1.0000   1.0000   1.0000
     1.0000   1.0000   1.0000   1.0000   1.0000   1.0000   1.0000   1.0000
     1.0000   1.0000   1.0000   1.0000   1.0000   1.0000   1.0000   1.0000
     1.0000   1.0000   1.0000   1.0000   1.0000   1.0000   1.0000   1.0000
     1.0000   1.0000   1.0000   1.0000   1.0000   1.0000   1.0000   1.0000
     1.0000   1.0000   1.0000   1.0000   1.0000   1.0000   1.0000   1.0000
     1.0000   1.0000   1.0000   1.0000   1.0000   1.0000   1.0000   1.0000
     1.0000   1.0000   1.0000   1.0000   1.0000   1.0000   1.0000   1.0000
     1.0000   1.0000   1.0000   1.0000   1.0000   1.0000   1.0000   1.0000
     1.0000   1.0000   1.0000   1.0000   1.0000   1.0000   1.0000   1.0000
     1.0000   1.0000   1.0000   1.0000   1.0000   1.0000   1.0000   1.0000
     1.0000   1.0000   1.0000   1.0000   1.0000   1.0000   1.0000   1.0000
     1.0000   1.0000   1.0000   1.0000   1.0000   1.0000   1.0000   1.0000
     1.0000   1.0000   1.0000   1.0000   1.0000   1.0000   1.0000   1.0000
     1.0000   1.0000   1.0000   1.0000   1.0000   1.0000   1.0000   1.0000
     1.0000   1.0000

          k = 0.0000 0.1283-0.0732 ( 22207 PWs)   bands (ev):

   -12.3801 -12.3422 -12.2850 -12.2525 -12.2120 -12.1420 -12.1352 -12.0775
   -12.0697 -12.0537 -12.0036 -12.0014 -11.9726 -11.9683 -11.9649 -11.9365
   -11.9268 -11.9142  -0.9497  -0.9467  -0.9299  -0.9295  -0.9239  -0.9132
    -0.9107  -0.9097  -0.9068  -0.8994  -0.8901  -0.8860  -0.8298  -0.8279
    -0.8278  -0.8235  -0.8006  -0.7982  -0.7922  -0.7844  -0.7823  -0.7721
    -0.7714  -0.7666  -0.7392  -0.7361  -0.7330  -0.7259  -0.7250  -0.7150
    -0.7123  -0.7095  -0.7038  -0.7008  -0.6929  -0.6891  -0.6786  -0.6458
    -0.6247  -0.6102  -0.6014  -0.5710  -0.5512  -0.5392  -0.5271  -0.5204
    -0.5104  -0.4999  -0.4533  -0.4427  -0.4300  -0.4107  -0.3884  -0.3600
    -0.3256  -0.3178  -0.3097  -0.3056  -0.2999  -0.2977  -0.2921  -0.2854
    -0.2450  -0.2398  -0.2389  -0.2374  -0.2293  -0.2232  -0.2203  -0.2157
    -0.2143  -0.2140  -0.2084  -0.2076  -0.1974  -0.1919  -0.1800  -0.1755
    -0.1728  -0.1693  -0.1654  -0.1649  -0.1561  -0.1558  -0.1344  -0.1323
    -0.1266  -0.0959  -0.0844  -0.0809   0.5660   0.7279   0.7515   0.7721
     0.8275   0.9349   0.9555   1.0569   1.2045   1.3127   1.6008   1.7761
     1.8287   2.0178   2.1608   2.1812   2.2093   2.3183   2.4461   2.5509
     2.5940   2.6181   2.8464   2.8930   2.9665   2.9991   3.0352   3.0449
     3.0856   3.0915   3.1393   3.1814   3.2260   3.2432   3.2789   3.3066
     3.3081   3.3312   3.3753   3.4062   3.4073   3.4565   3.4989   3.5254
     3.5755   3.6502   3.7073   3.7324   3.7725   3.7798   3.8585   3.8614
     3.9185   3.9417

     occupation numbers 
     1.0000   1.0000   1.0000   1.0000   1.0000   1.0000   1.0000   1.0000
     1.0000   1.0000   1.0000   1.0000   1.0000   1.0000   1.0000   1.0000
     1.0000   1.0000   1.0000   1.0000   1.0000   1.0000   1.0000   1.0000
     1.0000   1.0000   1.0000   1.0000   1.0000   1.0000   1.0000   1.0000
     1.0000   1.0000   1.0000   1.0000   1.0000   1.0000   1.0000   1.0000
     1.0000   1.0000   1.0000   1.0000   1.0000   1.0000   1.0000   1.0000
     1.0000   1.0000   1.0000   1.0000   1.0000   1.0000   1.0000   1.0000
     1.0000   1.0000   1.0000   1.0000   1.0000   1.0000   1.0000   1.0000
     1.0000   1.0000   1.0000   1.0000   1.0000   1.0000   1.0000   1.0000
     1.0000   1.0000   1.0000   1.0000   1.0000   1.0000   1.0000   1.0000
     1.0000   1.0000   1.0000   1.0000   1.0000   1.0000   1.0000   1.0000
     1.0000   1.0000   1.0000   1.0000   1.0000   1.0000   1.0000   1.0000
     1.0000   1.0000   1.0000   1.0000   1.0000   1.0000   1.0000   1.0000
     1.0000   1.0000   1.0000   1.0000   1.0000   1.0000   1.0000   1.0000
     1.0000   1.0000   1.0000   1.0000   1.0000   1.0000   1.0000   1.0000
     1.0000   1.0000   1.0000   1.0000   1.0000   1.0000   1.0000   1.0000
     1.0000   1.0000   1.0000   1.0000   1.0000   1.0000   1.0000   1.0000
     1.0000   1.0000   1.0000   1.0000   1.0000   1.0000   1.0000   1.0000
     1.0000   1.0000   1.0000   1.0000   1.0000   1.0000   1.0000   1.0000
     1.0000   1.0000   1.0000   1.0000   1.0000   1.0000   1.0000   1.0000
     1.0000   1.0000

          k =-0.1667 0.0962-0.0366 ( 22182 PWs)   bands (ev):

   -12.3475 -12.2774 -12.2191 -12.2155 -12.1646 -12.1171 -12.0746 -12.0611
   -12.0319 -12.0126 -12.0107 -12.0074 -11.9649 -11.9554 -11.9422 -11.9344
   -11.9136 -11.9118  -0.9441  -0.9324  -0.9270  -0.9081  -0.8960  -0.8901
    -0.8724  -0.8637  -0.8625  -0.8587  -0.8488  -0.8314  -0.8169  -0.8156
    -0.8094  -0.8058  -0.8043  -0.7928  -0.7770  -0.7744  -0.7659  -0.7498
    -0.7417  -0.7398  -0.7310  -0.7294  -0.7254  -0.7182  -0.6963  -0.6867
    -0.6858  -0.6830  -0.6771  -0.6621  -0.6575  -0.6451  -0.6439  -0.6373
    -0.6081  -0.5852  -0.5765  -0.5673  -0.5596  -0.5478  -0.5238  -0.5168
    -0.5146  -0.5100  -0.4819  -0.4474  -0.4037  -0.3564  -0.3554  -0.3400
    -0.3394  -0.3118  -0.3028  -0.2898  -0.2874  -0.2870  -0.2814  -0.2796
    -0.2595  -0.2551  -0.2538  -0.2527  -0.2524  -0.2459  -0.2399  -0.2386
    -0.2237  -0.2223  -0.2031  -0.1941  -0.1866  -0.1846  -0.1789  -0.1672
    -0.1600  -0.1584  -0.1533  -0.1441  -0.1404  -0.1254  -0.1165  -0.0819
    -0.0668  -0.0616  -0.0389  -0.0344   0.5233   0.8449   0.8587   0.8897
     0.9013   1.0789   1.1720   1.1914   1.1930   1.3369   1.3416   1.5504
     1.6546   1.7958   1.9098   1.9585   2.1155   2.1478   2.1689   2.1892
     2.3545   2.4251   2.5536   2.6102   2.6872   2.6908   2.7767   2.8091
     2.8951   2.9071   2.9235   2.9398   3.0268   3.0298   3.0992   3.1233
     3.1399   3.2388   3.2581   3.2696   3.3597   3.3721   3.3937   3.4079
     3.4899   3.5678   3.5830   3.6164   3.6226   3.6284   3.7437   3.7442
     3.8740   3.8837

     occupation numbers 
     1.0000   1.0000   1.0000   1.0000   1.0000   1.0000   1.0000   1.0000
     1.0000   1.0000   1.0000   1.0000   1.0000   1.0000   1.0000   1.0000
     1.0000   1.0000   1.0000   1.0000   1.0000   1.0000   1.0000   1.0000
     1.0000   1.0000   1.0000   1.0000   1.0000   1.0000   1.0000   1.0000
     1.0000   1.0000   1.0000   1.0000   1.0000   1.0000   1.0000   1.0000
     1.0000   1.0000   1.0000   1.0000   1.0000   1.0000   1.0000   1.0000
     1.0000   1.0000   1.0000   1.0000   1.0000   1.0000   1.0000   1.0000
     1.0000   1.0000   1.0000   1.0000   1.0000   1.0000   1.0000   1.0000
     1.0000   1.0000   1.0000   1.0000   1.0000   1.0000   1.0000   1.0000
     1.0000   1.0000   1.0000   1.0000   1.0000   1.0000   1.0000   1.0000
     1.0000   1.0000   1.0000   1.0000   1.0000   1.0000   1.0000   1.0000
     1.0000   1.0000   1.0000   1.0000   1.0000   1.0000   1.0000   1.0000
     1.0000   1.0000   1.0000   1.0000   1.0000   1.0000   1.0000   1.0000
     1.0000   1.0000   1.0000   1.0000   1.0000   1.0000   1.0000   1.0000
     1.0000   1.0000   1.0000   1.0000   1.0000   1.0000   1.0000   1.0000
     1.0000   1.0000   1.0000   1.0000   1.0000   1.0000   1.0000   1.0000
     1.0000   1.0000   1.0000   1.0000   1.0000   1.0000   1.0000   1.0000
     1.0000   1.0000   1.0000   1.0000   1.0000   1.0000   1.0000   1.0000
     1.0000   1.0000   1.0000   1.0000   1.0000   1.0000   1.0000   1.0000
     1.0000   1.0000   1.0000   1.0000   1.0000   1.0000   1.0000   1.0000
     1.0000   1.0000

          k =-0.1667 0.0962-0.0732 ( 22196 PWs)   bands (ev):

   -12.3383 -12.3027 -12.2119 -12.1842 -12.1808 -12.1093 -12.0907 -12.0571
   -12.0423 -12.0367 -11.9941 -11.9872 -11.9677 -11.9515 -11.9463 -11.9261
   -11.9203 -11.9147  -0.9389  -0.9251  -0.9213  -0.9015  -0.8972  -0.8929
    -0.8919  -0.8900  -0.8663  -0.8616  -0.8605  -0.8500  -0.8125  -0.8076
    -0.8067  -0.8065  -0.8048  -0.7993  -0.7724  -0.7625  -0.7518  -0.7466
    -0.7445  -0.7398  -0.7340  -0.7332  -0.7293  -0.7220  -0.7029  -0.6964
    -0.6725  -0.6675  -0.6619  -0.6587  -0.6510  -0.6493  -0.6363  -0.6281
    -0.5975  -0.5776  -0.5577  -0.5491  -0.5416  -0.5307  -0.5282  -0.5232
    -0.5225  -0.5220  -0.4612  -0.4176  -0.4151  -0.3868  -0.3753  -0.3674
    -0.3461  -0.3249  -0.3112  -0.3075  -0.3032  -0.2908  -0.2878  -0.2752
    -0.2710  -0.2626  -0.2425  -0.2403  -0.2348  -0.2329  -0.2302  -0.2280
    -0.2275  -0.2242  -0.2145  -0.2016  -0.1984  -0.1778  -0.1722  -0.1718
    -0.1693  -0.1614  -0.1468  -0.1451  -0.1443  -0.1153  -0.1048  -0.0979
    -0.0930  -0.0552  -0.0533  -0.0417   0.6573   0.8535   0.8742   0.9076
     0.9362   1.0080   1.0261   1.0821   1.2449   1.3212   1.4221   1.5786
     1.7176   1.8558   1.9385   1.9415   2.0265   2.0623   2.1748   2.2625
     2.4000   2.4689   2.5253   2.5274   2.6125   2.6934   2.7013   2.7327
     2.8819   2.8887   2.9856   3.0514   3.1053   3.1177   3.1642   3.1717
     3.1882   3.1888   3.2333   3.2510   3.3235   3.3525   3.3793   3.4266
     3.4609   3.4707   3.5598   3.5630   3.6311   3.6448   3.7911   3.8058
     3.8569   3.8729

     occupation numbers 
     1.0000   1.0000   1.0000   1.0000   1.0000   1.0000   1.0000   1.0000
     1.0000   1.0000   1.0000   1.0000   1.0000   1.0000   1.0000   1.0000
     1.0000   1.0000   1.0000   1.0000   1.0000   1.0000   1.0000   1.0000
     1.0000   1.0000   1.0000   1.0000   1.0000   1.0000   1.0000   1.0000
     1.0000   1.0000   1.0000   1.0000   1.0000   1.0000   1.0000   1.0000
     1.0000   1.0000   1.0000   1.0000   1.0000   1.0000   1.0000   1.0000
     1.0000   1.0000   1.0000   1.0000   1.0000   1.0000   1.0000   1.0000
     1.0000   1.0000   1.0000   1.0000   1.0000   1.0000   1.0000   1.0000
     1.0000   1.0000   1.0000   1.0000   1.0000   1.0000   1.0000   1.0000
     1.0000   1.0000   1.0000   1.0000   1.0000   1.0000   1.0000   1.0000
     1.0000   1.0000   1.0000   1.0000   1.0000   1.0000   1.0000   1.0000
     1.0000   1.0000   1.0000   1.0000   1.0000   1.0000   1.0000   1.0000
     1.0000   1.0000   1.0000   1.0000   1.0000   1.0000   1.0000   1.0000
     1.0000   1.0000   1.0000   1.0000   1.0000   1.0000   1.0000   1.0000
     1.0000   1.0000   1.0000   1.0000   1.0000   1.0000   1.0000   1.0000
     1.0000   1.0000   1.0000   1.0000   1.0000   1.0000   1.0000   1.0000
     1.0000   1.0000   1.0000   1.0000   1.0000   1.0000   1.0000   1.0000
     1.0000   1.0000   1.0000   1.0000   1.0000   1.0000   1.0000   1.0000
     1.0000   1.0000   1.0000   1.0000   1.0000   1.0000   1.0000   1.0000
     1.0000   1.0000   1.0000   1.0000   1.0000   1.0000   1.0000   1.0000
     1.0000   1.0000

          k =-0.1667 0.1604-0.0366 ( 22205 PWs)   bands (ev):

   -12.3158 -12.2717 -12.2493 -12.2104 -12.1907 -12.1567 -12.0578 -12.0355
   -12.0313 -12.0084 -11.9996 -11.9895 -11.9828 -11.9505 -11.9353 -11.9337
   -11.9233 -11.9194  -0.9463  -0.9407  -0.9343  -0.9264  -0.8970  -0.8877
    -0.8851  -0.8725  -0.8669  -0.8667  -0.8529  -0.8217  -0.8129  -0.8118
    -0.8004  -0.8000  -0.7876  -0.7815  -0.7691  -0.7672  -0.7623  -0.7563
    -0.7481  -0.7365  -0.7346  -0.7315  -0.7198  -0.7090  -0.7066  -0.7045
    -0.6900  -0.6856  -0.6817  -0.6687  -0.6661  -0.6578  -0.6507  -0.6218
    -0.6159  -0.6143  -0.6035  -0.5692  -0.5536  -0.5258  -0.4929  -0.4929
    -0.4752  -0.4674  -0.4665  -0.4262  -0.4174  -0.3537  -0.3482  -0.3293
    -0.3258  -0.3172  -0.3026  -0.2936  -0.2905  -0.2891  -0.2769  -0.2691
    -0.2633  -0.2526  -0.2511  -0.2494  -0.2474  -0.2444  -0.2424  -0.2387
    -0.2316  -0.2315  -0.2027  -0.2004  -0.1838  -0.1822  -0.1795  -0.1683
    -0.1648  -0.1619  -0.1495  -0.1347  -0.1307  -0.1088  -0.0926  -0.0888
    -0.0746  -0.0737  -0.0554  -0.0448   0.6083   0.7230   0.7875   0.8173
     0.8286   0.9810   1.1005   1.2053   1.2055   1.3101   1.4486   1.5158
     1.7824   1.8587   2.0322   2.0362   2.0552   2.1935   2.2487   2.2753
     2.2761   2.3641   2.4001   2.6482   2.6749   2.7562   2.7640   2.7932
     2.8966   2.9364   2.9651   2.9841   3.0174   3.0201   3.0309   3.0674
     3.1066   3.1433   3.2268   3.2649   3.3068   3.3650   3.4150   3.5157
     3.5250   3.5518   3.5603   3.6697   3.6781   3.7080   3.7174   3.7338
     3.8118   3.8236

     occupation numbers 
     1.0000   1.0000   1.0000   1.0000   1.0000   1.0000   1.0000   1.0000
     1.0000   1.0000   1.0000   1.0000   1.0000   1.0000   1.0000   1.0000
     1.0000   1.0000   1.0000   1.0000   1.0000   1.0000   1.0000   1.0000
     1.0000   1.0000   1.0000   1.0000   1.0000   1.0000   1.0000   1.0000
     1.0000   1.0000   1.0000   1.0000   1.0000   1.0000   1.0000   1.0000
     1.0000   1.0000   1.0000   1.0000   1.0000   1.0000   1.0000   1.0000
     1.0000   1.0000   1.0000   1.0000   1.0000   1.0000   1.0000   1.0000
     1.0000   1.0000   1.0000   1.0000   1.0000   1.0000   1.0000   1.0000
     1.0000   1.0000   1.0000   1.0000   1.0000   1.0000   1.0000   1.0000
     1.0000   1.0000   1.0000   1.0000   1.0000   1.0000   1.0000   1.0000
     1.0000   1.0000   1.0000   1.0000   1.0000   1.0000   1.0000   1.0000
     1.0000   1.0000   1.0000   1.0000   1.0000   1.0000   1.0000   1.0000
     1.0000   1.0000   1.0000   1.0000   1.0000   1.0000   1.0000   1.0000
     1.0000   1.0000   1.0000   1.0000   1.0000   1.0000   1.0000   1.0000
     1.0000   1.0000   1.0000   1.0000   1.0000   1.0000   1.0000   1.0000
     1.0000   1.0000   1.0000   1.0000   1.0000   1.0000   1.0000   1.0000
     1.0000   1.0000   1.0000   1.0000   1.0000   1.0000   1.0000   1.0000
     1.0000   1.0000   1.0000   1.0000   1.0000   1.0000   1.0000   1.0000
     1.0000   1.0000   1.0000   1.0000   1.0000   1.0000   1.0000   1.0000
     1.0000   1.0000   1.0000   1.0000   1.0000   1.0000   1.0000   1.0000
     1.0000   1.0000

          k =-0.1667 0.1604-0.0732 ( 22191 PWs)   bands (ev):

   -12.3071 -12.2732 -12.2636 -12.2325 -12.1579 -12.1267 -12.0905 -12.0652
   -12.0282 -12.0165 -11.9793 -11.9758 -11.9613 -11.9595 -11.9423 -11.9311
   -11.9294 -11.9214  -0.9413  -0.9368  -0.9228  -0.9138  -0.9026  -0.9006
    -0.8986  -0.8913  -0.8865  -0.8631  -0.8541  -0.8537  -0.8038  -0.8016
    -0.7993  -0.7991  -0.7898  -0.7870  -0.7691  -0.7652  -0.7612  -0.7475
    -0.7443  -0.7331  -0.7293  -0.7251  -0.7234  -0.7175  -0.7059  -0.6965
    -0.6921  -0.6900  -0.6747  -0.6715  -0.6676  -0.6429  -0.6355  -0.6205
    -0.5998  -0.5809  -0.5757  -0.5630  -0.5474  -0.5351  -0.4937  -0.4861
    -0.4847  -0.4718  -0.4544  -0.4288  -0.3916  -0.3851  -0.3813  -0.3389
    -0.3388  -0.3302  -0.3097  -0.3062  -0.3021  -0.2909  -0.2873  -0.2781
    -0.2576  -0.2480  -0.2398  -0.2395  -0.2365  -0.2364  -0.2333  -0.2326
    -0.2323  -0.2297  -0.2138  -0.2095  -0.1957  -0.1861  -0.1765  -0.1748
    -0.1670  -0.1644  -0.1342  -0.1283  -0.1175  -0.1168  -0.0892  -0.0858
    -0.0857  -0.0776  -0.0761  -0.0722   0.7256   0.7882   0.8140   0.8165
     0.8466   0.9291   1.0408   1.0732   1.1640   1.2757   1.5590   1.6578
     1.7633   1.8209   1.9171   1.9608   2.1037   2.1867   2.3321   2.3513
     2.3865   2.3963   2.4029   2.5305   2.6093   2.6398   2.6640   2.7136
     2.9002   2.9412   3.0403   3.0438   3.0592   3.0871   3.0961   3.1506
     3.1782   3.1905   3.2037   3.2455   3.3304   3.3395   3.3435   3.4017
     3.4184   3.4855   3.6080   3.6873   3.7197   3.7214   3.7392   3.7721
     3.7931   3.8200

     occupation numbers 
     1.0000   1.0000   1.0000   1.0000   1.0000   1.0000   1.0000   1.0000
     1.0000   1.0000   1.0000   1.0000   1.0000   1.0000   1.0000   1.0000
     1.0000   1.0000   1.0000   1.0000   1.0000   1.0000   1.0000   1.0000
     1.0000   1.0000   1.0000   1.0000   1.0000   1.0000   1.0000   1.0000
     1.0000   1.0000   1.0000   1.0000   1.0000   1.0000   1.0000   1.0000
     1.0000   1.0000   1.0000   1.0000   1.0000   1.0000   1.0000   1.0000
     1.0000   1.0000   1.0000   1.0000   1.0000   1.0000   1.0000   1.0000
     1.0000   1.0000   1.0000   1.0000   1.0000   1.0000   1.0000   1.0000
     1.0000   1.0000   1.0000   1.0000   1.0000   1.0000   1.0000   1.0000
     1.0000   1.0000   1.0000   1.0000   1.0000   1.0000   1.0000   1.0000
     1.0000   1.0000   1.0000   1.0000   1.0000   1.0000   1.0000   1.0000
     1.0000   1.0000   1.0000   1.0000   1.0000   1.0000   1.0000   1.0000
     1.0000   1.0000   1.0000   1.0000   1.0000   1.0000   1.0000   1.0000
     1.0000   1.0000   1.0000   1.0000   1.0000   1.0000   1.0000   1.0000
     1.0000   1.0000   1.0000   1.0000   1.0000   1.0000   1.0000   1.0000
     1.0000   1.0000   1.0000   1.0000   1.0000   1.0000   1.0000   1.0000
     1.0000   1.0000   1.0000   1.0000   1.0000   1.0000   1.0000   1.0000
     1.0000   1.0000   1.0000   1.0000   1.0000   1.0000   1.0000   1.0000
     1.0000   1.0000   1.0000   1.0000   1.0000   1.0000   1.0000   1.0000
     1.0000   1.0000   1.0000   1.0000   1.0000   1.0000   1.0000   1.0000
     1.0000   1.0000

          k =-0.1667-0.0321-0.0366 ( 22179 PWs)   bands (ev):

   -12.3641 -12.2921 -12.2286 -12.1627 -12.1162 -12.1079 -12.0836 -12.0759
   -12.0702 -12.0379 -12.0196 -11.9870 -11.9677 -11.9492 -11.9470 -11.9385
   -11.9072 -11.9064  -0.9396  -0.9275  -0.9096  -0.8966  -0.8898  -0.8864
    -0.8747  -0.8572  -0.8556  -0.8456  -0.8414  -0.8367  -0.8206  -0.8163
    -0.8132  -0.8118  -0.8074  -0.7983  -0.7968  -0.7947  -0.7814  -0.7652
    -0.7560  -0.7359  -0.7300  -0.7027  -0.7026  -0.7000  -0.6915  -0.6878
    -0.6760  -0.6623  -0.6594  -0.6526  -0.6465  -0.6463  -0.6308  -0.6254
    -0.6176  -0.6127  -0.6103  -0.5766  -0.5695  -0.5688  -0.5599  -0.5373
    -0.5201  -0.5196  -0.4784  -0.4567  -0.4028  -0.3850  -0.3681  -0.3324
    -0.3324  -0.3157  -0.3108  -0.2959  -0.2865  -0.2851  -0.2800  -0.2747
    -0.2701  -0.2620  -0.2538  -0.2530  -0.2424  -0.2404  -0.2385  -0.2270
    -0.2258  -0.2198  -0.2033  -0.1901  -0.1854  -0.1804  -0.1725  -0.1687
    -0.1654  -0.1607  -0.1572  -0.1546  -0.1500  -0.1329  -0.1068  -0.0954
    -0.0751  -0.0735  -0.0239  -0.0197   0.4791   0.9359   0.9514   0.9762
     1.0423   1.0926   1.1831   1.1999   1.2428   1.3514   1.4424   1.4502
     1.5604   1.5638   1.6758   2.0071   2.0153   2.2168   2.2405   2.3155
     2.4454   2.5008   2.5036   2.5301   2.5798   2.6018   2.6943   2.7991
     2.8874   2.8961   2.9436   3.0043   3.0318   3.1001   3.1283   3.2009
     3.2033   3.2601   3.2786   3.3055   3.3510   3.3884   3.4303   3.4554
     3.4625   3.4629   3.4746   3.5498   3.6067   3.6498   3.7585   3.7740
     3.8869   3.9163

     occupation numbers 
     1.0000   1.0000   1.0000   1.0000   1.0000   1.0000   1.0000   1.0000
     1.0000   1.0000   1.0000   1.0000   1.0000   1.0000   1.0000   1.0000
     1.0000   1.0000   1.0000   1.0000   1.0000   1.0000   1.0000   1.0000
     1.0000   1.0000   1.0000   1.0000   1.0000   1.0000   1.0000   1.0000
     1.0000   1.0000   1.0000   1.0000   1.0000   1.0000   1.0000   1.0000
     1.0000   1.0000   1.0000   1.0000   1.0000   1.0000   1.0000   1.0000
     1.0000   1.0000   1.0000   1.0000   1.0000   1.0000   1.0000   1.0000
     1.0000   1.0000   1.0000   1.0000   1.0000   1.0000   1.0000   1.0000
     1.0000   1.0000   1.0000   1.0000   1.0000   1.0000   1.0000   1.0000
     1.0000   1.0000   1.0000   1.0000   1.0000   1.0000   1.0000   1.0000
     1.0000   1.0000   1.0000   1.0000   1.0000   1.0000   1.0000   1.0000
     1.0000   1.0000   1.0000   1.0000   1.0000   1.0000   1.0000   1.0000
     1.0000   1.0000   1.0000   1.0000   1.0000   1.0000   1.0000   1.0000
     1.0000   1.0000   1.0000   1.0000   1.0000   1.0000   1.0000   1.0000
     1.0000   1.0000   1.0000   1.0000   1.0000   1.0000   1.0000   1.0000
     1.0000   1.0000   1.0000   1.0000   1.0000   1.0000   1.0000   1.0000
     1.0000   1.0000   1.0000   1.0000   1.0000   1.0000   1.0000   1.0000
     1.0000   1.0000   1.0000   1.0000   1.0000   1.0000   1.0000   1.0000
     1.0000   1.0000   1.0000   1.0000   1.0000   1.0000   1.0000   1.0000
     1.0000   1.0000   1.0000   1.0000   1.0000   1.0000   1.0000   1.0000
     1.0000   1.0000

          k =-0.1667-0.0321-0.0732 ( 22185 PWs)   bands (ev):

   -12.3546 -12.3181 -12.1929 -12.1565 -12.1329 -12.1193 -12.1029 -12.0837
   -12.0537 -12.0202 -12.0085 -11.9935 -11.9845 -11.9565 -11.9339 -11.9268
   -11.9127 -11.9106  -0.9346  -0.9160  -0.9101  -0.8977  -0.8955  -0.8919
    -0.8824  -0.8712  -0.8696  -0.8608  -0.8438  -0.8427  -0.8193  -0.8164
    -0.8132  -0.8117  -0.8039  -0.7994  -0.7880  -0.7815  -0.7750  -0.7692
    -0.7550  -0.7444  -0.7352  -0.7092  -0.7023  -0.6929  -0.6862  -0.6819
    -0.6677  -0.6652  -0.6576  -0.6447  -0.6410  -0.6366  -0.6296  -0.6188
    -0.6180  -0.6013  -0.5930  -0.5823  -0.5820  -0.5636  -0.5632  -0.5068
    -0.4973  -0.4834  -0.4653  -0.4512  -0.4152  -0.4006  -0.3919  -0.3698
    -0.3416  -0.3244  -0.3197  -0.3076  -0.3073  -0.3017  -0.2941  -0.2915
    -0.2597  -0.2487  -0.2446  -0.2402  -0.2359  -0.2312  -0.2291  -0.2276
    -0.2227  -0.2197  -0.2144  -0.2042  -0.1789  -0.1784  -0.1706  -0.1670
    -0.1588  -0.1574  -0.1534  -0.1524  -0.1514  -0.1496  -0.1230  -0.1146
    -0.0765  -0.0573  -0.0388  -0.0289   0.6215   0.9466   0.9564   0.9622
     0.9887   1.0439   1.0859   1.1875   1.2578   1.3800   1.3970   1.4471
     1.6092   1.6676   1.7447   2.0727   2.0829   2.0861   2.2366   2.2438
     2.3492   2.4388   2.4517   2.5080   2.6048   2.6553   2.7860   2.7984
     2.8158   2.9214   2.9608   2.9666   3.1108   3.1292   3.1982   3.2042
     3.2371   3.3018   3.3075   3.3301   3.3547   3.3620   3.3694   3.4298
     3.4362   3.4472   3.4986   3.5143   3.5485   3.5866   3.8056   3.8335
     3.8702   3.9036

     occupation numbers 
     1.0000   1.0000   1.0000   1.0000   1.0000   1.0000   1.0000   1.0000
     1.0000   1.0000   1.0000   1.0000   1.0000   1.0000   1.0000   1.0000
     1.0000   1.0000   1.0000   1.0000   1.0000   1.0000   1.0000   1.0000
     1.0000   1.0000   1.0000   1.0000   1.0000   1.0000   1.0000   1.0000
     1.0000   1.0000   1.0000   1.0000   1.0000   1.0000   1.0000   1.0000
     1.0000   1.0000   1.0000   1.0000   1.0000   1.0000   1.0000   1.0000
     1.0000   1.0000   1.0000   1.0000   1.0000   1.0000   1.0000   1.0000
     1.0000   1.0000   1.0000   1.0000   1.0000   1.0000   1.0000   1.0000
     1.0000   1.0000   1.0000   1.0000   1.0000   1.0000   1.0000   1.0000
     1.0000   1.0000   1.0000   1.0000   1.0000   1.0000   1.0000   1.0000
     1.0000   1.0000   1.0000   1.0000   1.0000   1.0000   1.0000   1.0000
     1.0000   1.0000   1.0000   1.0000   1.0000   1.0000   1.0000   1.0000
     1.0000   1.0000   1.0000   1.0000   1.0000   1.0000   1.0000   1.0000
     1.0000   1.0000   1.0000   1.0000   1.0000   1.0000   1.0000   1.0000
     1.0000   1.0000   1.0000   1.0000   1.0000   1.0000   1.0000   1.0000
     1.0000   1.0000   1.0000   1.0000   1.0000   1.0000   1.0000   1.0000
     1.0000   1.0000   1.0000   1.0000   1.0000   1.0000   1.0000   1.0000
     1.0000   1.0000   1.0000   1.0000   1.0000   1.0000   1.0000   1.0000
     1.0000   1.0000   1.0000   1.0000   1.0000   1.0000   1.0000   1.0000
     1.0000   1.0000   1.0000   1.0000   1.0000   1.0000   1.0000   1.0000
     1.0000   1.0000

          k =-0.3333 0.2566-0.0366 ( 22135 PWs)   bands (ev):

   -12.1969 -12.1455 -12.1379 -12.1008 -12.0953 -12.0586 -12.0012 -11.9889
   -11.9781 -11.9762 -11.9664 -11.9585 -11.9485 -11.9441 -11.9426 -11.9374
   -11.9108 -11.9067  -0.9497  -0.9476  -0.9360  -0.9327  -0.8958  -0.8907
    -0.8776  -0.8763  -0.8459  -0.8134  -0.8086  -0.7985  -0.7979  -0.7897
    -0.7610  -0.7511  -0.7460  -0.7315  -0.7230  -0.7096  -0.7041  -0.7011
    -0.6938  -0.6902  -0.6760  -0.6636  -0.6578  -0.6452  -0.6285  -0.6068
    -0.6013  -0.6002  -0.5981  -0.5843  -0.5787  -0.5643  -0.5572  -0.5551
    -0.5453  -0.5367  -0.5366  -0.5080  -0.5024  -0.4509  -0.4493  -0.4441
    -0.4306  -0.4250  -0.4247  -0.4042  -0.3954  -0.3936  -0.3544  -0.3229
    -0.3005  -0.2831  -0.2829  -0.2788  -0.2775  -0.2759  -0.2628  -0.2575
    -0.2572  -0.2566  -0.2559  -0.2540  -0.2464  -0.2410  -0.2354  -0.2330
    -0.2304  -0.2165  -0.1968  -0.1883  -0.1794  -0.1762  -0.1571  -0.1539
    -0.1507  -0.1340  -0.1160  -0.1138  -0.0980  -0.0744  -0.0721  -0.0494
    -0.0396  -0.0349  -0.0336  -0.0315   0.8825   0.9102   0.9104   0.9298
     0.9528   0.9777   1.0198   1.0375   1.0567   1.1046   1.1961   1.2388
     1.2799   1.4045   1.4074   1.4517   1.5267   1.6577   1.6580   1.6659
     1.9075   2.0073   2.1774   2.4419   2.4581   2.4616   2.4730   2.5122
     2.6662   2.6972   2.7128   2.7797   2.8182   2.8252   2.8373   2.9158
     2.9331   2.9850   2.9968   3.1756   3.1797   3.2140   3.3128   3.3138
     3.3734   3.3868   3.4105   3.4486   3.4655   3.4899   3.5495   3.5616
     3.5748   3.6399

     occupation numbers 
     1.0000   1.0000   1.0000   1.0000   1.0000   1.0000   1.0000   1.0000
     1.0000   1.0000   1.0000   1.0000   1.0000   1.0000   1.0000   1.0000
     1.0000   1.0000   1.0000   1.0000   1.0000   1.0000   1.0000   1.0000
     1.0000   1.0000   1.0000   1.0000   1.0000   1.0000   1.0000   1.0000
     1.0000   1.0000   1.0000   1.0000   1.0000   1.0000   1.0000   1.0000
     1.0000   1.0000   1.0000   1.0000   1.0000   1.0000   1.0000   1.0000
     1.0000   1.0000   1.0000   1.0000   1.0000   1.0000   1.0000   1.0000
     1.0000   1.0000   1.0000   1.0000   1.0000   1.0000   1.0000   1.0000
     1.0000   1.0000   1.0000   1.0000   1.0000   1.0000   1.0000   1.0000
     1.0000   1.0000   1.0000   1.0000   1.0000   1.0000   1.0000   1.0000
     1.0000   1.0000   1.0000   1.0000   1.0000   1.0000   1.0000   1.0000
     1.0000   1.0000   1.0000   1.0000   1.0000   1.0000   1.0000   1.0000
     1.0000   1.0000   1.0000   1.0000   1.0000   1.0000   1.0000   1.0000
     1.0000   1.0000   1.0000   1.0000   1.0000   1.0000   1.0000   1.0000
     1.0000   1.0000   1.0000   1.0000   1.0000   1.0000   1.0000   1.0000
     1.0000   1.0000   1.0000   1.0000   1.0000   1.0000   1.0000   1.0000
     1.0000   1.0000   1.0000   1.0000   1.0000   1.0000   1.0000   1.0000
     1.0000   1.0000   1.0000   1.0000   1.0000   1.0000   1.0000   1.0000
     1.0000   1.0000   1.0000   1.0000   1.0000   1.0000   1.0000   1.0000
     1.0000   1.0000   1.0000   1.0000   1.0000   1.0000   1.0000   1.0000
     1.0000   1.0000

          k =-0.3333 0.2566-0.0732 ( 22137 PWs)   bands (ev):

   -12.1901 -12.1640 -12.1322 -12.1105 -12.0760 -12.0384 -12.0254 -11.9975
   -11.9871 -11.9806 -11.9614 -11.9523 -11.9412 -11.9406 -11.9380 -11.9305
   -11.9170 -11.9115  -0.9460  -0.9445  -0.9239  -0.9200  -0.9091  -0.9086
    -0.9020  -0.8972  -0.8386  -0.8218  -0.8118  -0.8100  -0.7823  -0.7629
    -0.7598  -0.7427  -0.7377  -0.7340  -0.7306  -0.7139  -0.7021  -0.6884
    -0.6782  -0.6764  -0.6699  -0.6549  -0.6461  -0.6409  -0.6334  -0.6194
    -0.6176  -0.6127  -0.6016  -0.5942  -0.5842  -0.5800  -0.5719  -0.5511
    -0.5373  -0.5135  -0.5097  -0.5067  -0.4860  -0.4582  -0.4454  -0.4410
    -0.4386  -0.4319  -0.4158  -0.4046  -0.3992  -0.3803  -0.3630  -0.3343
    -0.3100  -0.2951  -0.2860  -0.2811  -0.2750  -0.2719  -0.2718  -0.2668
    -0.2612  -0.2595  -0.2552  -0.2548  -0.2515  -0.2415  -0.2299  -0.2219
    -0.2180  -0.2108  -0.2021  -0.1844  -0.1717  -0.1698  -0.1690  -0.1602
    -0.1573  -0.1520  -0.1088  -0.0949  -0.0852  -0.0800  -0.0669  -0.0535
    -0.0476  -0.0458  -0.0410  -0.0319   0.9063   0.9141   0.9234   0.9254
     0.9483   0.9518   1.0030   1.0403   1.0911   1.1019   1.1776   1.2139
     1.3088   1.4262   1.4538   1.4569   1.4774   1.5556   1.6938   1.7006
     2.0446   2.0479   2.1883   2.2741   2.3237   2.3299   2.5379   2.5389
     2.6389   2.6875   2.7680   2.7738   2.8204   2.8808   2.9094   2.9534
     2.9827   3.0489   3.0791   3.0924   3.1265   3.2262   3.2669   3.3198
     3.3350   3.3414   3.4132   3.4326   3.4887   3.5254   3.5390   3.5642
     3.5940   3.6197

     occupation numbers 
     1.0000   1.0000   1.0000   1.0000   1.0000   1.0000   1.0000   1.0000
     1.0000   1.0000   1.0000   1.0000   1.0000   1.0000   1.0000   1.0000
     1.0000   1.0000   1.0000   1.0000   1.0000   1.0000   1.0000   1.0000
     1.0000   1.0000   1.0000   1.0000   1.0000   1.0000   1.0000   1.0000
     1.0000   1.0000   1.0000   1.0000   1.0000   1.0000   1.0000   1.0000
     1.0000   1.0000   1.0000   1.0000   1.0000   1.0000   1.0000   1.0000
     1.0000   1.0000   1.0000   1.0000   1.0000   1.0000   1.0000   1.0000
     1.0000   1.0000   1.0000   1.0000   1.0000   1.0000   1.0000   1.0000
     1.0000   1.0000   1.0000   1.0000   1.0000   1.0000   1.0000   1.0000
     1.0000   1.0000   1.0000   1.0000   1.0000   1.0000   1.0000   1.0000
     1.0000   1.0000   1.0000   1.0000   1.0000   1.0000   1.0000   1.0000
     1.0000   1.0000   1.0000   1.0000   1.0000   1.0000   1.0000   1.0000
     1.0000   1.0000   1.0000   1.0000   1.0000   1.0000   1.0000   1.0000
     1.0000   1.0000   1.0000   1.0000   1.0000   1.0000   1.0000   1.0000
     1.0000   1.0000   1.0000   1.0000   1.0000   1.0000   1.0000   1.0000
     1.0000   1.0000   1.0000   1.0000   1.0000   1.0000   1.0000   1.0000
     1.0000   1.0000   1.0000   1.0000   1.0000   1.0000   1.0000   1.0000
     1.0000   1.0000   1.0000   1.0000   1.0000   1.0000   1.0000   1.0000
     1.0000   1.0000   1.0000   1.0000   1.0000   1.0000   1.0000   1.0000
     1.0000   1.0000   1.0000   1.0000   1.0000   1.0000   1.0000   1.0000
     1.0000   1.0000

          k =-0.3333 0.3208-0.0366 ( 22144 PWs)   bands (ev):

   -12.2135 -12.1597 -12.1129 -12.1002 -12.0639 -12.0328 -12.0231 -12.0083
   -12.0020 -11.9846 -11.9657 -11.9632 -11.9492 -11.9378 -11.9356 -11.9215
   -11.9128 -11.9073  -0.9353  -0.9244  -0.9190  -0.9077  -0.8756  -0.8683
    -0.8680  -0.8575  -0.8508  -0.8435  -0.8334  -0.8105  -0.8062  -0.7866
    -0.7808  -0.7576  -0.7490  -0.7364  -0.7313  -0.7195  -0.7147  -0.6917
    -0.6888  -0.6798  -0.6761  -0.6684  -0.6576  -0.6509  -0.6373  -0.6336
    -0.6057  -0.5802  -0.5790  -0.5748  -0.5683  -0.5644  -0.5507  -0.5414
    -0.5325  -0.5323  -0.5145  -0.5119  -0.5028  -0.4869  -0.4748  -0.4699
    -0.4610  -0.4468  -0.4276  -0.4262  -0.3999  -0.3750  -0.3733  -0.3223
    -0.3196  -0.2870  -0.2843  -0.2825  -0.2800  -0.2676  -0.2567  -0.2561
    -0.2561  -0.2549  -0.2509  -0.2448  -0.2397  -0.2372  -0.2372  -0.2314
    -0.2229  -0.2154  -0.1947  -0.1790  -0.1644  -0.1619  -0.1581  -0.1528
    -0.1505  -0.1327  -0.1160  -0.1125  -0.1067  -0.0847  -0.0815  -0.0535
    -0.0513  -0.0454  -0.0346  -0.0333   0.8557   0.8731   0.8885   0.8893
     0.8932   0.9280   0.9537   1.0171   1.1143   1.1546   1.1678   1.2595
     1.2906   1.3136   1.4024   1.6193   1.6670   1.7564   1.8382   1.8817
     1.9719   2.1035   2.1781   2.2883   2.3201   2.3738   2.5237   2.6011
     2.6081   2.6326   2.6789   2.7744   2.8038   2.8465   2.8647   2.9358
     2.9625   2.9864   3.0481   3.1029   3.1104   3.2152   3.2758   3.2763
     3.2822   3.3608   3.4100   3.4282   3.4301   3.4420   3.4800   3.5954
     3.6082   3.6106

     occupation numbers 
     1.0000   1.0000   1.0000   1.0000   1.0000   1.0000   1.0000   1.0000
     1.0000   1.0000   1.0000   1.0000   1.0000   1.0000   1.0000   1.0000
     1.0000   1.0000   1.0000   1.0000   1.0000   1.0000   1.0000   1.0000
     1.0000   1.0000   1.0000   1.0000   1.0000   1.0000   1.0000   1.0000
     1.0000   1.0000   1.0000   1.0000   1.0000   1.0000   1.0000   1.0000
     1.0000   1.0000   1.0000   1.0000   1.0000   1.0000   1.0000   1.0000
     1.0000   1.0000   1.0000   1.0000   1.0000   1.0000   1.0000   1.0000
     1.0000   1.0000   1.0000   1.0000   1.0000   1.0000   1.0000   1.0000
     1.0000   1.0000   1.0000   1.0000   1.0000   1.0000   1.0000   1.0000
     1.0000   1.0000   1.0000   1.0000   1.0000   1.0000   1.0000   1.0000
     1.0000   1.0000   1.0000   1.0000   1.0000   1.0000   1.0000   1.0000
     1.0000   1.0000   1.0000   1.0000   1.0000   1.0000   1.0000   1.0000
     1.0000   1.0000   1.0000   1.0000   1.0000   1.0000   1.0000   1.0000
     1.0000   1.0000   1.0000   1.0000   1.0000   1.0000   1.0000   1.0000
     1.0000   1.0000   1.0000   1.0000   1.0000   1.0000   1.0000   1.0000
     1.0000   1.0000   1.0000   1.0000   1.0000   1.0000   1.0000   1.0000
     1.0000   1.0000   1.0000   1.0000   1.0000   1.0000   1.0000   1.0000
     1.0000   1.0000   1.0000   1.0000   1.0000   1.0000   1.0000   1.0000
     1.0000   1.0000   1.0000   1.0000   1.0000   1.0000   1.0000   1.0000
     1.0000   1.0000   1.0000   1.0000   1.0000   1.0000   1.0000   1.0000
     1.0000   1.0000

          k =-0.3333 0.3208-0.0732 ( 22154 PWs)   bands (ev):

   -12.2063 -12.1790 -12.0954 -12.0869 -12.0769 -12.0337 -12.0203 -12.0159
   -12.0094 -11.9818 -11.9753 -11.9573 -11.9449 -11.9303 -11.9266 -11.9233
   -11.9194 -11.9113  -0.9326  -0.9225  -0.9055  -0.8978  -0.8949  -0.8890
    -0.8821  -0.8737  -0.8536  -0.8392  -0.8313  -0.8303  -0.7948  -0.7865
    -0.7536  -0.7474  -0.7473  -0.7403  -0.7355  -0.7233  -0.7089  -0.6916
    -0.6829  -0.6582  -0.6576  -0.6566  -0.6522  -0.6513  -0.6391  -0.6332
    -0.6260  -0.5929  -0.5865  -0.5785  -0.5641  -0.5581  -0.5543  -0.5466
    -0.5384  -0.5193  -0.5192  -0.4933  -0.4909  -0.4903  -0.4804  -0.4712
    -0.4482  -0.4416  -0.4263  -0.4091  -0.3973  -0.3926  -0.3865  -0.3374
    -0.3334  -0.3073  -0.2869  -0.2812  -0.2744  -0.2735  -0.2707  -0.2622
    -0.2510  -0.2487  -0.2426  -0.2425  -0.2386  -0.2309  -0.2284  -0.2249
    -0.2230  -0.2151  -0.1993  -0.1718  -0.1717  -0.1615  -0.1610  -0.1539
    -0.1534  -0.1303  -0.1278  -0.1168  -0.0973  -0.0743  -0.0666  -0.0573
    -0.0548  -0.0508  -0.0457  -0.0412   0.8738   0.8796   0.8799   0.9097
     0.9123   0.9128   0.9749   0.9989   1.0720   1.1074   1.1637   1.2404
     1.3445   1.3911   1.4030   1.5442   1.6867   1.7941   1.8088   1.8468
     2.0317   2.2062   2.2282   2.2513   2.3534   2.3715   2.3804   2.4846
     2.5054   2.6398   2.6889   2.7114   2.7493   2.9226   2.9323   2.9794
     3.0210   3.0733   3.0939   3.1120   3.1991   3.2098   3.2180   3.2849
     3.3069   3.3419   3.3504   3.3710   3.4076   3.4171   3.4908   3.5784
     3.6173   3.6318

     occupation numbers 
     1.0000   1.0000   1.0000   1.0000   1.0000   1.0000   1.0000   1.0000
     1.0000   1.0000   1.0000   1.0000   1.0000   1.0000   1.0000   1.0000
     1.0000   1.0000   1.0000   1.0000   1.0000   1.0000   1.0000   1.0000
     1.0000   1.0000   1.0000   1.0000   1.0000   1.0000   1.0000   1.0000
     1.0000   1.0000   1.0000   1.0000   1.0000   1.0000   1.0000   1.0000
     1.0000   1.0000   1.0000   1.0000   1.0000   1.0000   1.0000   1.0000
     1.0000   1.0000   1.0000   1.0000   1.0000   1.0000   1.0000   1.0000
     1.0000   1.0000   1.0000   1.0000   1.0000   1.0000   1.0000   1.0000
     1.0000   1.0000   1.0000   1.0000   1.0000   1.0000   1.0000   1.0000
     1.0000   1.0000   1.0000   1.0000   1.0000   1.0000   1.0000   1.0000
     1.0000   1.0000   1.0000   1.0000   1.0000   1.0000   1.0000   1.0000
     1.0000   1.0000   1.0000   1.0000   1.0000   1.0000   1.0000   1.0000
     1.0000   1.0000   1.0000   1.0000   1.0000   1.0000   1.0000   1.0000
     1.0000   1.0000   1.0000   1.0000   1.0000   1.0000   1.0000   1.0000
     1.0000   1.0000   1.0000   1.0000   1.0000   1.0000   1.0000   1.0000
     1.0000   1.0000   1.0000   1.0000   1.0000   1.0000   1.0000   1.0000
     1.0000   1.0000   1.0000   1.0000   1.0000   1.0000   1.0000   1.0000
     1.0000   1.0000   1.0000   1.0000   1.0000   1.0000   1.0000   1.0000
     1.0000   1.0000   1.0000   1.0000   1.0000   1.0000   1.0000   1.0000
     1.0000   1.0000   1.0000   1.0000   1.0000   1.0000   1.0000   1.0000
     1.0000   1.0000

          k = 0.5000-0.2245-0.0366 ( 22138 PWs)   bands (ev):

   -12.0620 -12.0596 -12.0584 -12.0326 -12.0309 -12.0300 -12.0078 -12.0067
   -12.0061 -11.9557 -11.9556 -11.9553 -11.9354 -11.9349 -11.9340 -11.9136
   -11.9128 -11.9112  -0.9440  -0.9285  -0.9218  -0.9062  -0.8849  -0.8699
    -0.8689  -0.8590  -0.8508  -0.8351  -0.8326  -0.8271  -0.7938  -0.7735
    -0.7608  -0.7390  -0.7384  -0.7329  -0.6929  -0.6851  -0.6644  -0.6618
    -0.6507  -0.6381  -0.5873  -0.5852  -0.5828  -0.5824  -0.5762  -0.5443
    -0.5320  -0.5199  -0.5197  -0.5197  -0.5192  -0.5156  -0.5151  -0.5147
    -0.5015  -0.4980  -0.4864  -0.4838  -0.4815  -0.4768  -0.4658  -0.4503
    -0.4436  -0.4422  -0.4397  -0.4217  -0.3692  -0.3673  -0.3599  -0.3476
    -0.3148  -0.2748  -0.2648  -0.2642  -0.2483  -0.2458  -0.2357  -0.2355
    -0.2263  -0.2254  -0.2252  -0.2217  -0.2174  -0.2170  -0.2148  -0.2122
    -0.2014  -0.2005  -0.1563  -0.1483  -0.1456  -0.1455  -0.1433  -0.1426
    -0.1379  -0.1325  -0.1215  -0.1157  -0.1089  -0.1048  -0.0981  -0.0841
    -0.0727  -0.0707  -0.0491  -0.0204   0.7099   0.7503   0.7533   0.7707
     0.8058   0.8161   0.9355   0.9539   0.9694   0.9703   1.0113   1.0915
     1.1230   1.1404   1.2152   1.3112   1.3220   1.3375   1.8999   1.9255
     1.9386   2.0549   2.1341   2.2494   2.2784   2.2927   2.3577   2.4377
     2.5158   2.6438   2.6782   2.6790   2.6804   2.7119   2.9403   2.9492
     2.9506   3.0057   3.0422   3.0963   3.1329   3.1339   3.1475   3.1514
     3.1897   3.2604   3.3536   3.3582   3.3672   3.3751   3.3783   3.3784
     3.4009   3.4709

     occupation numbers 
     1.0000   1.0000   1.0000   1.0000   1.0000   1.0000   1.0000   1.0000
     1.0000   1.0000   1.0000   1.0000   1.0000   1.0000   1.0000   1.0000
     1.0000   1.0000   1.0000   1.0000   1.0000   1.0000   1.0000   1.0000
     1.0000   1.0000   1.0000   1.0000   1.0000   1.0000   1.0000   1.0000
     1.0000   1.0000   1.0000   1.0000   1.0000   1.0000   1.0000   1.0000
     1.0000   1.0000   1.0000   1.0000   1.0000   1.0000   1.0000   1.0000
     1.0000   1.0000   1.0000   1.0000   1.0000   1.0000   1.0000   1.0000
     1.0000   1.0000   1.0000   1.0000   1.0000   1.0000   1.0000   1.0000
     1.0000   1.0000   1.0000   1.0000   1.0000   1.0000   1.0000   1.0000
     1.0000   1.0000   1.0000   1.0000   1.0000   1.0000   1.0000   1.0000
     1.0000   1.0000   1.0000   1.0000   1.0000   1.0000   1.0000   1.0000
     1.0000   1.0000   1.0000   1.0000   1.0000   1.0000   1.0000   1.0000
     1.0000   1.0000   1.0000   1.0000   1.0000   1.0000   1.0000   1.0000
     1.0000   1.0000   1.0000   1.0000   1.0000   1.0000   1.0000   1.0000
     1.0000   1.0000   1.0000   1.0000   1.0000   1.0000   1.0000   1.0000
     1.0000   1.0000   1.0000   1.0000   1.0000   1.0000   1.0000   1.0000
     1.0000   1.0000   1.0000   1.0000   1.0000   1.0000   1.0000   1.0000
     1.0000   1.0000   1.0000   1.0000   1.0000   1.0000   1.0000   1.0000
     1.0000   1.0000   1.0000   1.0000   1.0000   1.0000   1.0000   1.0000
     1.0000   1.0000   1.0000   1.0000   1.0000   1.0000   1.0000   1.0000
     1.0000   1.0000

          k = 0.5000-0.2245-0.0732 ( 22163 PWs)   bands (ev):

   -12.0580 -12.0558 -12.0546 -12.0430 -12.0411 -12.0401 -11.9944 -11.9936
   -11.9932 -11.9677 -11.9676 -11.9676 -11.9274 -11.9268 -11.9256 -11.9164
   -11.9156 -11.9141  -0.9413  -0.9196  -0.9155  -0.9048  -0.8940  -0.8918
    -0.8845  -0.8741  -0.8642  -0.8467  -0.8313  -0.8250  -0.7810  -0.7486
    -0.7362  -0.7285  -0.7272  -0.7193  -0.7019  -0.6886  -0.6450  -0.6394
    -0.6222  -0.6181  -0.6098  -0.6087  -0.5975  -0.5948  -0.5703  -0.5579
    -0.5527  -0.5472  -0.5360  -0.5323  -0.5206  -0.5170  -0.5137  -0.5123
    -0.5096  -0.5069  -0.4953  -0.4937  -0.4718  -0.4504  -0.4497  -0.4462
    -0.4274  -0.4177  -0.4147  -0.4135  -0.3789  -0.3777  -0.3701  -0.3662
    -0.3204  -0.2913  -0.2585  -0.2483  -0.2423  -0.2392  -0.2357  -0.2322
    -0.2302  -0.2279  -0.2217  -0.2212  -0.2208  -0.2193  -0.2159  -0.2094
    -0.2091  -0.2033  -0.1576  -0.1513  -0.1486  -0.1474  -0.1441  -0.1423
    -0.1345  -0.1239  -0.1209  -0.1104  -0.1069  -0.1063  -0.1050  -0.0854
    -0.0788  -0.0722  -0.0390  -0.0243   0.7068   0.7330   0.7659   0.7890
     0.7912   0.8538   0.8926   0.9329   0.9525   0.9547   1.0001   1.0778
     1.1627   1.2053   1.2553   1.2851   1.3035   1.3099   1.9100   1.9840
     1.9889   2.0246   2.1845   2.2234   2.2957   2.3283   2.3632   2.3912
     2.5145   2.5301   2.5336   2.5999   2.6298   2.7878   2.8539   2.9977
     3.0304   3.0860   3.1348   3.1484   3.1743   3.1756   3.1772   3.2043
     3.2127   3.2813   3.2993   3.3239   3.3294   3.3319   3.3537   3.3615
     3.3621   3.4463

     occupation numbers 
     1.0000   1.0000   1.0000   1.0000   1.0000   1.0000   1.0000   1.0000
     1.0000   1.0000   1.0000   1.0000   1.0000   1.0000   1.0000   1.0000
     1.0000   1.0000   1.0000   1.0000   1.0000   1.0000   1.0000   1.0000
     1.0000   1.0000   1.0000   1.0000   1.0000   1.0000   1.0000   1.0000
     1.0000   1.0000   1.0000   1.0000   1.0000   1.0000   1.0000   1.0000
     1.0000   1.0000   1.0000   1.0000   1.0000   1.0000   1.0000   1.0000
     1.0000   1.0000   1.0000   1.0000   1.0000   1.0000   1.0000   1.0000
     1.0000   1.0000   1.0000   1.0000   1.0000   1.0000   1.0000   1.0000
     1.0000   1.0000   1.0000   1.0000   1.0000   1.0000   1.0000   1.0000
     1.0000   1.0000   1.0000   1.0000   1.0000   1.0000   1.0000   1.0000
     1.0000   1.0000   1.0000   1.0000   1.0000   1.0000   1.0000   1.0000
     1.0000   1.0000   1.0000   1.0000   1.0000   1.0000   1.0000   1.0000
     1.0000   1.0000   1.0000   1.0000   1.0000   1.0000   1.0000   1.0000
     1.0000   1.0000   1.0000   1.0000   1.0000   1.0000   1.0000   1.0000
     1.0000   1.0000   1.0000   1.0000   1.0000   1.0000   1.0000   1.0000
     1.0000   1.0000   1.0000   1.0000   1.0000   1.0000   1.0000   1.0000
     1.0000   1.0000   1.0000   1.0000   1.0000   1.0000   1.0000   1.0000
     1.0000   1.0000   1.0000   1.0000   1.0000   1.0000   1.0000   1.0000
     1.0000   1.0000   1.0000   1.0000   1.0000   1.0000   1.0000   1.0000
     1.0000   1.0000   1.0000   1.0000   1.0000   1.0000   1.0000   1.0000
     1.0000   1.0000

     highest occupied level (ev):     4.0242

!    total energy              =   -3254.19564678 Ry
     estimated scf accuracy    <          3.5E-09 Ry

     The total energy is the sum of the following terms:
     one-electron contribution =   -1620.36486207 Ry
     hartree contribution      =    1148.78452382 Ry
     xc contribution           =    -982.31165267 Ry
     ewald contribution        =   -1800.30365586 Ry

     convergence has been achieved in  32 iterations

     Forces acting on atoms (cartesian axes, Ry/au):

     atom    1 type  1   force =     0.00000000    0.00000213   -0.00149511
     atom    2 type  1   force =     0.00000000    0.00000041   -0.00149688
     atom    3 type  2   force =     0.00000000    0.00000510    0.00149615
     atom    4 type  2   force =     0.00000000   -0.00000369    0.00149819
     atom    5 type  1   force =     0.00000000    0.00000276   -0.00149832
     atom    6 type  1   force =     0.00000000    0.00000090   -0.00149950
     atom    7 type  2   force =     0.00000000    0.00000549    0.00150210
     atom    8 type  2   force =     0.00000000   -0.00000339    0.00150060
     atom    9 type  1   force =     0.00000000    0.00000479   -0.00150078
     atom   10 type  1   force =     0.00000000    0.00000187   -0.00150383
     atom   11 type  2   force =     0.00000000    0.00000498    0.00149986
     atom   12 type  2   force =     0.00000000   -0.00000354    0.00149974
     atom   13 type  1   force =     0.00000000    0.00000266   -0.00149556
     atom   14 type  1   force =     0.00000000   -0.00000295   -0.00150016
     atom   15 type  2   force =     0.00000000    0.00000414    0.00149621
     atom   16 type  2   force =     0.00000000   -0.00000520    0.00149795
     atom   17 type  1   force =     0.00000000    0.00000191   -0.00149902
     atom   18 type  1   force =     0.00000000   -0.00000258   -0.00150033
     atom   19 type  2   force =     0.00000000    0.00000497    0.00150211
     atom   20 type  2   force =     0.00000000   -0.00000451    0.00150121
     atom   21 type  1   force =     0.00000000    0.00000121   -0.00150453
     atom   22 type  1   force =     0.00000000   -0.00000140   -0.00149853
     atom   23 type  2   force =     0.00000000    0.00000436    0.00149981
     atom   24 type  2   force =     0.00000000   -0.00000428    0.00149894
     atom   25 type  1   force =     0.00000000    0.00000092   -0.00149746
     atom   26 type  1   force =     0.00000000   -0.00000201   -0.00149442
     atom   27 type  2   force =     0.00000000    0.00000440    0.00149567
     atom   28 type  2   force =     0.00000000   -0.00000404    0.00149834
     atom   29 type  1   force =     0.00000000   -0.00000162   -0.00149763
     atom   30 type  1   force =     0.00000000   -0.00000377   -0.00150036
     atom   31 type  2   force =     0.00000000    0.00000323    0.00150317
     atom   32 type  2   force =     0.00000000   -0.00000523    0.00150028
     atom   33 type  1   force =     0.00000000   -0.00000254   -0.00150221
     atom   34 type  1   force =     0.00000000   -0.00000409   -0.00150549
     atom   35 type  2   force =     0.00000000    0.00000437    0.00150015
     atom   36 type  2   force =     0.00000000   -0.00000575    0.00149963
     The non-local contrib.  to forces
     atom    1 type  1   force =     0.00000000   -0.00002890   -0.16402331
     atom    2 type  1   force =     0.00000000    0.00002867   -0.16402955
     atom    3 type  2   force =     0.00000000    0.00022966   -0.14946009
     atom    4 type  2   force =     0.00000000   -0.00022819   -0.14945978
     atom    5 type  1   force =     0.00000000   -0.00002846   -0.16403251
     atom    6 type  1   force =     0.00000000    0.00002877   -0.16403145
     atom    7 type  2   force =     0.00000000    0.00022916   -0.14944786
     atom    8 type  2   force =     0.00000000   -0.00022862   -0.14945117
     atom    9 type  1   force =     0.00000000   -0.00002481   -0.16403767
     atom   10 type  1   force =     0.00000000    0.00002798   -0.16403626
     atom   11 type  2   force =     0.00000000    0.00022902   -0.14945429
     atom   12 type  2   force =     0.00000000   -0.00023144   -0.14945058
     atom   13 type  1   force =     0.00000000   -0.00002511   -0.16402231
     atom   14 type  1   force =     0.00000000    0.00002719   -0.16402985
     atom   15 type  2   force =     0.00000000    0.00022870   -0.14946085
     atom   16 type  2   force =     0.00000000   -0.00023119   -0.14946047
     atom   17 type  1   force =     0.00000000   -0.00002796   -0.16403364
     atom   18 type  1   force =     0.00000000    0.00002715   -0.16403171
     atom   19 type  2   force =     0.00000000    0.00023014   -0.14944996
     atom   20 type  2   force =     0.00000000   -0.00022937   -0.14945028
     atom   21 type  1   force =     0.00000000   -0.00002802   -0.16403810
     atom   22 type  1   force =     0.00000000    0.00002586   -0.16403416
     atom   23 type  2   force =     0.00000000    0.00022903   -0.14945132
     atom   24 type  2   force =     0.00000000   -0.00022690   -0.14945193
     atom   25 type  1   force =     0.00000000   -0.00002797   -0.16402399
     atom   26 type  1   force =     0.00000000    0.00002638   -0.16402676
     atom   27 type  2   force =     0.00000000    0.00023029   -0.14946048
     atom   28 type  2   force =     0.00000000   -0.00022830   -0.14945998
     atom   29 type  1   force =     0.00000000   -0.00002688   -0.16403354
     atom   30 type  1   force =     0.00000000    0.00002628   -0.16403159
     atom   31 type  2   force =     0.00000000    0.00022998   -0.14944719
     atom   32 type  2   force =     0.00000000   -0.00022995   -0.14945173
     atom   33 type  1   force =     0.00000000   -0.00002931   -0.16403743
     atom   34 type  1   force =     0.00000000    0.00002868   -0.16403764
     atom   35 type  2   force =     0.00000000    0.00022995   -0.14945307
     atom   36 type  2   force =     0.00000000   -0.00022923   -0.14945060
     The ionic contribution  to forces
     atom    1 type  1   force =    -0.00000000    0.00000001   -1.04302411
     atom    2 type  1   force =     0.00000000    0.00000001   -1.04302408
     atom    3 type  2   force =    -0.00000000    0.00000000    1.04302410
     atom    4 type  2   force =     0.00000000    0.00000000    1.04302409
     atom    5 type  1   force =    -0.00000000    0.00000001   -1.04302408
     atom    6 type  1   force =     0.00000000    0.00000001   -1.04302411
     atom    7 type  2   force =    -0.00000000    0.00000000    1.04302409
     atom    8 type  2   force =     0.00000000    0.00000000    1.04302411
     atom    9 type  1   force =    -0.00000000    0.00000001   -1.04302411
     atom   10 type  1   force =     0.00000000    0.00000001   -1.04302411
     atom   11 type  2   force =    -0.00000000    0.00000000    1.04302411
     atom   12 type  2   force =     0.00000000    0.00000000    1.04302410
     atom   13 type  1   force =    -0.00000001    0.00000001   -1.04302411
     atom   14 type  1   force =     0.00000001   -0.00000001   -1.04302408
     atom   15 type  2   force =    -0.00000001    0.00000000    1.04302410
     atom   16 type  2   force =     0.00000001   -0.00000000    1.04302409
     atom   17 type  1   force =    -0.00000001    0.00000001   -1.04302408
     atom   18 type  1   force =     0.00000001   -0.00000001   -1.04302411
     atom   19 type  2   force =    -0.00000001    0.00000000    1.04302409
     atom   20 type  2   force =     0.00000001   -0.00000000    1.04302411
     atom   21 type  1   force =    -0.00000001    0.00000001   -1.04302411
     atom   22 type  1   force =     0.00000001   -0.00000001   -1.04302411
     atom   23 type  2   force =    -0.00000001    0.00000000    1.04302411
     atom   24 type  2   force =     0.00000001   -0.00000000    1.04302410
     atom   25 type  1   force =    -0.00000000   -0.00000001   -1.04302411
     atom   26 type  1   force =     0.00000000   -0.00000001   -1.04302408
     atom   27 type  2   force =    -0.00000000   -0.00000000    1.04302410
     atom   28 type  2   force =     0.00000000   -0.00000000    1.04302409
     atom   29 type  1   force =    -0.00000000   -0.00000001   -1.04302408
     atom   30 type  1   force =     0.00000000   -0.00000001   -1.04302411
     atom   31 type  2   force =    -0.00000000   -0.00000000    1.04302409
     atom   32 type  2   force =     0.00000000   -0.00000000    1.04302411
     atom   33 type  1   force =    -0.00000000   -0.00000001   -1.04302411
     atom   34 type  1   force =     0.00000000   -0.00000001   -1.04302411
     atom   35 type  2   force =    -0.00000000   -0.00000000    1.04302411
     atom   36 type  2   force =     0.00000000   -0.00000000    1.04302410
     The local contribution  to forces
     atom    1 type  1   force =    -0.00000005    0.00002561    1.19552801
     atom    2 type  1   force =     0.00000000   -0.00002502    1.19554113
     atom    3 type  2   force =    -0.00000001   -0.00022528   -0.89336551
     atom    4 type  2   force =    -0.00000000    0.00022311   -0.89336687
     atom    5 type  1   force =    -0.00000005    0.00002397    1.19554947
     atom    6 type  1   force =     0.00000000   -0.00002541    1.19553905
     atom    7 type  2   force =    -0.00000001   -0.00022317   -0.89336296
     atom    8 type  2   force =     0.00000000    0.00022036   -0.89336156
     atom    9 type  1   force =    -0.00000005    0.00001714    1.19555119
     atom   10 type  1   force =     0.00000000   -0.00002619    1.19555336
     atom   11 type  2   force =    -0.00000001   -0.00022537   -0.89336204
     atom   12 type  2   force =    -0.00000000    0.00022135   -0.89336586
     atom   13 type  1   force =    -0.00000010    0.00002031    1.19552731
     atom   14 type  1   force =     0.00000010   -0.00002358    1.19554300
     atom   15 type  2   force =    -0.00000003   -0.00022319   -0.89336683
     atom   16 type  2   force =     0.00000003    0.00022219   -0.89336705
     atom   17 type  1   force =    -0.00000010    0.00002356    1.19555173
     atom   18 type  1   force =     0.00000010   -0.00002283    1.19553848
     atom   19 type  2   force =    -0.00000003   -0.00022237   -0.89336279
     atom   20 type  2   force =     0.00000003    0.00022310   -0.89336037
     atom   21 type  1   force =    -0.00000010    0.00002260    1.19555583
     atom   22 type  1   force =     0.00000010   -0.00002113    1.19554628
     atom   23 type  2   force =    -0.00000003   -0.00022032   -0.89336156
     atom   24 type  2   force =     0.00000003    0.00022271   -0.89336586
     atom   25 type  1   force =     0.00000000    0.00002392    1.19553071
     atom   26 type  1   force =     0.00000005   -0.00002191    1.19553543
     atom   27 type  2   force =    -0.00000000   -0.00021988   -0.89336387
     atom   28 type  2   force =     0.00000001    0.00022362   -0.89336827
     atom   29 type  1   force =     0.00000000    0.00002504    1.19555068
     atom   30 type  1   force =     0.00000005   -0.00002196    1.19553977
     atom   31 type  2   force =    -0.00000000   -0.00022361   -0.89336346
     atom   32 type  2   force =     0.00000001    0.00022208   -0.89336130
     atom   33 type  1   force =     0.00000000    0.00003135    1.19555137
     atom   34 type  1   force =     0.00000005   -0.00002416    1.19555779
     atom   35 type  2   force =    -0.00000000   -0.00022205   -0.89336250
     atom   36 type  2   force =     0.00000001    0.00022198   -0.89336607
     The core correction contribution to forces
     atom    1 type  1   force =    -0.00000001    0.00000595    0.01001427
     atom    2 type  1   force =    -0.00000000   -0.00000607    0.01001680
     atom    3 type  2   force =     0.00000000   -0.00000262    0.00129256
     atom    4 type  2   force =     0.00000000    0.00000259    0.00129383
     atom    5 type  1   force =    -0.00000001    0.00000603    0.01001647
     atom    6 type  1   force =     0.00000000   -0.00000606    0.01001536
     atom    7 type  2   force =     0.00000000   -0.00000260    0.00129366
     atom    8 type  2   force =     0.00000000    0.00000259    0.00129139
     atom    9 type  1   force =    -0.00000001    0.00000607    0.01001526
     atom   10 type  1   force =    -0.00000000   -0.00000600    0.01001409
     atom   11 type  2   force =     0.00000000   -0.00000261    0.00129145
     atom   12 type  2   force =     0.00000000    0.00000263    0.00129242
     atom   13 type  1   force =    -0.00000001    0.00000595    0.01001427
     atom   14 type  1   force =     0.00000001   -0.00000593    0.01001681
     atom   15 type  2   force =     0.00000000   -0.00000260    0.00129257
     atom   16 type  2   force =    -0.00000000    0.00000263    0.00129384
     atom   17 type  1   force =    -0.00000001    0.00000605    0.01001645
     atom   18 type  1   force =     0.00000001   -0.00000599    0.01001543
     atom   19 type  2   force =     0.00000000   -0.00000261    0.00129369
     atom   20 type  2   force =    -0.00000000    0.00000261    0.00129139
     atom   21 type  1   force =    -0.00000001    0.00000614    0.01001512
     atom   22 type  1   force =     0.00000001   -0.00000599    0.01001417
     atom   23 type  2   force =     0.00000000   -0.00000259    0.00129141
     atom   24 type  2   force =    -0.00000000    0.00000257    0.00129244
     atom   25 type  1   force =    -0.00000000    0.00000606    0.01001427
     atom   26 type  1   force =     0.00000001   -0.00000598    0.01001680
     atom   27 type  2   force =    -0.00000000   -0.00000261    0.00129258
     atom   28 type  2   force =    -0.00000000    0.00000259    0.00129383
     atom   29 type  1   force =    -0.00000000    0.00000594    0.01001645
     atom   30 type  1   force =     0.00000001   -0.00000591    0.01001534
     atom   31 type  2   force =    -0.00000000   -0.00000261    0.00129365
     atom   32 type  2   force =    -0.00000000    0.00000261    0.00129140
     atom   33 type  1   force =     0.00000000    0.00000576    0.01001527
     atom   34 type  1   force =     0.00000001   -0.00000599    0.01001399
     atom   35 type  2   force =    -0.00000000   -0.00000261    0.00129143
     atom   36 type  2   force =    -0.00000000    0.00000260    0.00129243
     The Hubbard contrib.    to forces
     atom    1 type  1   force =     0.00000000    0.00000000    0.00000000
     atom    2 type  1   force =     0.00000000    0.00000000    0.00000000
     atom    3 type  2   force =     0.00000000    0.00000000    0.00000000
     atom    4 type  2   force =     0.00000000    0.00000000    0.00000000
     atom    5 type  1   force =     0.00000000    0.00000000    0.00000000
     atom    6 type  1   force =     0.00000000    0.00000000    0.00000000
     atom    7 type  2   force =     0.00000000    0.00000000    0.00000000
     atom    8 type  2   force =     0.00000000    0.00000000    0.00000000
     atom    9 type  1   force =     0.00000000    0.00000000    0.00000000
     atom   10 type  1   force =     0.00000000    0.00000000    0.00000000
     atom   11 type  2   force =     0.00000000    0.00000000    0.00000000
     atom   12 type  2   force =     0.00000000    0.00000000    0.00000000
     atom   13 type  1   force =     0.00000000    0.00000000    0.00000000
     atom   14 type  1   force =     0.00000000    0.00000000    0.00000000
     atom   15 type  2   force =     0.00000000    0.00000000    0.00000000
     atom   16 type  2   force =     0.00000000    0.00000000    0.00000000
     atom   17 type  1   force =     0.00000000    0.00000000    0.00000000
     atom   18 type  1   force =     0.00000000    0.00000000    0.00000000
     atom   19 type  2   force =     0.00000000    0.00000000    0.00000000
     atom   20 type  2   force =     0.00000000    0.00000000    0.00000000
     atom   21 type  1   force =     0.00000000    0.00000000    0.00000000
     atom   22 type  1   force =     0.00000000    0.00000000    0.00000000
     atom   23 type  2   force =     0.00000000    0.00000000    0.00000000
     atom   24 type  2   force =     0.00000000    0.00000000    0.00000000
     atom   25 type  1   force =     0.00000000    0.00000000    0.00000000
     atom   26 type  1   force =     0.00000000    0.00000000    0.00000000
     atom   27 type  2   force =     0.00000000    0.00000000    0.00000000
     atom   28 type  2   force =     0.00000000    0.00000000    0.00000000
     atom   29 type  1   force =     0.00000000    0.00000000    0.00000000
     atom   30 type  1   force =     0.00000000    0.00000000    0.00000000
     atom   31 type  2   force =     0.00000000    0.00000000    0.00000000
     atom   32 type  2   force =     0.00000000    0.00000000    0.00000000
     atom   33 type  1   force =     0.00000000    0.00000000    0.00000000
     atom   34 type  1   force =     0.00000000    0.00000000    0.00000000
     atom   35 type  2   force =     0.00000000    0.00000000    0.00000000
     atom   36 type  2   force =     0.00000000    0.00000000    0.00000000
     The SCF correction term to forces
     atom    1 type  1   force =     0.00000000   -0.00000059    0.00000596
     atom    2 type  1   force =    -0.00000000    0.00000277   -0.00000524
     atom    3 type  2   force =     0.00000000    0.00000328    0.00000103
     atom    4 type  2   force =    -0.00000000   -0.00000125    0.00000286
     atom    5 type  1   force =     0.00000000    0.00000116   -0.00001175
     atom    6 type  1   force =    -0.00000000    0.00000355   -0.00000241
     atom    7 type  2   force =     0.00000000    0.00000206   -0.00000890
     atom    8 type  2   force =    -0.00000000    0.00000224   -0.00000623
     atom    9 type  1   force =     0.00000000    0.00000634   -0.00000951
     atom   10 type  1   force =    -0.00000000    0.00000602   -0.00001498
     atom   11 type  2   force =     0.00000000    0.00000389   -0.00000344
     atom   12 type  2   force =    -0.00000000    0.00000386   -0.00000441
     atom   13 type  1   force =     0.00000000    0.00000146    0.00000522
     atom   14 type  1   force =    -0.00000000   -0.00000066   -0.00001011
     atom   15 type  2   force =     0.00000000    0.00000117    0.00000315
     atom   16 type  2   force =    -0.00000000    0.00000113    0.00000348
     atom   17 type  1   force =     0.00000000    0.00000021   -0.00001354
     atom   18 type  1   force =    -0.00000000   -0.00000095   -0.00000248
     atom   19 type  2   force =     0.00000000   -0.00000023   -0.00000698
     atom   20 type  2   force =    -0.00000000   -0.00000089   -0.00000770
     atom   21 type  1   force =     0.00000000    0.00000044   -0.00001733
     atom   22 type  1   force =    -0.00000000   -0.00000017   -0.00000478
     atom   23 type  2   force =     0.00000000   -0.00000181   -0.00000689
     atom   24 type  2   force =    -0.00000000   -0.00000269   -0.00000387
     atom   25 type  1   force =     0.00000000   -0.00000113    0.00000160
     atom   26 type  1   force =    -0.00000000   -0.00000053    0.00000013
     atom   27 type  2   force =     0.00000000   -0.00000345   -0.00000072
     atom   28 type  2   force =    -0.00000000   -0.00000200    0.00000462
     atom   29 type  1   force =     0.00000000   -0.00000576   -0.00001122
     atom   30 type  1   force =    -0.00000000   -0.00000222   -0.00000384
     atom   31 type  2   force =     0.00000000   -0.00000056   -0.00000798
     atom   32 type  2   force =    -0.00000000   -0.00000001   -0.00000626
     atom   33 type  1   force =     0.00000000   -0.00001038   -0.00001138
     atom   34 type  1   force =    -0.00000000   -0.00000266   -0.00001958
     atom   35 type  2   force =     0.00000000   -0.00000096   -0.00000388
     atom   36 type  2   force =    -0.00000000   -0.00000115   -0.00000428

     Total force =     0.008997     Total SCF correction =     0.000052

     init_run     :     62.76s CPU     37.40s WALL (       1 calls)
     electrons    :   5435.28s CPU   3160.35s WALL (       1 calls)
     forces       :     29.70s CPU     16.42s WALL (       1 calls)

     Called by init_run:
     wfcinit      :     52.56s CPU     30.14s WALL (       1 calls)
     wfcinit:atom :      0.22s CPU      0.31s WALL (       9 calls)
     wfcinit:wfcr :     50.47s CPU     27.93s WALL (       9 calls)
     potinit      :      3.53s CPU      2.20s WALL (       1 calls)
     hinit0       :      5.89s CPU      4.37s WALL (       1 calls)

     Called by electrons:
     c_bands      :   4916.69s CPU   2848.05s WALL (      32 calls)
     sum_band     :    473.45s CPU    278.95s WALL (      32 calls)
     v_of_rho     :     23.95s CPU     18.09s WALL (      33 calls)
     v_h          :      1.34s CPU      1.09s WALL (      33 calls)
     v_xc         :     23.20s CPU     17.47s WALL (      34 calls)
     newd         :     16.44s CPU     11.12s WALL (      33 calls)
     mix_rho      :      2.52s CPU      1.98s WALL (      32 calls)

     Called by c_bands:
     init_us_2    :     24.71s CPU     15.83s WALL (     594 calls)
     init_us_2:cp :     24.70s CPU     15.82s WALL (     594 calls)
     cegterg      :   4632.05s CPU   2650.64s WALL (     288 calls)

     Called by sum_band:
     sum_band:wei :      0.05s CPU      0.05s WALL (      32 calls)
     sum_band:loo :    452.12s CPU    261.95s WALL (      32 calls)
     sum_band:buf :      2.92s CPU      2.23s WALL (     288 calls)
     sum_band:ini :      9.35s CPU      6.66s WALL (     288 calls)
     sum_band:cal :    138.49s CPU     71.31s WALL (     288 calls)
     sum_band:bec :      7.49s CPU      6.28s WALL (     288 calls)
     addusdens    :     15.51s CPU     11.44s WALL (      32 calls)
     addusd:skk   :      0.45s CPU      0.33s WALL (      64 calls)
     addusd:dgemm :      2.27s CPU      2.14s WALL (      64 calls)
     addusd:qvan2 :      9.92s CPU      6.43s WALL (      64 calls)

     Called by *egterg:
     cdiaghg      :    287.77s CPU    225.77s WALL (    2426 calls)
     cegterg:over :    441.81s CPU    234.22s WALL (    2138 calls)
     cegterg:upda :    279.55s CPU    152.13s WALL (    2138 calls)
     cegterg:last :    495.12s CPU    263.80s WALL (     748 calls)
     cdiaghg:chol :     17.58s CPU     14.43s WALL (    2426 calls)
     cdiaghg:inve :      5.14s CPU      3.71s WALL (    2426 calls)
     cdiaghg:para :     58.31s CPU     40.02s WALL (    4852 calls)
     h_psi        :   2623.22s CPU   1502.22s WALL (    2435 calls)
     s_psi        :    411.94s CPU    209.36s WALL (    2435 calls)
     g_psi        :     11.09s CPU      8.14s WALL (    2138 calls)

     Called by h_psi:
     h_psi:calbec :    471.73s CPU    244.88s WALL (    2435 calls)
     vloc_psi     :   1724.70s CPU   1032.83s WALL (    2435 calls)
     add_vuspsi   :    416.17s CPU    212.59s WALL (    2435 calls)

     General routines
     calbec       :    627.67s CPU    325.49s WALL (    2759 calls)
     fft          :     15.95s CPU     13.67s WALL (     438 calls)
     ffts         :      1.24s CPU      1.10s WALL (      65 calls)
     fftw         :   1767.00s CPU   1057.72s WALL (  330838 calls)
     interpolate  :      2.21s CPU      1.94s WALL (      33 calls)

     Parallel routines

     PWSCF        :      1h32m CPU  53m34.90s WALL


   This run was terminated on:  14:32:12  14Sep2025            

=------------------------------------------------------------------------------=
   JOB DONE.
=------------------------------------------------------------------------------=
Note: The following floating-point exceptions are signalling: IEEE_UNDERFLOW_FLAG IEEE_DENORMAL
Note: The following floating-point exceptions are signalling: IEEE_UNDERFLOW_FLAG IEEE_DENORMAL
Note: The following floating-point exceptions are signalling: IEEE_UNDERFLOW_FLAG IEEE_DENORMAL
Note: The following floating-point exceptions are signalling: IEEE_UNDERFLOW_FLAG IEEE_DENORMAL
Note: The following floating-point exceptions are signalling: IEEE_UNDERFLOW_FLAG IEEE_DENORMAL
Note: The following floating-point exceptions are signalling: IEEE_UNDERFLOW_FLAG IEEE_DENORMAL
Note: The following floating-point exceptions are signalling: IEEE_UNDERFLOW_FLAG IEEE_DENORMAL
Note: The following floating-point exceptions are signalling: IEEE_UNDERFLOW_FLAG IEEE_DENORMAL
Note: The following floating-point exceptions are signalling: IEEE_UNDERFLOW_FLAG IEEE_DENORMAL
Note: The following floating-point exceptions are signalling: IEEE_UNDERFLOW_FLAG IEEE_DENORMAL
Note: The following floating-point exceptions are signalling: IEEE_UNDERFLOW_FLAG IEEE_DENORMAL
Note: The following floating-point exceptions are signalling: IEEE_UNDERFLOW_FLAG IEEE_DENORMAL
Note: The following floating-point exceptions are signalling: IEEE_UNDERFLOW_FLAG IEEE_DENORMAL
Note: The following floating-point exceptions are signalling: IEEE_UNDERFLOW_FLAG IEEE_DENORMAL
Note: The following floating-point exceptions are signalling: IEEE_UNDERFLOW_FLAG IEEE_DENORMAL
Note: The following floating-point exceptions are signalling: IEEE_UNDERFLOW_FLAG IEEE_DENORMAL
Note: The following floating-point exceptions are signalling: IEEE_UNDERFLOW_FLAG IEEE_DENORMAL
Note: The following floating-point exceptions are signalling: IEEE_UNDERFLOW_FLAG IEEE_DENORMAL
Note: The following floating-point exceptions are signalling: IEEE_UNDERFLOW_FLAG IEEE_DENORMAL
Note: The following floating-point exceptions are signalling: IEEE_UNDERFLOW_FLAG IEEE_DENORMAL
Note: The following floating-point exceptions are signalling: IEEE_UNDERFLOW_FLAG IEEE_DENORMAL
Note: The following floating-point exceptions are signalling: IEEE_UNDERFLOW_FLAG IEEE_DENORMAL
Note: The following floating-point exceptions are signalling: IEEE_UNDERFLOW_FLAG IEEE_DENORMAL
Note: The following floating-point exceptions are signalling: IEEE_UNDERFLOW_FLAG IEEE_DENORMAL
Note: The following floating-point exceptions are signalling: IEEE_UNDERFLOW_FLAG IEEE_DENORMAL
Note: The following floating-point exceptions are signalling: IEEE_UNDERFLOW_FLAG IEEE_DENORMAL
Note: The following floating-point exceptions are signalling: IEEE_UNDERFLOW_FLAG IEEE_DENORMAL
Note: The following floating-point exceptions are signalling: IEEE_UNDERFLOW_FLAG IEEE_DENORMAL
Note: The following floating-point exceptions are signalling: IEEE_UNDERFLOW_FLAG IEEE_DENORMAL
Note: The following floating-point exceptions are signalling: IEEE_UNDERFLOW_FLAG IEEE_DENORMAL
Note: The following floating-point exceptions are signalling: IEEE_UNDERFLOW_FLAG IEEE_DENORMAL
Note: The following floating-point exceptions are signalling: IEEE_UNDERFLOW_FLAG IEEE_DENORMAL
