
     Program PWSCF v.7.0 starts on  1Oct2025 at 18:24:36 

     This program is part of the open-source Quantum ESPRESSO suite
     for quantum simulation of materials; please cite
         "P. Giannozzi et al., J. Phys.:Condens. Matter 21 395502 (2009);
         "P. Giannozzi et al., J. Phys.:Condens. Matter 29 465901 (2017);
         "P. Giannozzi et al., J. Chem. Phys. 152 154105 (2020);
          URL http://www.quantum-espresso.org", 
     in publications or presentations arising from this work. More details at
     http://www.quantum-espresso.org/quote

     Parallel version (MPI & OpenMP), running on      64 processor cores
     Number of MPI processes:                32
     Threads/MPI process:                     2

     MPI processes distributed on     1 nodes
     K-points division:     npool     =       8
     R & G space division:  proc/nbgrp/npool/nimage =       4
     104862 MiB available memory on the printing compute node when the environment starts

     Reading input from /home/jvc/QEspresso7.2/ZnO_database/scripts/random_1x2x2.in/ZnO-2.94-1.71-122-0.12-3.in
Warning: card &CELL ignored
Warning: card / ignored
Warning: card &FCP ignored
Warning: card / ignored
Warning: card &RISM ignored
Warning: card / ignored

     Current dimensions of program PWSCF are:
     Max number of different atomic species (ntypx) = 10
     Max number of k-points (npk) =  40000
     Max angular momentum in pseudopotentials (lmaxx) =  4
     file Zn.upf: wavefunction(s)  3D renormalized

     Subspace diagonalization in iterative solution of the eigenvalue problem:
     one sub-group per band group will be used
     scalapack distributed-memory algorithm (size of sub-group:  2*  2 procs)


     Parallelization info
     --------------------
     sticks:   dense  smooth     PW     G-vecs:    dense   smooth      PW
     Min         426     214     68                34441    12178    2142
     Max         427     216     69                34443    12180    2143
     Sum        1707     859    275               137767    48715    8571

     Using Slab Decomposition



     bravais-lattice index     =            0
     lattice parameter (alat)  =       5.5610  a.u.
     unit-cell volume          =    1019.4073 (a.u.)^3
     number of atoms/cell      =           16
     number of atomic types    =            2
     number of electrons       =       144.00
     number of Kohn-Sham states=           72
     kinetic-energy cutoff     =      50.0000  Ry
     charge density cutoff     =     400.0000  Ry
     scf convergence threshold =      1.0E-08
     mixing beta               =       0.3000
     number of iterations used =            8  plain     mixing
     Exchange-correlation= PBE
                           (   1   4   3   4   0   0   0)

     celldm(1)=   5.560969  celldm(2)=   0.000000  celldm(3)=   0.000000
     celldm(4)=   0.000000  celldm(5)=   0.000000  celldm(6)=   0.000000

     crystal axes: (cart. coord. in units of alat)
               a(1) = (   1.000000   0.000000   0.000000 )  
               a(2) = (  -1.000000   1.732051   0.000000 )  
               a(3) = (   0.000000   0.000000   3.422440 )  

     reciprocal axes: (cart. coord. in units 2 pi/alat)
               b(1) = (  1.000000  0.577350 -0.000000 )  
               b(2) = (  0.000000  0.577350  0.000000 )  
               b(3) = (  0.000000 -0.000000  0.292189 )  


     PseudoPot. # 1 for Zn read from file:
     /home/jvc/QEspresso7.2/ZnO_database/pseudos/Zn.upf
     MD5 check sum: 7f56cabf9682ed8c977c2f7d0c5985c5
     Pseudo is Ultrasoft + core correction, Zval = 12.0
     Generated using &quot;atomic&quot; code by A. Dal Corso  v.6.2.2
     Using radial grid of 1201 points,  6 beta functions with: 
                l(1) =   0
                l(2) =   0
                l(3) =   1
                l(4) =   1
                l(5) =   2
                l(6) =   2
     Q(r) pseudized with 0 coefficients 


     PseudoPot. # 2 for O  read from file:
     /home/jvc/QEspresso7.2/ZnO_database/pseudos/O.upf
     MD5 check sum: 91400c9766925bcf19f520983a725ff0
     Pseudo is Ultrasoft + core correction, Zval =  6.0
     Generated using &quot;atomic&quot; code by A. Dal Corso  v.6.3MaX
     Using radial grid of 1095 points,  4 beta functions with: 
                l(1) =   0
                l(2) =   0
                l(3) =   1
                l(4) =   1
     Q(r) pseudized with 0 coefficients 


     atomic species   valence    mass     pseudopotential
        Zn            12.00    65.38000     Zn( 1.00)
        O              6.00    15.99900     O ( 1.00)

     No symmetry found


                                    s                        frac. trans.

      isym =  1     identity                                     

 cryst.   s( 1) = (     1          0          0      )
                  (     0          1          0      )
                  (     0          0          1      )

 cart.    s( 1) = (  1.0000000  0.0000000  0.0000000 )
                  (  0.0000000  1.0000000  0.0000000 )
                  (  0.0000000  0.0000000  1.0000000 )


   Cartesian axes

     site n.     atom                  positions (alat units)
         1           Zn  tau(   1) = (   0.4638072   0.2658672   0.8702980  )
         2           Zn  tau(   2) = (  -0.0642393   0.6326736  -0.0378316  )
         3           O   tau(   3) = (   0.4886135   0.2953109   1.4634591  )
         4           O   tau(   4) = (   0.0060388   0.5199520   0.6780557  )
         5           Zn  tau(   5) = (   0.5524891   0.3002305   2.6400946  )
         6           Zn  tau(   6) = (   0.0045814   0.6001447   1.7575070  )
         7           O   tau(   7) = (   0.5205641   0.3438590   3.1938892  )
         8           O   tau(   8) = (   0.0244435   0.6474027   2.4495391  )
         9           Zn  tau(   9) = (   0.0134137   1.1785137   0.8688972  )
        10           Zn  tau(  10) = (  -0.5002411   1.3836726   0.0703735  )
        11           O   tau(  11) = (  -0.0115194   1.1439086   1.4859204  )
        12           O   tau(  12) = (  -0.5532818   1.3861198   0.5732256  )
        13           Zn  tau(  13) = (   0.0529411   1.1534753   2.5928189  )
        14           Zn  tau(  14) = (  -0.5525042   1.4797295   1.6747379  )
        15           O   tau(  15) = (   0.0269705   1.0613947   3.1650863  )
        16           O   tau(  16) = (  -0.5405923   1.4630116   2.4699744  )

   Crystallographic axes

     site n.     atom                  positions (cryst. coord.)
         1           Zn  tau(   1) = (  0.6173057  0.1534985  0.2542917  )
         2           Zn  tau(   2) = (  0.3010349  0.3652742 -0.0110540  )
         3           O   tau(   3) = (  0.6591113  0.1704978  0.4276070  )
         4           O   tau(   4) = (  0.3062332  0.3001944  0.1981206  )
         5           Zn  tau(   5) = (  0.7258272  0.1733382  0.7714072  )
         6           Zn  tau(   6) = (  0.3510751  0.3464937  0.5135246  )
         7           O   tau(   7) = (  0.7190911  0.1985271  0.9332200  )
         8           O   tau(   8) = (  0.3982216  0.3737781  0.7157289  )
         9           Zn  tau(   9) = (  0.6938289  0.6804152  0.2538824  )
        10           Zn  tau(  10) = (  0.2986227  0.7988638  0.0205624  )
        11           O   tau(  11) = (  0.6489166  0.6604359  0.4341699  )
        12           O   tau(  12) = (  0.2469949  0.8002767  0.1674904  )
        13           Zn  tau(  13) = (  0.7189004  0.6659593  0.7575937  )
        14           Zn  tau(  14) = (  0.3018181  0.8543222  0.4893404  )
        15           O   tau(  15) = (  0.6397670  0.6127965  0.9248041  )
        16           O   tau(  16) = (  0.3040779  0.8446702  0.7216999  )

     number of k points=   112
                       cart. coord. in units 2pi/alat
        k(    1) = (   0.0000000   0.0000000   0.0000000), wk =   0.0092593
        k(    2) = (   0.0000000   0.0000000   0.0486982), wk =   0.0185185
        k(    3) = (   0.0000000   0.0000000   0.0973964), wk =   0.0185185
        k(    4) = (   0.0000000   0.0000000  -0.1460946), wk =   0.0092593
        k(    5) = (   0.0000000   0.0962250   0.0000000), wk =   0.0185185
        k(    6) = (   0.0000000   0.0962250   0.0486982), wk =   0.0185185
        k(    7) = (   0.0000000   0.0962250   0.0973964), wk =   0.0185185
        k(    8) = (   0.0000000   0.0962250  -0.1460946), wk =   0.0185185
        k(    9) = (   0.0000000   0.1924501   0.0000000), wk =   0.0185185
        k(   10) = (   0.0000000   0.1924501   0.0486982), wk =   0.0185185
        k(   11) = (   0.0000000   0.1924501   0.0973964), wk =   0.0185185
        k(   12) = (   0.0000000   0.1924501  -0.1460946), wk =   0.0185185
        k(   13) = (   0.0000000  -0.2886751   0.0000000), wk =   0.0092593
        k(   14) = (   0.0000000  -0.2886751   0.0486982), wk =   0.0185185
        k(   15) = (   0.0000000  -0.2886751   0.0973964), wk =   0.0185185
        k(   16) = (   0.0000000  -0.2886751  -0.1460946), wk =   0.0092593
        k(   17) = (   0.1666667   0.0962250   0.0000000), wk =   0.0185185
        k(   18) = (   0.1666667   0.0962250   0.0486982), wk =   0.0185185
        k(   19) = (   0.1666667   0.0962250   0.0973964), wk =   0.0185185
        k(   20) = (   0.1666667   0.0962250  -0.1460946), wk =   0.0185185
        k(   21) = (   0.1666667   0.1924501   0.0000000), wk =   0.0185185
        k(   22) = (   0.1666667   0.1924501   0.0486982), wk =   0.0185185
        k(   23) = (   0.1666667   0.1924501   0.0973964), wk =   0.0185185
        k(   24) = (   0.1666667   0.1924501  -0.1460946), wk =   0.0185185
        k(   25) = (   0.1666667   0.2886751   0.0000000), wk =   0.0185185
        k(   26) = (   0.1666667   0.2886751   0.0486982), wk =   0.0185185
        k(   27) = (   0.1666667   0.2886751   0.0973964), wk =   0.0185185
        k(   28) = (   0.1666667   0.2886751  -0.1460946), wk =   0.0185185
        k(   29) = (   0.1666667   0.0000000   0.0000000), wk =   0.0185185
        k(   30) = (   0.1666667   0.0000000   0.0486982), wk =   0.0185185
        k(   31) = (   0.1666667   0.0000000   0.0973964), wk =   0.0185185
        k(   32) = (   0.1666667   0.0000000  -0.1460946), wk =   0.0185185
        k(   33) = (   0.3333333   0.1924501   0.0000000), wk =   0.0185185
        k(   34) = (   0.3333333   0.1924501   0.0486982), wk =   0.0185185
        k(   35) = (   0.3333333   0.1924501   0.0973964), wk =   0.0185185
        k(   36) = (   0.3333333   0.1924501  -0.1460946), wk =   0.0185185
        k(   37) = (   0.3333333   0.2886751   0.0000000), wk =   0.0185185
        k(   38) = (   0.3333333   0.2886751   0.0486982), wk =   0.0185185
        k(   39) = (   0.3333333   0.2886751   0.0973964), wk =   0.0185185
        k(   40) = (   0.3333333   0.2886751  -0.1460946), wk =   0.0185185
        k(   41) = (   0.3333333  -0.0962250   0.0000000), wk =   0.0185185
        k(   42) = (   0.3333333  -0.0962250   0.0486982), wk =   0.0185185
        k(   43) = (   0.3333333  -0.0962250   0.0973964), wk =   0.0185185
        k(   44) = (   0.3333333  -0.0962250  -0.1460946), wk =   0.0185185
        k(   45) = (   0.3333333  -0.0000000   0.0000000), wk =   0.0185185
        k(   46) = (   0.3333333  -0.0000000   0.0486982), wk =   0.0185185
        k(   47) = (   0.3333333  -0.0000000   0.0973964), wk =   0.0185185
        k(   48) = (   0.3333333  -0.0000000  -0.1460946), wk =   0.0185185
        k(   49) = (  -0.5000000  -0.2886751   0.0000000), wk =   0.0092593
        k(   50) = (  -0.5000000  -0.2886751   0.0486982), wk =   0.0185185
        k(   51) = (  -0.5000000  -0.2886751   0.0973964), wk =   0.0185185
        k(   52) = (  -0.5000000  -0.2886751  -0.1460946), wk =   0.0092593
        k(   53) = (  -0.5000000  -0.1924501   0.0000000), wk =   0.0185185
        k(   54) = (  -0.5000000  -0.1924501   0.0486982), wk =   0.0185185
        k(   55) = (  -0.5000000  -0.1924501   0.0973964), wk =   0.0185185
        k(   56) = (  -0.5000000  -0.1924501  -0.1460946), wk =   0.0185185
        k(   57) = (  -0.5000000  -0.0962250   0.0000000), wk =   0.0185185
        k(   58) = (  -0.5000000  -0.0962250   0.0486982), wk =   0.0185185
        k(   59) = (  -0.5000000  -0.0962250   0.0973964), wk =   0.0185185
        k(   60) = (  -0.5000000  -0.0962250  -0.1460946), wk =   0.0185185
        k(   61) = (  -0.5000000  -0.5773503   0.0000000), wk =   0.0092593
        k(   62) = (  -0.5000000  -0.5773503   0.0486982), wk =   0.0185185
        k(   63) = (  -0.5000000  -0.5773503   0.0973964), wk =   0.0185185
        k(   64) = (  -0.5000000  -0.5773503  -0.1460946), wk =   0.0092593
        k(   65) = (   0.0000000  -0.0962250   0.0486982), wk =   0.0185185
        k(   66) = (   0.0000000  -0.0962250   0.0973964), wk =   0.0185185
        k(   67) = (   0.0000000  -0.1924501   0.0486982), wk =   0.0185185
        k(   68) = (   0.0000000  -0.1924501   0.0973964), wk =   0.0185185
        k(   69) = (  -0.1666667   0.0962250   0.0000000), wk =   0.0185185
        k(   70) = (  -0.1666667  -0.0962250   0.0486982), wk =   0.0185185
        k(   71) = (  -0.1666667   0.0962250  -0.0486982), wk =   0.0185185
        k(   72) = (   0.1666667  -0.0962250  -0.0486982), wk =   0.0185185
        k(   73) = (  -0.1666667  -0.0962250   0.0973964), wk =   0.0185185
        k(   74) = (  -0.1666667   0.0962250  -0.0973964), wk =   0.0185185
        k(   75) = (   0.1666667  -0.0962250  -0.0973964), wk =   0.0185185
        k(   76) = (  -0.1666667   0.0962250   0.1460946), wk =   0.0185185
        k(   77) = (  -0.1666667   0.1924501   0.0000000), wk =   0.0185185
        k(   78) = (  -0.1666667  -0.1924501   0.0486982), wk =   0.0185185
        k(   79) = (  -0.1666667   0.1924501  -0.0486982), wk =   0.0185185
        k(   80) = (   0.1666667  -0.1924501  -0.0486982), wk =   0.0185185
        k(   81) = (  -0.1666667  -0.1924501   0.0973964), wk =   0.0185185
        k(   82) = (  -0.1666667   0.1924501  -0.0973964), wk =   0.0185185
        k(   83) = (   0.1666667  -0.1924501  -0.0973964), wk =   0.0185185
        k(   84) = (  -0.1666667   0.1924501   0.1460946), wk =   0.0185185
        k(   85) = (  -0.1666667  -0.2886751   0.0486982), wk =   0.0185185
        k(   86) = (  -0.1666667  -0.2886751   0.0973964), wk =   0.0185185
        k(   87) = (  -0.1666667  -0.0000000   0.0486982), wk =   0.0185185
        k(   88) = (  -0.1666667  -0.0000000   0.0973964), wk =   0.0185185
        k(   89) = (  -0.3333333   0.1924501   0.0000000), wk =   0.0185185
        k(   90) = (  -0.3333333  -0.1924501   0.0486982), wk =   0.0185185
        k(   91) = (  -0.3333333   0.1924501  -0.0486982), wk =   0.0185185
        k(   92) = (   0.3333333  -0.1924501  -0.0486982), wk =   0.0185185
        k(   93) = (  -0.3333333  -0.1924501   0.0973964), wk =   0.0185185
        k(   94) = (  -0.3333333   0.1924501  -0.0973964), wk =   0.0185185
        k(   95) = (   0.3333333  -0.1924501  -0.0973964), wk =   0.0185185
        k(   96) = (  -0.3333333   0.1924501   0.1460946), wk =   0.0185185
        k(   97) = (  -0.3333333  -0.2886751   0.0486982), wk =   0.0185185
        k(   98) = (  -0.3333333  -0.2886751   0.0973964), wk =   0.0185185
        k(   99) = (  -0.3333333  -0.0962250   0.0000000), wk =   0.0185185
        k(  100) = (  -0.3333333   0.0962250   0.0486982), wk =   0.0185185
        k(  101) = (  -0.3333333  -0.0962250  -0.0486982), wk =   0.0185185
        k(  102) = (   0.3333333   0.0962250  -0.0486982), wk =   0.0185185
        k(  103) = (  -0.3333333   0.0962250   0.0973964), wk =   0.0185185
        k(  104) = (  -0.3333333  -0.0962250  -0.0973964), wk =   0.0185185
        k(  105) = (   0.3333333   0.0962250  -0.0973964), wk =   0.0185185
        k(  106) = (  -0.3333333  -0.0962250   0.1460946), wk =   0.0185185
        k(  107) = (  -0.3333333   0.0000000   0.0486982), wk =   0.0185185
        k(  108) = (  -0.3333333   0.0000000   0.0973964), wk =   0.0185185
        k(  109) = (   0.5000000   0.1924501   0.0486982), wk =   0.0185185
        k(  110) = (   0.5000000   0.1924501   0.0973964), wk =   0.0185185
        k(  111) = (   0.5000000   0.0962250   0.0486982), wk =   0.0185185
        k(  112) = (   0.5000000   0.0962250   0.0973964), wk =   0.0185185

                       cryst. coord.
        k(    1) = (   0.0000000   0.0000000   0.0000000), wk =   0.0092593
        k(    2) = (   0.0000000   0.0000000   0.1666667), wk =   0.0185185
        k(    3) = (   0.0000000   0.0000000   0.3333333), wk =   0.0185185
        k(    4) = (   0.0000000   0.0000000  -0.5000000), wk =   0.0092593
        k(    5) = (   0.0000000   0.1666667   0.0000000), wk =   0.0185185
        k(    6) = (   0.0000000   0.1666667   0.1666667), wk =   0.0185185
        k(    7) = (   0.0000000   0.1666667   0.3333333), wk =   0.0185185
        k(    8) = (   0.0000000   0.1666667  -0.5000000), wk =   0.0185185
        k(    9) = (   0.0000000   0.3333333   0.0000000), wk =   0.0185185
        k(   10) = (   0.0000000   0.3333333   0.1666667), wk =   0.0185185
        k(   11) = (   0.0000000   0.3333333   0.3333333), wk =   0.0185185
        k(   12) = (   0.0000000   0.3333333  -0.5000000), wk =   0.0185185
        k(   13) = (   0.0000000  -0.5000000   0.0000000), wk =   0.0092593
        k(   14) = (   0.0000000  -0.5000000   0.1666667), wk =   0.0185185
        k(   15) = (   0.0000000  -0.5000000   0.3333333), wk =   0.0185185
        k(   16) = (   0.0000000  -0.5000000  -0.5000000), wk =   0.0092593
        k(   17) = (   0.1666667   0.0000000   0.0000000), wk =   0.0185185
        k(   18) = (   0.1666667   0.0000000   0.1666667), wk =   0.0185185
        k(   19) = (   0.1666667   0.0000000   0.3333333), wk =   0.0185185
        k(   20) = (   0.1666667   0.0000000  -0.5000000), wk =   0.0185185
        k(   21) = (   0.1666667   0.1666667   0.0000000), wk =   0.0185185
        k(   22) = (   0.1666667   0.1666667   0.1666667), wk =   0.0185185
        k(   23) = (   0.1666667   0.1666667   0.3333333), wk =   0.0185185
        k(   24) = (   0.1666667   0.1666667  -0.5000000), wk =   0.0185185
        k(   25) = (   0.1666667   0.3333333   0.0000000), wk =   0.0185185
        k(   26) = (   0.1666667   0.3333333   0.1666667), wk =   0.0185185
        k(   27) = (   0.1666667   0.3333333   0.3333333), wk =   0.0185185
        k(   28) = (   0.1666667   0.3333333  -0.5000000), wk =   0.0185185
        k(   29) = (   0.1666667  -0.1666667   0.0000000), wk =   0.0185185
        k(   30) = (   0.1666667  -0.1666667   0.1666667), wk =   0.0185185
        k(   31) = (   0.1666667  -0.1666667   0.3333333), wk =   0.0185185
        k(   32) = (   0.1666667  -0.1666667  -0.5000000), wk =   0.0185185
        k(   33) = (   0.3333333   0.0000000   0.0000000), wk =   0.0185185
        k(   34) = (   0.3333333   0.0000000   0.1666667), wk =   0.0185185
        k(   35) = (   0.3333333   0.0000000   0.3333333), wk =   0.0185185
        k(   36) = (   0.3333333   0.0000000  -0.5000000), wk =   0.0185185
        k(   37) = (   0.3333333   0.1666667   0.0000000), wk =   0.0185185
        k(   38) = (   0.3333333   0.1666667   0.1666667), wk =   0.0185185
        k(   39) = (   0.3333333   0.1666667   0.3333333), wk =   0.0185185
        k(   40) = (   0.3333333   0.1666667  -0.5000000), wk =   0.0185185
        k(   41) = (   0.3333333  -0.5000000   0.0000000), wk =   0.0185185
        k(   42) = (   0.3333333  -0.5000000   0.1666667), wk =   0.0185185
        k(   43) = (   0.3333333  -0.5000000   0.3333333), wk =   0.0185185
        k(   44) = (   0.3333333  -0.5000000  -0.5000000), wk =   0.0185185
        k(   45) = (   0.3333333  -0.3333333   0.0000000), wk =   0.0185185
        k(   46) = (   0.3333333  -0.3333333   0.1666667), wk =   0.0185185
        k(   47) = (   0.3333333  -0.3333333   0.3333333), wk =   0.0185185
        k(   48) = (   0.3333333  -0.3333333  -0.5000000), wk =   0.0185185
        k(   49) = (  -0.5000000   0.0000000   0.0000000), wk =   0.0092593
        k(   50) = (  -0.5000000   0.0000000   0.1666667), wk =   0.0185185
        k(   51) = (  -0.5000000   0.0000000   0.3333333), wk =   0.0185185
        k(   52) = (  -0.5000000   0.0000000  -0.5000000), wk =   0.0092593
        k(   53) = (  -0.5000000   0.1666667   0.0000000), wk =   0.0185185
        k(   54) = (  -0.5000000   0.1666667   0.1666667), wk =   0.0185185
        k(   55) = (  -0.5000000   0.1666667   0.3333333), wk =   0.0185185
        k(   56) = (  -0.5000000   0.1666667  -0.5000000), wk =   0.0185185
        k(   57) = (  -0.5000000   0.3333333   0.0000000), wk =   0.0185185
        k(   58) = (  -0.5000000   0.3333333   0.1666667), wk =   0.0185185
        k(   59) = (  -0.5000000   0.3333333   0.3333333), wk =   0.0185185
        k(   60) = (  -0.5000000   0.3333333  -0.5000000), wk =   0.0185185
        k(   61) = (  -0.5000000  -0.5000000   0.0000000), wk =   0.0092593
        k(   62) = (  -0.5000000  -0.5000000   0.1666667), wk =   0.0185185
        k(   63) = (  -0.5000000  -0.5000000   0.3333333), wk =   0.0185185
        k(   64) = (  -0.5000000  -0.5000000  -0.5000000), wk =   0.0092593
        k(   65) = (   0.0000000  -0.1666667   0.1666667), wk =   0.0185185
        k(   66) = (   0.0000000  -0.1666667   0.3333333), wk =   0.0185185
        k(   67) = (   0.0000000  -0.3333333   0.1666667), wk =   0.0185185
        k(   68) = (   0.0000000  -0.3333333   0.3333333), wk =   0.0185185
        k(   69) = (  -0.1666667   0.3333333   0.0000000), wk =   0.0185185
        k(   70) = (  -0.1666667   0.0000000   0.1666667), wk =   0.0185185
        k(   71) = (  -0.1666667   0.3333333  -0.1666667), wk =   0.0185185
        k(   72) = (   0.1666667  -0.3333333  -0.1666667), wk =   0.0185185
        k(   73) = (  -0.1666667   0.0000000   0.3333333), wk =   0.0185185
        k(   74) = (  -0.1666667   0.3333333  -0.3333333), wk =   0.0185185
        k(   75) = (   0.1666667  -0.3333333  -0.3333333), wk =   0.0185185
        k(   76) = (  -0.1666667   0.3333333   0.5000000), wk =   0.0185185
        k(   77) = (  -0.1666667   0.5000000   0.0000000), wk =   0.0185185
        k(   78) = (  -0.1666667  -0.1666667   0.1666667), wk =   0.0185185
        k(   79) = (  -0.1666667   0.5000000  -0.1666667), wk =   0.0185185
        k(   80) = (   0.1666667  -0.5000000  -0.1666667), wk =   0.0185185
        k(   81) = (  -0.1666667  -0.1666667   0.3333333), wk =   0.0185185
        k(   82) = (  -0.1666667   0.5000000  -0.3333333), wk =   0.0185185
        k(   83) = (   0.1666667  -0.5000000  -0.3333333), wk =   0.0185185
        k(   84) = (  -0.1666667   0.5000000   0.5000000), wk =   0.0185185
        k(   85) = (  -0.1666667  -0.3333333   0.1666667), wk =   0.0185185
        k(   86) = (  -0.1666667  -0.3333333   0.3333333), wk =   0.0185185
        k(   87) = (  -0.1666667   0.1666667   0.1666667), wk =   0.0185185
        k(   88) = (  -0.1666667   0.1666667   0.3333333), wk =   0.0185185
        k(   89) = (  -0.3333333   0.6666667   0.0000000), wk =   0.0185185
        k(   90) = (  -0.3333333   0.0000000   0.1666667), wk =   0.0185185
        k(   91) = (  -0.3333333   0.6666667  -0.1666667), wk =   0.0185185
        k(   92) = (   0.3333333  -0.6666667  -0.1666667), wk =   0.0185185
        k(   93) = (  -0.3333333   0.0000000   0.3333333), wk =   0.0185185
        k(   94) = (  -0.3333333   0.6666667  -0.3333333), wk =   0.0185185
        k(   95) = (   0.3333333  -0.6666667  -0.3333333), wk =   0.0185185
        k(   96) = (  -0.3333333   0.6666667   0.5000000), wk =   0.0185185
        k(   97) = (  -0.3333333  -0.1666667   0.1666667), wk =   0.0185185
        k(   98) = (  -0.3333333  -0.1666667   0.3333333), wk =   0.0185185
        k(   99) = (  -0.3333333   0.1666667   0.0000000), wk =   0.0185185
        k(  100) = (  -0.3333333   0.5000000   0.1666667), wk =   0.0185185
        k(  101) = (  -0.3333333   0.1666667  -0.1666667), wk =   0.0185185
        k(  102) = (   0.3333333  -0.1666667  -0.1666667), wk =   0.0185185
        k(  103) = (  -0.3333333   0.5000000   0.3333333), wk =   0.0185185
        k(  104) = (  -0.3333333   0.1666667  -0.3333333), wk =   0.0185185
        k(  105) = (   0.3333333  -0.1666667  -0.3333333), wk =   0.0185185
        k(  106) = (  -0.3333333   0.1666667   0.5000000), wk =   0.0185185
        k(  107) = (  -0.3333333   0.3333333   0.1666667), wk =   0.0185185
        k(  108) = (  -0.3333333   0.3333333   0.3333333), wk =   0.0185185
        k(  109) = (   0.5000000  -0.1666667   0.1666667), wk =   0.0185185
        k(  110) = (   0.5000000  -0.1666667   0.3333333), wk =   0.0185185
        k(  111) = (   0.5000000  -0.3333333   0.1666667), wk =   0.0185185
        k(  112) = (   0.5000000  -0.3333333   0.3333333), wk =   0.0185185

     Dense  grid:   137767 G-vectors     FFT dimensions: (  36,  72, 125)

     Smooth grid:    48715 G-vectors     FFT dimensions: (  25,  54,  90)

     Dynamical RAM for                 wfc:       1.67 MB

     Dynamical RAM for     wfc (w. buffer):      25.07 MB

     Dynamical RAM for           str. fact:       1.05 MB

     Dynamical RAM for           local pot:       0.00 MB

     Dynamical RAM for          nlocal pot:       4.83 MB

     Dynamical RAM for                qrad:       3.21 MB

     Dynamical RAM for          rho,v,vnew:       3.48 MB

     Dynamical RAM for               rhoin:       1.16 MB

     Dynamical RAM for            rho*nmix:       8.41 MB

     Dynamical RAM for           G-vectors:       2.06 MB

     Dynamical RAM for          h,s,v(r/c):       0.24 MB

     Dynamical RAM for          <psi|beta>:       0.23 MB

     Dynamical RAM for                 psi:       3.34 MB

     Dynamical RAM for                hpsi:       3.34 MB

     Dynamical RAM for                spsi:       3.34 MB

     Dynamical RAM for      wfcinit/wfcrot:       5.08 MB

     Dynamical RAM for           addusdens:      13.20 MB

     Dynamical RAM for          addusforce:      13.96 MB

     Estimated static dynamical RAM per process >      45.59 MB

     Estimated max dynamical RAM per process >      67.96 MB

     Estimated total dynamical RAM >       1.89 GB

     Check: negative core charge=   -0.000001

     Initial potential from superposition of free atoms

     starting charge     143.9702, renormalised to     144.0000
     Starting wfcs are  104 randomized atomic wfcs

     total cpu time spent up to now is        8.8 secs

     per-process dynamical memory:    63.2 Mb

     Self-consistent Calculation

     iteration #  1     ecut=    50.00 Ry     beta= 0.30
     Davidson diagonalization with overlap

---- Real-time Memory Report at c_bands before calling an iterative solver
            90 MiB given to the printing process from OS
            61 MiB allocation reported by mallinfo(arena+hblkhd)
        102836 MiB available memory on the node where the printing process lives
------------------
     ethr =  1.00E-02,  avg # of iterations =  2.1

     total cpu time spent up to now is       24.9 secs

     total energy              =   -1444.31802404 Ry
     estimated scf accuracy    <       3.37831446 Ry

     iteration #  2     ecut=    50.00 Ry     beta= 0.30
     Davidson diagonalization with overlap

---- Real-time Memory Report at c_bands before calling an iterative solver
           109 MiB given to the printing process from OS
            78 MiB allocation reported by mallinfo(arena+hblkhd)
        102492 MiB available memory on the node where the printing process lives
------------------
     ethr =  2.35E-03,  avg # of iterations =  2.1

     total cpu time spent up to now is       42.9 secs

     total energy              =   -1444.53082089 Ry
     estimated scf accuracy    <       0.61381428 Ry

     iteration #  3     ecut=    50.00 Ry     beta= 0.30
     Davidson diagonalization with overlap

---- Real-time Memory Report at c_bands before calling an iterative solver
           109 MiB given to the printing process from OS
            78 MiB allocation reported by mallinfo(arena+hblkhd)
        102495 MiB available memory on the node where the printing process lives
------------------
     c_bands:  1 eigenvalues not converged
     ethr =  4.26E-04,  avg # of iterations =  8.9

     total cpu time spent up to now is       81.9 secs

     total energy              =   -1445.03623722 Ry
     estimated scf accuracy    <       0.67512749 Ry

     iteration #  4     ecut=    50.00 Ry     beta= 0.30
     Davidson diagonalization with overlap

---- Real-time Memory Report at c_bands before calling an iterative solver
           109 MiB given to the printing process from OS
            78 MiB allocation reported by mallinfo(arena+hblkhd)
        102495 MiB available memory on the node where the printing process lives
------------------
     ethr =  4.26E-04,  avg # of iterations =  1.7

     total cpu time spent up to now is       96.2 secs

     total energy              =   -1444.72658221 Ry
     estimated scf accuracy    <       0.44726686 Ry

     iteration #  5     ecut=    50.00 Ry     beta= 0.30
     Davidson diagonalization with overlap

---- Real-time Memory Report at c_bands before calling an iterative solver
           109 MiB given to the printing process from OS
            78 MiB allocation reported by mallinfo(arena+hblkhd)
        102494 MiB available memory on the node where the printing process lives
------------------
     ethr =  3.11E-04,  avg # of iterations =  8.1

     total cpu time spent up to now is      136.1 secs

     total energy              =   -1445.03330672 Ry
     estimated scf accuracy    <       0.85449481 Ry

     iteration #  6     ecut=    50.00 Ry     beta= 0.30
     Davidson diagonalization with overlap

---- Real-time Memory Report at c_bands before calling an iterative solver
           109 MiB given to the printing process from OS
            78 MiB allocation reported by mallinfo(arena+hblkhd)
        102493 MiB available memory on the node where the printing process lives
------------------
     ethr =  3.11E-04,  avg # of iterations =  1.9

     total cpu time spent up to now is      150.8 secs

     total energy              =   -1444.80190668 Ry
     estimated scf accuracy    <       0.44335040 Ry

     iteration #  7     ecut=    50.00 Ry     beta= 0.30
     Davidson diagonalization with overlap

---- Real-time Memory Report at c_bands before calling an iterative solver
           109 MiB given to the printing process from OS
            78 MiB allocation reported by mallinfo(arena+hblkhd)
        102492 MiB available memory on the node where the printing process lives
------------------
     ethr =  3.08E-04,  avg # of iterations =  7.5

     total cpu time spent up to now is      181.5 secs

     total energy              =   -1445.02163086 Ry
     estimated scf accuracy    <       0.23518287 Ry

     iteration #  8     ecut=    50.00 Ry     beta= 0.30
     Davidson diagonalization with overlap

---- Real-time Memory Report at c_bands before calling an iterative solver
           109 MiB given to the printing process from OS
            78 MiB allocation reported by mallinfo(arena+hblkhd)
        102481 MiB available memory on the node where the printing process lives
------------------
     ethr =  1.63E-04,  avg # of iterations =  1.5

     total cpu time spent up to now is      195.8 secs

     total energy              =   -1444.96217805 Ry
     estimated scf accuracy    <       0.19758124 Ry

     iteration #  9     ecut=    50.00 Ry     beta= 0.30
     Davidson diagonalization with overlap

---- Real-time Memory Report at c_bands before calling an iterative solver
           109 MiB given to the printing process from OS
            78 MiB allocation reported by mallinfo(arena+hblkhd)
        102481 MiB available memory on the node where the printing process lives
------------------
     ethr =  1.37E-04,  avg # of iterations =  5.1

     total cpu time spent up to now is      217.4 secs

     total energy              =   -1444.98636844 Ry
     estimated scf accuracy    <       0.01824836 Ry

     iteration # 10     ecut=    50.00 Ry     beta= 0.30
     Davidson diagonalization with overlap

---- Real-time Memory Report at c_bands before calling an iterative solver
           109 MiB given to the printing process from OS
            78 MiB allocation reported by mallinfo(arena+hblkhd)
        102481 MiB available memory on the node where the printing process lives
------------------
     c_bands:  1 eigenvalues not converged
     c_bands:  1 eigenvalues not converged
     c_bands:  2 eigenvalues not converged
     ethr =  1.27E-05,  avg # of iterations =  7.7

     total cpu time spent up to now is      250.3 secs

     total energy              =   -1444.99764804 Ry
     estimated scf accuracy    <       0.00637247 Ry

     iteration # 11     ecut=    50.00 Ry     beta= 0.30
     Davidson diagonalization with overlap

---- Real-time Memory Report at c_bands before calling an iterative solver
           109 MiB given to the printing process from OS
            78 MiB allocation reported by mallinfo(arena+hblkhd)
        102472 MiB available memory on the node where the printing process lives
------------------
     ethr =  4.43E-06,  avg # of iterations =  3.9

     total cpu time spent up to now is      269.6 secs

     total energy              =   -1444.99838178 Ry
     estimated scf accuracy    <       0.00283436 Ry

     iteration # 12     ecut=    50.00 Ry     beta= 0.30
     Davidson diagonalization with overlap

---- Real-time Memory Report at c_bands before calling an iterative solver
           109 MiB given to the printing process from OS
            78 MiB allocation reported by mallinfo(arena+hblkhd)
        102472 MiB available memory on the node where the printing process lives
------------------
     c_bands:  1 eigenvalues not converged
     c_bands:  3 eigenvalues not converged
     c_bands:  2 eigenvalues not converged
     c_bands:  3 eigenvalues not converged
     c_bands:  2 eigenvalues not converged
     c_bands:  1 eigenvalues not converged
     c_bands:  1 eigenvalues not converged
     ethr =  1.97E-06,  avg # of iterations = 12.1

     total cpu time spent up to now is      313.0 secs

     total energy              =   -1444.99686824 Ry
     estimated scf accuracy    <       0.02694959 Ry

     iteration # 13     ecut=    50.00 Ry     beta= 0.30
     Davidson diagonalization with overlap

---- Real-time Memory Report at c_bands before calling an iterative solver
           109 MiB given to the printing process from OS
            78 MiB allocation reported by mallinfo(arena+hblkhd)
        102472 MiB available memory on the node where the printing process lives
------------------
     ethr =  1.97E-06,  avg # of iterations =  7.9

     total cpu time spent up to now is      344.0 secs

     total energy              =   -1444.99773398 Ry
     estimated scf accuracy    <       0.00502084 Ry

     iteration # 14     ecut=    50.00 Ry     beta= 0.30
     Davidson diagonalization with overlap

---- Real-time Memory Report at c_bands before calling an iterative solver
           109 MiB given to the printing process from OS
            78 MiB allocation reported by mallinfo(arena+hblkhd)
        102470 MiB available memory on the node where the printing process lives
------------------
     ethr =  1.97E-06,  avg # of iterations =  2.4

     total cpu time spent up to now is      360.5 secs

     total energy              =   -1444.99725054 Ry
     estimated scf accuracy    <       0.00287019 Ry

     iteration # 15     ecut=    50.00 Ry     beta= 0.30
     Davidson diagonalization with overlap

---- Real-time Memory Report at c_bands before calling an iterative solver
           109 MiB given to the printing process from OS
            78 MiB allocation reported by mallinfo(arena+hblkhd)
        102469 MiB available memory on the node where the printing process lives
------------------
     ethr =  1.97E-06,  avg # of iterations =  7.0

     total cpu time spent up to now is      383.3 secs

     total energy              =   -1444.99774358 Ry
     estimated scf accuracy    <       0.00028367 Ry

     iteration # 16     ecut=    50.00 Ry     beta= 0.30
     Davidson diagonalization with overlap

---- Real-time Memory Report at c_bands before calling an iterative solver
           109 MiB given to the printing process from OS
            78 MiB allocation reported by mallinfo(arena+hblkhd)
        102470 MiB available memory on the node where the printing process lives
------------------
     ethr =  1.97E-07,  avg # of iterations =  7.1

     total cpu time spent up to now is      411.1 secs

     total energy              =   -1444.99786031 Ry
     estimated scf accuracy    <       0.00026927 Ry

     iteration # 17     ecut=    50.00 Ry     beta= 0.30
     Davidson diagonalization with overlap

---- Real-time Memory Report at c_bands before calling an iterative solver
           109 MiB given to the printing process from OS
            78 MiB allocation reported by mallinfo(arena+hblkhd)
        102470 MiB available memory on the node where the printing process lives
------------------
     ethr =  1.87E-07,  avg # of iterations =  1.0

     total cpu time spent up to now is      424.5 secs

     total energy              =   -1444.99788191 Ry
     estimated scf accuracy    <       0.00026582 Ry

     iteration # 18     ecut=    50.00 Ry     beta= 0.30
     Davidson diagonalization with overlap

---- Real-time Memory Report at c_bands before calling an iterative solver
           109 MiB given to the printing process from OS
            78 MiB allocation reported by mallinfo(arena+hblkhd)
        102470 MiB available memory on the node where the printing process lives
------------------
     ethr =  1.85E-07,  avg # of iterations =  1.2

     total cpu time spent up to now is      438.1 secs

     total energy              =   -1444.99790921 Ry
     estimated scf accuracy    <       0.00031341 Ry

     iteration # 19     ecut=    50.00 Ry     beta= 0.30
     Davidson diagonalization with overlap

---- Real-time Memory Report at c_bands before calling an iterative solver
           109 MiB given to the printing process from OS
            78 MiB allocation reported by mallinfo(arena+hblkhd)
        102470 MiB available memory on the node where the printing process lives
------------------
     c_bands:  1 eigenvalues not converged
     ethr =  1.85E-07,  avg # of iterations =  2.0

     total cpu time spent up to now is      453.2 secs

     total energy              =   -1444.99782888 Ry
     estimated scf accuracy    <       0.00042549 Ry

     iteration # 20     ecut=    50.00 Ry     beta= 0.30
     Davidson diagonalization with overlap

---- Real-time Memory Report at c_bands before calling an iterative solver
           109 MiB given to the printing process from OS
            78 MiB allocation reported by mallinfo(arena+hblkhd)
        102470 MiB available memory on the node where the printing process lives
------------------
     c_bands:  1 eigenvalues not converged
     ethr =  1.85E-07,  avg # of iterations =  1.4

     total cpu time spent up to now is      467.4 secs

     total energy              =   -1444.99776101 Ry
     estimated scf accuracy    <       0.00023684 Ry

     iteration # 21     ecut=    50.00 Ry     beta= 0.30
     Davidson diagonalization with overlap

---- Real-time Memory Report at c_bands before calling an iterative solver
           109 MiB given to the printing process from OS
            78 MiB allocation reported by mallinfo(arena+hblkhd)
        102470 MiB available memory on the node where the printing process lives
------------------
     ethr =  1.64E-07,  avg # of iterations =  6.0

     total cpu time spent up to now is      490.8 secs

     total energy              =   -1444.99781060 Ry
     estimated scf accuracy    <       0.00000876 Ry

     iteration # 22     ecut=    50.00 Ry     beta= 0.30
     Davidson diagonalization with overlap

---- Real-time Memory Report at c_bands before calling an iterative solver
           109 MiB given to the printing process from OS
            78 MiB allocation reported by mallinfo(arena+hblkhd)
        102470 MiB available memory on the node where the printing process lives
------------------
     c_bands:  2 eigenvalues not converged
     ethr =  6.09E-09,  avg # of iterations =  8.0

     total cpu time spent up to now is      528.3 secs

     total energy              =   -1444.99782034 Ry
     estimated scf accuracy    <       0.00001435 Ry

     iteration # 23     ecut=    50.00 Ry     beta= 0.30
     Davidson diagonalization with overlap

---- Real-time Memory Report at c_bands before calling an iterative solver
           109 MiB given to the printing process from OS
            78 MiB allocation reported by mallinfo(arena+hblkhd)
        102470 MiB available memory on the node where the printing process lives
------------------
     ethr =  6.09E-09,  avg # of iterations =  5.0

     total cpu time spent up to now is      548.8 secs

     total energy              =   -1444.99781527 Ry
     estimated scf accuracy    <       0.00001365 Ry

     iteration # 24     ecut=    50.00 Ry     beta= 0.30
     Davidson diagonalization with overlap

---- Real-time Memory Report at c_bands before calling an iterative solver
           109 MiB given to the printing process from OS
            78 MiB allocation reported by mallinfo(arena+hblkhd)
        102470 MiB available memory on the node where the printing process lives
------------------
     ethr =  6.09E-09,  avg # of iterations =  4.8

     total cpu time spent up to now is      575.1 secs

     total energy              =   -1444.99781741 Ry
     estimated scf accuracy    <       0.00000467 Ry

     iteration # 25     ecut=    50.00 Ry     beta= 0.30
     Davidson diagonalization with overlap

---- Real-time Memory Report at c_bands before calling an iterative solver
           109 MiB given to the printing process from OS
            78 MiB allocation reported by mallinfo(arena+hblkhd)
        102470 MiB available memory on the node where the printing process lives
------------------
     ethr =  3.24E-09,  avg # of iterations =  4.7

     total cpu time spent up to now is      596.4 secs

     total energy              =   -1444.99781779 Ry
     estimated scf accuracy    <       0.00000163 Ry

     iteration # 26     ecut=    50.00 Ry     beta= 0.30
     Davidson diagonalization with overlap

---- Real-time Memory Report at c_bands before calling an iterative solver
           109 MiB given to the printing process from OS
            78 MiB allocation reported by mallinfo(arena+hblkhd)
        102470 MiB available memory on the node where the printing process lives
------------------
     ethr =  1.13E-09,  avg # of iterations =  5.3

     total cpu time spent up to now is      618.2 secs

     total energy              =   -1444.99781760 Ry
     estimated scf accuracy    <       0.00000092 Ry

     iteration # 27     ecut=    50.00 Ry     beta= 0.30
     Davidson diagonalization with overlap

---- Real-time Memory Report at c_bands before calling an iterative solver
           109 MiB given to the printing process from OS
            78 MiB allocation reported by mallinfo(arena+hblkhd)
        102470 MiB available memory on the node where the printing process lives
------------------
     ethr =  6.38E-10,  avg # of iterations =  5.9

     total cpu time spent up to now is      645.9 secs

     total energy              =   -1444.99781798 Ry
     estimated scf accuracy    <       0.00000033 Ry

     iteration # 28     ecut=    50.00 Ry     beta= 0.30
     Davidson diagonalization with overlap

---- Real-time Memory Report at c_bands before calling an iterative solver
           109 MiB given to the printing process from OS
            78 MiB allocation reported by mallinfo(arena+hblkhd)
        102470 MiB available memory on the node where the printing process lives
------------------
     ethr =  2.30E-10,  avg # of iterations =  2.7

     total cpu time spent up to now is      663.4 secs

     total energy              =   -1444.99781788 Ry
     estimated scf accuracy    <       0.00000045 Ry

     iteration # 29     ecut=    50.00 Ry     beta= 0.30
     Davidson diagonalization with overlap

---- Real-time Memory Report at c_bands before calling an iterative solver
           109 MiB given to the printing process from OS
            78 MiB allocation reported by mallinfo(arena+hblkhd)
        102470 MiB available memory on the node where the printing process lives
------------------
     ethr =  2.30E-10,  avg # of iterations =  3.4

     total cpu time spent up to now is      683.3 secs

     total energy              =   -1444.99781786 Ry
     estimated scf accuracy    <       0.00000020 Ry

     iteration # 30     ecut=    50.00 Ry     beta= 0.30
     Davidson diagonalization with overlap

---- Real-time Memory Report at c_bands before calling an iterative solver
           109 MiB given to the printing process from OS
            78 MiB allocation reported by mallinfo(arena+hblkhd)
        102470 MiB available memory on the node where the printing process lives
------------------
     ethr =  1.40E-10,  avg # of iterations =  5.0

     total cpu time spent up to now is      703.2 secs

     total energy              =   -1444.99781788 Ry
     estimated scf accuracy    <       0.00000006 Ry

     iteration # 31     ecut=    50.00 Ry     beta= 0.30
     Davidson diagonalization with overlap

---- Real-time Memory Report at c_bands before calling an iterative solver
           109 MiB given to the printing process from OS
            78 MiB allocation reported by mallinfo(arena+hblkhd)
        102470 MiB available memory on the node where the printing process lives
------------------
     ethr =  4.33E-11,  avg # of iterations =  4.9

     total cpu time spent up to now is      724.2 secs

     total energy              =   -1444.99781789 Ry
     estimated scf accuracy    <       0.00000003 Ry

     iteration # 32     ecut=    50.00 Ry     beta= 0.30
     Davidson diagonalization with overlap

---- Real-time Memory Report at c_bands before calling an iterative solver
           109 MiB given to the printing process from OS
            78 MiB allocation reported by mallinfo(arena+hblkhd)
        102470 MiB available memory on the node where the printing process lives
------------------
     ethr =  2.06E-11,  avg # of iterations =  4.8

     total cpu time spent up to now is      745.1 secs

     total energy              =   -1444.99781789 Ry
     estimated scf accuracy    <       0.00000002 Ry

     iteration # 33     ecut=    50.00 Ry     beta= 0.30
     Davidson diagonalization with overlap

---- Real-time Memory Report at c_bands before calling an iterative solver
           109 MiB given to the printing process from OS
            78 MiB allocation reported by mallinfo(arena+hblkhd)
        102470 MiB available memory on the node where the printing process lives
------------------
     ethr =  1.10E-11,  avg # of iterations =  6.2

     total cpu time spent up to now is      772.8 secs

     End of self-consistent calculation

          k = 0.0000 0.0000 0.0000 (  6103 PWs)   bands (ev):

   -10.0322  -9.3191  -9.2962  -8.5122  -8.2159  -7.6785  -7.4055  -7.2957
     1.5203   2.4447   2.6310   2.7468   2.7539   2.9159   2.9799   3.3204
     3.4313   3.6132   3.6777   3.8250   3.8642   3.9037   4.0697   4.1479
     4.1818   4.4350   4.5292   4.6255   4.7553   4.8413   4.9956   5.1405
     5.3067   5.3304   5.3941   5.4467   5.4892   5.5537   5.6576   5.6759
     5.7052   5.8479   5.8937   6.0646   6.3513   6.4049   6.5785   6.6298
     6.7369   6.7602   6.9363   7.0807   7.6057   7.7886   8.0438   8.1965
     8.6707   8.8346   9.1803   9.3581   9.4807   9.8124   9.9341  10.2634
    10.3533  10.5046  10.8653  11.1465  11.2525  11.6101  12.0448  12.2020

     occupation numbers 
     1.0000   1.0000   1.0000   1.0000   1.0000   1.0000   1.0000   1.0000
     1.0000   1.0000   1.0000   1.0000   1.0000   1.0000   1.0000   1.0000
     1.0000   1.0000   1.0000   1.0000   1.0000   1.0000   1.0000   1.0000
     1.0000   1.0000   1.0000   1.0000   1.0000   1.0000   1.0000   1.0000
     1.0000   1.0000   1.0000   1.0000   1.0000   1.0000   1.0000   1.0000
     1.0000   1.0000   1.0000   1.0000   1.0000   1.0000   1.0000   1.0000
     1.0000   1.0000   1.0000   1.0000   1.0000   1.0000   1.0000   1.0000
     1.0000   1.0000   1.0000   1.0000   1.0000   1.0000   1.0000   1.0000
     1.0000   1.0000   1.0000   1.0000   1.0000   1.0000   1.0000   1.0000

          k = 0.0000 0.0000 0.0487 (  6111 PWs)   bands (ev):

   -10.0306  -9.3562  -9.2600  -8.5123  -8.2166  -7.6770  -7.4070  -7.2957
     1.5210   2.4493   2.6226   2.7394   2.7568   2.9259   2.9789   3.3239
     3.4266   3.6124   3.6796   3.8233   3.8663   3.9030   4.0627   4.1473
     4.1848   4.4228   4.5401   4.6238   4.7539   4.8233   4.9918   5.1727
     5.3076   5.3306   5.3916   5.4453   5.4918   5.5532   5.6463   5.6730
     5.7146   5.8401   5.8973   6.0625   6.3555   6.4306   6.5818   6.6628
     6.7327   6.7639   6.9314   7.0644   7.6388   7.7708   7.9539   8.1417
     8.7312   8.7920   9.2116   9.4118   9.5228   9.8130   9.9312  10.2690
    10.3411  10.5187  10.8617  11.0662  11.2486  11.5118  12.0496  12.3495

     occupation numbers 
     1.0000   1.0000   1.0000   1.0000   1.0000   1.0000   1.0000   1.0000
     1.0000   1.0000   1.0000   1.0000   1.0000   1.0000   1.0000   1.0000
     1.0000   1.0000   1.0000   1.0000   1.0000   1.0000   1.0000   1.0000
     1.0000   1.0000   1.0000   1.0000   1.0000   1.0000   1.0000   1.0000
     1.0000   1.0000   1.0000   1.0000   1.0000   1.0000   1.0000   1.0000
     1.0000   1.0000   1.0000   1.0000   1.0000   1.0000   1.0000   1.0000
     1.0000   1.0000   1.0000   1.0000   1.0000   1.0000   1.0000   1.0000
     1.0000   1.0000   1.0000   1.0000   1.0000   1.0000   1.0000   1.0000
     1.0000   1.0000   1.0000   1.0000   1.0000   1.0000   1.0000   1.0000

          k = 0.0000 0.0000 0.0974 (  6119 PWs)   bands (ev):

   -10.0272  -9.3911  -9.2270  -8.5125  -8.2179  -7.6741  -7.4100  -7.2956
     1.5223   2.4594   2.6063   2.7255   2.7619   2.9458   2.9757   3.3324
     3.4154   3.6108   3.6840   3.8196   3.8708   3.9017   4.0484   4.1462
     4.1905   4.4030   4.5558   4.6231   4.7467   4.7965   4.9897   5.2267
     5.3108   5.3317   5.3828   5.4429   5.5004   5.5541   5.6203   5.6697
     5.7310   5.8263   5.9018   6.0580   6.3586   6.4829   6.5886   6.7099
     6.7552   6.8000   6.9162   7.0381   7.5579   7.7317   7.8648   8.1748
     8.6804   8.7344   9.2578   9.5464   9.6508   9.8193   9.9272  10.2668
    10.3235  10.5520  10.8232  10.8668  11.2508  11.4389  12.0502  12.3902

     occupation numbers 
     1.0000   1.0000   1.0000   1.0000   1.0000   1.0000   1.0000   1.0000
     1.0000   1.0000   1.0000   1.0000   1.0000   1.0000   1.0000   1.0000
     1.0000   1.0000   1.0000   1.0000   1.0000   1.0000   1.0000   1.0000
     1.0000   1.0000   1.0000   1.0000   1.0000   1.0000   1.0000   1.0000
     1.0000   1.0000   1.0000   1.0000   1.0000   1.0000   1.0000   1.0000
     1.0000   1.0000   1.0000   1.0000   1.0000   1.0000   1.0000   1.0000
     1.0000   1.0000   1.0000   1.0000   1.0000   1.0000   1.0000   1.0000
     1.0000   1.0000   1.0000   1.0000   1.0000   1.0000   1.0000   1.0000
     1.0000   1.0000   1.0000   1.0000   1.0000   1.0000   1.0000   1.0000

          k = 0.0000 0.0000-0.1461 (  6102 PWs)   bands (ev):

   -10.0255  -9.4042  -9.2149  -8.5126  -8.2185  -7.6726  -7.4115  -7.2956
     1.5230   2.4652   2.5981   2.7191   2.7641   2.9576   2.9719   3.3378
     3.4085   3.6100   3.6865   3.8176   3.8733   3.9012   4.0409   4.1456
     4.1935   4.3943   4.5611   4.6252   4.7394   4.7881   4.9898   5.2505
     5.3143   5.3338   5.3745   5.4421   5.5076   5.5569   5.6027   5.6687
     5.7394   5.8195   5.9033   6.0557   6.3595   6.5068   6.5937   6.7029
     6.7664   6.8884   6.9190   7.0149   7.4032   7.7613   7.8675   8.2032
     8.6349   8.6951   9.2735   9.5873   9.7547   9.8491   9.9260  10.2526
    10.3181  10.6096  10.6467  10.8563  11.2534  11.4235  12.0500  12.3924

     occupation numbers 
     1.0000   1.0000   1.0000   1.0000   1.0000   1.0000   1.0000   1.0000
     1.0000   1.0000   1.0000   1.0000   1.0000   1.0000   1.0000   1.0000
     1.0000   1.0000   1.0000   1.0000   1.0000   1.0000   1.0000   1.0000
     1.0000   1.0000   1.0000   1.0000   1.0000   1.0000   1.0000   1.0000
     1.0000   1.0000   1.0000   1.0000   1.0000   1.0000   1.0000   1.0000
     1.0000   1.0000   1.0000   1.0000   1.0000   1.0000   1.0000   1.0000
     1.0000   1.0000   1.0000   1.0000   1.0000   1.0000   1.0000   1.0000
     1.0000   1.0000   1.0000   1.0000   1.0000   1.0000   1.0000   1.0000
     1.0000   1.0000   1.0000   1.0000   1.0000   1.0000   1.0000   1.0000

          k = 0.0000 0.0962 0.0000 (  6096 PWs)   bands (ev):

   -10.0123  -9.2996  -9.2517  -8.5708  -8.1933  -7.7221  -7.4287  -7.3049
     1.5237   2.4565   2.6408   2.7562   2.8020   2.8986   2.9944   3.2943
     3.4118   3.5720   3.6806   3.8029   3.8528   3.8869   4.1094   4.1699
     4.2078   4.4346   4.5143   4.6365   4.7615   4.8063   4.9748   5.1472
     5.2816   5.3048   5.3879   5.4332   5.4657   5.5398   5.6113   5.6438
     5.7060   5.8362   5.9884   6.0649   6.2615   6.4169   6.6079   6.6628
     6.7444   6.7961   6.9713   7.1660   7.5389   7.9857   8.2510   8.2878
     8.6688   8.9593   9.1637   9.3151   9.4795   9.6978   9.7778  10.2076
    10.3259  10.4611  10.8453  11.0360  11.1303  11.5023  11.9671  12.1107

     occupation numbers 
     1.0000   1.0000   1.0000   1.0000   1.0000   1.0000   1.0000   1.0000
     1.0000   1.0000   1.0000   1.0000   1.0000   1.0000   1.0000   1.0000
     1.0000   1.0000   1.0000   1.0000   1.0000   1.0000   1.0000   1.0000
     1.0000   1.0000   1.0000   1.0000   1.0000   1.0000   1.0000   1.0000
     1.0000   1.0000   1.0000   1.0000   1.0000   1.0000   1.0000   1.0000
     1.0000   1.0000   1.0000   1.0000   1.0000   1.0000   1.0000   1.0000
     1.0000   1.0000   1.0000   1.0000   1.0000   1.0000   1.0000   1.0000
     1.0000   1.0000   1.0000   1.0000   1.0000   1.0000   1.0000   1.0000
     1.0000   1.0000   1.0000   1.0000   1.0000   1.0000   1.0000   1.0000

          k = 0.0000 0.0962 0.0487 (  6103 PWs)   bands (ev):

   -10.0108  -9.3310  -9.2205  -8.5713  -8.1952  -7.7200  -7.4286  -7.3062
     1.5250   2.4632   2.6212   2.7664   2.7925   2.9120   2.9931   3.3043
     3.4022   3.5691   3.6881   3.8016   3.8534   3.8805   4.1023   4.1668
     4.2090   4.4253   4.5270   4.6390   4.7366   4.7978   4.9904   5.1573
     5.2760   5.3070   5.3893   5.4313   5.4650   5.5442   5.5921   5.6654
     5.7179   5.8362   6.0040   6.0692   6.2600   6.4325   6.5899   6.6570
     6.7609   6.8054   7.0050   7.1196   7.6004   7.8770   8.2174   8.2837
     8.6444   8.9122   9.2203   9.3952   9.5228   9.6871   9.7855  10.1941
    10.3001  10.4756  10.8412  10.9912  11.1207  11.5750  11.8559  12.1293

     occupation numbers 
     1.0000   1.0000   1.0000   1.0000   1.0000   1.0000   1.0000   1.0000
     1.0000   1.0000   1.0000   1.0000   1.0000   1.0000   1.0000   1.0000
     1.0000   1.0000   1.0000   1.0000   1.0000   1.0000   1.0000   1.0000
     1.0000   1.0000   1.0000   1.0000   1.0000   1.0000   1.0000   1.0000
     1.0000   1.0000   1.0000   1.0000   1.0000   1.0000   1.0000   1.0000
     1.0000   1.0000   1.0000   1.0000   1.0000   1.0000   1.0000   1.0000
     1.0000   1.0000   1.0000   1.0000   1.0000   1.0000   1.0000   1.0000
     1.0000   1.0000   1.0000   1.0000   1.0000   1.0000   1.0000   1.0000
     1.0000   1.0000   1.0000   1.0000   1.0000   1.0000   1.0000   1.0000

          k = 0.0000 0.0962 0.0974 (  6098 PWs)   bands (ev):

   -10.0080  -9.3579  -9.1951  -8.5718  -8.1959  -7.7178  -7.4292  -7.3076
     1.5263   2.4699   2.6115   2.7507   2.7975   2.9330   2.9915   3.3032
     3.3905   3.5757   3.6914   3.8044   3.8484   3.8809   4.0947   4.1605
     4.2097   4.4045   4.5493   4.6287   4.7189   4.7936   4.9751   5.2017
     5.2719   5.3087   5.3880   5.4275   5.4684   5.5451   5.5710   5.6678
     5.7573   5.8386   5.9758   6.0591   6.3025   6.4863   6.5874   6.6889
     6.7887   6.8265   7.0278   7.0957   7.5184   7.8068   8.1161   8.2901
     8.6042   8.8392   9.3176   9.5230   9.5846   9.7023   9.8072  10.1873
    10.2715  10.5146  10.8087  10.8754  11.1262  11.4949  11.8976  12.1366

     occupation numbers 
     1.0000   1.0000   1.0000   1.0000   1.0000   1.0000   1.0000   1.0000
     1.0000   1.0000   1.0000   1.0000   1.0000   1.0000   1.0000   1.0000
     1.0000   1.0000   1.0000   1.0000   1.0000   1.0000   1.0000   1.0000
     1.0000   1.0000   1.0000   1.0000   1.0000   1.0000   1.0000   1.0000
     1.0000   1.0000   1.0000   1.0000   1.0000   1.0000   1.0000   1.0000
     1.0000   1.0000   1.0000   1.0000   1.0000   1.0000   1.0000   1.0000
     1.0000   1.0000   1.0000   1.0000   1.0000   1.0000   1.0000   1.0000
     1.0000   1.0000   1.0000   1.0000   1.0000   1.0000   1.0000   1.0000
     1.0000   1.0000   1.0000   1.0000   1.0000   1.0000   1.0000   1.0000

          k = 0.0000 0.0962-0.1461 (  6092 PWs)   bands (ev):

   -10.0068  -9.3650  -9.1895  -8.5718  -8.1948  -7.7177  -7.4300  -7.3078
     1.5263   2.4693   2.6199   2.7367   2.8015   2.9407   2.9920   3.2908
     3.3896   3.5850   3.6867   3.8091   3.8427   3.8877   4.0949   4.1560
     4.2095   4.3922   4.5568   4.6219   4.7221   4.7939   4.9549   5.2306
     5.2745   5.3094   5.3807   5.4286   5.4779   5.5345   5.5606   5.6631
     5.7877   5.8526   5.9096   6.0556   6.3452   6.5241   6.5870   6.7036
     6.7908   6.8897   7.0579   7.1166   7.3249   7.8336   8.0482   8.3069
     8.6084   8.8108   9.3263   9.5387   9.6051   9.7377   9.8498  10.2297
    10.2855  10.5543  10.6828  10.8348  11.1343  11.4219  11.9637  12.1394

     occupation numbers 
     1.0000   1.0000   1.0000   1.0000   1.0000   1.0000   1.0000   1.0000
     1.0000   1.0000   1.0000   1.0000   1.0000   1.0000   1.0000   1.0000
     1.0000   1.0000   1.0000   1.0000   1.0000   1.0000   1.0000   1.0000
     1.0000   1.0000   1.0000   1.0000   1.0000   1.0000   1.0000   1.0000
     1.0000   1.0000   1.0000   1.0000   1.0000   1.0000   1.0000   1.0000
     1.0000   1.0000   1.0000   1.0000   1.0000   1.0000   1.0000   1.0000
     1.0000   1.0000   1.0000   1.0000   1.0000   1.0000   1.0000   1.0000
     1.0000   1.0000   1.0000   1.0000   1.0000   1.0000   1.0000   1.0000
     1.0000   1.0000   1.0000   1.0000   1.0000   1.0000   1.0000   1.0000

          k = 0.0000 0.1925 0.0000 (  6092 PWs)   bands (ev):

    -9.9713  -9.2557  -9.1320  -8.7212  -8.1389  -7.8182  -7.4735  -7.3287
     1.5302   2.4793   2.6862   2.7766   2.8530   2.9298   3.0183   3.2133
     3.3935   3.5048   3.6715   3.7557   3.8132   3.8542   4.1225   4.2152
     4.3034   4.4185   4.5030   4.6451   4.7507   4.8084   4.9776   5.1310
     5.2094   5.2527   5.3428   5.3974   5.4246   5.4953   5.5540   5.6444
     5.6993   5.8034   5.9816   6.0627   6.1430   6.4273   6.5870   6.7175
     6.7471   6.9307   7.1460   7.5505   7.8233   8.1332   8.4575   8.6389
     8.6984   8.9455   9.0528   9.1584   9.3957   9.4643   9.7097   9.8664
    10.2468  10.5924  10.7634  10.8453  11.0530  11.1887  11.7251  11.9277

     occupation numbers 
     1.0000   1.0000   1.0000   1.0000   1.0000   1.0000   1.0000   1.0000
     1.0000   1.0000   1.0000   1.0000   1.0000   1.0000   1.0000   1.0000
     1.0000   1.0000   1.0000   1.0000   1.0000   1.0000   1.0000   1.0000
     1.0000   1.0000   1.0000   1.0000   1.0000   1.0000   1.0000   1.0000
     1.0000   1.0000   1.0000   1.0000   1.0000   1.0000   1.0000   1.0000
     1.0000   1.0000   1.0000   1.0000   1.0000   1.0000   1.0000   1.0000
     1.0000   1.0000   1.0000   1.0000   1.0000   1.0000   1.0000   1.0000
     1.0000   1.0000   1.0000   1.0000   1.0000   1.0000   1.0000   1.0000
     1.0000   1.0000   1.0000   1.0000   1.0000   1.0000   1.0000   1.0000

          k = 0.0000 0.1925 0.0487 (  6079 PWs)   bands (ev):

    -9.9703  -9.2691  -9.1175  -8.7229  -8.1415  -7.8155  -7.4715  -7.3313
     1.5316   2.4819   2.6753   2.7854   2.8434   2.9391   3.0160   3.2202
     3.4005   3.4901   3.6750   3.7666   3.8100   3.8421   4.1168   4.2115
     4.2999   4.4069   4.5219   4.6382   4.7275   4.8058   4.9862   5.1217
     5.2162   5.2699   5.3426   5.3927   5.4102   5.5112   5.5346   5.6541
     5.7409   5.8162   5.9729   6.0665   6.1592   6.4279   6.5834   6.7121
     6.7657   6.9724   7.1888   7.4529   7.8457   8.0415   8.4551   8.5429
     8.7302   8.9139   9.0529   9.1806   9.4564   9.5200   9.7152   9.8935
    10.2347  10.5663  10.7514  10.8449  11.0581  11.2441  11.6807  11.9247

     occupation numbers 
     1.0000   1.0000   1.0000   1.0000   1.0000   1.0000   1.0000   1.0000
     1.0000   1.0000   1.0000   1.0000   1.0000   1.0000   1.0000   1.0000
     1.0000   1.0000   1.0000   1.0000   1.0000   1.0000   1.0000   1.0000
     1.0000   1.0000   1.0000   1.0000   1.0000   1.0000   1.0000   1.0000
     1.0000   1.0000   1.0000   1.0000   1.0000   1.0000   1.0000   1.0000
     1.0000   1.0000   1.0000   1.0000   1.0000   1.0000   1.0000   1.0000
     1.0000   1.0000   1.0000   1.0000   1.0000   1.0000   1.0000   1.0000
     1.0000   1.0000   1.0000   1.0000   1.0000   1.0000   1.0000   1.0000
     1.0000   1.0000   1.0000   1.0000   1.0000   1.0000   1.0000   1.0000

          k = 0.0000 0.1925 0.0974 (  6087 PWs)   bands (ev):

    -9.9688  -9.2808  -9.1064  -8.7242  -8.1420  -7.8136  -7.4679  -7.3357
     1.5330   2.4833   2.6787   2.7764   2.8490   2.9399   3.0254   3.2083
     3.3744   3.5218   3.6726   3.7706   3.8091   3.8349   4.1164   4.1968
     4.2867   4.3964   4.5386   4.6344   4.6999   4.8165   4.9486   5.1457
     5.2172   5.2722   5.3567   5.3783   5.4077   5.5115   5.5259   5.6569
     5.7690   5.8371   5.9717   6.0598   6.2444   6.4728   6.5783   6.7093
     6.8237   7.0337   7.2386   7.3276   7.7000   7.9885   8.3038   8.5295
     8.7670   8.9016   9.0200   9.2801   9.4674   9.5823   9.7511   9.9832
    10.2164  10.5557  10.7380  10.8266  11.0223  11.3094  11.6410  11.9191

     occupation numbers 
     1.0000   1.0000   1.0000   1.0000   1.0000   1.0000   1.0000   1.0000
     1.0000   1.0000   1.0000   1.0000   1.0000   1.0000   1.0000   1.0000
     1.0000   1.0000   1.0000   1.0000   1.0000   1.0000   1.0000   1.0000
     1.0000   1.0000   1.0000   1.0000   1.0000   1.0000   1.0000   1.0000
     1.0000   1.0000   1.0000   1.0000   1.0000   1.0000   1.0000   1.0000
     1.0000   1.0000   1.0000   1.0000   1.0000   1.0000   1.0000   1.0000
     1.0000   1.0000   1.0000   1.0000   1.0000   1.0000   1.0000   1.0000
     1.0000   1.0000   1.0000   1.0000   1.0000   1.0000   1.0000   1.0000
     1.0000   1.0000   1.0000   1.0000   1.0000   1.0000   1.0000   1.0000

          k = 0.0000 0.1925-0.1461 (  6074 PWs)   bands (ev):

    -9.9683  -9.2812  -9.1079  -8.7238  -8.1398  -7.8145  -7.4663  -7.3375
     1.5329   2.4824   2.6927   2.7608   2.8640   2.9304   3.0374   3.1886
     3.3531   3.5595   3.6630   3.7621   3.8116   3.8426   4.1259   4.1795
     4.2786   4.3950   4.5357   4.6421   4.6932   4.8365   4.9036   5.1693
     5.2158   5.2626   5.3524   5.3910   5.4103   5.4996   5.5281   5.6534
     5.7773   5.8318   5.9637   6.0552   6.3225   6.5208   6.5747   6.7086
     6.8681   7.0820   7.1569   7.3508   7.5729   7.9376   8.2836   8.5333
     8.7847   8.8744   9.0331   9.3334   9.4366   9.5662   9.7682  10.1166
    10.1890  10.5509  10.7380  10.7986  10.9842  11.3182  11.6515  11.9167

     occupation numbers 
     1.0000   1.0000   1.0000   1.0000   1.0000   1.0000   1.0000   1.0000
     1.0000   1.0000   1.0000   1.0000   1.0000   1.0000   1.0000   1.0000
     1.0000   1.0000   1.0000   1.0000   1.0000   1.0000   1.0000   1.0000
     1.0000   1.0000   1.0000   1.0000   1.0000   1.0000   1.0000   1.0000
     1.0000   1.0000   1.0000   1.0000   1.0000   1.0000   1.0000   1.0000
     1.0000   1.0000   1.0000   1.0000   1.0000   1.0000   1.0000   1.0000
     1.0000   1.0000   1.0000   1.0000   1.0000   1.0000   1.0000   1.0000
     1.0000   1.0000   1.0000   1.0000   1.0000   1.0000   1.0000   1.0000
     1.0000   1.0000   1.0000   1.0000   1.0000   1.0000   1.0000   1.0000

          k = 0.0000-0.2887 0.0000 (  6078 PWs)   bands (ev):

    -9.9501  -9.2317  -9.0111  -8.8580  -8.1019  -7.8761  -7.4959  -7.3427
     1.5335   2.4889   2.7382   2.7919   2.8321   2.9749   3.0123   3.2219
     3.3719   3.4549   3.6383   3.7356   3.8020   3.8429   4.1253   4.2414
     4.3361   4.3946   4.5419   4.5759   4.8020   4.8654   4.9786   5.1153
     5.1574   5.1902   5.3026   5.3813   5.3988   5.4881   5.5367   5.6115
     5.7170   5.7923   5.9365   6.0641   6.1212   6.4309   6.5743   6.7189
     6.7408   6.8803   7.6796   7.7787   8.0426   8.1790   8.3566   8.5979
     8.7901   8.8233   9.0853   9.0940   9.2741   9.4059   9.5938   9.8252
    10.2190  10.5560  10.7089  10.8463  10.8905  11.2042  11.5929  11.8152

     occupation numbers 
     1.0000   1.0000   1.0000   1.0000   1.0000   1.0000   1.0000   1.0000
     1.0000   1.0000   1.0000   1.0000   1.0000   1.0000   1.0000   1.0000
     1.0000   1.0000   1.0000   1.0000   1.0000   1.0000   1.0000   1.0000
     1.0000   1.0000   1.0000   1.0000   1.0000   1.0000   1.0000   1.0000
     1.0000   1.0000   1.0000   1.0000   1.0000   1.0000   1.0000   1.0000
     1.0000   1.0000   1.0000   1.0000   1.0000   1.0000   1.0000   1.0000
     1.0000   1.0000   1.0000   1.0000   1.0000   1.0000   1.0000   1.0000
     1.0000   1.0000   1.0000   1.0000   1.0000   1.0000   1.0000   1.0000
     1.0000   1.0000   1.0000   1.0000   1.0000   1.0000   1.0000   1.0000

          k = 0.0000-0.2887 0.0487 (  6090 PWs)   bands (ev):

    -9.9497  -9.2338  -9.0083  -8.8596  -8.1026  -7.8745  -7.4934  -7.3455
     1.5342   2.4893   2.7450   2.7921   2.8289   2.9694   3.0181   3.2173
     3.3495   3.4817   3.6377   3.7319   3.8031   3.8402   4.1256   4.2299
     4.3281   4.3955   4.5393   4.5805   4.8052   4.8423   4.9601   5.1264
     5.1626   5.2007   5.3019   5.3785   5.3949   5.4916   5.5296   5.6161
     5.7223   5.7980   5.9801   6.0694   6.1368   6.4505   6.5702   6.6977
     6.7738   6.9249   7.6381   7.7202   8.0349   8.1037   8.3473   8.6141
     8.7273   8.8198   9.0820   9.1097   9.3070   9.3985   9.6684   9.8597
    10.2156  10.5603  10.7060  10.8541  10.8888  11.1947  11.5961  11.8125

     occupation numbers 
     1.0000   1.0000   1.0000   1.0000   1.0000   1.0000   1.0000   1.0000
     1.0000   1.0000   1.0000   1.0000   1.0000   1.0000   1.0000   1.0000
     1.0000   1.0000   1.0000   1.0000   1.0000   1.0000   1.0000   1.0000
     1.0000   1.0000   1.0000   1.0000   1.0000   1.0000   1.0000   1.0000
     1.0000   1.0000   1.0000   1.0000   1.0000   1.0000   1.0000   1.0000
     1.0000   1.0000   1.0000   1.0000   1.0000   1.0000   1.0000   1.0000
     1.0000   1.0000   1.0000   1.0000   1.0000   1.0000   1.0000   1.0000
     1.0000   1.0000   1.0000   1.0000   1.0000   1.0000   1.0000   1.0000
     1.0000   1.0000   1.0000   1.0000   1.0000   1.0000   1.0000   1.0000

          k = 0.0000-0.2887 0.0974 (  6080 PWs)   bands (ev):

    -9.9488  -9.2381  -9.0025  -8.8631  -8.1039  -7.8716  -7.4879  -7.3515
     1.5356   2.4905   2.7503   2.8003   2.8293   2.9467   3.0343   3.2096
     3.3207   3.5217   3.6346   3.7237   3.8054   3.8340   4.1263   4.2039
     4.3164   4.3979   4.5350   4.5887   4.7872   4.8353   4.9260   5.1431
     5.1655   5.2188   5.3014   5.3765   5.3870   5.4962   5.5170   5.6230
     5.7378   5.8100   6.0104   6.0648   6.2443   6.4912   6.5604   6.6805
     6.8325   7.0531   7.4149   7.6961   7.9135   8.0583   8.3040   8.6262
     8.6764   8.8106   9.0998   9.1276   9.3287   9.3972   9.7381   9.9919
    10.2137  10.5404  10.7256  10.8249  10.9213  11.1717  11.6023  11.8074

     occupation numbers 
     1.0000   1.0000   1.0000   1.0000   1.0000   1.0000   1.0000   1.0000
     1.0000   1.0000   1.0000   1.0000   1.0000   1.0000   1.0000   1.0000
     1.0000   1.0000   1.0000   1.0000   1.0000   1.0000   1.0000   1.0000
     1.0000   1.0000   1.0000   1.0000   1.0000   1.0000   1.0000   1.0000
     1.0000   1.0000   1.0000   1.0000   1.0000   1.0000   1.0000   1.0000
     1.0000   1.0000   1.0000   1.0000   1.0000   1.0000   1.0000   1.0000
     1.0000   1.0000   1.0000   1.0000   1.0000   1.0000   1.0000   1.0000
     1.0000   1.0000   1.0000   1.0000   1.0000   1.0000   1.0000   1.0000
     1.0000   1.0000   1.0000   1.0000   1.0000   1.0000   1.0000   1.0000

          k = 0.0000-0.2887-0.1461 (  6072 PWs)   bands (ev):

    -9.9483  -9.2402  -8.9995  -8.8650  -8.1045  -7.8702  -7.4849  -7.3547
     1.5363   2.4913   2.7490   2.8030   2.8419   2.9266   3.0441   3.2061
     3.3092   3.5408   3.6311   3.7190   3.8068   3.8303   4.1264   4.1902
     4.3121   4.3993   4.5331   4.5925   4.7712   4.8475   4.9052   5.1516
     5.1654   5.2240   5.3022   5.3779   5.3822   5.4968   5.5119   5.6259
     5.7447   5.8187   6.0109   6.0604   6.3147   6.5180   6.5532   6.6737
     6.8965   7.1566   7.2496   7.6536   7.8303   8.0648   8.2776   8.6247
     8.6748   8.7999   9.1147   9.1399   9.3197   9.4056   9.7496  10.0781
    10.2232  10.5092  10.7455  10.8046  10.9400  11.1577  11.6053  11.8048

     occupation numbers 
     1.0000   1.0000   1.0000   1.0000   1.0000   1.0000   1.0000   1.0000
     1.0000   1.0000   1.0000   1.0000   1.0000   1.0000   1.0000   1.0000
     1.0000   1.0000   1.0000   1.0000   1.0000   1.0000   1.0000   1.0000
     1.0000   1.0000   1.0000   1.0000   1.0000   1.0000   1.0000   1.0000
     1.0000   1.0000   1.0000   1.0000   1.0000   1.0000   1.0000   1.0000
     1.0000   1.0000   1.0000   1.0000   1.0000   1.0000   1.0000   1.0000
     1.0000   1.0000   1.0000   1.0000   1.0000   1.0000   1.0000   1.0000
     1.0000   1.0000   1.0000   1.0000   1.0000   1.0000   1.0000   1.0000
     1.0000   1.0000   1.0000   1.0000   1.0000   1.0000   1.0000   1.0000

          k = 0.1667 0.0962 0.0000 (  6073 PWs)   bands (ev):

    -9.8953  -9.1709  -9.1240  -8.5163  -8.0850  -7.6654  -7.3557  -7.2647
     1.6324   2.4530   2.6938   2.7854   2.8651   2.9607   3.0951   3.2972
     3.4381   3.5672   3.6894   3.7699   3.8498   3.9534   4.0106   4.1838
     4.2877   4.4135   4.4823   4.7038   4.7859   4.8591   4.9961   5.1081
     5.2341   5.3057   5.3661   5.4170   5.4596   5.4982   5.5898   5.7183
     5.7385   5.8484   6.0528   6.1112   6.2947   6.4065   6.6154   6.6993
     6.7901   6.9398   7.0850   7.2604   7.4111   7.8917   8.0583   8.2366
     8.3806   8.6078   8.7878   9.0052   9.3045   9.3991   9.5771   9.7960
     9.9156  10.2097  10.3821  10.5200  10.8758  11.1643  11.5465  11.9234

     occupation numbers 
     1.0000   1.0000   1.0000   1.0000   1.0000   1.0000   1.0000   1.0000
     1.0000   1.0000   1.0000   1.0000   1.0000   1.0000   1.0000   1.0000
     1.0000   1.0000   1.0000   1.0000   1.0000   1.0000   1.0000   1.0000
     1.0000   1.0000   1.0000   1.0000   1.0000   1.0000   1.0000   1.0000
     1.0000   1.0000   1.0000   1.0000   1.0000   1.0000   1.0000   1.0000
     1.0000   1.0000   1.0000   1.0000   1.0000   1.0000   1.0000   1.0000
     1.0000   1.0000   1.0000   1.0000   1.0000   1.0000   1.0000   1.0000
     1.0000   1.0000   1.0000   1.0000   1.0000   1.0000   1.0000   1.0000
     1.0000   1.0000   1.0000   1.0000   1.0000   1.0000   1.0000   1.0000

          k = 0.1667 0.0962 0.0487 (  6069 PWs)   bands (ev):

    -9.8944  -9.1924  -9.1026  -8.5166  -8.0864  -7.6641  -7.3543  -7.2666
     1.6335   2.4554   2.6850   2.7887   2.8650   2.9694   3.0963   3.3064
     3.4081   3.5734   3.7045   3.7700   3.8416   3.9530   4.0054   4.1686
     4.2907   4.3868   4.5193   4.6923   4.7912   4.8624   5.0407   5.0598
     5.2474   5.3140   5.3633   5.4037   5.4365   5.5056   5.5947   5.7121
     5.7490   5.8489   6.0526   6.1490   6.3035   6.3998   6.6058   6.6936
     6.8037   6.9475   7.0974   7.2472   7.4573   7.9082   7.9800   8.1362
     8.3589   8.6462   8.8178   9.0046   9.3401   9.4388   9.5444   9.8031
     9.9030  10.1980  10.4020  10.5647  10.8750  11.0787  11.5780  11.9113

     occupation numbers 
     1.0000   1.0000   1.0000   1.0000   1.0000   1.0000   1.0000   1.0000
     1.0000   1.0000   1.0000   1.0000   1.0000   1.0000   1.0000   1.0000
     1.0000   1.0000   1.0000   1.0000   1.0000   1.0000   1.0000   1.0000
     1.0000   1.0000   1.0000   1.0000   1.0000   1.0000   1.0000   1.0000
     1.0000   1.0000   1.0000   1.0000   1.0000   1.0000   1.0000   1.0000
     1.0000   1.0000   1.0000   1.0000   1.0000   1.0000   1.0000   1.0000
     1.0000   1.0000   1.0000   1.0000   1.0000   1.0000   1.0000   1.0000
     1.0000   1.0000   1.0000   1.0000   1.0000   1.0000   1.0000   1.0000
     1.0000   1.0000   1.0000   1.0000   1.0000   1.0000   1.0000   1.0000

          k = 0.1667 0.0962 0.0974 (  6087 PWs)   bands (ev):

    -9.8926  -9.2135  -9.0827  -8.5170  -8.0868  -7.6626  -7.3537  -7.2686
     1.6352   2.4617   2.6772   2.7935   2.8508   2.9832   3.1012   3.3143
     3.3798   3.5886   3.7044   3.7652   3.8413   3.9360   4.0161   4.1576
     4.2809   4.3830   4.5376   4.6679   4.7861   4.8794   5.0063   5.0988
     5.2451   5.3000   5.3728   5.3857   5.4377   5.5223   5.6020   5.7053
     5.7474   5.8689   6.0315   6.1931   6.3345   6.4232   6.5884   6.6796
     6.8633   6.9765   7.1113   7.2558   7.4655   7.7211   7.9390   8.1045
     8.3087   8.6741   8.8511   9.0036   9.3902   9.5070   9.5598   9.7678
     9.9228  10.1693  10.4103  10.6044  10.8926  11.0137  11.5708  11.8993

     occupation numbers 
     1.0000   1.0000   1.0000   1.0000   1.0000   1.0000   1.0000   1.0000
     1.0000   1.0000   1.0000   1.0000   1.0000   1.0000   1.0000   1.0000
     1.0000   1.0000   1.0000   1.0000   1.0000   1.0000   1.0000   1.0000
     1.0000   1.0000   1.0000   1.0000   1.0000   1.0000   1.0000   1.0000
     1.0000   1.0000   1.0000   1.0000   1.0000   1.0000   1.0000   1.0000
     1.0000   1.0000   1.0000   1.0000   1.0000   1.0000   1.0000   1.0000
     1.0000   1.0000   1.0000   1.0000   1.0000   1.0000   1.0000   1.0000
     1.0000   1.0000   1.0000   1.0000   1.0000   1.0000   1.0000   1.0000
     1.0000   1.0000   1.0000   1.0000   1.0000   1.0000   1.0000   1.0000

          k = 0.1667 0.0962-0.1461 (  6080 PWs)   bands (ev):

    -9.8917  -9.2199  -9.0774  -8.5170  -8.0859  -7.6624  -7.3546  -7.2685
     1.6359   2.4659   2.6761   2.7961   2.8393   2.9865   3.1051   3.3055
     3.3864   3.6045   3.6792   3.7658   3.8514   3.9213   4.0298   4.1610
     4.2681   4.3931   4.5313   4.6544   4.7789   4.8936   4.9682   5.1413
     5.2345   5.2816   5.3713   5.3911   5.4543   5.5360   5.6040   5.7011
     5.7414   5.8922   6.0070   6.1778   6.3689   6.4733   6.5590   6.6863
     6.8879   7.0499   7.1652   7.2563   7.3148   7.6230   7.9412   8.1256
     8.2867   8.6826   8.8766   8.9826   9.4158   9.4900   9.6302   9.7221
     9.9907  10.1331  10.3953  10.5802  10.9194  11.0395  11.5362  11.8989

     occupation numbers 
     1.0000   1.0000   1.0000   1.0000   1.0000   1.0000   1.0000   1.0000
     1.0000   1.0000   1.0000   1.0000   1.0000   1.0000   1.0000   1.0000
     1.0000   1.0000   1.0000   1.0000   1.0000   1.0000   1.0000   1.0000
     1.0000   1.0000   1.0000   1.0000   1.0000   1.0000   1.0000   1.0000
     1.0000   1.0000   1.0000   1.0000   1.0000   1.0000   1.0000   1.0000
     1.0000   1.0000   1.0000   1.0000   1.0000   1.0000   1.0000   1.0000
     1.0000   1.0000   1.0000   1.0000   1.0000   1.0000   1.0000   1.0000
     1.0000   1.0000   1.0000   1.0000   1.0000   1.0000   1.0000   1.0000
     1.0000   1.0000   1.0000   1.0000   1.0000   1.0000   1.0000   1.0000

          k = 0.1667 0.1925 0.0000 (  6085 PWs)   bands (ev):

    -9.8637  -9.1336  -9.0171  -8.6455  -8.0337  -7.7505  -7.3893  -7.2817
     1.6337   2.4613   2.6752   2.7716   2.8702   2.9288   3.1554   3.2269
     3.4323   3.4820   3.6898   3.7628   3.8589   3.9366   4.0252   4.1683
     4.2802   4.3344   4.5208   4.7643   4.8297   4.8690   5.0086   5.0637
     5.1965   5.2109   5.3520   5.4066   5.4620   5.5255   5.5931   5.6680
     5.7534   5.8118   6.0163   6.1061   6.2175   6.4161   6.6398   6.7535
     6.8295   6.9629   7.2751   7.5054   7.8377   7.8955   8.1918   8.3408
     8.4268   8.7115   8.8511   8.9795   9.1104   9.3038   9.4064   9.6592
     9.9076  10.1104  10.2982  10.5441  10.9386  11.1406  11.2671  11.6502

     occupation numbers 
     1.0000   1.0000   1.0000   1.0000   1.0000   1.0000   1.0000   1.0000
     1.0000   1.0000   1.0000   1.0000   1.0000   1.0000   1.0000   1.0000
     1.0000   1.0000   1.0000   1.0000   1.0000   1.0000   1.0000   1.0000
     1.0000   1.0000   1.0000   1.0000   1.0000   1.0000   1.0000   1.0000
     1.0000   1.0000   1.0000   1.0000   1.0000   1.0000   1.0000   1.0000
     1.0000   1.0000   1.0000   1.0000   1.0000   1.0000   1.0000   1.0000
     1.0000   1.0000   1.0000   1.0000   1.0000   1.0000   1.0000   1.0000
     1.0000   1.0000   1.0000   1.0000   1.0000   1.0000   1.0000   1.0000
     1.0000   1.0000   1.0000   1.0000   1.0000   1.0000   1.0000   1.0000

          k = 0.1667 0.1925 0.0487 (  6086 PWs)   bands (ev):

    -9.8631  -9.1422  -9.0076  -8.6468  -8.0354  -7.7489  -7.3863  -7.2848
     1.6349   2.4614   2.6765   2.7703   2.8676   2.9424   3.1582   3.2224
     3.3875   3.5112   3.6991   3.7584   3.8585   3.9465   4.0008   4.1674
     4.2712   4.3296   4.5421   4.7702   4.8159   4.8767   5.0086   5.0539
     5.1737   5.2453   5.3565   5.4101   5.4267   5.5151   5.5931   5.6686
     5.7666   5.8431   6.0057   6.1439   6.2150   6.4165   6.6269   6.7293
     6.8573   7.0155   7.3207   7.4568   7.8311   7.9186   8.1104   8.3036
     8.4137   8.6793   8.8103   9.0295   9.1377   9.2594   9.4321   9.7069
     9.9054  10.1341  10.2830  10.5805  10.9220  11.1387  11.2663  11.6444

     occupation numbers 
     1.0000   1.0000   1.0000   1.0000   1.0000   1.0000   1.0000   1.0000
     1.0000   1.0000   1.0000   1.0000   1.0000   1.0000   1.0000   1.0000
     1.0000   1.0000   1.0000   1.0000   1.0000   1.0000   1.0000   1.0000
     1.0000   1.0000   1.0000   1.0000   1.0000   1.0000   1.0000   1.0000
     1.0000   1.0000   1.0000   1.0000   1.0000   1.0000   1.0000   1.0000
     1.0000   1.0000   1.0000   1.0000   1.0000   1.0000   1.0000   1.0000
     1.0000   1.0000   1.0000   1.0000   1.0000   1.0000   1.0000   1.0000
     1.0000   1.0000   1.0000   1.0000   1.0000   1.0000   1.0000   1.0000
     1.0000   1.0000   1.0000   1.0000   1.0000   1.0000   1.0000   1.0000

          k = 0.1667 0.1925 0.0974 (  6089 PWs)   bands (ev):

    -9.8621  -9.1505  -8.9997  -8.6479  -8.0358  -7.7476  -7.3824  -7.2890
     1.6370   2.4669   2.6706   2.7813   2.8534   2.9533   3.1732   3.2079
     3.3609   3.5387   3.6738   3.7605   3.8626   3.9584   3.9850   4.1586
     4.2521   4.3404   4.5534   4.7457   4.8050   4.8894   4.9764   5.0818
     5.1562   5.2665   5.3583   5.3798   5.4404   5.5222   5.5951   5.6623
     5.7823   5.8698   6.0013   6.1606   6.2667   6.4652   6.6031   6.7141
     6.9293   7.0661   7.3182   7.4171   7.7454   7.9431   8.0104   8.2368
     8.4268   8.6390   8.7253   9.0518   9.1457   9.2839   9.4848   9.7491
     9.9487  10.1556  10.2553  10.6203  10.9282  11.1393  11.2453  11.6417

     occupation numbers 
     1.0000   1.0000   1.0000   1.0000   1.0000   1.0000   1.0000   1.0000
     1.0000   1.0000   1.0000   1.0000   1.0000   1.0000   1.0000   1.0000
     1.0000   1.0000   1.0000   1.0000   1.0000   1.0000   1.0000   1.0000
     1.0000   1.0000   1.0000   1.0000   1.0000   1.0000   1.0000   1.0000
     1.0000   1.0000   1.0000   1.0000   1.0000   1.0000   1.0000   1.0000
     1.0000   1.0000   1.0000   1.0000   1.0000   1.0000   1.0000   1.0000
     1.0000   1.0000   1.0000   1.0000   1.0000   1.0000   1.0000   1.0000
     1.0000   1.0000   1.0000   1.0000   1.0000   1.0000   1.0000   1.0000
     1.0000   1.0000   1.0000   1.0000   1.0000   1.0000   1.0000   1.0000

          k = 0.1667 0.1925-0.1461 (  6096 PWs)   bands (ev):

    -9.8617  -9.1512  -9.0002  -8.6477  -8.0345  -7.7477  -7.3818  -7.2901
     1.6379   2.4730   2.6623   2.7967   2.8390   2.9511   3.1803   3.2028
     3.3649   3.5592   3.6330   3.7666   3.8665   3.9435   4.0104   4.1494
     4.2444   4.3512   4.5453   4.7219   4.8009   4.8974   4.9610   5.0950
     5.1582   5.2620   5.3469   5.3739   5.4767   5.5302   5.5948   5.6556
     5.7849   5.8757   6.0005   6.1311   6.3302   6.5216   6.5933   6.7225
     6.9794   7.1234   7.1860   7.4035   7.6808   7.9435   8.0067   8.2217
     8.4658   8.5815   8.7091   9.0219   9.1662   9.3101   9.4812   9.7912
     9.9774  10.1621  10.2428  10.6137  10.9595  11.1487  11.2156  11.6447

     occupation numbers 
     1.0000   1.0000   1.0000   1.0000   1.0000   1.0000   1.0000   1.0000
     1.0000   1.0000   1.0000   1.0000   1.0000   1.0000   1.0000   1.0000
     1.0000   1.0000   1.0000   1.0000   1.0000   1.0000   1.0000   1.0000
     1.0000   1.0000   1.0000   1.0000   1.0000   1.0000   1.0000   1.0000
     1.0000   1.0000   1.0000   1.0000   1.0000   1.0000   1.0000   1.0000
     1.0000   1.0000   1.0000   1.0000   1.0000   1.0000   1.0000   1.0000
     1.0000   1.0000   1.0000   1.0000   1.0000   1.0000   1.0000   1.0000
     1.0000   1.0000   1.0000   1.0000   1.0000   1.0000   1.0000   1.0000
     1.0000   1.0000   1.0000   1.0000   1.0000   1.0000   1.0000   1.0000

          k = 0.1667 0.2887 0.0000 (  6116 PWs)   bands (ev):

    -9.8487  -9.1169  -8.9198  -8.7536  -8.0150  -7.7851  -7.4031  -7.2902
     1.6319   2.4718   2.6417   2.8196   2.8696   2.9331   3.1462   3.2305
     3.3735   3.5052   3.6790   3.7687   3.8754   3.9203   4.0715   4.1371
     4.2904   4.3344   4.4781   4.7424   4.8296   4.9000   5.0049   5.0589
     5.1748   5.2750   5.3407   5.3985   5.4624   5.5355   5.5851   5.6606
     5.7354   5.8164   5.9735   6.1109   6.1707   6.4248   6.5987   6.7237
     6.8107   6.9032   7.5243   7.6415   7.8312   8.0260   8.1628   8.3296
     8.4810   8.6865   8.8055   8.9620   9.1092   9.2244   9.5058   9.5840
     9.8155  10.1612  10.2067  10.5035  10.9102  11.0609  11.4303  11.5553

     occupation numbers 
     1.0000   1.0000   1.0000   1.0000   1.0000   1.0000   1.0000   1.0000
     1.0000   1.0000   1.0000   1.0000   1.0000   1.0000   1.0000   1.0000
     1.0000   1.0000   1.0000   1.0000   1.0000   1.0000   1.0000   1.0000
     1.0000   1.0000   1.0000   1.0000   1.0000   1.0000   1.0000   1.0000
     1.0000   1.0000   1.0000   1.0000   1.0000   1.0000   1.0000   1.0000
     1.0000   1.0000   1.0000   1.0000   1.0000   1.0000   1.0000   1.0000
     1.0000   1.0000   1.0000   1.0000   1.0000   1.0000   1.0000   1.0000
     1.0000   1.0000   1.0000   1.0000   1.0000   1.0000   1.0000   1.0000
     1.0000   1.0000   1.0000   1.0000   1.0000   1.0000   1.0000   1.0000

          k = 0.1667 0.2887 0.0487 (  6116 PWs)   bands (ev):

    -9.8484  -9.1180  -8.9181  -8.7549  -8.0150  -7.7846  -7.4002  -7.2930
     1.6326   2.4729   2.6475   2.8138   2.8671   2.9457   3.1558   3.2060
     3.3670   3.5115   3.6762   3.7719   3.8685   3.9366   4.0482   4.1467
     4.2801   4.3216   4.4958   4.7319   4.8353   4.9150   4.9917   5.0641
     5.1641   5.2718   5.3442   5.4127   5.4327   5.5358   5.5905   5.6359
     5.7679   5.8245   5.9815   6.1169   6.1869   6.4412   6.5856   6.6917
     6.8393   6.9753   7.5561   7.6565   7.8000   7.9714   8.1126   8.3267
     8.3975   8.6965   8.8686   8.8874   9.1129   9.2092   9.5109   9.5986
     9.8746  10.1450  10.2633  10.4890  10.9340  11.0553  11.4262  11.5493

     occupation numbers 
     1.0000   1.0000   1.0000   1.0000   1.0000   1.0000   1.0000   1.0000
     1.0000   1.0000   1.0000   1.0000   1.0000   1.0000   1.0000   1.0000
     1.0000   1.0000   1.0000   1.0000   1.0000   1.0000   1.0000   1.0000
     1.0000   1.0000   1.0000   1.0000   1.0000   1.0000   1.0000   1.0000
     1.0000   1.0000   1.0000   1.0000   1.0000   1.0000   1.0000   1.0000
     1.0000   1.0000   1.0000   1.0000   1.0000   1.0000   1.0000   1.0000
     1.0000   1.0000   1.0000   1.0000   1.0000   1.0000   1.0000   1.0000
     1.0000   1.0000   1.0000   1.0000   1.0000   1.0000   1.0000   1.0000
     1.0000   1.0000   1.0000   1.0000   1.0000   1.0000   1.0000   1.0000

          k = 0.1667 0.2887 0.0974 (  6092 PWs)   bands (ev):

    -9.8477  -9.1212  -8.9138  -8.7574  -8.0158  -7.7826  -7.3953  -7.2981
     1.6347   2.4802   2.6438   2.8186   2.8662   2.9497   3.1420   3.2145
     3.3598   3.5135   3.6567   3.7857   3.8632   3.9300   4.0514   4.1541
     4.2474   4.3258   4.5115   4.7098   4.8345   4.8776   4.9745   5.1045
     5.1538   5.2847   5.3402   5.3901   5.4524   5.5390   5.5929   5.6329
     5.7841   5.8493   5.9916   6.1202   6.2276   6.4924   6.5691   6.6882
     6.8900   7.0945   7.5043   7.6513   7.7279   7.9137   8.0599   8.2262
     8.3798   8.6994   8.8048   8.8757   9.0856   9.2812   9.5217   9.6225
     9.9313  10.1447  10.3425  10.5063  10.9407  11.0357  11.4203  11.5539

     occupation numbers 
     1.0000   1.0000   1.0000   1.0000   1.0000   1.0000   1.0000   1.0000
     1.0000   1.0000   1.0000   1.0000   1.0000   1.0000   1.0000   1.0000
     1.0000   1.0000   1.0000   1.0000   1.0000   1.0000   1.0000   1.0000
     1.0000   1.0000   1.0000   1.0000   1.0000   1.0000   1.0000   1.0000
     1.0000   1.0000   1.0000   1.0000   1.0000   1.0000   1.0000   1.0000
     1.0000   1.0000   1.0000   1.0000   1.0000   1.0000   1.0000   1.0000
     1.0000   1.0000   1.0000   1.0000   1.0000   1.0000   1.0000   1.0000
     1.0000   1.0000   1.0000   1.0000   1.0000   1.0000   1.0000   1.0000
     1.0000   1.0000   1.0000   1.0000   1.0000   1.0000   1.0000   1.0000

          k = 0.1667 0.2887-0.1461 (  6076 PWs)   bands (ev):

    -9.8474  -9.1233  -8.9111  -8.7587  -8.0165  -7.7811  -7.3935  -7.3003
     1.6362   2.4873   2.6328   2.8271   2.8721   2.9403   3.1208   3.2462
     3.3595   3.5053   3.6425   3.7967   3.8614   3.9098   4.0760   4.1544
     4.2294   4.3328   4.5143   4.6959   4.8081   4.8617   4.9758   5.1132
     5.1667   5.2941   5.3309   5.3747   5.4791   5.5414   5.5923   5.6467
     5.7772   5.8643   5.9910   6.1082   6.2737   6.5051   6.5757   6.7059
     6.9721   7.1584   7.2939   7.6412   7.7708   7.9073   8.0263   8.1587
     8.4136   8.6634   8.7887   8.9018   9.0349   9.3336   9.5393   9.6208
     9.9497  10.1599  10.3489  10.5533  10.9162  11.0257  11.4189  11.5643

     occupation numbers 
     1.0000   1.0000   1.0000   1.0000   1.0000   1.0000   1.0000   1.0000
     1.0000   1.0000   1.0000   1.0000   1.0000   1.0000   1.0000   1.0000
     1.0000   1.0000   1.0000   1.0000   1.0000   1.0000   1.0000   1.0000
     1.0000   1.0000   1.0000   1.0000   1.0000   1.0000   1.0000   1.0000
     1.0000   1.0000   1.0000   1.0000   1.0000   1.0000   1.0000   1.0000
     1.0000   1.0000   1.0000   1.0000   1.0000   1.0000   1.0000   1.0000
     1.0000   1.0000   1.0000   1.0000   1.0000   1.0000   1.0000   1.0000
     1.0000   1.0000   1.0000   1.0000   1.0000   1.0000   1.0000   1.0000
     1.0000   1.0000   1.0000   1.0000   1.0000   1.0000   1.0000   1.0000

          k = 0.1667 0.0000 0.0000 (  6085 PWs)   bands (ev):

    -9.9119  -9.1914  -9.1644  -8.4643  -8.1135  -7.6192  -7.3366  -7.2556
     1.6293   2.4541   2.6836   2.8188   2.8644   2.9787   3.0908   3.3606
     3.4607   3.5674   3.7008   3.8151   3.8912   3.9428   4.0097   4.1524
     4.2740   4.3782   4.5068   4.6812   4.7734   4.8593   5.0247   5.1529
     5.2745   5.3114   5.3751   5.4043   5.4551   5.5231   5.5977   5.6500
     5.7217   5.9562   6.0465   6.1398   6.3175   6.3993   6.5406   6.6533
     6.7386   6.8979   6.9748   7.0939   7.2984   7.8489   7.9800   8.1076
     8.2189   8.6665   8.7331   9.0546   9.3603   9.4914   9.6558   9.8888
    10.0144  10.1835  10.3306  10.6360  10.8564  11.1056  11.7809  12.1418

     occupation numbers 
     1.0000   1.0000   1.0000   1.0000   1.0000   1.0000   1.0000   1.0000
     1.0000   1.0000   1.0000   1.0000   1.0000   1.0000   1.0000   1.0000
     1.0000   1.0000   1.0000   1.0000   1.0000   1.0000   1.0000   1.0000
     1.0000   1.0000   1.0000   1.0000   1.0000   1.0000   1.0000   1.0000
     1.0000   1.0000   1.0000   1.0000   1.0000   1.0000   1.0000   1.0000
     1.0000   1.0000   1.0000   1.0000   1.0000   1.0000   1.0000   1.0000
     1.0000   1.0000   1.0000   1.0000   1.0000   1.0000   1.0000   1.0000
     1.0000   1.0000   1.0000   1.0000   1.0000   1.0000   1.0000   1.0000
     1.0000   1.0000   1.0000   1.0000   1.0000   1.0000   1.0000   1.0000

          k = 0.1667 0.0000 0.0487 (  6087 PWs)   bands (ev):

    -9.9109  -9.2163  -9.1403  -8.4643  -8.1139  -7.6180  -7.3372  -7.2560
     1.6297   2.4593   2.6751   2.8144   2.8649   2.9887   3.0938   3.3639
     3.4568   3.5586   3.7057   3.8156   3.8870   3.9528   4.0041   4.1346
     4.2652   4.3932   4.4955   4.6827   4.7681   4.8684   5.0600   5.1316
     5.2821   5.3178   5.3647   5.4028   5.4511   5.5141   5.6045   5.6405
     5.7294   5.9551   6.0646   6.1263   6.3290   6.3975   6.5338   6.6905
     6.7507   6.8621   6.9825   7.0979   7.3448   7.8119   7.9907   8.0607
     8.1186   8.7043   8.7760   9.0426   9.3864   9.5142   9.6477   9.9183
    10.0015  10.1765  10.3633  10.6590  10.8354  11.0148  11.8099  12.1290

     occupation numbers 
     1.0000   1.0000   1.0000   1.0000   1.0000   1.0000   1.0000   1.0000
     1.0000   1.0000   1.0000   1.0000   1.0000   1.0000   1.0000   1.0000
     1.0000   1.0000   1.0000   1.0000   1.0000   1.0000   1.0000   1.0000
     1.0000   1.0000   1.0000   1.0000   1.0000   1.0000   1.0000   1.0000
     1.0000   1.0000   1.0000   1.0000   1.0000   1.0000   1.0000   1.0000
     1.0000   1.0000   1.0000   1.0000   1.0000   1.0000   1.0000   1.0000
     1.0000   1.0000   1.0000   1.0000   1.0000   1.0000   1.0000   1.0000
     1.0000   1.0000   1.0000   1.0000   1.0000   1.0000   1.0000   1.0000
     1.0000   1.0000   1.0000   1.0000   1.0000   1.0000   1.0000   1.0000

          k = 0.1667 0.0000 0.0974 (  6095 PWs)   bands (ev):

    -9.9086  -9.2448  -9.1132  -8.4644  -8.1147  -7.6159  -7.3389  -7.2564
     1.6310   2.4684   2.6666   2.8000   2.8644   3.0067   3.0940   3.3804
     3.4409   3.5516   3.7061   3.8225   3.8760   3.9442   4.0033   4.1374
     4.2570   4.3869   4.5119   4.6625   4.7472   4.8841   5.0517   5.1682
     5.2855   5.3210   5.3572   5.4028   5.4492   5.5150   5.6025   5.6416
     5.7295   5.9539   6.0644   6.1125   6.3517   6.4134   6.5418   6.7042
     6.8322   6.8575   7.0034   7.0985   7.3753   7.6625   7.8759   8.0150
     8.1000   8.7534   8.8418   9.0435   9.4001   9.6255   9.6649   9.8980
     9.9602  10.1556  10.4185  10.6351  10.8454  10.9550  11.7716  12.1233

     occupation numbers 
     1.0000   1.0000   1.0000   1.0000   1.0000   1.0000   1.0000   1.0000
     1.0000   1.0000   1.0000   1.0000   1.0000   1.0000   1.0000   1.0000
     1.0000   1.0000   1.0000   1.0000   1.0000   1.0000   1.0000   1.0000
     1.0000   1.0000   1.0000   1.0000   1.0000   1.0000   1.0000   1.0000
     1.0000   1.0000   1.0000   1.0000   1.0000   1.0000   1.0000   1.0000
     1.0000   1.0000   1.0000   1.0000   1.0000   1.0000   1.0000   1.0000
     1.0000   1.0000   1.0000   1.0000   1.0000   1.0000   1.0000   1.0000
     1.0000   1.0000   1.0000   1.0000   1.0000   1.0000   1.0000   1.0000
     1.0000   1.0000   1.0000   1.0000   1.0000   1.0000   1.0000   1.0000

          k = 0.1667 0.0000-0.1461 (  6078 PWs)   bands (ev):

    -9.9073  -9.2566  -9.1021  -8.4645  -8.1151  -7.6149  -7.3399  -7.2564
     1.6319   2.4724   2.6654   2.7917   2.8637   3.0143   3.0914   3.4048
     3.4175   3.5539   3.7003   3.8319   3.8676   3.9274   4.0084   4.1597
     4.2514   4.3716   4.5397   4.6401   4.7290   4.8912   5.0271   5.2065
     5.2821   5.3109   5.3664   5.4033   5.4508   5.5291   5.5933   5.6504
     5.7226   5.9568   6.0410   6.1126   6.3633   6.4269   6.5532   6.6895
     6.8806   6.9310   7.0245   7.0961   7.3624   7.4770   7.8707   7.9904
     8.1220   8.7516   8.8734   9.0561   9.4398   9.6340   9.7522   9.8358
     9.9254  10.1439  10.4204  10.5847  10.8983  10.9801  11.7085  12.1278

     occupation numbers 
     1.0000   1.0000   1.0000   1.0000   1.0000   1.0000   1.0000   1.0000
     1.0000   1.0000   1.0000   1.0000   1.0000   1.0000   1.0000   1.0000
     1.0000   1.0000   1.0000   1.0000   1.0000   1.0000   1.0000   1.0000
     1.0000   1.0000   1.0000   1.0000   1.0000   1.0000   1.0000   1.0000
     1.0000   1.0000   1.0000   1.0000   1.0000   1.0000   1.0000   1.0000
     1.0000   1.0000   1.0000   1.0000   1.0000   1.0000   1.0000   1.0000
     1.0000   1.0000   1.0000   1.0000   1.0000   1.0000   1.0000   1.0000
     1.0000   1.0000   1.0000   1.0000   1.0000   1.0000   1.0000   1.0000
     1.0000   1.0000   1.0000   1.0000   1.0000   1.0000   1.0000   1.0000

          k = 0.3333 0.1925 0.0000 (  6095 PWs)   bands (ev):

    -9.6432  -8.8784  -8.7673  -8.4936  -7.8228  -7.6132  -7.2137  -7.1731
     1.7601   2.2753   2.6289   2.7650   2.9438   2.9817   3.0946   3.2193
     3.4655   3.5506   3.7088   3.8031   3.8512   3.9357   4.0469   4.2162
     4.3281   4.4532   4.5119   4.8797   4.9050   4.9875   5.1021   5.1722
     5.2808   5.3902   5.4459   5.4800   5.5030   5.6503   5.6738   5.7448
     5.8066   5.9211   6.0469   6.1056   6.2891   6.4798   6.5719   6.7044
     6.8350   6.9195   7.0633   7.1535   7.3527   7.5643   7.6819   7.8270
     8.0385   8.2647   8.5414   8.7217   8.8375   8.9483   9.0978   9.2624
     9.4908   9.5936   9.8210  10.0894  10.6944  10.7649  11.0616  11.3523

     occupation numbers 
     1.0000   1.0000   1.0000   1.0000   1.0000   1.0000   1.0000   1.0000
     1.0000   1.0000   1.0000   1.0000   1.0000   1.0000   1.0000   1.0000
     1.0000   1.0000   1.0000   1.0000   1.0000   1.0000   1.0000   1.0000
     1.0000   1.0000   1.0000   1.0000   1.0000   1.0000   1.0000   1.0000
     1.0000   1.0000   1.0000   1.0000   1.0000   1.0000   1.0000   1.0000
     1.0000   1.0000   1.0000   1.0000   1.0000   1.0000   1.0000   1.0000
     1.0000   1.0000   1.0000   1.0000   1.0000   1.0000   1.0000   1.0000
     1.0000   1.0000   1.0000   1.0000   1.0000   1.0000   1.0000   1.0000
     1.0000   1.0000   1.0000   1.0000   1.0000   1.0000   1.0000   1.0000

          k = 0.3333 0.1925 0.0487 (  6090 PWs)   bands (ev):

    -9.6430  -8.8798  -8.7657  -8.4939  -7.8231  -7.6131  -7.2106  -7.1759
     1.7606   2.2788   2.6321   2.7725   2.9380   2.9868   3.0760   3.2310
     3.4412   3.5641   3.7081   3.7897   3.8585   3.9264   4.0493   4.2283
     4.3154   4.4734   4.5093   4.8623   4.9323   5.0030   5.0998   5.1246
     5.3105   5.3566   5.4421   5.4753   5.5180   5.6109   5.6892   5.7661
     5.8248   5.9391   6.0616   6.1105   6.2281   6.4998   6.5854   6.6974
     6.7994   6.9254   7.0823   7.2135   7.3808   7.6022   7.6824   7.7829
     8.0240   8.1964   8.5705   8.7342   8.8380   8.9570   9.0355   9.2010
     9.4828   9.6696   9.7887  10.1353  10.7026  10.7676  11.0626  11.3537

     occupation numbers 
     1.0000   1.0000   1.0000   1.0000   1.0000   1.0000   1.0000   1.0000
     1.0000   1.0000   1.0000   1.0000   1.0000   1.0000   1.0000   1.0000
     1.0000   1.0000   1.0000   1.0000   1.0000   1.0000   1.0000   1.0000
     1.0000   1.0000   1.0000   1.0000   1.0000   1.0000   1.0000   1.0000
     1.0000   1.0000   1.0000   1.0000   1.0000   1.0000   1.0000   1.0000
     1.0000   1.0000   1.0000   1.0000   1.0000   1.0000   1.0000   1.0000
     1.0000   1.0000   1.0000   1.0000   1.0000   1.0000   1.0000   1.0000
     1.0000   1.0000   1.0000   1.0000   1.0000   1.0000   1.0000   1.0000
     1.0000   1.0000   1.0000   1.0000   1.0000   1.0000   1.0000   1.0000

          k = 0.3333 0.1925 0.0974 (  6086 PWs)   bands (ev):

    -9.6428  -8.8813  -8.7644  -8.4944  -7.8230  -7.6129  -7.2075  -7.1789
     1.7633   2.2865   2.6314   2.7791   2.9159   3.0087   3.0641   3.2396
     3.4241   3.5628   3.7153   3.7641   3.8587   3.9337   4.0443   4.2436
     4.2884   4.4872   4.5203   4.8260   4.9511   4.9882   5.1017   5.1223
     5.3226   5.3579   5.4345   5.4550   5.5444   5.5993   5.7040   5.7693
     5.8504   5.9331   6.0898   6.1407   6.1875   6.5055   6.6010   6.6692
     6.7688   6.9361   7.1112   7.2575   7.4318   7.6404   7.6826   7.7725
     8.0239   8.1402   8.4812   8.6821   8.8119   8.8850   9.0251   9.2691
     9.5072   9.6824   9.8099  10.1571  10.7251  10.7615  11.0748  11.3595

     occupation numbers 
     1.0000   1.0000   1.0000   1.0000   1.0000   1.0000   1.0000   1.0000
     1.0000   1.0000   1.0000   1.0000   1.0000   1.0000   1.0000   1.0000
     1.0000   1.0000   1.0000   1.0000   1.0000   1.0000   1.0000   1.0000
     1.0000   1.0000   1.0000   1.0000   1.0000   1.0000   1.0000   1.0000
     1.0000   1.0000   1.0000   1.0000   1.0000   1.0000   1.0000   1.0000
     1.0000   1.0000   1.0000   1.0000   1.0000   1.0000   1.0000   1.0000
     1.0000   1.0000   1.0000   1.0000   1.0000   1.0000   1.0000   1.0000
     1.0000   1.0000   1.0000   1.0000   1.0000   1.0000   1.0000   1.0000
     1.0000   1.0000   1.0000   1.0000   1.0000   1.0000   1.0000   1.0000

          k = 0.3333 0.1925-0.1461 (  6086 PWs)   bands (ev):

    -9.6426  -8.8814  -8.7646  -8.4945  -7.8226  -7.6127  -7.2081  -7.1785
     1.7655   2.2908   2.6270   2.7769   2.9065   3.0163   3.0740   3.2352
     3.4317   3.5495   3.7160   3.7626   3.8488   3.9475   4.0393   4.2501
     4.2679   4.4841   4.5331   4.8052   4.9306   4.9878   5.1098   5.1388
     5.3097   5.3875   5.4326   5.4506   5.5501   5.6112   5.7188   5.7549
     5.8397   5.9495   6.0621   6.1396   6.2432   6.5019   6.5794   6.6850
     6.7588   6.9489   7.1055   7.2509   7.4506   7.6046   7.6990   7.8454
     7.9903   8.2082   8.3210   8.6764   8.7755   8.8835   8.9951   9.3437
     9.5245   9.6912   9.8250  10.1395  10.7422  10.7511  11.0840  11.3646

     occupation numbers 
     1.0000   1.0000   1.0000   1.0000   1.0000   1.0000   1.0000   1.0000
     1.0000   1.0000   1.0000   1.0000   1.0000   1.0000   1.0000   1.0000
     1.0000   1.0000   1.0000   1.0000   1.0000   1.0000   1.0000   1.0000
     1.0000   1.0000   1.0000   1.0000   1.0000   1.0000   1.0000   1.0000
     1.0000   1.0000   1.0000   1.0000   1.0000   1.0000   1.0000   1.0000
     1.0000   1.0000   1.0000   1.0000   1.0000   1.0000   1.0000   1.0000
     1.0000   1.0000   1.0000   1.0000   1.0000   1.0000   1.0000   1.0000
     1.0000   1.0000   1.0000   1.0000   1.0000   1.0000   1.0000   1.0000
     1.0000   1.0000   1.0000   1.0000   1.0000   1.0000   1.0000   1.0000

          k = 0.3333 0.2887 0.0000 (  6102 PWs)   bands (ev):

    -9.6380  -8.8727  -8.7283  -8.5341  -7.8262  -7.6112  -7.2155  -7.1766
     1.7511   2.2632   2.5934   2.7619   2.8633   2.9763   3.0658   3.2451
     3.4404   3.5480   3.7366   3.8213   3.8461   3.9270   4.0600   4.2883
     4.3411   4.3673   4.4338   4.8766   4.9234   5.0456   5.1371   5.2225
     5.3095   5.3952   5.4591   5.4921   5.5870   5.6158   5.6973   5.7513
     5.8047   5.8989   5.9990   6.1067   6.3674   6.4798   6.5843   6.6847
     6.7108   6.8237   6.9420   7.0905   7.1832   7.5412   7.8143   7.9004
     8.1335   8.3268   8.5109   8.6149   8.8822   8.9877   9.2851   9.3552
     9.4622   9.6983   9.8508  10.0201  10.5257  10.8326  11.3291  11.4585

     occupation numbers 
     1.0000   1.0000   1.0000   1.0000   1.0000   1.0000   1.0000   1.0000
     1.0000   1.0000   1.0000   1.0000   1.0000   1.0000   1.0000   1.0000
     1.0000   1.0000   1.0000   1.0000   1.0000   1.0000   1.0000   1.0000
     1.0000   1.0000   1.0000   1.0000   1.0000   1.0000   1.0000   1.0000
     1.0000   1.0000   1.0000   1.0000   1.0000   1.0000   1.0000   1.0000
     1.0000   1.0000   1.0000   1.0000   1.0000   1.0000   1.0000   1.0000
     1.0000   1.0000   1.0000   1.0000   1.0000   1.0000   1.0000   1.0000
     1.0000   1.0000   1.0000   1.0000   1.0000   1.0000   1.0000   1.0000
     1.0000   1.0000   1.0000   1.0000   1.0000   1.0000   1.0000   1.0000

          k = 0.3333 0.2887 0.0487 (  6086 PWs)   bands (ev):

    -9.6379  -8.8726  -8.7283  -8.5346  -7.8259  -7.6113  -7.2134  -7.1785
     1.7513   2.2684   2.5973   2.7652   2.8556   2.9786   3.0551   3.2622
     3.4209   3.5529   3.7378   3.7999   3.8453   3.9330   4.0682   4.2803
     4.3315   4.3872   4.4329   4.8573   4.9533   5.0617   5.1380   5.1907
     5.3218   5.3780   5.4562   5.4952   5.5759   5.6198   5.6850   5.7516
     5.8288   5.8977   6.0313   6.0986   6.3079   6.5137   6.5793   6.6502
     6.7123   6.8045   7.0171   7.1350   7.2315   7.5328   7.7919   7.9042
     8.1198   8.2788   8.5404   8.6337   8.8049   8.9727   9.3014   9.3161
     9.4131   9.6789   9.9218  10.0698  10.5416  10.8331  11.3359  11.4518

     occupation numbers 
     1.0000   1.0000   1.0000   1.0000   1.0000   1.0000   1.0000   1.0000
     1.0000   1.0000   1.0000   1.0000   1.0000   1.0000   1.0000   1.0000
     1.0000   1.0000   1.0000   1.0000   1.0000   1.0000   1.0000   1.0000
     1.0000   1.0000   1.0000   1.0000   1.0000   1.0000   1.0000   1.0000
     1.0000   1.0000   1.0000   1.0000   1.0000   1.0000   1.0000   1.0000
     1.0000   1.0000   1.0000   1.0000   1.0000   1.0000   1.0000   1.0000
     1.0000   1.0000   1.0000   1.0000   1.0000   1.0000   1.0000   1.0000
     1.0000   1.0000   1.0000   1.0000   1.0000   1.0000   1.0000   1.0000
     1.0000   1.0000   1.0000   1.0000   1.0000   1.0000   1.0000   1.0000

          k = 0.3333 0.2887 0.0974 (  6094 PWs)   bands (ev):

    -9.6377  -8.8733  -8.7274  -8.5354  -7.8259  -7.6110  -7.2108  -7.1810
     1.7538   2.2762   2.5961   2.7726   2.8468   2.9845   3.0517   3.2582
     3.4123   3.5524   3.7283   3.7974   3.8411   3.9359   4.0651   4.2734
     4.3260   4.3926   4.4420   4.8336   4.9790   5.0293   5.1488   5.1924
     5.3246   5.3872   5.4510   5.4922   5.5627   5.6429   5.6838   5.7465
     5.8524   5.8967   6.0486   6.1127   6.2769   6.5092   6.5553   6.6189
     6.7350   6.8018   7.0687   7.2062   7.2924   7.5381   7.7952   7.9327
     8.0541   8.2429   8.5226   8.6287   8.6729   8.9265   9.2558   9.3653
     9.4185   9.6719   9.9653  10.1281  10.5644  10.8336  11.3562  11.4475

     occupation numbers 
     1.0000   1.0000   1.0000   1.0000   1.0000   1.0000   1.0000   1.0000
     1.0000   1.0000   1.0000   1.0000   1.0000   1.0000   1.0000   1.0000
     1.0000   1.0000   1.0000   1.0000   1.0000   1.0000   1.0000   1.0000
     1.0000   1.0000   1.0000   1.0000   1.0000   1.0000   1.0000   1.0000
     1.0000   1.0000   1.0000   1.0000   1.0000   1.0000   1.0000   1.0000
     1.0000   1.0000   1.0000   1.0000   1.0000   1.0000   1.0000   1.0000
     1.0000   1.0000   1.0000   1.0000   1.0000   1.0000   1.0000   1.0000
     1.0000   1.0000   1.0000   1.0000   1.0000   1.0000   1.0000   1.0000
     1.0000   1.0000   1.0000   1.0000   1.0000   1.0000   1.0000   1.0000

          k = 0.3333 0.2887-0.1461 (  6096 PWs)   bands (ev):

    -9.6376  -8.8741  -8.7266  -8.5357  -7.8261  -7.6105  -7.2105  -7.1814
     1.7561   2.2787   2.5907   2.7771   2.8452   2.9884   3.0604   3.2356
     3.4223   3.5478   3.7213   3.8154   3.8357   3.9318   4.0545   4.2729
     4.3264   4.3846   4.4520   4.8239   4.9672   5.0110   5.1567   5.2043
     5.3249   5.4056   5.4491   5.4906   5.5613   5.6692   5.6866   5.7360
     5.8325   5.9367   6.0299   6.1045   6.3173   6.4593   6.5589   6.6270
     6.7570   6.7988   7.0628   7.1773   7.3622   7.5462   7.7953   7.9575
     8.0633   8.2149   8.4265   8.6101   8.6850   8.8932   9.2372   9.3726
     9.4614   9.6859   9.9776  10.1255  10.5723  10.8332  11.3659  11.4533

     occupation numbers 
     1.0000   1.0000   1.0000   1.0000   1.0000   1.0000   1.0000   1.0000
     1.0000   1.0000   1.0000   1.0000   1.0000   1.0000   1.0000   1.0000
     1.0000   1.0000   1.0000   1.0000   1.0000   1.0000   1.0000   1.0000
     1.0000   1.0000   1.0000   1.0000   1.0000   1.0000   1.0000   1.0000
     1.0000   1.0000   1.0000   1.0000   1.0000   1.0000   1.0000   1.0000
     1.0000   1.0000   1.0000   1.0000   1.0000   1.0000   1.0000   1.0000
     1.0000   1.0000   1.0000   1.0000   1.0000   1.0000   1.0000   1.0000
     1.0000   1.0000   1.0000   1.0000   1.0000   1.0000   1.0000   1.0000
     1.0000   1.0000   1.0000   1.0000   1.0000   1.0000   1.0000   1.0000

          k = 0.3333-0.0962 0.0000 (  6075 PWs)   bands (ev):

    -9.6581  -8.9050  -8.8324  -8.4218  -7.8841  -7.5391  -7.1990  -7.1632
     1.7712   2.2855   2.6964   2.9207   3.0217   3.0701   3.1125   3.3072
     3.4411   3.5322   3.6816   3.8347   3.9337   4.0207   4.1073   4.2014
     4.2558   4.4169   4.6184   4.7564   4.9243   5.0002   5.1510   5.1914
     5.2854   5.3438   5.4024   5.4497   5.4661   5.5388   5.6397   5.7491
     5.8376   5.9194   6.0546   6.1718   6.3563   6.4305   6.5583   6.6166
     6.7602   6.8763   6.9410   7.0473   7.1909   7.4856   7.6673   7.8555
     7.9272   8.1463   8.2826   8.5758   8.7918   8.9795   9.1883   9.3849
     9.5707   9.6681   9.8430   9.9703  10.2937  10.4682  11.4437  11.6843

     occupation numbers 
     1.0000   1.0000   1.0000   1.0000   1.0000   1.0000   1.0000   1.0000
     1.0000   1.0000   1.0000   1.0000   1.0000   1.0000   1.0000   1.0000
     1.0000   1.0000   1.0000   1.0000   1.0000   1.0000   1.0000   1.0000
     1.0000   1.0000   1.0000   1.0000   1.0000   1.0000   1.0000   1.0000
     1.0000   1.0000   1.0000   1.0000   1.0000   1.0000   1.0000   1.0000
     1.0000   1.0000   1.0000   1.0000   1.0000   1.0000   1.0000   1.0000
     1.0000   1.0000   1.0000   1.0000   1.0000   1.0000   1.0000   1.0000
     1.0000   1.0000   1.0000   1.0000   1.0000   1.0000   1.0000   1.0000
     1.0000   1.0000   1.0000   1.0000   1.0000   1.0000   1.0000   1.0000

          k = 0.3333-0.0962 0.0487 (  6078 PWs)   bands (ev):

    -9.6580  -8.9052  -8.8325  -8.4219  -7.8838  -7.5389  -7.1977  -7.1648
     1.7717   2.2912   2.6946   2.9030   3.0286   3.0710   3.1221   3.3249
     3.4134   3.5349   3.6884   3.8301   3.9533   4.0161   4.0992   4.1621
     4.2726   4.4212   4.6194   4.7735   4.8972   4.9863   5.1572   5.2126
     5.2731   5.3468   5.4009   5.4476   5.4847   5.5401   5.6326   5.7658
     5.7894   5.9472   6.0762   6.1762   6.3135   6.4891   6.5082   6.6331
     6.7829   6.8730   6.9621   7.0593   7.1648   7.4863   7.6665   7.8419
     7.9966   8.1034   8.2927   8.5067   8.8006   8.9672   9.1739   9.3737
     9.5615   9.7161   9.8493   9.9677  10.3054  10.4678  11.4483  11.6798

     occupation numbers 
     1.0000   1.0000   1.0000   1.0000   1.0000   1.0000   1.0000   1.0000
     1.0000   1.0000   1.0000   1.0000   1.0000   1.0000   1.0000   1.0000
     1.0000   1.0000   1.0000   1.0000   1.0000   1.0000   1.0000   1.0000
     1.0000   1.0000   1.0000   1.0000   1.0000   1.0000   1.0000   1.0000
     1.0000   1.0000   1.0000   1.0000   1.0000   1.0000   1.0000   1.0000
     1.0000   1.0000   1.0000   1.0000   1.0000   1.0000   1.0000   1.0000
     1.0000   1.0000   1.0000   1.0000   1.0000   1.0000   1.0000   1.0000
     1.0000   1.0000   1.0000   1.0000   1.0000   1.0000   1.0000   1.0000
     1.0000   1.0000   1.0000   1.0000   1.0000   1.0000   1.0000   1.0000

          k = 0.3333-0.0962 0.0974 (  6064 PWs)   bands (ev):

    -9.6575  -8.9116  -8.8268  -8.4220  -7.8836  -7.5386  -7.1948  -7.1679
     1.7735   2.3014   2.6838   2.8990   3.0302   3.0725   3.1402   3.3111
     3.4086   3.5401   3.6884   3.8248   3.9485   4.0224   4.0890   4.1236
     4.3024   4.4255   4.6224   4.7586   4.8676   4.9976   5.1616   5.2070
     5.2927   5.3555   5.3986   5.4452   5.5096   5.5310   5.6306   5.7486
     5.7819   5.9800   6.0918   6.1749   6.2704   6.4594   6.5418   6.6722
     6.8073   6.8993   6.9884   7.0907   7.1546   7.4629   7.6359   7.8264
     7.9462   8.0555   8.3519   8.5319   8.8130   8.9423   9.1481   9.3118
     9.5050   9.7422   9.8813  10.0288  10.3229  10.4628  11.4531  11.6762

     occupation numbers 
     1.0000   1.0000   1.0000   1.0000   1.0000   1.0000   1.0000   1.0000
     1.0000   1.0000   1.0000   1.0000   1.0000   1.0000   1.0000   1.0000
     1.0000   1.0000   1.0000   1.0000   1.0000   1.0000   1.0000   1.0000
     1.0000   1.0000   1.0000   1.0000   1.0000   1.0000   1.0000   1.0000
     1.0000   1.0000   1.0000   1.0000   1.0000   1.0000   1.0000   1.0000
     1.0000   1.0000   1.0000   1.0000   1.0000   1.0000   1.0000   1.0000
     1.0000   1.0000   1.0000   1.0000   1.0000   1.0000   1.0000   1.0000
     1.0000   1.0000   1.0000   1.0000   1.0000   1.0000   1.0000   1.0000
     1.0000   1.0000   1.0000   1.0000   1.0000   1.0000   1.0000   1.0000

          k = 0.3333-0.0962-0.1461 (  6064 PWs)   bands (ev):

    -9.6571  -8.9169  -8.8217  -8.4220  -7.8838  -7.5384  -7.1932  -7.1696
     1.7749   2.3058   2.6754   2.9111   3.0213   3.0756   3.1564   3.2747
     3.4318   3.5411   3.6805   3.8272   3.9257   4.0192   4.0863   4.1341
     4.3160   4.4273   4.6255   4.7267   4.8630   5.0204   5.1628   5.1892
     5.3072   5.3630   5.4010   5.4504   5.5100   5.5217   5.6425   5.7318
     5.7875   6.0146   6.0581   6.1579   6.2855   6.4384   6.5709   6.6885
     6.7963   6.9175   6.9934   7.1326   7.2097   7.4213   7.5718   7.7904
     7.8652   8.0945   8.3922   8.6039   8.8384   8.8994   9.1194   9.2758
     9.4825   9.7180   9.8961  10.0951  10.3182  10.4622  11.4535  11.6768

     occupation numbers 
     1.0000   1.0000   1.0000   1.0000   1.0000   1.0000   1.0000   1.0000
     1.0000   1.0000   1.0000   1.0000   1.0000   1.0000   1.0000   1.0000
     1.0000   1.0000   1.0000   1.0000   1.0000   1.0000   1.0000   1.0000
     1.0000   1.0000   1.0000   1.0000   1.0000   1.0000   1.0000   1.0000
     1.0000   1.0000   1.0000   1.0000   1.0000   1.0000   1.0000   1.0000
     1.0000   1.0000   1.0000   1.0000   1.0000   1.0000   1.0000   1.0000
     1.0000   1.0000   1.0000   1.0000   1.0000   1.0000   1.0000   1.0000
     1.0000   1.0000   1.0000   1.0000   1.0000   1.0000   1.0000   1.0000
     1.0000   1.0000   1.0000   1.0000   1.0000   1.0000   1.0000   1.0000

          k = 0.3333-0.0000 0.0000 (  6070 PWs)   bands (ev):

    -9.6633  -8.9107  -8.8526  -8.3999  -7.8828  -7.5388  -7.1984  -7.1593
     1.7798   2.2978   2.7298   2.9840   2.9992   3.1195   3.1588   3.3339
     3.3896   3.5219   3.6946   3.8127   3.8925   4.0395   4.0767   4.1739
     4.3277   4.4888   4.6513   4.7698   4.9248   5.0056   5.0801   5.1836
     5.2650   5.2797   5.3529   5.4110   5.4602   5.5392   5.6491   5.7188
     5.7659   5.8428   6.0637   6.2446   6.3807   6.5012   6.5517   6.6376
     6.7460   6.8958   6.9781   7.1350   7.3492   7.3891   7.6620   7.8433
     8.0379   8.0642   8.3290   8.6095   8.7900   8.9424   9.0712   9.3297
     9.4450   9.6988   9.8013   9.8767  10.2740  10.5162  11.3145  11.5118

     occupation numbers 
     1.0000   1.0000   1.0000   1.0000   1.0000   1.0000   1.0000   1.0000
     1.0000   1.0000   1.0000   1.0000   1.0000   1.0000   1.0000   1.0000
     1.0000   1.0000   1.0000   1.0000   1.0000   1.0000   1.0000   1.0000
     1.0000   1.0000   1.0000   1.0000   1.0000   1.0000   1.0000   1.0000
     1.0000   1.0000   1.0000   1.0000   1.0000   1.0000   1.0000   1.0000
     1.0000   1.0000   1.0000   1.0000   1.0000   1.0000   1.0000   1.0000
     1.0000   1.0000   1.0000   1.0000   1.0000   1.0000   1.0000   1.0000
     1.0000   1.0000   1.0000   1.0000   1.0000   1.0000   1.0000   1.0000
     1.0000   1.0000   1.0000   1.0000   1.0000   1.0000   1.0000   1.0000

          k = 0.3333-0.0000 0.0487 (  6100 PWs)   bands (ev):

    -9.6631  -8.9136  -8.8500  -8.3998  -7.8828  -7.5386  -7.1960  -7.1617
     1.7805   2.3020   2.7291   2.9726   2.9962   3.1319   3.1771   3.2976
     3.3924   3.5312   3.7170   3.7942   3.9191   4.0143   4.0632   4.1847
     4.3026   4.5025   4.6561   4.7659   4.9240   4.9825   5.0971   5.1764
     5.2607   5.2876   5.3437   5.4166   5.4704   5.5372   5.6395   5.7115
     5.7809   5.8743   6.0784   6.2428   6.3254   6.4843   6.5869   6.6808
     6.7589   6.8815   6.9930   7.1350   7.2984   7.3755   7.6712   7.8669
     8.0204   8.1052   8.3010   8.6152   8.8003   8.9164   9.0424   9.3219
     9.4392   9.6735   9.8439   9.9150  10.2665  10.5053  11.3191  11.5084

     occupation numbers 
     1.0000   1.0000   1.0000   1.0000   1.0000   1.0000   1.0000   1.0000
     1.0000   1.0000   1.0000   1.0000   1.0000   1.0000   1.0000   1.0000
     1.0000   1.0000   1.0000   1.0000   1.0000   1.0000   1.0000   1.0000
     1.0000   1.0000   1.0000   1.0000   1.0000   1.0000   1.0000   1.0000
     1.0000   1.0000   1.0000   1.0000   1.0000   1.0000   1.0000   1.0000
     1.0000   1.0000   1.0000   1.0000   1.0000   1.0000   1.0000   1.0000
     1.0000   1.0000   1.0000   1.0000   1.0000   1.0000   1.0000   1.0000
     1.0000   1.0000   1.0000   1.0000   1.0000   1.0000   1.0000   1.0000
     1.0000   1.0000   1.0000   1.0000   1.0000   1.0000   1.0000   1.0000

          k = 0.3333-0.0000 0.0974 (  6073 PWs)   bands (ev):

    -9.6625  -8.9216  -8.8428  -8.3998  -7.8827  -7.5384  -7.1924  -7.1655
     1.7825   2.3121   2.7196   2.9544   3.0094   3.1366   3.1929   3.2722
     3.4031   3.5403   3.7120   3.7909   3.9303   3.9833   4.0573   4.1787
     4.3139   4.5044   4.6668   4.7434   4.8759   4.9921   5.1228   5.1793
     5.2605   5.3038   5.3377   5.4076   5.4710   5.5526   5.6366   5.7047
     5.7838   5.9359   6.0877   6.2346   6.2683   6.4765   6.6138   6.7214
     6.8002   6.9198   7.0073   7.1289   7.2328   7.3516   7.6403   7.8711
     7.9992   8.1366   8.2609   8.6477   8.8213   8.9039   9.0211   9.2710
     9.4361   9.6582   9.8474   9.9886  10.2382  10.5375  11.3173  11.5027

     occupation numbers 
     1.0000   1.0000   1.0000   1.0000   1.0000   1.0000   1.0000   1.0000
     1.0000   1.0000   1.0000   1.0000   1.0000   1.0000   1.0000   1.0000
     1.0000   1.0000   1.0000   1.0000   1.0000   1.0000   1.0000   1.0000
     1.0000   1.0000   1.0000   1.0000   1.0000   1.0000   1.0000   1.0000
     1.0000   1.0000   1.0000   1.0000   1.0000   1.0000   1.0000   1.0000
     1.0000   1.0000   1.0000   1.0000   1.0000   1.0000   1.0000   1.0000
     1.0000   1.0000   1.0000   1.0000   1.0000   1.0000   1.0000   1.0000
     1.0000   1.0000   1.0000   1.0000   1.0000   1.0000   1.0000   1.0000
     1.0000   1.0000   1.0000   1.0000   1.0000   1.0000   1.0000   1.0000

          k = 0.3333-0.0000-0.1461 (  6062 PWs)   bands (ev):

    -9.6621  -8.9264  -8.8384  -8.3998  -7.8825  -7.5383  -7.1916  -7.1664
     1.7838   2.3180   2.7108   2.9507   3.0214   3.1286   3.1808   3.2899
     3.4136   3.5446   3.6749   3.8153   3.9077   3.9711   4.0705   4.1734
     4.3428   4.4923   4.6744   4.7235   4.8489   5.0023   5.1327   5.1802
     5.2655   5.3113   5.3518   5.3909   5.4689   5.5610   5.6364   5.7106
     5.7754   5.9946   6.0326   6.2212   6.2849   6.4870   6.5968   6.7258
     6.8451   6.9580   7.0119   7.1271   7.2182   7.3540   7.5725   7.8583
     7.9554   8.1490   8.2892   8.6503   8.8255   8.9424   9.0079   9.2357
     9.4386   9.6524   9.8304  10.0231  10.2109  10.5804  11.3116  11.4992

     occupation numbers 
     1.0000   1.0000   1.0000   1.0000   1.0000   1.0000   1.0000   1.0000
     1.0000   1.0000   1.0000   1.0000   1.0000   1.0000   1.0000   1.0000
     1.0000   1.0000   1.0000   1.0000   1.0000   1.0000   1.0000   1.0000
     1.0000   1.0000   1.0000   1.0000   1.0000   1.0000   1.0000   1.0000
     1.0000   1.0000   1.0000   1.0000   1.0000   1.0000   1.0000   1.0000
     1.0000   1.0000   1.0000   1.0000   1.0000   1.0000   1.0000   1.0000
     1.0000   1.0000   1.0000   1.0000   1.0000   1.0000   1.0000   1.0000
     1.0000   1.0000   1.0000   1.0000   1.0000   1.0000   1.0000   1.0000
     1.0000   1.0000   1.0000   1.0000   1.0000   1.0000   1.0000   1.0000

          k =-0.5000-0.2887 0.0000 (  6120 PWs)   bands (ev):

    -9.5285  -8.7421  -8.6273  -8.4184  -7.7185  -7.5371  -7.1364  -7.0969
     1.7495   2.1917   2.5989   2.6711   2.7472   2.8964   3.0514   3.1980
     3.5621   3.5798   3.7021   3.7392   3.8442   3.9926   4.0606   4.2858
     4.3805   4.4474   4.4852   4.9660   5.0590   5.1330   5.2304   5.3350
     5.3698   5.5299   5.5478   5.5925   5.6754   5.7204   5.7303   5.8013
     5.8742   5.9202   6.0783   6.1426   6.2453   6.4255   6.5390   6.5676
     6.6239   6.6489   6.7263   7.0234   7.0734   7.2559   7.5942   7.7974
     7.8414   7.9682   8.3786   8.4699   8.6942   9.0343   9.1088   9.2545
     9.4304   9.6014   9.7734  10.0375  10.1845  10.7356  11.2072  11.5042

     occupation numbers 
     1.0000   1.0000   1.0000   1.0000   1.0000   1.0000   1.0000   1.0000
     1.0000   1.0000   1.0000   1.0000   1.0000   1.0000   1.0000   1.0000
     1.0000   1.0000   1.0000   1.0000   1.0000   1.0000   1.0000   1.0000
     1.0000   1.0000   1.0000   1.0000   1.0000   1.0000   1.0000   1.0000
     1.0000   1.0000   1.0000   1.0000   1.0000   1.0000   1.0000   1.0000
     1.0000   1.0000   1.0000   1.0000   1.0000   1.0000   1.0000   1.0000
     1.0000   1.0000   1.0000   1.0000   1.0000   1.0000   1.0000   1.0000
     1.0000   1.0000   1.0000   1.0000   1.0000   1.0000   1.0000   1.0000
     1.0000   1.0000   1.0000   1.0000   1.0000   1.0000   1.0000   1.0000

          k =-0.5000-0.2887 0.0487 (  6112 PWs)   bands (ev):

    -9.5284  -8.7417  -8.6279  -8.4184  -7.7184  -7.5372  -7.1364  -7.0969
     1.7507   2.1966   2.5985   2.6713   2.7458   2.8915   3.0494   3.2049
     3.5610   3.5761   3.7015   3.7364   3.8260   4.0067   4.0621   4.2890
     4.3757   4.4472   4.4871   4.9684   5.0682   5.1166   5.2345   5.3274
     5.3968   5.5264   5.5490   5.5968   5.6697   5.7115   5.7281   5.7961
     5.8607   5.9344   6.0782   6.1499   6.2448   6.4225   6.5378   6.5809
     6.6336   6.6484   6.7146   6.9695   7.0596   7.3091   7.5914   7.8262
     7.8506   7.9938   8.3942   8.4715   8.6752   8.9498   9.1467   9.2266
     9.4407   9.5949   9.7648  10.0512  10.1911  10.7322  11.2225  11.5032

     occupation numbers 
     1.0000   1.0000   1.0000   1.0000   1.0000   1.0000   1.0000   1.0000
     1.0000   1.0000   1.0000   1.0000   1.0000   1.0000   1.0000   1.0000
     1.0000   1.0000   1.0000   1.0000   1.0000   1.0000   1.0000   1.0000
     1.0000   1.0000   1.0000   1.0000   1.0000   1.0000   1.0000   1.0000
     1.0000   1.0000   1.0000   1.0000   1.0000   1.0000   1.0000   1.0000
     1.0000   1.0000   1.0000   1.0000   1.0000   1.0000   1.0000   1.0000
     1.0000   1.0000   1.0000   1.0000   1.0000   1.0000   1.0000   1.0000
     1.0000   1.0000   1.0000   1.0000   1.0000   1.0000   1.0000   1.0000
     1.0000   1.0000   1.0000   1.0000   1.0000   1.0000   1.0000   1.0000

          k =-0.5000-0.2887 0.0974 (  6104 PWs)   bands (ev):

    -9.5284  -8.7407  -8.6291  -8.4184  -7.7182  -7.5372  -7.1364  -7.0968
     1.7529   2.2069   2.5966   2.6741   2.7399   2.8840   3.0458   3.2180
     3.5574   3.5683   3.7004   3.7307   3.7979   4.0272   4.0657   4.2960
     4.3666   4.4461   4.4899   4.9782   5.0766   5.0935   5.2425   5.3249
     5.4385   5.5186   5.5496   5.6002   5.6547   5.7045   5.7232   5.7812
     5.8492   5.9486   6.0780   6.1629   6.2482   6.4110   6.5552   6.5921
     6.6409   6.6673   6.6894   6.8746   7.0533   7.3736   7.5822   7.8386
     7.9320   8.0477   8.4095   8.4823   8.6438   8.8276   9.1352   9.2005
     9.4516   9.5817   9.7575  10.0754  10.2048  10.7253  11.2502  11.5017

     occupation numbers 
     1.0000   1.0000   1.0000   1.0000   1.0000   1.0000   1.0000   1.0000
     1.0000   1.0000   1.0000   1.0000   1.0000   1.0000   1.0000   1.0000
     1.0000   1.0000   1.0000   1.0000   1.0000   1.0000   1.0000   1.0000
     1.0000   1.0000   1.0000   1.0000   1.0000   1.0000   1.0000   1.0000
     1.0000   1.0000   1.0000   1.0000   1.0000   1.0000   1.0000   1.0000
     1.0000   1.0000   1.0000   1.0000   1.0000   1.0000   1.0000   1.0000
     1.0000   1.0000   1.0000   1.0000   1.0000   1.0000   1.0000   1.0000
     1.0000   1.0000   1.0000   1.0000   1.0000   1.0000   1.0000   1.0000
     1.0000   1.0000   1.0000   1.0000   1.0000   1.0000   1.0000   1.0000

          k =-0.5000-0.2887-0.1461 (  6096 PWs)   bands (ev):

    -9.5284  -8.7403  -8.6296  -8.4184  -7.7180  -7.5373  -7.1364  -7.0968
     1.7541   2.2123   2.5949   2.6770   2.7350   2.8814   3.0443   3.2245
     3.5542   3.5650   3.7000   3.7278   3.7864   4.0349   4.0678   4.2999
     4.3620   4.4455   4.4909   4.9869   5.0634   5.0973   5.2466   5.3259
     5.4582   5.5147   5.5478   5.5969   5.6504   5.6999   5.7264   5.7699
     5.8467   5.9528   6.0779   6.1682   6.2525   6.4032   6.5741   6.5909
     6.6394   6.6680   6.6967   6.8260   7.0512   7.3976   7.5764   7.8395
     7.9889   8.0792   8.3911   8.5046   8.6353   8.7657   9.1069   9.1971
     9.4559   9.5753   9.7579  10.0862  10.2119  10.7218  11.2628  11.5013

     occupation numbers 
     1.0000   1.0000   1.0000   1.0000   1.0000   1.0000   1.0000   1.0000
     1.0000   1.0000   1.0000   1.0000   1.0000   1.0000   1.0000   1.0000
     1.0000   1.0000   1.0000   1.0000   1.0000   1.0000   1.0000   1.0000
     1.0000   1.0000   1.0000   1.0000   1.0000   1.0000   1.0000   1.0000
     1.0000   1.0000   1.0000   1.0000   1.0000   1.0000   1.0000   1.0000
     1.0000   1.0000   1.0000   1.0000   1.0000   1.0000   1.0000   1.0000
     1.0000   1.0000   1.0000   1.0000   1.0000   1.0000   1.0000   1.0000
     1.0000   1.0000   1.0000   1.0000   1.0000   1.0000   1.0000   1.0000
     1.0000   1.0000   1.0000   1.0000   1.0000   1.0000   1.0000   1.0000

          k =-0.5000-0.1925 0.0000 (  6096 PWs)   bands (ev):

    -9.5302  -8.7438  -8.6293  -8.4196  -7.7210  -7.5411  -7.1330  -7.0985
     1.7609   2.2042   2.6351   2.7327   2.7967   2.9316   3.0682   3.2196
     3.5520   3.5918   3.6947   3.7337   3.8556   4.0171   4.0318   4.3231
     4.3611   4.4714   4.5283   4.9404   5.0138   5.0555   5.2159   5.2964
     5.3265   5.4946   5.5345   5.5881   5.6611   5.6908   5.7229   5.8203
     5.8748   5.9741   6.0837   6.1647   6.2450   6.4099   6.4910   6.5744
     6.6715   6.7117   6.7896   7.0610   7.1985   7.3135   7.6555   7.7464
     7.8315   7.9772   8.2800   8.3942   8.6653   8.9417   9.0139   9.2510
     9.2915   9.5207   9.7574   9.8832  10.2111  10.6226  11.2014  11.3380

     occupation numbers 
     1.0000   1.0000   1.0000   1.0000   1.0000   1.0000   1.0000   1.0000
     1.0000   1.0000   1.0000   1.0000   1.0000   1.0000   1.0000   1.0000
     1.0000   1.0000   1.0000   1.0000   1.0000   1.0000   1.0000   1.0000
     1.0000   1.0000   1.0000   1.0000   1.0000   1.0000   1.0000   1.0000
     1.0000   1.0000   1.0000   1.0000   1.0000   1.0000   1.0000   1.0000
     1.0000   1.0000   1.0000   1.0000   1.0000   1.0000   1.0000   1.0000
     1.0000   1.0000   1.0000   1.0000   1.0000   1.0000   1.0000   1.0000
     1.0000   1.0000   1.0000   1.0000   1.0000   1.0000   1.0000   1.0000
     1.0000   1.0000   1.0000   1.0000   1.0000   1.0000   1.0000   1.0000

          k =-0.5000-0.1925 0.0487 (  6092 PWs)   bands (ev):

    -9.5302  -8.7432  -8.6300  -8.4196  -7.7208  -7.5411  -7.1329  -7.0986
     1.7623   2.2096   2.6355   2.7339   2.7843   2.9317   3.0624   3.2402
     3.5349   3.5933   3.6987   3.7354   3.8516   4.0131   4.0344   4.3139
     4.3571   4.4733   4.5334   4.9669   4.9951   5.0463   5.2024   5.3042
     5.3517   5.4961   5.5300   5.5883   5.6511   5.7033   5.7356   5.8209
     5.8698   5.9621   6.0627   6.1610   6.2307   6.4230   6.5034   6.5929
     6.6530   6.7200   6.7788   7.0596   7.1797   7.3746   7.6249   7.7664
     7.8869   7.9414   8.3077   8.4256   8.6259   8.8377   8.9968   9.2203
     9.3549   9.5349   9.7674   9.8918  10.2056  10.6225  11.2005  11.3427

     occupation numbers 
     1.0000   1.0000   1.0000   1.0000   1.0000   1.0000   1.0000   1.0000
     1.0000   1.0000   1.0000   1.0000   1.0000   1.0000   1.0000   1.0000
     1.0000   1.0000   1.0000   1.0000   1.0000   1.0000   1.0000   1.0000
     1.0000   1.0000   1.0000   1.0000   1.0000   1.0000   1.0000   1.0000
     1.0000   1.0000   1.0000   1.0000   1.0000   1.0000   1.0000   1.0000
     1.0000   1.0000   1.0000   1.0000   1.0000   1.0000   1.0000   1.0000
     1.0000   1.0000   1.0000   1.0000   1.0000   1.0000   1.0000   1.0000
     1.0000   1.0000   1.0000   1.0000   1.0000   1.0000   1.0000   1.0000
     1.0000   1.0000   1.0000   1.0000   1.0000   1.0000   1.0000   1.0000

          k =-0.5000-0.1925 0.0974 (  6098 PWs)   bands (ev):

    -9.5301  -8.7422  -8.6312  -8.4197  -7.7206  -7.5412  -7.1329  -7.0985
     1.7646   2.2198   2.6318   2.7413   2.7727   2.9282   3.0603   3.2531
     3.5270   3.5896   3.6949   3.7286   3.8230   4.0240   4.0489   4.3078
     4.3616   4.4708   4.5413   4.9529   4.9986   5.0634   5.1927   5.2941
     5.3820   5.4916   5.5334   5.5872   5.6368   5.7163   5.7354   5.7967
     5.8623   5.9763   6.0611   6.1710   6.2178   6.4394   6.5102   6.5910
     6.6433   6.7098   6.7980   7.0157   7.1556   7.4350   7.6292   7.8273
     7.9100   7.9715   8.3132   8.4428   8.5940   8.7257   8.9739   9.1843
     9.3752   9.5473   9.7667   9.9089  10.2101  10.6164  11.2139  11.3497

     occupation numbers 
     1.0000   1.0000   1.0000   1.0000   1.0000   1.0000   1.0000   1.0000
     1.0000   1.0000   1.0000   1.0000   1.0000   1.0000   1.0000   1.0000
     1.0000   1.0000   1.0000   1.0000   1.0000   1.0000   1.0000   1.0000
     1.0000   1.0000   1.0000   1.0000   1.0000   1.0000   1.0000   1.0000
     1.0000   1.0000   1.0000   1.0000   1.0000   1.0000   1.0000   1.0000
     1.0000   1.0000   1.0000   1.0000   1.0000   1.0000   1.0000   1.0000
     1.0000   1.0000   1.0000   1.0000   1.0000   1.0000   1.0000   1.0000
     1.0000   1.0000   1.0000   1.0000   1.0000   1.0000   1.0000   1.0000
     1.0000   1.0000   1.0000   1.0000   1.0000   1.0000   1.0000   1.0000

          k =-0.5000-0.1925-0.1461 (  6120 PWs)   bands (ev):

    -9.5301  -8.7419  -8.6318  -8.4197  -7.7205  -7.5413  -7.1331  -7.0984
     1.7655   2.2245   2.6282   2.7462   2.7741   2.9244   3.0640   3.2436
     3.5403   3.5835   3.6854   3.7192   3.8061   4.0256   4.0679   4.3106
     4.3707   4.4646   4.5457   4.9225   5.0247   5.0737   5.1921   5.2847
     5.3859   5.4822   5.5369   5.5988   5.6268   5.7091   5.7321   5.7758
     5.8558   5.9916   6.0957   6.1796   6.2155   6.4361   6.5157   6.5744
     6.6386   6.7115   6.8201   6.9662   7.1452   7.4432   7.6535   7.8366
     7.9532   8.0107   8.2694   8.4181   8.6075   8.7150   8.9939   9.1474
     9.3484   9.5493   9.7636   9.9152  10.2209  10.6094  11.2282  11.3515

     occupation numbers 
     1.0000   1.0000   1.0000   1.0000   1.0000   1.0000   1.0000   1.0000
     1.0000   1.0000   1.0000   1.0000   1.0000   1.0000   1.0000   1.0000
     1.0000   1.0000   1.0000   1.0000   1.0000   1.0000   1.0000   1.0000
     1.0000   1.0000   1.0000   1.0000   1.0000   1.0000   1.0000   1.0000
     1.0000   1.0000   1.0000   1.0000   1.0000   1.0000   1.0000   1.0000
     1.0000   1.0000   1.0000   1.0000   1.0000   1.0000   1.0000   1.0000
     1.0000   1.0000   1.0000   1.0000   1.0000   1.0000   1.0000   1.0000
     1.0000   1.0000   1.0000   1.0000   1.0000   1.0000   1.0000   1.0000
     1.0000   1.0000   1.0000   1.0000   1.0000   1.0000   1.0000   1.0000

          k =-0.5000-0.0962 0.0000 (  6076 PWs)   bands (ev):

    -9.5336  -8.7471  -8.6333  -8.4221  -7.7260  -7.5487  -7.1265  -7.1018
     1.7833   2.2298   2.6982   2.8753   2.9129   3.0050   3.1311   3.2794
     3.4679   3.5996   3.6745   3.7043   3.8906   3.9691   4.1176   4.2835
     4.4191   4.5268   4.6605   4.8407   4.9214   5.0080   5.1313   5.2479
     5.3110   5.3935   5.4321   5.4995   5.6110   5.6322   5.7264   5.8027
     5.9046   6.0775   6.1111   6.1961   6.2826   6.4008   6.4806   6.6252
     6.8000   6.8518   6.9540   7.1766   7.3024   7.4295   7.5239   7.7020
     7.8326   8.0407   8.1272   8.3013   8.5467   8.6595   8.9394   9.0894
     9.1460   9.3719   9.5557   9.7491  10.2296  10.4920  10.9945  11.1747

     occupation numbers 
     1.0000   1.0000   1.0000   1.0000   1.0000   1.0000   1.0000   1.0000
     1.0000   1.0000   1.0000   1.0000   1.0000   1.0000   1.0000   1.0000
     1.0000   1.0000   1.0000   1.0000   1.0000   1.0000   1.0000   1.0000
     1.0000   1.0000   1.0000   1.0000   1.0000   1.0000   1.0000   1.0000
     1.0000   1.0000   1.0000   1.0000   1.0000   1.0000   1.0000   1.0000
     1.0000   1.0000   1.0000   1.0000   1.0000   1.0000   1.0000   1.0000
     1.0000   1.0000   1.0000   1.0000   1.0000   1.0000   1.0000   1.0000
     1.0000   1.0000   1.0000   1.0000   1.0000   1.0000   1.0000   1.0000
     1.0000   1.0000   1.0000   1.0000   1.0000   1.0000   1.0000   1.0000

          k =-0.5000-0.0962 0.0487 (  6080 PWs)   bands (ev):

    -9.5336  -8.7465  -8.6341  -8.4221  -7.7258  -7.5487  -7.1264  -7.1019
     1.7847   2.2351   2.6981   2.8632   2.9108   3.0052   3.1325   3.3020
     3.4491   3.5919   3.6808   3.7172   3.8798   3.9718   4.1198   4.2690
     4.4069   4.5443   4.6617   4.8265   4.9355   4.9957   5.1037   5.2398
     5.3458   5.4154   5.4252   5.5005   5.5982   5.6629   5.7297   5.7978
     5.9064   6.0509   6.0967   6.2064   6.2695   6.4201   6.5136   6.6195
     6.7593   6.8337   6.9624   7.1927   7.3395   7.4145   7.5431   7.7108
     7.9050   8.0272   8.0866   8.2826   8.5545   8.6153   8.8904   9.0858
     9.1942   9.3390   9.6046   9.7256  10.2291  10.5078  10.9846  11.1800

     occupation numbers 
     1.0000   1.0000   1.0000   1.0000   1.0000   1.0000   1.0000   1.0000
     1.0000   1.0000   1.0000   1.0000   1.0000   1.0000   1.0000   1.0000
     1.0000   1.0000   1.0000   1.0000   1.0000   1.0000   1.0000   1.0000
     1.0000   1.0000   1.0000   1.0000   1.0000   1.0000   1.0000   1.0000
     1.0000   1.0000   1.0000   1.0000   1.0000   1.0000   1.0000   1.0000
     1.0000   1.0000   1.0000   1.0000   1.0000   1.0000   1.0000   1.0000
     1.0000   1.0000   1.0000   1.0000   1.0000   1.0000   1.0000   1.0000
     1.0000   1.0000   1.0000   1.0000   1.0000   1.0000   1.0000   1.0000
     1.0000   1.0000   1.0000   1.0000   1.0000   1.0000   1.0000   1.0000

          k =-0.5000-0.0962 0.0974 (  6086 PWs)   bands (ev):

    -9.5335  -8.7454  -8.6354  -8.4221  -7.7255  -7.5488  -7.1265  -7.1018
     1.7870   2.2452   2.6949   2.8530   2.9087   3.0094   3.1377   3.3047
     3.4567   3.5771   3.6759   3.7160   3.8569   3.9770   4.1339   4.2603
     4.4010   4.5572   4.6674   4.8133   4.9262   5.0234   5.0839   5.2232
     5.3345   5.4056   5.4486   5.5166   5.5808   5.6926   5.7265   5.7940
     5.9049   6.0432   6.1009   6.2222   6.2825   6.4216   6.5310   6.5910
     6.7281   6.8232   6.9851   7.2081   7.3160   7.4364   7.6014   7.7477
     7.9398   8.0115   8.0768   8.2566   8.5419   8.6209   8.7737   9.0446
     9.2393   9.3659   9.6047   9.7300  10.2128  10.5174  10.9829  11.1971

     occupation numbers 
     1.0000   1.0000   1.0000   1.0000   1.0000   1.0000   1.0000   1.0000
     1.0000   1.0000   1.0000   1.0000   1.0000   1.0000   1.0000   1.0000
     1.0000   1.0000   1.0000   1.0000   1.0000   1.0000   1.0000   1.0000
     1.0000   1.0000   1.0000   1.0000   1.0000   1.0000   1.0000   1.0000
     1.0000   1.0000   1.0000   1.0000   1.0000   1.0000   1.0000   1.0000
     1.0000   1.0000   1.0000   1.0000   1.0000   1.0000   1.0000   1.0000
     1.0000   1.0000   1.0000   1.0000   1.0000   1.0000   1.0000   1.0000
     1.0000   1.0000   1.0000   1.0000   1.0000   1.0000   1.0000   1.0000
     1.0000   1.0000   1.0000   1.0000   1.0000   1.0000   1.0000   1.0000

          k =-0.5000-0.0962-0.1461 (  6092 PWs)   bands (ev):

    -9.5335  -8.7450  -8.6360  -8.4221  -7.7253  -7.5488  -7.1267  -7.1016
     1.7879   2.2499   2.6918   2.8571   2.9046   3.0157   3.1405   3.2846
     3.4923   3.5602   3.6638   3.7017   3.8515   3.9734   4.1463   4.2682
     4.4037   4.5546   4.6738   4.8028   4.9368   5.0292   5.0921   5.2107
     5.3242   5.3813   5.4536   5.5144   5.5881   5.6991   5.7147   5.7925
     5.9001   6.0553   6.1294   6.2297   6.3034   6.3982   6.5289   6.5711
     6.7293   6.8222   7.0022   7.2135   7.2777   7.4644   7.6222   7.7574
     7.9444   7.9863   8.1001   8.2465   8.5720   8.6231   8.7424   8.9929
     9.1994   9.4339   9.6031   9.7280  10.1966  10.5130  10.9907  11.2085

     occupation numbers 
     1.0000   1.0000   1.0000   1.0000   1.0000   1.0000   1.0000   1.0000
     1.0000   1.0000   1.0000   1.0000   1.0000   1.0000   1.0000   1.0000
     1.0000   1.0000   1.0000   1.0000   1.0000   1.0000   1.0000   1.0000
     1.0000   1.0000   1.0000   1.0000   1.0000   1.0000   1.0000   1.0000
     1.0000   1.0000   1.0000   1.0000   1.0000   1.0000   1.0000   1.0000
     1.0000   1.0000   1.0000   1.0000   1.0000   1.0000   1.0000   1.0000
     1.0000   1.0000   1.0000   1.0000   1.0000   1.0000   1.0000   1.0000
     1.0000   1.0000   1.0000   1.0000   1.0000   1.0000   1.0000   1.0000
     1.0000   1.0000   1.0000   1.0000   1.0000   1.0000   1.0000   1.0000

          k =-0.5000-0.5774 0.0000 (  6060 PWs)   bands (ev):

    -9.5353  -8.7487  -8.6352  -8.4233  -7.7285  -7.5523  -7.1233  -7.1035
     1.7943   2.2429   2.7261   2.9518   3.0004   3.0201   3.2446   3.3121
     3.3580   3.6075   3.6306   3.6761   3.9007   3.9779   4.1598   4.2464
     4.4782   4.5394   4.7775   4.7951   4.9124   4.9966   5.0893   5.1674
     5.2432   5.3204   5.4078   5.4549   5.5793   5.6361   5.7002   5.7951
     5.9249   6.0952   6.1289   6.2156   6.3047   6.4141   6.5211   6.7205
     6.8470   6.9209   7.1219   7.2007   7.2143   7.4132   7.5528   7.6684
     7.8629   7.9107   8.1404   8.3555   8.4260   8.5397   8.8200   8.9595
     9.1128   9.4033   9.5165   9.6624  10.0156  10.6183  10.8523  11.1073

     occupation numbers 
     1.0000   1.0000   1.0000   1.0000   1.0000   1.0000   1.0000   1.0000
     1.0000   1.0000   1.0000   1.0000   1.0000   1.0000   1.0000   1.0000
     1.0000   1.0000   1.0000   1.0000   1.0000   1.0000   1.0000   1.0000
     1.0000   1.0000   1.0000   1.0000   1.0000   1.0000   1.0000   1.0000
     1.0000   1.0000   1.0000   1.0000   1.0000   1.0000   1.0000   1.0000
     1.0000   1.0000   1.0000   1.0000   1.0000   1.0000   1.0000   1.0000
     1.0000   1.0000   1.0000   1.0000   1.0000   1.0000   1.0000   1.0000
     1.0000   1.0000   1.0000   1.0000   1.0000   1.0000   1.0000   1.0000
     1.0000   1.0000   1.0000   1.0000   1.0000   1.0000   1.0000   1.0000

          k =-0.5000-0.5774 0.0487 (  6062 PWs)   bands (ev):

    -9.5353  -8.7482  -8.6360  -8.4234  -7.7283  -7.5523  -7.1233  -7.1035
     1.7954   2.2477   2.7248   2.9367   2.9965   3.0398   3.2258   3.3237
     3.3722   3.5994   3.6143   3.6890   3.8925   3.9777   4.1681   4.2391
     4.4678   4.5570   4.7622   4.7956   4.9269   4.9756   5.0869   5.1621
     5.2262   5.3494   5.4170   5.4456   5.5745   5.6449   5.7060   5.7979
     5.9260   6.0898   6.1310   6.2297   6.3167   6.4112   6.5222   6.7083
     6.8459   6.8875   7.1317   7.2026   7.2198   7.4524   7.5553   7.6667
     7.8861   7.9230   8.1296   8.3187   8.3962   8.5916   8.7954   8.9222
     9.1240   9.3990   9.5499   9.6302  10.0132  10.6261  10.8545  11.1122

     occupation numbers 
     1.0000   1.0000   1.0000   1.0000   1.0000   1.0000   1.0000   1.0000
     1.0000   1.0000   1.0000   1.0000   1.0000   1.0000   1.0000   1.0000
     1.0000   1.0000   1.0000   1.0000   1.0000   1.0000   1.0000   1.0000
     1.0000   1.0000   1.0000   1.0000   1.0000   1.0000   1.0000   1.0000
     1.0000   1.0000   1.0000   1.0000   1.0000   1.0000   1.0000   1.0000
     1.0000   1.0000   1.0000   1.0000   1.0000   1.0000   1.0000   1.0000
     1.0000   1.0000   1.0000   1.0000   1.0000   1.0000   1.0000   1.0000
     1.0000   1.0000   1.0000   1.0000   1.0000   1.0000   1.0000   1.0000
     1.0000   1.0000   1.0000   1.0000   1.0000   1.0000   1.0000   1.0000

          k =-0.5000-0.5774 0.0974 (  6064 PWs)   bands (ev):

    -9.5352  -8.7471  -8.6374  -8.4234  -7.7280  -7.5524  -7.1235  -7.1033
     1.7977   2.2579   2.7224   2.9117   2.9956   3.0695   3.1953   3.3388
     3.4061   3.5726   3.5909   3.7088   3.8763   3.9782   4.1845   4.2237
     4.4550   4.5859   4.7410   4.7949   4.9053   4.9888   5.0458   5.1859
     5.2332   5.3368   5.4120   5.4616   5.5716   5.6701   5.7105   5.8014
     5.9264   6.0796   6.1435   6.2626   6.3394   6.3965   6.5279   6.6780
     6.8112   6.8683   7.1414   7.1927   7.2544   7.5000   7.5808   7.6792
     7.8538   8.0145   8.1308   8.2479   8.3739   8.6195   8.7345   8.8439
     9.1949   9.3891   9.5557   9.6044  10.0060  10.6414  10.8577  11.1223

     occupation numbers 
     1.0000   1.0000   1.0000   1.0000   1.0000   1.0000   1.0000   1.0000
     1.0000   1.0000   1.0000   1.0000   1.0000   1.0000   1.0000   1.0000
     1.0000   1.0000   1.0000   1.0000   1.0000   1.0000   1.0000   1.0000
     1.0000   1.0000   1.0000   1.0000   1.0000   1.0000   1.0000   1.0000
     1.0000   1.0000   1.0000   1.0000   1.0000   1.0000   1.0000   1.0000
     1.0000   1.0000   1.0000   1.0000   1.0000   1.0000   1.0000   1.0000
     1.0000   1.0000   1.0000   1.0000   1.0000   1.0000   1.0000   1.0000
     1.0000   1.0000   1.0000   1.0000   1.0000   1.0000   1.0000   1.0000
     1.0000   1.0000   1.0000   1.0000   1.0000   1.0000   1.0000   1.0000

          k =-0.5000-0.5774-0.1461 (  6084 PWs)   bands (ev):

    -9.5352  -8.7465  -8.6381  -8.4234  -7.7278  -7.5524  -7.1236  -7.1032
     1.7988   2.2631   2.7211   2.9003   2.9955   3.0853   3.1793   3.3455
     3.4284   3.5501   3.5828   3.7179   3.8682   3.9787   4.1935   4.2148
     4.4503   4.5996   4.7321   4.7978   4.8791   5.0079   5.0270   5.1941
     5.2520   5.3170   5.3965   5.4748   5.5759   5.6849   5.7093   5.8021
     5.9254   6.0757   6.1514   6.2871   6.3510   6.3805   6.5309   6.6598
     6.7884   6.8691   7.1444   7.1861   7.2768   7.5061   7.6033   7.6949
     7.8375   8.0441   8.1586   8.2197   8.3644   8.5973   8.6813   8.8388
     9.2487   9.3691   9.5280   9.6181  10.0015  10.6489  10.8587  11.1274

     occupation numbers 
     1.0000   1.0000   1.0000   1.0000   1.0000   1.0000   1.0000   1.0000
     1.0000   1.0000   1.0000   1.0000   1.0000   1.0000   1.0000   1.0000
     1.0000   1.0000   1.0000   1.0000   1.0000   1.0000   1.0000   1.0000
     1.0000   1.0000   1.0000   1.0000   1.0000   1.0000   1.0000   1.0000
     1.0000   1.0000   1.0000   1.0000   1.0000   1.0000   1.0000   1.0000
     1.0000   1.0000   1.0000   1.0000   1.0000   1.0000   1.0000   1.0000
     1.0000   1.0000   1.0000   1.0000   1.0000   1.0000   1.0000   1.0000
     1.0000   1.0000   1.0000   1.0000   1.0000   1.0000   1.0000   1.0000
     1.0000   1.0000   1.0000   1.0000   1.0000   1.0000   1.0000   1.0000

          k = 0.0000-0.0962 0.0487 (  6103 PWs)   bands (ev):

   -10.0112  -9.3168  -9.2359  -8.5708  -8.1922  -7.7220  -7.4294  -7.3051
     1.5236   2.4562   2.6518   2.7384   2.8042   2.9086   2.9952   3.2831
     3.4091   3.5831   3.6748   3.8067   3.8486   3.8927   4.1123   4.1637
     4.2073   4.4172   4.5285   4.6250   4.7773   4.7983   4.9426   5.1850
     5.2828   5.3039   5.3860   5.4322   5.4721   5.5301   5.6058   5.6345
     5.7289   5.8376   5.9504   6.0597   6.2970   6.4587   6.6070   6.7116
     6.7385   6.7905   6.9754   7.1762   7.5071   7.9466   8.0887   8.2988
     8.7673   8.9360   9.1621   9.3626   9.4957   9.7222   9.7749  10.2195
    10.3525  10.4863  10.8295  10.9668  11.1256  11.3962  12.0652  12.0997

     occupation numbers 
     1.0000   1.0000   1.0000   1.0000   1.0000   1.0000   1.0000   1.0000
     1.0000   1.0000   1.0000   1.0000   1.0000   1.0000   1.0000   1.0000
     1.0000   1.0000   1.0000   1.0000   1.0000   1.0000   1.0000   1.0000
     1.0000   1.0000   1.0000   1.0000   1.0000   1.0000   1.0000   1.0000
     1.0000   1.0000   1.0000   1.0000   1.0000   1.0000   1.0000   1.0000
     1.0000   1.0000   1.0000   1.0000   1.0000   1.0000   1.0000   1.0000
     1.0000   1.0000   1.0000   1.0000   1.0000   1.0000   1.0000   1.0000
     1.0000   1.0000   1.0000   1.0000   1.0000   1.0000   1.0000   1.0000
     1.0000   1.0000   1.0000   1.0000   1.0000   1.0000   1.0000   1.0000

          k = 0.0000-0.0962 0.0974 (  6098 PWs)   bands (ev):

   -10.0085  -9.3492  -9.2051  -8.5713  -8.1929  -7.7198  -7.4301  -7.3065
     1.5249   2.4622   2.6398   2.7325   2.8020   2.9293   2.9944   3.2809
     3.3985   3.5895   3.6776   3.8101   3.8433   3.8932   4.1056   4.1559
     4.2082   4.3972   4.5479   4.6192   4.7532   4.7925   4.9398   5.2233
     5.2797   5.3072   5.3798   5.4314   5.4828   5.5219   5.5746   5.6522
     5.7722   5.8478   5.9044   6.0571   6.3407   6.5178   6.5902   6.7031
     6.7799   6.8403   7.0163   7.1554   7.4207   7.8003   8.0644   8.3082
     8.6984   8.8591   9.2589   9.4758   9.5506   9.7472   9.8015  10.2284
    10.3681  10.5423  10.7237  10.8433  11.1317  11.3853  12.0205  12.1347

     occupation numbers 
     1.0000   1.0000   1.0000   1.0000   1.0000   1.0000   1.0000   1.0000
     1.0000   1.0000   1.0000   1.0000   1.0000   1.0000   1.0000   1.0000
     1.0000   1.0000   1.0000   1.0000   1.0000   1.0000   1.0000   1.0000
     1.0000   1.0000   1.0000   1.0000   1.0000   1.0000   1.0000   1.0000
     1.0000   1.0000   1.0000   1.0000   1.0000   1.0000   1.0000   1.0000
     1.0000   1.0000   1.0000   1.0000   1.0000   1.0000   1.0000   1.0000
     1.0000   1.0000   1.0000   1.0000   1.0000   1.0000   1.0000   1.0000
     1.0000   1.0000   1.0000   1.0000   1.0000   1.0000   1.0000   1.0000
     1.0000   1.0000   1.0000   1.0000   1.0000   1.0000   1.0000   1.0000

          k = 0.0000-0.1925 0.0487 (  6079 PWs)   bands (ev):

    -9.9708  -9.2559  -9.1336  -8.7208  -8.1368  -7.8192  -7.4721  -7.3303
     1.5302   2.4781   2.7048   2.7589   2.8595   2.9289   3.0280   3.1922
     3.3688   3.5467   3.6611   3.7507   3.8146   3.8605   4.1314   4.2033
     4.2918   4.4161   4.5015   4.6480   4.7508   4.8186   4.9268   5.1729
     5.1958   5.2449   5.3487   5.3935   5.4410   5.4778   5.5572   5.6362
     5.7082   5.7997   6.0018   6.0550   6.1917   6.4814   6.5843   6.7146
     6.7465   6.9451   7.1475   7.5730   7.7241   8.0490   8.3903   8.6193
     8.7813   8.9140   9.0964   9.1788   9.3695   9.4819   9.7333   9.9125
    10.2559  10.6337  10.7452  10.8338  10.9731  11.2220  11.7325  11.9248

     occupation numbers 
     1.0000   1.0000   1.0000   1.0000   1.0000   1.0000   1.0000   1.0000
     1.0000   1.0000   1.0000   1.0000   1.0000   1.0000   1.0000   1.0000
     1.0000   1.0000   1.0000   1.0000   1.0000   1.0000   1.0000   1.0000
     1.0000   1.0000   1.0000   1.0000   1.0000   1.0000   1.0000   1.0000
     1.0000   1.0000   1.0000   1.0000   1.0000   1.0000   1.0000   1.0000
     1.0000   1.0000   1.0000   1.0000   1.0000   1.0000   1.0000   1.0000
     1.0000   1.0000   1.0000   1.0000   1.0000   1.0000   1.0000   1.0000
     1.0000   1.0000   1.0000   1.0000   1.0000   1.0000   1.0000   1.0000
     1.0000   1.0000   1.0000   1.0000   1.0000   1.0000   1.0000   1.0000

          k = 0.0000-0.1925 0.0974 (  6087 PWs)   bands (ev):

    -9.9693  -9.2697  -9.1205  -8.7221  -8.1372  -7.8173  -7.4686  -7.3347
     1.5315   2.4798   2.7085   2.7511   2.8644   2.9298   3.0375   3.1793
     3.3520   3.5737   3.6531   3.7536   3.8136   3.8557   4.1377   4.1795
     4.2800   4.4033   4.5178   4.6469   4.7202   4.8412   4.8876   5.1833
     5.2060   5.2503   5.3482   5.3945   5.4298   5.4843   5.5391   5.6451
     5.7572   5.8024   5.9834   6.0539   6.2917   6.5414   6.5701   6.7081
     6.7799   7.0323   7.1594   7.4910   7.5749   7.9508   8.3487   8.5551
     8.8223   8.8405   9.0795   9.2986   9.3895   9.5110   9.7619  10.0394
    10.2447  10.6143  10.7212  10.8030  10.9544  11.2782  11.6980  11.9194

     occupation numbers 
     1.0000   1.0000   1.0000   1.0000   1.0000   1.0000   1.0000   1.0000
     1.0000   1.0000   1.0000   1.0000   1.0000   1.0000   1.0000   1.0000
     1.0000   1.0000   1.0000   1.0000   1.0000   1.0000   1.0000   1.0000
     1.0000   1.0000   1.0000   1.0000   1.0000   1.0000   1.0000   1.0000
     1.0000   1.0000   1.0000   1.0000   1.0000   1.0000   1.0000   1.0000
     1.0000   1.0000   1.0000   1.0000   1.0000   1.0000   1.0000   1.0000
     1.0000   1.0000   1.0000   1.0000   1.0000   1.0000   1.0000   1.0000
     1.0000   1.0000   1.0000   1.0000   1.0000   1.0000   1.0000   1.0000
     1.0000   1.0000   1.0000   1.0000   1.0000   1.0000   1.0000   1.0000

          k =-0.1667 0.0962 0.0000 (  6073 PWs)   bands (ev):

    -9.8975  -9.1780  -9.1258  -8.5121  -8.1018  -7.6477  -7.3496  -7.2614
     1.6279   2.4629   2.6655   2.8160   2.8702   2.9689   3.1444   3.3565
     3.4405   3.5393   3.6809   3.8224   3.9113   3.9704   4.0435   4.1222
     4.2472   4.3343   4.4871   4.6456   4.8382   4.8715   5.0634   5.0888
     5.2330   5.3102   5.3708   5.4384   5.4614   5.5485   5.5745   5.6456
     5.7124   5.9743   6.0563   6.1621   6.3288   6.4592   6.5359   6.6695
     6.7040   6.8033   6.9385   7.1283   7.3813   7.6947   8.1346   8.2138
     8.4229   8.6139   8.7443   8.8961   9.3563   9.3990   9.6124   9.8951
    10.0177  10.2246  10.3555  10.5687  10.8385  11.0276  11.7646  12.1941

     occupation numbers 
     1.0000   1.0000   1.0000   1.0000   1.0000   1.0000   1.0000   1.0000
     1.0000   1.0000   1.0000   1.0000   1.0000   1.0000   1.0000   1.0000
     1.0000   1.0000   1.0000   1.0000   1.0000   1.0000   1.0000   1.0000
     1.0000   1.0000   1.0000   1.0000   1.0000   1.0000   1.0000   1.0000
     1.0000   1.0000   1.0000   1.0000   1.0000   1.0000   1.0000   1.0000
     1.0000   1.0000   1.0000   1.0000   1.0000   1.0000   1.0000   1.0000
     1.0000   1.0000   1.0000   1.0000   1.0000   1.0000   1.0000   1.0000
     1.0000   1.0000   1.0000   1.0000   1.0000   1.0000   1.0000   1.0000
     1.0000   1.0000   1.0000   1.0000   1.0000   1.0000   1.0000   1.0000

          k =-0.1667-0.0962 0.0487 (  6069 PWs)   bands (ev):

    -9.8945  -9.1845  -9.1114  -8.5164  -8.0841  -7.6652  -7.3565  -7.2647
     1.6331   2.4566   2.6931   2.7895   2.8504   2.9651   3.0991   3.2921
     3.4400   3.5823   3.6711   3.7676   3.8577   3.9381   4.0235   4.1952
     4.2690   4.4384   4.4608   4.6870   4.7785   4.8737   4.9647   5.1535
     5.2144   5.2903   5.3684   5.4115   5.4751   5.5235   5.5905   5.7105
     5.7336   5.8726   6.0138   6.1210   6.3348   6.4356   6.5929   6.6919
     6.8512   6.9295   7.0925   7.2612   7.3951   7.8485   7.9650   8.2639
     8.2916   8.6565   8.8178   9.0442   9.3021   9.4181   9.5901   9.7581
     9.9761  10.1880  10.3620  10.5120  10.8888  11.2059  11.5005  11.9221

     occupation numbers 
     1.0000   1.0000   1.0000   1.0000   1.0000   1.0000   1.0000   1.0000
     1.0000   1.0000   1.0000   1.0000   1.0000   1.0000   1.0000   1.0000
     1.0000   1.0000   1.0000   1.0000   1.0000   1.0000   1.0000   1.0000
     1.0000   1.0000   1.0000   1.0000   1.0000   1.0000   1.0000   1.0000
     1.0000   1.0000   1.0000   1.0000   1.0000   1.0000   1.0000   1.0000
     1.0000   1.0000   1.0000   1.0000   1.0000   1.0000   1.0000   1.0000
     1.0000   1.0000   1.0000   1.0000   1.0000   1.0000   1.0000   1.0000
     1.0000   1.0000   1.0000   1.0000   1.0000   1.0000   1.0000   1.0000
     1.0000   1.0000   1.0000   1.0000   1.0000   1.0000   1.0000   1.0000

          k =-0.1667 0.0962-0.0487 (  6069 PWs)   bands (ev):

    -9.8968  -9.1874  -9.1174  -8.5121  -8.1009  -7.6472  -7.3505  -7.2615
     1.6279   2.4688   2.6631   2.8062   2.8633   2.9860   3.1499   3.3531
     3.4361   3.5409   3.6735   3.8256   3.9241   3.9611   4.0400   4.1217
     4.2346   4.3398   4.4753   4.6406   4.8457   4.8694   5.0604   5.1199
     5.2241   5.3126   5.3748   5.4402   5.4550   5.5333   5.5732   5.6351
     5.7247   5.9912   6.0447   6.1593   6.3407   6.4654   6.5398   6.6828
     6.7296   6.8065   6.9242   7.1498   7.3526   7.7845   7.9957   8.1813
     8.3770   8.6372   8.7553   8.8937   9.3372   9.4667   9.5966   9.9907
    10.0180  10.2392  10.3489  10.5193  10.7996  11.0351  11.7673  12.1921

     occupation numbers 
     1.0000   1.0000   1.0000   1.0000   1.0000   1.0000   1.0000   1.0000
     1.0000   1.0000   1.0000   1.0000   1.0000   1.0000   1.0000   1.0000
     1.0000   1.0000   1.0000   1.0000   1.0000   1.0000   1.0000   1.0000
     1.0000   1.0000   1.0000   1.0000   1.0000   1.0000   1.0000   1.0000
     1.0000   1.0000   1.0000   1.0000   1.0000   1.0000   1.0000   1.0000
     1.0000   1.0000   1.0000   1.0000   1.0000   1.0000   1.0000   1.0000
     1.0000   1.0000   1.0000   1.0000   1.0000   1.0000   1.0000   1.0000
     1.0000   1.0000   1.0000   1.0000   1.0000   1.0000   1.0000   1.0000
     1.0000   1.0000   1.0000   1.0000   1.0000   1.0000   1.0000   1.0000

          k = 0.1667-0.0962-0.0487 (  6069 PWs)   bands (ev):

    -9.8963  -9.2022  -9.1017  -8.5125  -8.1031  -7.6463  -7.3495  -7.2623
     1.6292   2.4668   2.6606   2.8172   2.8620   2.9772   3.1418   3.3647
     3.4492   3.5217   3.6863   3.8211   3.9012   3.9685   4.0375   4.1346
     4.2389   4.3352   4.5199   4.6215   4.7929   4.8724   5.0465   5.1160
     5.2480   5.3076   5.3703   5.4407   5.4701   5.5599   5.5808   5.6486
     5.7158   5.9573   6.0531   6.1641   6.3672   6.4469   6.5456   6.6556
     6.7340   6.8041   6.9522   7.1260   7.4294   7.6430   8.0242   8.1834
     8.3726   8.6341   8.8103   8.9329   9.3667   9.4415   9.6361   9.8169
    10.0005  10.2094  10.3663  10.5994  10.8938  11.0254  11.6933  12.1906

     occupation numbers 
     1.0000   1.0000   1.0000   1.0000   1.0000   1.0000   1.0000   1.0000
     1.0000   1.0000   1.0000   1.0000   1.0000   1.0000   1.0000   1.0000
     1.0000   1.0000   1.0000   1.0000   1.0000   1.0000   1.0000   1.0000
     1.0000   1.0000   1.0000   1.0000   1.0000   1.0000   1.0000   1.0000
     1.0000   1.0000   1.0000   1.0000   1.0000   1.0000   1.0000   1.0000
     1.0000   1.0000   1.0000   1.0000   1.0000   1.0000   1.0000   1.0000
     1.0000   1.0000   1.0000   1.0000   1.0000   1.0000   1.0000   1.0000
     1.0000   1.0000   1.0000   1.0000   1.0000   1.0000   1.0000   1.0000
     1.0000   1.0000   1.0000   1.0000   1.0000   1.0000   1.0000   1.0000

          k =-0.1667-0.0962 0.0974 (  6087 PWs)   bands (ev):

    -9.8927  -9.2086  -9.0886  -8.5167  -8.0846  -7.6637  -7.3560  -7.2666
     1.6347   2.4632   2.6832   2.7961   2.8382   2.9771   3.1041   3.2940
     3.4154   3.6063   3.6596   3.7671   3.8599   3.9219   4.0323   4.1836
     4.2588   4.4112   4.5022   4.6626   4.7759   4.8916   4.9528   5.1649
     5.2174   5.2785   5.3684   5.4014   5.4710   5.5414   5.5977   5.7000
     5.7374   5.8992   5.9910   6.1433   6.3714   6.4914   6.5463   6.6925
     6.8977   6.9910   7.1197   7.2456   7.3739   7.6661   7.9597   8.1578
     8.2932   8.6908   8.8639   9.0090   9.3692   9.4694   9.6036   9.7236
    10.0425  10.1293  10.3656  10.5360  10.9087  11.1469  11.4997  11.9096

     occupation numbers 
     1.0000   1.0000   1.0000   1.0000   1.0000   1.0000   1.0000   1.0000
     1.0000   1.0000   1.0000   1.0000   1.0000   1.0000   1.0000   1.0000
     1.0000   1.0000   1.0000   1.0000   1.0000   1.0000   1.0000   1.0000
     1.0000   1.0000   1.0000   1.0000   1.0000   1.0000   1.0000   1.0000
     1.0000   1.0000   1.0000   1.0000   1.0000   1.0000   1.0000   1.0000
     1.0000   1.0000   1.0000   1.0000   1.0000   1.0000   1.0000   1.0000
     1.0000   1.0000   1.0000   1.0000   1.0000   1.0000   1.0000   1.0000
     1.0000   1.0000   1.0000   1.0000   1.0000   1.0000   1.0000   1.0000
     1.0000   1.0000   1.0000   1.0000   1.0000   1.0000   1.0000   1.0000

          k =-0.1667 0.0962-0.0974 (  6087 PWs)   bands (ev):

    -9.8949  -9.2132  -9.0930  -8.5125  -8.1014  -7.6453  -7.3512  -7.2625
     1.6291   2.4797   2.6544   2.7964   2.8535   3.0081   3.1522   3.3587
     3.4375   3.5264   3.6717   3.8280   3.9305   3.9433   4.0333   4.1325
     4.2162   4.3441   4.4895   4.6211   4.7986   4.8786   5.0560   5.1523
     5.2386   5.3113   5.3748   5.4390   5.4666   5.5331   5.5731   5.6288
     5.7384   5.9972   6.0257   6.1515   6.3886   6.4654   6.5483   6.6903
     6.7389   6.8534   6.9719   7.1479   7.3563   7.7163   7.9033   8.1124
     8.3100   8.6258   8.7835   8.9359   9.3576   9.5449   9.6139   9.9638
    10.0488  10.2334  10.3556  10.5073  10.8093  11.0407  11.7025  12.1871

     occupation numbers 
     1.0000   1.0000   1.0000   1.0000   1.0000   1.0000   1.0000   1.0000
     1.0000   1.0000   1.0000   1.0000   1.0000   1.0000   1.0000   1.0000
     1.0000   1.0000   1.0000   1.0000   1.0000   1.0000   1.0000   1.0000
     1.0000   1.0000   1.0000   1.0000   1.0000   1.0000   1.0000   1.0000
     1.0000   1.0000   1.0000   1.0000   1.0000   1.0000   1.0000   1.0000
     1.0000   1.0000   1.0000   1.0000   1.0000   1.0000   1.0000   1.0000
     1.0000   1.0000   1.0000   1.0000   1.0000   1.0000   1.0000   1.0000
     1.0000   1.0000   1.0000   1.0000   1.0000   1.0000   1.0000   1.0000
     1.0000   1.0000   1.0000   1.0000   1.0000   1.0000   1.0000   1.0000

          k = 0.1667-0.0962-0.0974 (  6087 PWs)   bands (ev):

    -9.8944  -9.2228  -9.0825  -8.5129  -8.1035  -7.6444  -7.3502  -7.2633
     1.6304   2.4776   2.6514   2.8094   2.8490   3.0016   3.1433   3.3681
     3.4666   3.4939   3.6837   3.8241   3.8983   3.9606   4.0307   4.1458
     4.2210   4.3392   4.5568   4.5769   4.7546   4.8806   5.0469   5.1396
     5.2590   5.3044   5.3713   5.4427   5.4742   5.5629   5.5839   5.6387
     5.7330   5.9545   6.0391   6.1662   6.4061   6.4452   6.5579   6.6645
     6.7737   6.8385   6.9616   7.1447   7.4522   7.5624   7.9225   8.1339
     8.3010   8.6153   8.8133   8.9801   9.3967   9.5341   9.6777   9.8097
     9.9643  10.2018  10.3743  10.6004  10.9131  11.0299  11.6231  12.1860

     occupation numbers 
     1.0000   1.0000   1.0000   1.0000   1.0000   1.0000   1.0000   1.0000
     1.0000   1.0000   1.0000   1.0000   1.0000   1.0000   1.0000   1.0000
     1.0000   1.0000   1.0000   1.0000   1.0000   1.0000   1.0000   1.0000
     1.0000   1.0000   1.0000   1.0000   1.0000   1.0000   1.0000   1.0000
     1.0000   1.0000   1.0000   1.0000   1.0000   1.0000   1.0000   1.0000
     1.0000   1.0000   1.0000   1.0000   1.0000   1.0000   1.0000   1.0000
     1.0000   1.0000   1.0000   1.0000   1.0000   1.0000   1.0000   1.0000
     1.0000   1.0000   1.0000   1.0000   1.0000   1.0000   1.0000   1.0000
     1.0000   1.0000   1.0000   1.0000   1.0000   1.0000   1.0000   1.0000

          k =-0.1667 0.0962 0.1461 (  6080 PWs)   bands (ev):

    -9.8937  -9.2271  -9.0792  -8.5129  -8.1027  -7.6439  -7.3511  -7.2634
     1.6304   2.4848   2.6475   2.7981   2.8474   3.0161   3.1481   3.3654
     3.4551   3.5014   3.6765   3.8280   3.9090   3.9507   4.0296   4.1447
     4.2101   4.3431   4.5240   4.5960   4.7569   4.8839   5.0527   5.1529
     5.2582   5.3062   5.3723   5.4397   5.4755   5.5540   5.5758   5.6296
     5.7433   5.9749   6.0260   6.1568   6.4137   6.4588   6.5574   6.6862
     6.7474   6.8670   7.0617   7.1362   7.3382   7.5744   7.9572   8.0684
     8.2823   8.5918   8.7982   8.9814   9.3904   9.5627   9.6799   9.9124
     9.9659  10.2082  10.3722  10.5626  10.8654  11.0381  11.6304  12.1845

     occupation numbers 
     1.0000   1.0000   1.0000   1.0000   1.0000   1.0000   1.0000   1.0000
     1.0000   1.0000   1.0000   1.0000   1.0000   1.0000   1.0000   1.0000
     1.0000   1.0000   1.0000   1.0000   1.0000   1.0000   1.0000   1.0000
     1.0000   1.0000   1.0000   1.0000   1.0000   1.0000   1.0000   1.0000
     1.0000   1.0000   1.0000   1.0000   1.0000   1.0000   1.0000   1.0000
     1.0000   1.0000   1.0000   1.0000   1.0000   1.0000   1.0000   1.0000
     1.0000   1.0000   1.0000   1.0000   1.0000   1.0000   1.0000   1.0000
     1.0000   1.0000   1.0000   1.0000   1.0000   1.0000   1.0000   1.0000
     1.0000   1.0000   1.0000   1.0000   1.0000   1.0000   1.0000   1.0000

          k =-0.1667 0.1925 0.0000 (  6085 PWs)   bands (ev):

    -9.8659  -9.1406  -9.0214  -8.6393  -8.0576  -7.7254  -7.3823  -7.2792
     1.6294   2.4721   2.6418   2.8332   2.8805   2.9402   3.1636   3.2563
     3.3875   3.5394   3.6886   3.7997   3.8609   3.9429   4.1009   4.1221
     4.2665   4.3740   4.4311   4.6472   4.8420   4.9331   5.0148   5.0454
     5.2068   5.3170   5.3500   5.4126   5.4728   5.5559   5.5736   5.6548
     5.7092   5.9381   5.9994   6.1116   6.2554   6.3817   6.5885   6.7008
     6.7912   6.9375   7.1034   7.2721   7.6884   7.9035   8.1900   8.3719
     8.5341   8.5941   8.7368   8.9876   9.1204   9.3370   9.5091   9.7203
     9.8532  10.2228  10.3189  10.6619  10.7420  10.9370  11.6724  11.8984

     occupation numbers 
     1.0000   1.0000   1.0000   1.0000   1.0000   1.0000   1.0000   1.0000
     1.0000   1.0000   1.0000   1.0000   1.0000   1.0000   1.0000   1.0000
     1.0000   1.0000   1.0000   1.0000   1.0000   1.0000   1.0000   1.0000
     1.0000   1.0000   1.0000   1.0000   1.0000   1.0000   1.0000   1.0000
     1.0000   1.0000   1.0000   1.0000   1.0000   1.0000   1.0000   1.0000
     1.0000   1.0000   1.0000   1.0000   1.0000   1.0000   1.0000   1.0000
     1.0000   1.0000   1.0000   1.0000   1.0000   1.0000   1.0000   1.0000
     1.0000   1.0000   1.0000   1.0000   1.0000   1.0000   1.0000   1.0000
     1.0000   1.0000   1.0000   1.0000   1.0000   1.0000   1.0000   1.0000

          k =-0.1667-0.1925 0.0487 (  6086 PWs)   bands (ev):

    -9.8633  -9.1343  -9.0176  -8.6454  -8.0324  -7.7507  -7.3888  -7.2827
     1.6346   2.4668   2.6673   2.7858   2.8562   2.9273   3.1606   3.2246
     3.4280   3.5014   3.6613   3.7641   3.8641   3.9314   4.0413   4.1615
     4.2647   4.3515   4.5113   4.7413   4.8206   4.8751   4.9870   5.0921
     5.1716   5.2304   5.3467   5.3924   5.5020   5.5359   5.5937   5.6549
     5.7726   5.8026   6.0200   6.0877   6.2735   6.4589   6.6371   6.7675
     6.8326   6.9434   7.2730   7.5179   7.7421   7.9284   8.1022   8.3714
     8.4397   8.6607   8.8103   9.0313   9.0938   9.3185   9.4080   9.7025
     9.9463  10.1140  10.2812  10.5396  10.9640  11.1504  11.2429  11.6532

     occupation numbers 
     1.0000   1.0000   1.0000   1.0000   1.0000   1.0000   1.0000   1.0000
     1.0000   1.0000   1.0000   1.0000   1.0000   1.0000   1.0000   1.0000
     1.0000   1.0000   1.0000   1.0000   1.0000   1.0000   1.0000   1.0000
     1.0000   1.0000   1.0000   1.0000   1.0000   1.0000   1.0000   1.0000
     1.0000   1.0000   1.0000   1.0000   1.0000   1.0000   1.0000   1.0000
     1.0000   1.0000   1.0000   1.0000   1.0000   1.0000   1.0000   1.0000
     1.0000   1.0000   1.0000   1.0000   1.0000   1.0000   1.0000   1.0000
     1.0000   1.0000   1.0000   1.0000   1.0000   1.0000   1.0000   1.0000
     1.0000   1.0000   1.0000   1.0000   1.0000   1.0000   1.0000   1.0000

          k =-0.1667 0.1925-0.0487 (  6086 PWs)   bands (ev):

    -9.8656  -9.1398  -9.0234  -8.6392  -8.0561  -7.7257  -7.3812  -7.2806
     1.6295   2.4763   2.6456   2.8215   2.8731   2.9566   3.1788   3.2365
     3.3814   3.5508   3.6727   3.8098   3.8658   3.9344   4.1005   4.1274
     4.2535   4.3637   4.4383   4.6335   4.8468   4.9452   5.0093   5.0797
     5.1701   5.3112   5.3530   5.4275   5.4573   5.5417   5.5820   5.6457
     5.7201   5.9520   5.9911   6.1205   6.2720   6.4170   6.5756   6.7039
     6.7856   6.9614   7.1398   7.2770   7.6899   7.9007   8.0877   8.3750
     8.4941   8.5506   8.7464   8.9261   9.1803   9.3805   9.4901   9.7077
     9.9966  10.1901  10.2767  10.6763  10.7228  10.9623  11.6652  11.8981

     occupation numbers 
     1.0000   1.0000   1.0000   1.0000   1.0000   1.0000   1.0000   1.0000
     1.0000   1.0000   1.0000   1.0000   1.0000   1.0000   1.0000   1.0000
     1.0000   1.0000   1.0000   1.0000   1.0000   1.0000   1.0000   1.0000
     1.0000   1.0000   1.0000   1.0000   1.0000   1.0000   1.0000   1.0000
     1.0000   1.0000   1.0000   1.0000   1.0000   1.0000   1.0000   1.0000
     1.0000   1.0000   1.0000   1.0000   1.0000   1.0000   1.0000   1.0000
     1.0000   1.0000   1.0000   1.0000   1.0000   1.0000   1.0000   1.0000
     1.0000   1.0000   1.0000   1.0000   1.0000   1.0000   1.0000   1.0000
     1.0000   1.0000   1.0000   1.0000   1.0000   1.0000   1.0000   1.0000

          k = 0.1667-0.1925-0.0487 (  6086 PWs)   bands (ev):

    -9.8651  -9.1511  -9.0102  -8.6404  -8.0593  -7.7234  -7.3811  -7.2810
     1.6309   2.4769   2.6336   2.8430   2.8740   2.9431   3.1480   3.2707
     3.4035   3.5182   3.6947   3.7934   3.8607   3.9335   4.0988   4.1350
     4.2601   4.3605   4.4600   4.6369   4.8168   4.8763   5.0043   5.0818
     5.2223   5.3116   5.3555   5.4110   5.4855   5.5596   5.5823   5.6691
     5.7318   5.9318   6.0053   6.1071   6.2574   6.3942   6.5989   6.7364
     6.7787   6.9343   7.1555   7.2587   7.6757   7.8276   8.1511   8.3489
     8.5161   8.5614   8.7257   9.0590   9.1264   9.3252   9.5715   9.7296
     9.7779  10.2003  10.4170  10.6571  10.7596  10.9313  11.6456  11.8945

     occupation numbers 
     1.0000   1.0000   1.0000   1.0000   1.0000   1.0000   1.0000   1.0000
     1.0000   1.0000   1.0000   1.0000   1.0000   1.0000   1.0000   1.0000
     1.0000   1.0000   1.0000   1.0000   1.0000   1.0000   1.0000   1.0000
     1.0000   1.0000   1.0000   1.0000   1.0000   1.0000   1.0000   1.0000
     1.0000   1.0000   1.0000   1.0000   1.0000   1.0000   1.0000   1.0000
     1.0000   1.0000   1.0000   1.0000   1.0000   1.0000   1.0000   1.0000
     1.0000   1.0000   1.0000   1.0000   1.0000   1.0000   1.0000   1.0000
     1.0000   1.0000   1.0000   1.0000   1.0000   1.0000   1.0000   1.0000
     1.0000   1.0000   1.0000   1.0000   1.0000   1.0000   1.0000   1.0000

          k =-0.1667-0.1925 0.0974 (  6089 PWs)   bands (ev):

    -9.8623  -9.1436  -9.0087  -8.6465  -8.0328  -7.7493  -7.3851  -7.2868
     1.6366   2.4730   2.6602   2.8011   2.8383   2.9385   3.1683   3.2173
     3.3917   3.5457   3.6298   3.7668   3.8677   3.9318   4.0373   4.1510
     4.2487   4.3565   4.5248   4.7217   4.8055   4.8888   4.9697   5.0986
     5.1627   5.2487   5.3417   5.3807   5.5175   5.5268   5.5914   5.6506
     5.7821   5.8447   6.0080   6.0991   6.3321   6.5135   6.6193   6.7518
     6.8972   6.9950   7.2801   7.4414   7.6663   7.9576   8.0131   8.3074
     8.4666   8.5892   8.7594   8.9964   9.1684   9.3132   9.4323   9.7830
     9.9707  10.1512  10.2506  10.5688  10.9774  11.1667  11.2044  11.6505

     occupation numbers 
     1.0000   1.0000   1.0000   1.0000   1.0000   1.0000   1.0000   1.0000
     1.0000   1.0000   1.0000   1.0000   1.0000   1.0000   1.0000   1.0000
     1.0000   1.0000   1.0000   1.0000   1.0000   1.0000   1.0000   1.0000
     1.0000   1.0000   1.0000   1.0000   1.0000   1.0000   1.0000   1.0000
     1.0000   1.0000   1.0000   1.0000   1.0000   1.0000   1.0000   1.0000
     1.0000   1.0000   1.0000   1.0000   1.0000   1.0000   1.0000   1.0000
     1.0000   1.0000   1.0000   1.0000   1.0000   1.0000   1.0000   1.0000
     1.0000   1.0000   1.0000   1.0000   1.0000   1.0000   1.0000   1.0000
     1.0000   1.0000   1.0000   1.0000   1.0000   1.0000   1.0000   1.0000

          k =-0.1667 0.1925-0.0974 (  6089 PWs)   bands (ev):

    -9.8646  -9.1500  -9.0137  -8.6402  -8.0563  -7.7242  -7.3786  -7.2840
     1.6310   2.4861   2.6396   2.8170   2.8666   2.9722   3.1724   3.2364
     3.3889   3.5426   3.6637   3.8174   3.8714   3.9098   4.1054   4.1467
     4.2241   4.3507   4.4674   4.6075   4.8505   4.8744   5.0065   5.1378
     5.1604   5.3035   5.3562   5.4240   5.4687   5.5427   5.5839   5.6573
     5.7439   5.9624   5.9871   6.1253   6.2809   6.4684   6.5750   6.7358
     6.7780   7.0275   7.1993   7.3038   7.5952   7.7933   8.0735   8.3025
     8.3926   8.5310   8.7127   8.9548   9.2374   9.4086   9.5443   9.7035
     9.9951  10.1775  10.3513  10.6888  10.7176  10.9845  11.6291  11.8935

     occupation numbers 
     1.0000   1.0000   1.0000   1.0000   1.0000   1.0000   1.0000   1.0000
     1.0000   1.0000   1.0000   1.0000   1.0000   1.0000   1.0000   1.0000
     1.0000   1.0000   1.0000   1.0000   1.0000   1.0000   1.0000   1.0000
     1.0000   1.0000   1.0000   1.0000   1.0000   1.0000   1.0000   1.0000
     1.0000   1.0000   1.0000   1.0000   1.0000   1.0000   1.0000   1.0000
     1.0000   1.0000   1.0000   1.0000   1.0000   1.0000   1.0000   1.0000
     1.0000   1.0000   1.0000   1.0000   1.0000   1.0000   1.0000   1.0000
     1.0000   1.0000   1.0000   1.0000   1.0000   1.0000   1.0000   1.0000
     1.0000   1.0000   1.0000   1.0000   1.0000   1.0000   1.0000   1.0000

          k = 0.1667-0.1925-0.0974 (  6089 PWs)   bands (ev):

    -9.8641  -9.1599  -9.0019  -8.6414  -8.0595  -7.7219  -7.3785  -7.2844
     1.6325   2.4871   2.6268   2.8422   2.8601   2.9646   3.1400   3.2680
     3.4245   3.4979   3.6856   3.7995   3.8617   3.9184   4.0977   4.1543
     4.2363   4.3487   4.4914   4.6047   4.7857   4.8661   5.0041   5.1082
     5.2204   5.2994   5.3594   5.4105   5.4903   5.5564   5.5894   5.6781
     5.7577   5.9371   6.0032   6.1198   6.2715   6.4328   6.5986   6.7505
     6.8387   6.9610   7.1559   7.3408   7.5740   7.7622   8.0919   8.3002
     8.4018   8.5369   8.6958   9.0648   9.1902   9.3766   9.6415   9.6874
     9.8160  10.1730  10.4853  10.6673  10.7516  10.9559  11.6082  11.8901

     occupation numbers 
     1.0000   1.0000   1.0000   1.0000   1.0000   1.0000   1.0000   1.0000
     1.0000   1.0000   1.0000   1.0000   1.0000   1.0000   1.0000   1.0000
     1.0000   1.0000   1.0000   1.0000   1.0000   1.0000   1.0000   1.0000
     1.0000   1.0000   1.0000   1.0000   1.0000   1.0000   1.0000   1.0000
     1.0000   1.0000   1.0000   1.0000   1.0000   1.0000   1.0000   1.0000
     1.0000   1.0000   1.0000   1.0000   1.0000   1.0000   1.0000   1.0000
     1.0000   1.0000   1.0000   1.0000   1.0000   1.0000   1.0000   1.0000
     1.0000   1.0000   1.0000   1.0000   1.0000   1.0000   1.0000   1.0000
     1.0000   1.0000   1.0000   1.0000   1.0000   1.0000   1.0000   1.0000

          k =-0.1667 0.1925 0.1461 (  6096 PWs)   bands (ev):

    -9.8638  -9.1595  -9.0036  -8.6413  -8.0580  -7.7223  -7.3772  -7.2859
     1.6325   2.4923   2.6288   2.8258   2.8622   2.9773   3.1496   3.2533
     3.4129   3.5136   3.6708   3.8141   3.8648   3.9054   4.1024   4.1679
     4.2085   4.3462   4.4953   4.5880   4.8070   4.8605   5.0059   5.1262
     5.2018   5.2972   5.3587   5.4119   5.4851   5.5518   5.5863   5.6736
     5.7602   5.9528   5.9946   6.1281   6.2792   6.4670   6.5895   6.7449
     6.8426   7.0277   7.2108   7.3657   7.4550   7.7766   8.0823   8.2061
     8.3930   8.5190   8.6835   9.0194   9.2322   9.4196   9.6259   9.6904
     9.8928  10.1676  10.4643  10.6864  10.7278  10.9832  11.5987  11.8895

     occupation numbers 
     1.0000   1.0000   1.0000   1.0000   1.0000   1.0000   1.0000   1.0000
     1.0000   1.0000   1.0000   1.0000   1.0000   1.0000   1.0000   1.0000
     1.0000   1.0000   1.0000   1.0000   1.0000   1.0000   1.0000   1.0000
     1.0000   1.0000   1.0000   1.0000   1.0000   1.0000   1.0000   1.0000
     1.0000   1.0000   1.0000   1.0000   1.0000   1.0000   1.0000   1.0000
     1.0000   1.0000   1.0000   1.0000   1.0000   1.0000   1.0000   1.0000
     1.0000   1.0000   1.0000   1.0000   1.0000   1.0000   1.0000   1.0000
     1.0000   1.0000   1.0000   1.0000   1.0000   1.0000   1.0000   1.0000
     1.0000   1.0000   1.0000   1.0000   1.0000   1.0000   1.0000   1.0000

          k =-0.1667-0.2887 0.0487 (  6116 PWs)   bands (ev):

    -9.8483  -9.1191  -8.9171  -8.7548  -8.0157  -7.7835  -7.4017  -7.2920
     1.6333   2.4778   2.6327   2.8324   2.8694   2.9231   3.1307   3.2600
     3.3665   3.5022   3.6641   3.7763   3.8773   3.9048   4.0929   4.1320
     4.2722   4.3464   4.4782   4.7360   4.7965   4.8807   4.9871   5.0909
     5.1766   5.2883   5.3354   5.3847   5.4935   5.5341   5.5840   5.6810
     5.7275   5.8300   5.9755   6.1109   6.1987   6.4520   6.6000   6.7602
     6.7891   6.9421   7.4792   7.5907   7.8344   8.0067   8.1599   8.3262
     8.4645   8.6329   8.7536   8.9765   9.0871   9.2802   9.5452   9.5802
     9.8316  10.1620  10.2388  10.5338  10.8880  11.0528  11.4291  11.5654

     occupation numbers 
     1.0000   1.0000   1.0000   1.0000   1.0000   1.0000   1.0000   1.0000
     1.0000   1.0000   1.0000   1.0000   1.0000   1.0000   1.0000   1.0000
     1.0000   1.0000   1.0000   1.0000   1.0000   1.0000   1.0000   1.0000
     1.0000   1.0000   1.0000   1.0000   1.0000   1.0000   1.0000   1.0000
     1.0000   1.0000   1.0000   1.0000   1.0000   1.0000   1.0000   1.0000
     1.0000   1.0000   1.0000   1.0000   1.0000   1.0000   1.0000   1.0000
     1.0000   1.0000   1.0000   1.0000   1.0000   1.0000   1.0000   1.0000
     1.0000   1.0000   1.0000   1.0000   1.0000   1.0000   1.0000   1.0000
     1.0000   1.0000   1.0000   1.0000   1.0000   1.0000   1.0000   1.0000

          k =-0.1667-0.2887 0.0974 (  6092 PWs)   bands (ev):

    -9.8476  -9.1223  -8.9128  -8.7573  -8.0165  -7.7816  -7.3969  -7.2970
     1.6354   2.4860   2.6276   2.8348   2.8735   2.9259   3.1177   3.2699
     3.3587   3.5002   3.6471   3.7900   3.8685   3.9013   4.0938   4.1421
     4.2439   4.3412   4.4989   4.7095   4.7834   4.8714   4.9793   5.1064
     5.1768   5.2942   5.3296   5.3753   5.4978   5.5377   5.5886   5.6663
     5.7561   5.8530   5.9825   6.1042   6.2630   6.4856   6.5906   6.7281
     6.8964   7.0704   7.3264   7.6081   7.8203   7.9543   8.1058   8.2003
     8.4374   8.6254   8.7707   8.9532   9.0283   9.3330   9.5508   9.6005
     9.9099  10.1673  10.3006  10.5612  10.8880  11.0371  11.4236  11.5698

     occupation numbers 
     1.0000   1.0000   1.0000   1.0000   1.0000   1.0000   1.0000   1.0000
     1.0000   1.0000   1.0000   1.0000   1.0000   1.0000   1.0000   1.0000
     1.0000   1.0000   1.0000   1.0000   1.0000   1.0000   1.0000   1.0000
     1.0000   1.0000   1.0000   1.0000   1.0000   1.0000   1.0000   1.0000
     1.0000   1.0000   1.0000   1.0000   1.0000   1.0000   1.0000   1.0000
     1.0000   1.0000   1.0000   1.0000   1.0000   1.0000   1.0000   1.0000
     1.0000   1.0000   1.0000   1.0000   1.0000   1.0000   1.0000   1.0000
     1.0000   1.0000   1.0000   1.0000   1.0000   1.0000   1.0000   1.0000
     1.0000   1.0000   1.0000   1.0000   1.0000   1.0000   1.0000   1.0000

          k =-0.1667-0.0000 0.0487 (  6087 PWs)   bands (ev):

    -9.9107  -9.2206  -9.1359  -8.4644  -8.1139  -7.6183  -7.3375  -7.2556
     1.6301   2.4574   2.6836   2.8090   2.8631   2.9867   3.0888   3.3695
     3.4541   3.5681   3.6966   3.8199   3.8903   3.9236   4.0130   4.1757
     4.2671   4.3628   4.5353   4.6530   4.7550   4.8689   5.0035   5.1926
     5.2694   5.3053   5.3798   5.4059   5.4561   5.5327   5.5931   5.6598
     5.7128   5.9520   6.0375   6.1310   6.3337   6.4273   6.5398   6.6529
     6.7749   6.9288   6.9759   7.0943   7.2706   7.8216   7.9423   8.0447
     8.1515   8.6697   8.8422   9.0695   9.4053   9.5207   9.6635   9.8337
    10.0005  10.1758  10.3245  10.6195  10.8760  11.1517  11.7056  12.1450

     occupation numbers 
     1.0000   1.0000   1.0000   1.0000   1.0000   1.0000   1.0000   1.0000
     1.0000   1.0000   1.0000   1.0000   1.0000   1.0000   1.0000   1.0000
     1.0000   1.0000   1.0000   1.0000   1.0000   1.0000   1.0000   1.0000
     1.0000   1.0000   1.0000   1.0000   1.0000   1.0000   1.0000   1.0000
     1.0000   1.0000   1.0000   1.0000   1.0000   1.0000   1.0000   1.0000
     1.0000   1.0000   1.0000   1.0000   1.0000   1.0000   1.0000   1.0000
     1.0000   1.0000   1.0000   1.0000   1.0000   1.0000   1.0000   1.0000
     1.0000   1.0000   1.0000   1.0000   1.0000   1.0000   1.0000   1.0000
     1.0000   1.0000   1.0000   1.0000   1.0000   1.0000   1.0000   1.0000

          k =-0.1667-0.0000 0.0974 (  6095 PWs)   bands (ev):

    -9.9084  -9.2475  -9.1105  -8.4645  -8.1146  -7.6161  -7.3392  -7.2560
     1.6314   2.4665   2.6739   2.7964   2.8627   3.0042   3.0892   3.3882
     3.4355   3.5615   3.6956   3.8283   3.8792   3.9163   4.0127   4.1824
     4.2504   4.3619   4.5547   4.6302   4.7319   4.8847   5.0076   5.2164
     5.2733   5.3023   5.3771   5.4050   5.4536   5.5377   5.5903   5.6593
     5.7138   5.9535   6.0334   6.1171   6.3544   6.4405   6.5459   6.6709
     6.8733   6.9382   6.9851   7.0784   7.3177   7.5898   7.9140   8.0335
     8.0889   8.7174   8.8858   9.0694   9.4663   9.6036   9.6853   9.8019
     9.9660  10.1564  10.3533  10.6023  10.8935  11.0962  11.6715  12.1373

     occupation numbers 
     1.0000   1.0000   1.0000   1.0000   1.0000   1.0000   1.0000   1.0000
     1.0000   1.0000   1.0000   1.0000   1.0000   1.0000   1.0000   1.0000
     1.0000   1.0000   1.0000   1.0000   1.0000   1.0000   1.0000   1.0000
     1.0000   1.0000   1.0000   1.0000   1.0000   1.0000   1.0000   1.0000
     1.0000   1.0000   1.0000   1.0000   1.0000   1.0000   1.0000   1.0000
     1.0000   1.0000   1.0000   1.0000   1.0000   1.0000   1.0000   1.0000
     1.0000   1.0000   1.0000   1.0000   1.0000   1.0000   1.0000   1.0000
     1.0000   1.0000   1.0000   1.0000   1.0000   1.0000   1.0000   1.0000
     1.0000   1.0000   1.0000   1.0000   1.0000   1.0000   1.0000   1.0000

          k =-0.3333 0.1925 0.0000 (  6095 PWs)   bands (ev):

    -9.6455  -8.8861  -8.7753  -8.4839  -7.8596  -7.5714  -7.2062  -7.1732
     1.7570   2.2676   2.6282   2.8188   2.9035   3.0280   3.0835   3.2756
     3.4495   3.5673   3.7090   3.8359   3.8761   3.9441   4.1023   4.2206
     4.2822   4.3831   4.5161   4.8222   4.9516   4.9972   5.1574   5.2265
     5.2916   5.3796   5.4477   5.4963   5.5743   5.6151   5.6408   5.7268
     5.8423   5.9365   6.0526   6.1321   6.3458   6.4245   6.5706   6.6264
     6.7367   6.8340   6.9586   7.0118   7.2080   7.4929   7.6298   7.9196
     8.0413   8.2438   8.3873   8.6176   8.8624   9.0031   9.1554   9.3945
     9.5458   9.7289   9.7824  10.2270  10.3295  10.6278  11.4058  11.7459

     occupation numbers 
     1.0000   1.0000   1.0000   1.0000   1.0000   1.0000   1.0000   1.0000
     1.0000   1.0000   1.0000   1.0000   1.0000   1.0000   1.0000   1.0000
     1.0000   1.0000   1.0000   1.0000   1.0000   1.0000   1.0000   1.0000
     1.0000   1.0000   1.0000   1.0000   1.0000   1.0000   1.0000   1.0000
     1.0000   1.0000   1.0000   1.0000   1.0000   1.0000   1.0000   1.0000
     1.0000   1.0000   1.0000   1.0000   1.0000   1.0000   1.0000   1.0000
     1.0000   1.0000   1.0000   1.0000   1.0000   1.0000   1.0000   1.0000
     1.0000   1.0000   1.0000   1.0000   1.0000   1.0000   1.0000   1.0000
     1.0000   1.0000   1.0000   1.0000   1.0000   1.0000   1.0000   1.0000

          k =-0.3333-0.1925 0.0487 (  6090 PWs)   bands (ev):

    -9.6430  -8.8785  -8.7676  -8.4937  -7.8224  -7.6130  -7.2141  -7.1728
     1.7623   2.2793   2.6249   2.7626   2.9299   2.9953   3.1048   3.2140
     3.4690   3.5414   3.7176   3.7891   3.8412   3.9571   4.0387   4.2117
     4.3154   4.4565   4.5201   4.8377   4.9071   4.9990   5.0995   5.1715
     5.2978   5.4120   5.4359   5.4673   5.5211   5.6466   5.7147   5.7354
     5.8027   5.8887   6.0576   6.1200   6.3286   6.4544   6.5748   6.6956
     6.8250   6.9314   7.0877   7.1241   7.3536   7.5655   7.6989   7.8631
     8.0677   8.2432   8.4519   8.6738   8.8294   8.8899   9.0882   9.3547
     9.5267   9.6129   9.8139  10.0729  10.7061  10.7588  11.0724  11.3568

     occupation numbers 
     1.0000   1.0000   1.0000   1.0000   1.0000   1.0000   1.0000   1.0000
     1.0000   1.0000   1.0000   1.0000   1.0000   1.0000   1.0000   1.0000
     1.0000   1.0000   1.0000   1.0000   1.0000   1.0000   1.0000   1.0000
     1.0000   1.0000   1.0000   1.0000   1.0000   1.0000   1.0000   1.0000
     1.0000   1.0000   1.0000   1.0000   1.0000   1.0000   1.0000   1.0000
     1.0000   1.0000   1.0000   1.0000   1.0000   1.0000   1.0000   1.0000
     1.0000   1.0000   1.0000   1.0000   1.0000   1.0000   1.0000   1.0000
     1.0000   1.0000   1.0000   1.0000   1.0000   1.0000   1.0000   1.0000
     1.0000   1.0000   1.0000   1.0000   1.0000   1.0000   1.0000   1.0000

          k =-0.3333 0.1925-0.0487 (  6090 PWs)   bands (ev):

    -9.6454  -8.8853  -8.7764  -8.4841  -7.8591  -7.5714  -7.2051  -7.1744
     1.7572   2.2740   2.6291   2.8108   2.9045   3.0297   3.0763   3.2977
     3.4387   3.5601   3.7036   3.8302   3.8801   3.9497   4.0958   4.2279
     4.2700   4.3855   4.5138   4.8247   4.9593   4.9943   5.1626   5.2222
     5.2889   5.3876   5.4482   5.4999   5.5539   5.6028   5.6490   5.7494
     5.8186   5.9339   6.0580   6.1280   6.3436   6.4611   6.5460   6.6358
     6.7453   6.8168   6.9679   7.0345   7.2257   7.5372   7.6296   7.9091
     8.0318   8.2362   8.4373   8.4727   8.8616   9.0325   9.1635   9.3149
     9.5156   9.7231   9.8937  10.2338  10.3330  10.6314  11.4105  11.7435

     occupation numbers 
     1.0000   1.0000   1.0000   1.0000   1.0000   1.0000   1.0000   1.0000
     1.0000   1.0000   1.0000   1.0000   1.0000   1.0000   1.0000   1.0000
     1.0000   1.0000   1.0000   1.0000   1.0000   1.0000   1.0000   1.0000
     1.0000   1.0000   1.0000   1.0000   1.0000   1.0000   1.0000   1.0000
     1.0000   1.0000   1.0000   1.0000   1.0000   1.0000   1.0000   1.0000
     1.0000   1.0000   1.0000   1.0000   1.0000   1.0000   1.0000   1.0000
     1.0000   1.0000   1.0000   1.0000   1.0000   1.0000   1.0000   1.0000
     1.0000   1.0000   1.0000   1.0000   1.0000   1.0000   1.0000   1.0000
     1.0000   1.0000   1.0000   1.0000   1.0000   1.0000   1.0000   1.0000

          k = 0.3333-0.1925-0.0487 (  6090 PWs)   bands (ev):

    -9.6452  -8.8892  -8.7721  -8.4841  -7.8600  -7.5711  -7.2052  -7.1742
     1.7589   2.2700   2.6218   2.8344   2.8971   3.0283   3.0959   3.2446
     3.4591   3.5680   3.7098   3.8401   3.8666   3.9489   4.0873   4.2128
     4.2937   4.3837   4.5269   4.7938   4.9497   5.0041   5.1484   5.2173
     5.3273   5.3797   5.4458   5.4949   5.5768   5.6164   5.6438   5.7345
     5.8316   5.9525   6.0332   6.1669   6.3221   6.4071   6.5520   6.6264
     6.7694   6.8498   6.9497   7.0678   7.2148   7.4804   7.6174   7.9227
     8.0266   8.1915   8.3695   8.7124   8.8617   8.9568   9.1178   9.3868
     9.4868   9.7169   9.8709  10.2366  10.3401  10.6213  11.4195  11.7442

     occupation numbers 
     1.0000   1.0000   1.0000   1.0000   1.0000   1.0000   1.0000   1.0000
     1.0000   1.0000   1.0000   1.0000   1.0000   1.0000   1.0000   1.0000
     1.0000   1.0000   1.0000   1.0000   1.0000   1.0000   1.0000   1.0000
     1.0000   1.0000   1.0000   1.0000   1.0000   1.0000   1.0000   1.0000
     1.0000   1.0000   1.0000   1.0000   1.0000   1.0000   1.0000   1.0000
     1.0000   1.0000   1.0000   1.0000   1.0000   1.0000   1.0000   1.0000
     1.0000   1.0000   1.0000   1.0000   1.0000   1.0000   1.0000   1.0000
     1.0000   1.0000   1.0000   1.0000   1.0000   1.0000   1.0000   1.0000
     1.0000   1.0000   1.0000   1.0000   1.0000   1.0000   1.0000   1.0000

          k =-0.3333-0.1925 0.0974 (  6086 PWs)   bands (ev):

    -9.6428  -8.8800  -8.7662  -8.4941  -7.8224  -7.6128  -7.2116  -7.1753
     1.7650   2.2871   2.6238   2.7679   2.9149   3.0083   3.0955   3.2216
     3.4526   3.5414   3.7190   3.7732   3.8385   3.9605   4.0367   4.2237
     4.2896   4.4728   4.5302   4.8090   4.9111   5.0029   5.1029   5.1528
     5.3105   5.4008   5.4353   5.4612   5.5410   5.6274   5.7342   5.7381
     5.8211   5.9091   6.0592   6.1338   6.3021   6.4726   6.5745   6.6983
     6.7851   6.9474   7.0855   7.1924   7.3896   7.5869   7.7147   7.8920
     8.0211   8.2136   8.3446   8.6681   8.7700   8.9244   8.9990   9.3685
     9.5283   9.7237   9.7783  10.1018  10.7278  10.7546  11.0827  11.3633

     occupation numbers 
     1.0000   1.0000   1.0000   1.0000   1.0000   1.0000   1.0000   1.0000
     1.0000   1.0000   1.0000   1.0000   1.0000   1.0000   1.0000   1.0000
     1.0000   1.0000   1.0000   1.0000   1.0000   1.0000   1.0000   1.0000
     1.0000   1.0000   1.0000   1.0000   1.0000   1.0000   1.0000   1.0000
     1.0000   1.0000   1.0000   1.0000   1.0000   1.0000   1.0000   1.0000
     1.0000   1.0000   1.0000   1.0000   1.0000   1.0000   1.0000   1.0000
     1.0000   1.0000   1.0000   1.0000   1.0000   1.0000   1.0000   1.0000
     1.0000   1.0000   1.0000   1.0000   1.0000   1.0000   1.0000   1.0000
     1.0000   1.0000   1.0000   1.0000   1.0000   1.0000   1.0000   1.0000

          k =-0.3333 0.1925-0.0974 (  6086 PWs)   bands (ev):

    -9.6451  -8.8876  -8.7743  -8.4845  -7.8590  -7.5711  -7.2026  -7.1770
     1.7593   2.2831   2.6226   2.8166   2.9014   3.0319   3.0784   3.2889
     3.4412   3.5528   3.6993   3.8259   3.8757   3.9617   4.0748   4.2234
     4.2733   4.3875   4.5203   4.8049   4.9623   4.9977   5.1509   5.2207
     5.3152   5.3980   5.4476   5.4897   5.5543   5.5884   5.6579   5.7644
     5.8112   5.9361   6.0532   6.1376   6.3441   6.4549   6.5239   6.6192
     6.7688   6.8420   6.9907   7.0999   7.2554   7.5576   7.6403   7.8716
     8.0103   8.2264   8.3233   8.5002   8.8598   9.0211   9.1373   9.2521
     9.5070   9.6899  10.0191  10.2514  10.3448  10.6292  11.4292  11.7393

     occupation numbers 
     1.0000   1.0000   1.0000   1.0000   1.0000   1.0000   1.0000   1.0000
     1.0000   1.0000   1.0000   1.0000   1.0000   1.0000   1.0000   1.0000
     1.0000   1.0000   1.0000   1.0000   1.0000   1.0000   1.0000   1.0000
     1.0000   1.0000   1.0000   1.0000   1.0000   1.0000   1.0000   1.0000
     1.0000   1.0000   1.0000   1.0000   1.0000   1.0000   1.0000   1.0000
     1.0000   1.0000   1.0000   1.0000   1.0000   1.0000   1.0000   1.0000
     1.0000   1.0000   1.0000   1.0000   1.0000   1.0000   1.0000   1.0000
     1.0000   1.0000   1.0000   1.0000   1.0000   1.0000   1.0000   1.0000
     1.0000   1.0000   1.0000   1.0000   1.0000   1.0000   1.0000   1.0000

          k = 0.3333-0.1925-0.0974 (  6086 PWs)   bands (ev):

    -9.6449  -8.8914  -8.7702  -8.4846  -7.8598  -7.5707  -7.2028  -7.1768
     1.7610   2.2789   2.6159   2.8445   2.8875   3.0323   3.1020   3.2325
     3.4605   3.5612   3.7050   3.8420   3.8568   3.9607   4.0662   4.2132
     4.2910   4.3865   4.5359   4.7760   4.9425   5.0132   5.1505   5.2086
     5.3420   5.3881   5.4457   5.4952   5.5607   5.6203   5.6551   5.7470
     5.8074   5.9683   6.0453   6.1392   6.3435   6.3990   6.5593   6.6122
     6.7566   6.8692   6.9558   7.1632   7.2695   7.4877   7.5858   7.8987
     8.0303   8.1442   8.3431   8.6646   8.8942   8.9215   9.0904   9.3036
     9.4969   9.6838  10.0058  10.2525  10.3509  10.6188  11.4378  11.7399

     occupation numbers 
     1.0000   1.0000   1.0000   1.0000   1.0000   1.0000   1.0000   1.0000
     1.0000   1.0000   1.0000   1.0000   1.0000   1.0000   1.0000   1.0000
     1.0000   1.0000   1.0000   1.0000   1.0000   1.0000   1.0000   1.0000
     1.0000   1.0000   1.0000   1.0000   1.0000   1.0000   1.0000   1.0000
     1.0000   1.0000   1.0000   1.0000   1.0000   1.0000   1.0000   1.0000
     1.0000   1.0000   1.0000   1.0000   1.0000   1.0000   1.0000   1.0000
     1.0000   1.0000   1.0000   1.0000   1.0000   1.0000   1.0000   1.0000
     1.0000   1.0000   1.0000   1.0000   1.0000   1.0000   1.0000   1.0000
     1.0000   1.0000   1.0000   1.0000   1.0000   1.0000   1.0000   1.0000

          k =-0.3333 0.1925 0.1461 (  6086 PWs)   bands (ev):

    -9.6448  -8.8907  -8.7713  -8.4848  -7.8593  -7.5707  -7.2013  -7.1784
     1.7612   2.2856   2.6158   2.8331   2.8925   3.0340   3.0909   3.2558
     3.4532   3.5532   3.6999   3.8307   3.8647   3.9681   4.0599   4.2176
     4.2818   4.3879   4.5313   4.7842   4.9467   5.0109   5.1503   5.2117
     5.3360   5.3975   5.4469   5.4889   5.5538   5.6042   5.6621   5.7507
     5.8140   5.9562   6.0663   6.1127   6.3660   6.4025   6.5596   6.5998
     6.7540   6.8645   6.9834   7.1773   7.3120   7.4870   7.6252   7.8567
     8.0281   8.1767   8.2936   8.5668   8.8750   8.9589   9.1138   9.2561
     9.5079   9.6706  10.0622  10.2606  10.3521  10.6231  11.4427  11.7374

     occupation numbers 
     1.0000   1.0000   1.0000   1.0000   1.0000   1.0000   1.0000   1.0000
     1.0000   1.0000   1.0000   1.0000   1.0000   1.0000   1.0000   1.0000
     1.0000   1.0000   1.0000   1.0000   1.0000   1.0000   1.0000   1.0000
     1.0000   1.0000   1.0000   1.0000   1.0000   1.0000   1.0000   1.0000
     1.0000   1.0000   1.0000   1.0000   1.0000   1.0000   1.0000   1.0000
     1.0000   1.0000   1.0000   1.0000   1.0000   1.0000   1.0000   1.0000
     1.0000   1.0000   1.0000   1.0000   1.0000   1.0000   1.0000   1.0000
     1.0000   1.0000   1.0000   1.0000   1.0000   1.0000   1.0000   1.0000
     1.0000   1.0000   1.0000   1.0000   1.0000   1.0000   1.0000   1.0000

          k =-0.3333-0.2887 0.0487 (  6086 PWs)   bands (ev):

    -9.6378  -8.8735  -8.7275  -8.5345  -7.8264  -7.6107  -7.2153  -7.1769
     1.7534   2.2656   2.5889   2.7639   2.8649   2.9795   3.0748   3.2239
     3.4470   3.5461   3.7298   3.8285   3.8560   3.9185   4.0480   4.2875
     4.3448   4.3584   4.4413   4.8624   4.9144   5.0300   5.1526   5.2115
     5.3272   5.4158   5.4561   5.4909   5.5716   5.6432   5.7097   5.7501
     5.8060   5.8926   5.9840   6.1290   6.4087   6.4301   6.5559   6.6749
     6.7502   6.8300   6.9611   7.0979   7.1710   7.5484   7.8592   7.9100
     8.1057   8.3253   8.4780   8.5829   8.8061   8.9773   9.2895   9.3919
     9.4882   9.6906   9.8580  10.0312  10.5333  10.8327  11.3413  11.4621

     occupation numbers 
     1.0000   1.0000   1.0000   1.0000   1.0000   1.0000   1.0000   1.0000
     1.0000   1.0000   1.0000   1.0000   1.0000   1.0000   1.0000   1.0000
     1.0000   1.0000   1.0000   1.0000   1.0000   1.0000   1.0000   1.0000
     1.0000   1.0000   1.0000   1.0000   1.0000   1.0000   1.0000   1.0000
     1.0000   1.0000   1.0000   1.0000   1.0000   1.0000   1.0000   1.0000
     1.0000   1.0000   1.0000   1.0000   1.0000   1.0000   1.0000   1.0000
     1.0000   1.0000   1.0000   1.0000   1.0000   1.0000   1.0000   1.0000
     1.0000   1.0000   1.0000   1.0000   1.0000   1.0000   1.0000   1.0000
     1.0000   1.0000   1.0000   1.0000   1.0000   1.0000   1.0000   1.0000

          k =-0.3333-0.2887 0.0974 (  6094 PWs)   bands (ev):

    -9.6376  -8.8742  -8.7266  -8.5352  -7.8263  -7.6104  -7.2129  -7.1791
     1.7559   2.2732   2.5875   2.7710   2.8560   2.9858   3.0728   3.2183
     3.4374   3.5463   3.7233   3.8254   3.8494   3.9206   4.0459   4.2792
     4.3330   4.3722   4.4508   4.8346   4.9323   5.0219   5.1637   5.1994
     5.3324   5.4176   5.4514   5.4922   5.5636   5.6707   5.6986   5.7370
     5.8187   5.9289   5.9875   6.1265   6.3633   6.4417   6.5468   6.6583
     6.7649   6.8083   7.0267   7.1172   7.2782   7.5464   7.8797   7.9086
     8.0778   8.2764   8.4169   8.5898   8.7301   8.9207   9.2684   9.3758
     9.4834   9.6892   9.9427  10.0746  10.5570  10.8328  11.3581  11.4610

     occupation numbers 
     1.0000   1.0000   1.0000   1.0000   1.0000   1.0000   1.0000   1.0000
     1.0000   1.0000   1.0000   1.0000   1.0000   1.0000   1.0000   1.0000
     1.0000   1.0000   1.0000   1.0000   1.0000   1.0000   1.0000   1.0000
     1.0000   1.0000   1.0000   1.0000   1.0000   1.0000   1.0000   1.0000
     1.0000   1.0000   1.0000   1.0000   1.0000   1.0000   1.0000   1.0000
     1.0000   1.0000   1.0000   1.0000   1.0000   1.0000   1.0000   1.0000
     1.0000   1.0000   1.0000   1.0000   1.0000   1.0000   1.0000   1.0000
     1.0000   1.0000   1.0000   1.0000   1.0000   1.0000   1.0000   1.0000
     1.0000   1.0000   1.0000   1.0000   1.0000   1.0000   1.0000   1.0000

          k =-0.3333-0.0962 0.0000 (  6075 PWs)   bands (ev):

    -9.6558  -8.8975  -8.8271  -8.4288  -7.8555  -7.5726  -7.2040  -7.1655
     1.7746   2.2920   2.6967   2.8557   2.9864   3.0814   3.1819   3.2344
     3.4807   3.5377   3.6805   3.7936   3.8592   3.9498   4.0770   4.1554
     4.3338   4.5253   4.6015   4.8449   4.9004   4.9814   5.0351   5.1549
     5.2438   5.3129   5.4024   5.4464   5.4793   5.6179   5.6719   5.7029
     5.7919   5.8657   6.0774   6.2100   6.3537   6.4627   6.5234   6.7267
     6.8439   6.9899   7.0471   7.1596   7.3389   7.4883   7.6563   7.8512
     7.9930   8.3044   8.3207   8.5290   8.8240   8.9132   9.1306   9.2183
     9.3819   9.6763   9.7990   9.9877  10.4355  10.6858  11.1159  11.4044

     occupation numbers 
     1.0000   1.0000   1.0000   1.0000   1.0000   1.0000   1.0000   1.0000
     1.0000   1.0000   1.0000   1.0000   1.0000   1.0000   1.0000   1.0000
     1.0000   1.0000   1.0000   1.0000   1.0000   1.0000   1.0000   1.0000
     1.0000   1.0000   1.0000   1.0000   1.0000   1.0000   1.0000   1.0000
     1.0000   1.0000   1.0000   1.0000   1.0000   1.0000   1.0000   1.0000
     1.0000   1.0000   1.0000   1.0000   1.0000   1.0000   1.0000   1.0000
     1.0000   1.0000   1.0000   1.0000   1.0000   1.0000   1.0000   1.0000
     1.0000   1.0000   1.0000   1.0000   1.0000   1.0000   1.0000   1.0000
     1.0000   1.0000   1.0000   1.0000   1.0000   1.0000   1.0000   1.0000

          k =-0.3333 0.0962 0.0487 (  6078 PWs)   bands (ev):

    -9.6578  -8.9111  -8.8265  -8.4219  -7.8843  -7.5389  -7.1979  -7.1645
     1.7726   2.2895   2.6880   2.9412   3.0063   3.0709   3.1226   3.2833
     3.4576   3.5336   3.6742   3.8365   3.9167   4.0215   4.1024   4.1867
     4.2878   4.4183   4.6219   4.7237   4.9123   5.0363   5.1345   5.1829
     5.3057   5.3563   5.4014   5.4422   5.4771   5.5312   5.6479   5.7357
     5.8359   5.9219   6.0577   6.1691   6.3715   6.3970   6.5705   6.6390
     6.7903   6.8760   6.9558   7.0493   7.2108   7.4749   7.6427   7.7890
     7.8861   8.1337   8.3508   8.6605   8.7856   8.9520   9.1644   9.3185
     9.5119   9.6916   9.8791  10.0342  10.2815  10.4672  11.4438  11.6853

     occupation numbers 
     1.0000   1.0000   1.0000   1.0000   1.0000   1.0000   1.0000   1.0000
     1.0000   1.0000   1.0000   1.0000   1.0000   1.0000   1.0000   1.0000
     1.0000   1.0000   1.0000   1.0000   1.0000   1.0000   1.0000   1.0000
     1.0000   1.0000   1.0000   1.0000   1.0000   1.0000   1.0000   1.0000
     1.0000   1.0000   1.0000   1.0000   1.0000   1.0000   1.0000   1.0000
     1.0000   1.0000   1.0000   1.0000   1.0000   1.0000   1.0000   1.0000
     1.0000   1.0000   1.0000   1.0000   1.0000   1.0000   1.0000   1.0000
     1.0000   1.0000   1.0000   1.0000   1.0000   1.0000   1.0000   1.0000
     1.0000   1.0000   1.0000   1.0000   1.0000   1.0000   1.0000   1.0000

          k =-0.3333-0.0962-0.0487 (  6078 PWs)   bands (ev):

    -9.6556  -8.9007  -8.8240  -8.4289  -7.8558  -7.5724  -7.2007  -7.1686
     1.7754   2.2951   2.6977   2.8634   2.9811   3.0809   3.1823   3.2267
     3.4589   3.5481   3.6979   3.7982   3.8672   3.9168   4.0660   4.1847
     4.3086   4.5545   4.5912   4.8532   4.9127   4.9594   5.0390   5.1112
     5.2679   5.3198   5.3947   5.4390   5.4889   5.6009   5.6663   5.6997
     5.8167   5.9003   6.0845   6.2118   6.2925   6.4833   6.5446   6.7472
     6.8888   6.9488   7.0448   7.1614   7.3367   7.4830   7.6532   7.8664
     7.9556   8.2527   8.4018   8.5501   8.8288   8.9001   9.0441   9.1967
     9.4012   9.6957   9.8104  10.0175  10.4239  10.6780  11.1260  11.4051

     occupation numbers 
     1.0000   1.0000   1.0000   1.0000   1.0000   1.0000   1.0000   1.0000
     1.0000   1.0000   1.0000   1.0000   1.0000   1.0000   1.0000   1.0000
     1.0000   1.0000   1.0000   1.0000   1.0000   1.0000   1.0000   1.0000
     1.0000   1.0000   1.0000   1.0000   1.0000   1.0000   1.0000   1.0000
     1.0000   1.0000   1.0000   1.0000   1.0000   1.0000   1.0000   1.0000
     1.0000   1.0000   1.0000   1.0000   1.0000   1.0000   1.0000   1.0000
     1.0000   1.0000   1.0000   1.0000   1.0000   1.0000   1.0000   1.0000
     1.0000   1.0000   1.0000   1.0000   1.0000   1.0000   1.0000   1.0000
     1.0000   1.0000   1.0000   1.0000   1.0000   1.0000   1.0000   1.0000

          k = 0.3333 0.0962-0.0487 (  6078 PWs)   bands (ev):

    -9.6556  -8.8997  -8.8253  -8.4289  -7.8550  -7.5725  -7.2044  -7.1653
     1.7763   2.2975   2.6903   2.8530   2.9838   3.0808   3.1747   3.2555
     3.4901   3.5342   3.6582   3.7945   3.8415   3.9763   4.0711   4.1483
     4.3440   4.5057   4.6142   4.8071   4.9014   4.9846   5.0424   5.1628
     5.2508   5.3057   5.4188   5.4502   5.4768   5.6140   5.6613   5.7532
     5.8020   5.8310   6.0737   6.2118   6.3705   6.4733   6.5375   6.7042
     6.8165   7.0285   7.0691   7.1683   7.3467   7.4683   7.6199   7.8678
     7.9593   8.2670   8.3763   8.5145   8.7880   8.8976   9.0813   9.2610
     9.4665   9.6442   9.7832   9.9943  10.4262  10.7274  11.1093  11.3997

     occupation numbers 
     1.0000   1.0000   1.0000   1.0000   1.0000   1.0000   1.0000   1.0000
     1.0000   1.0000   1.0000   1.0000   1.0000   1.0000   1.0000   1.0000
     1.0000   1.0000   1.0000   1.0000   1.0000   1.0000   1.0000   1.0000
     1.0000   1.0000   1.0000   1.0000   1.0000   1.0000   1.0000   1.0000
     1.0000   1.0000   1.0000   1.0000   1.0000   1.0000   1.0000   1.0000
     1.0000   1.0000   1.0000   1.0000   1.0000   1.0000   1.0000   1.0000
     1.0000   1.0000   1.0000   1.0000   1.0000   1.0000   1.0000   1.0000
     1.0000   1.0000   1.0000   1.0000   1.0000   1.0000   1.0000   1.0000
     1.0000   1.0000   1.0000   1.0000   1.0000   1.0000   1.0000   1.0000

          k =-0.3333 0.0962 0.0974 (  6064 PWs)   bands (ev):

    -9.6572  -8.9167  -8.8216  -8.4220  -7.8842  -7.5385  -7.1951  -7.1676
     1.7745   2.2995   2.6779   2.9349   3.0054   3.0751   3.1475   3.2647
     3.4537   3.5370   3.6733   3.8348   3.9119   4.0168   4.0915   4.1636
     4.3102   4.4249   4.6269   4.7078   4.8832   5.0417   5.1445   5.1826
     5.3106   5.3653   5.4031   5.4497   5.4923   5.5238   5.6534   5.7299
     5.7993   5.9716   6.0578   6.1613   6.3284   6.4220   6.5815   6.6607
     6.8028   6.8947   6.9894   7.0921   7.2313   7.4576   7.5528   7.7591
     7.8731   8.1224   8.3995   8.6638   8.8233   8.8922   9.1231   9.2792
     9.4897   9.6953   9.8993  10.1089  10.2820  10.4670  11.4489  11.6814

     occupation numbers 
     1.0000   1.0000   1.0000   1.0000   1.0000   1.0000   1.0000   1.0000
     1.0000   1.0000   1.0000   1.0000   1.0000   1.0000   1.0000   1.0000
     1.0000   1.0000   1.0000   1.0000   1.0000   1.0000   1.0000   1.0000
     1.0000   1.0000   1.0000   1.0000   1.0000   1.0000   1.0000   1.0000
     1.0000   1.0000   1.0000   1.0000   1.0000   1.0000   1.0000   1.0000
     1.0000   1.0000   1.0000   1.0000   1.0000   1.0000   1.0000   1.0000
     1.0000   1.0000   1.0000   1.0000   1.0000   1.0000   1.0000   1.0000
     1.0000   1.0000   1.0000   1.0000   1.0000   1.0000   1.0000   1.0000
     1.0000   1.0000   1.0000   1.0000   1.0000   1.0000   1.0000   1.0000

          k =-0.3333-0.0962-0.0974 (  6064 PWs)   bands (ev):

    -9.6552  -8.9056  -8.8196  -8.4289  -7.8557  -7.5722  -7.1970  -7.1724
     1.7779   2.3041   2.6929   2.8686   2.9709   3.0802   3.1732   3.2452
     3.4447   3.5555   3.6917   3.7998   3.8534   3.9206   4.0478   4.2138
     4.2872   4.5584   4.5998   4.8284   4.9048   4.9444   5.0571   5.1053
     5.2741   5.3229   5.3967   5.4330   5.5007   5.5869   5.6712   5.7052
     5.8356   5.9424   6.0853   6.2212   6.2423   6.5023   6.5890   6.7349
     6.8646   7.0019   7.0585   7.1727   7.3535   7.4509   7.6491   7.7889
     7.9596   8.2211   8.4647   8.5451   8.7923   8.8990   8.9830   9.1929
     9.4276   9.6816   9.8418  10.0427  10.4052  10.7120  11.1291  11.4015

     occupation numbers 
     1.0000   1.0000   1.0000   1.0000   1.0000   1.0000   1.0000   1.0000
     1.0000   1.0000   1.0000   1.0000   1.0000   1.0000   1.0000   1.0000
     1.0000   1.0000   1.0000   1.0000   1.0000   1.0000   1.0000   1.0000
     1.0000   1.0000   1.0000   1.0000   1.0000   1.0000   1.0000   1.0000
     1.0000   1.0000   1.0000   1.0000   1.0000   1.0000   1.0000   1.0000
     1.0000   1.0000   1.0000   1.0000   1.0000   1.0000   1.0000   1.0000
     1.0000   1.0000   1.0000   1.0000   1.0000   1.0000   1.0000   1.0000
     1.0000   1.0000   1.0000   1.0000   1.0000   1.0000   1.0000   1.0000
     1.0000   1.0000   1.0000   1.0000   1.0000   1.0000   1.0000   1.0000

          k = 0.3333 0.0962-0.0974 (  6064 PWs)   bands (ev):

    -9.6551  -8.9048  -8.8208  -8.4289  -7.8549  -7.5723  -7.2015  -7.1683
     1.7787   2.3066   2.6850   2.8565   2.9771   3.0791   3.1691   3.2694
     3.4787   3.5388   3.6478   3.7991   3.8435   3.9575   4.0559   4.1766
     4.3250   4.5140   4.6230   4.7878   4.8950   4.9715   5.0603   5.1290
     5.2719   5.3129   5.4246   5.4457   5.4829   5.5920   5.6749   5.7406
     5.8142   5.9011   6.0635   6.2086   6.3197   6.5084   6.5874   6.7021
     6.8036   7.0372   7.0998   7.2133   7.3282   7.4787   7.5617   7.8320
     7.9188   8.2594   8.3907   8.5532   8.7552   8.9205   9.0345   9.1953
     9.5011   9.6631   9.7856  10.0286  10.4112  10.7582  11.1126  11.3956

     occupation numbers 
     1.0000   1.0000   1.0000   1.0000   1.0000   1.0000   1.0000   1.0000
     1.0000   1.0000   1.0000   1.0000   1.0000   1.0000   1.0000   1.0000
     1.0000   1.0000   1.0000   1.0000   1.0000   1.0000   1.0000   1.0000
     1.0000   1.0000   1.0000   1.0000   1.0000   1.0000   1.0000   1.0000
     1.0000   1.0000   1.0000   1.0000   1.0000   1.0000   1.0000   1.0000
     1.0000   1.0000   1.0000   1.0000   1.0000   1.0000   1.0000   1.0000
     1.0000   1.0000   1.0000   1.0000   1.0000   1.0000   1.0000   1.0000
     1.0000   1.0000   1.0000   1.0000   1.0000   1.0000   1.0000   1.0000
     1.0000   1.0000   1.0000   1.0000   1.0000   1.0000   1.0000   1.0000

          k =-0.3333-0.0962 0.1461 (  6064 PWs)   bands (ev):

    -9.6549  -8.9076  -8.8182  -8.4290  -7.8552  -7.5722  -7.1975  -7.1722
     1.7795   2.3100   2.6864   2.8640   2.9698   3.0789   3.1682   3.2659
     3.4538   3.5516   3.6623   3.7992   3.8565   3.9284   4.0436   4.2109
     4.2945   4.5374   4.6181   4.7985   4.8907   4.9540   5.0693   5.1125
     5.2724   5.3231   5.4106   5.4346   5.4979   5.5830   5.6850   5.7118
     5.8248   5.9800   6.0497   6.2109   6.2637   6.5143   6.6258   6.6997
     6.8262   7.0288   7.0970   7.2125   7.3516   7.4515   7.6096   7.7328
     7.9472   8.2392   8.4133   8.5797   8.7927   8.8690   9.0309   9.1566
     9.4602   9.6723   9.8327  10.0485  10.4018  10.7507  11.1223  11.3966

     occupation numbers 
     1.0000   1.0000   1.0000   1.0000   1.0000   1.0000   1.0000   1.0000
     1.0000   1.0000   1.0000   1.0000   1.0000   1.0000   1.0000   1.0000
     1.0000   1.0000   1.0000   1.0000   1.0000   1.0000   1.0000   1.0000
     1.0000   1.0000   1.0000   1.0000   1.0000   1.0000   1.0000   1.0000
     1.0000   1.0000   1.0000   1.0000   1.0000   1.0000   1.0000   1.0000
     1.0000   1.0000   1.0000   1.0000   1.0000   1.0000   1.0000   1.0000
     1.0000   1.0000   1.0000   1.0000   1.0000   1.0000   1.0000   1.0000
     1.0000   1.0000   1.0000   1.0000   1.0000   1.0000   1.0000   1.0000
     1.0000   1.0000   1.0000   1.0000   1.0000   1.0000   1.0000   1.0000

          k =-0.3333 0.0000 0.0487 (  6100 PWs)   bands (ev):

    -9.6629  -8.9169  -8.8468  -8.3999  -7.8826  -7.5387  -7.1979  -7.1600
     1.7810   2.3031   2.7212   2.9783   3.0151   3.1126   3.1496   3.3436
     3.4036   3.5218   3.6681   3.8241   3.8817   4.0168   4.0976   4.1637
     4.3609   4.4733   4.6525   4.7559   4.8813   5.0239   5.1031   5.1879
     5.2663   5.2721   5.3639   5.4064   5.4610   5.5528   5.6407   5.7288
     5.7711   5.8335   6.0644   6.2391   6.4144   6.4746   6.5405   6.6499
     6.7762   6.9368   6.9786   7.1443   7.3167   7.3535   7.6308   7.8416
     8.0344   8.1052   8.2836   8.6193   8.8075   8.9370   9.0889   9.2691
     9.4640   9.7050   9.7727   9.9186  10.2525  10.5546  11.3081  11.5096

     occupation numbers 
     1.0000   1.0000   1.0000   1.0000   1.0000   1.0000   1.0000   1.0000
     1.0000   1.0000   1.0000   1.0000   1.0000   1.0000   1.0000   1.0000
     1.0000   1.0000   1.0000   1.0000   1.0000   1.0000   1.0000   1.0000
     1.0000   1.0000   1.0000   1.0000   1.0000   1.0000   1.0000   1.0000
     1.0000   1.0000   1.0000   1.0000   1.0000   1.0000   1.0000   1.0000
     1.0000   1.0000   1.0000   1.0000   1.0000   1.0000   1.0000   1.0000
     1.0000   1.0000   1.0000   1.0000   1.0000   1.0000   1.0000   1.0000
     1.0000   1.0000   1.0000   1.0000   1.0000   1.0000   1.0000   1.0000
     1.0000   1.0000   1.0000   1.0000   1.0000   1.0000   1.0000   1.0000

          k =-0.3333 0.0000 0.0974 (  6073 PWs)   bands (ev):

    -9.6623  -8.9243  -8.8401  -8.3998  -7.8825  -7.5385  -7.1948  -7.1633
     1.7831   2.3134   2.7117   2.9632   3.0243   3.1160   3.1597   3.3232
     3.4162   3.5360   3.6546   3.8287   3.8891   3.9810   4.0916   4.1689
     4.3663   4.4751   4.6623   4.7350   4.8512   5.0159   5.1275   5.1794
     5.2689   5.2900   5.3665   5.3960   5.4669   5.5625   5.6312   5.7255
     5.7726   5.9008   6.0579   6.2276   6.3504   6.5004   6.5464   6.6987
     6.8255   6.9613   7.0110   7.1460   7.2417   7.3312   7.5860   7.8507
     7.9857   8.1476   8.2784   8.6325   8.8130   8.9675   9.0294   9.2389
     9.4535   9.6714   9.7986   9.9933  10.2182  10.5868  11.3069  11.5029

     occupation numbers 
     1.0000   1.0000   1.0000   1.0000   1.0000   1.0000   1.0000   1.0000
     1.0000   1.0000   1.0000   1.0000   1.0000   1.0000   1.0000   1.0000
     1.0000   1.0000   1.0000   1.0000   1.0000   1.0000   1.0000   1.0000
     1.0000   1.0000   1.0000   1.0000   1.0000   1.0000   1.0000   1.0000
     1.0000   1.0000   1.0000   1.0000   1.0000   1.0000   1.0000   1.0000
     1.0000   1.0000   1.0000   1.0000   1.0000   1.0000   1.0000   1.0000
     1.0000   1.0000   1.0000   1.0000   1.0000   1.0000   1.0000   1.0000
     1.0000   1.0000   1.0000   1.0000   1.0000   1.0000   1.0000   1.0000
     1.0000   1.0000   1.0000   1.0000   1.0000   1.0000   1.0000   1.0000

          k = 0.5000 0.1925 0.0487 (  6092 PWs)   bands (ev):

    -9.5302  -8.7434  -8.6298  -8.4196  -7.7209  -7.5411  -7.1331  -7.0984
     1.7619   2.2085   2.6319   2.7353   2.8031   2.9253   3.0711   3.2119
     3.5655   3.5864   3.6868   3.7213   3.8318   4.0245   4.0516   4.3254
     4.3704   4.4655   4.5338   4.9088   5.0355   5.0803   5.2047   5.2694
     5.3485   5.4896   5.5371   5.5953   5.6564   5.6797   5.7146   5.8025
     5.8710   5.9978   6.1065   6.1742   6.2448   6.4264   6.4816   6.5425
     6.6743   6.7231   6.8038   7.0120   7.1578   7.3595   7.6890   7.7782
     7.8167   8.0206   8.2563   8.3756   8.6618   8.9238   9.0640   9.1802
     9.3017   9.5017   9.7577   9.8876  10.2211  10.6164  11.2195  11.3377

     occupation numbers 
     1.0000   1.0000   1.0000   1.0000   1.0000   1.0000   1.0000   1.0000
     1.0000   1.0000   1.0000   1.0000   1.0000   1.0000   1.0000   1.0000
     1.0000   1.0000   1.0000   1.0000   1.0000   1.0000   1.0000   1.0000
     1.0000   1.0000   1.0000   1.0000   1.0000   1.0000   1.0000   1.0000
     1.0000   1.0000   1.0000   1.0000   1.0000   1.0000   1.0000   1.0000
     1.0000   1.0000   1.0000   1.0000   1.0000   1.0000   1.0000   1.0000
     1.0000   1.0000   1.0000   1.0000   1.0000   1.0000   1.0000   1.0000
     1.0000   1.0000   1.0000   1.0000   1.0000   1.0000   1.0000   1.0000
     1.0000   1.0000   1.0000   1.0000   1.0000   1.0000   1.0000   1.0000

          k = 0.5000 0.1925 0.0974 (  6098 PWs)   bands (ev):

    -9.5301  -8.7424  -8.6311  -8.4196  -7.7206  -7.5412  -7.1332  -7.0983
     1.7642   2.2186   2.6287   2.7404   2.7930   2.9217   3.0691   3.2232
     3.5634   3.5803   3.6815   3.7128   3.8112   4.0250   4.0704   4.3190
     4.3758   4.4610   4.5432   4.9021   5.0463   5.0809   5.1904   5.2736
     5.3719   5.4820   5.5360   5.6127   5.6297   5.6859   5.7213   5.7841
     5.8611   6.0008   6.1237   6.1738   6.2303   6.4347   6.5016   6.5408
     6.6561   6.7289   6.8173   6.9599   7.1430   7.4149   7.6794   7.8098
     7.9003   8.0383   8.2464   8.3810   8.6327   8.8172   9.0593   9.1380
     9.3072   9.5258   9.7609   9.9042  10.2267  10.6094  11.2330  11.3441

     occupation numbers 
     1.0000   1.0000   1.0000   1.0000   1.0000   1.0000   1.0000   1.0000
     1.0000   1.0000   1.0000   1.0000   1.0000   1.0000   1.0000   1.0000
     1.0000   1.0000   1.0000   1.0000   1.0000   1.0000   1.0000   1.0000
     1.0000   1.0000   1.0000   1.0000   1.0000   1.0000   1.0000   1.0000
     1.0000   1.0000   1.0000   1.0000   1.0000   1.0000   1.0000   1.0000
     1.0000   1.0000   1.0000   1.0000   1.0000   1.0000   1.0000   1.0000
     1.0000   1.0000   1.0000   1.0000   1.0000   1.0000   1.0000   1.0000
     1.0000   1.0000   1.0000   1.0000   1.0000   1.0000   1.0000   1.0000
     1.0000   1.0000   1.0000   1.0000   1.0000   1.0000   1.0000   1.0000

          k = 0.5000 0.0962 0.0487 (  6080 PWs)   bands (ev):

    -9.5336  -8.7467  -8.6339  -8.4221  -7.7258  -7.5487  -7.1267  -7.1016
     1.7843   2.2341   2.6953   2.8798   2.9116   3.0095   3.1307   3.2649
     3.4932   3.5917   3.6660   3.6871   3.8753   3.9715   4.1334   4.2871
     4.4251   4.5230   4.6661   4.8205   4.9450   5.0265   5.1541   5.1797
     5.3116   5.3794   5.4582   5.4898   5.6068   5.6297   5.7253   5.8035
     5.9046   6.0881   6.1254   6.2175   6.3042   6.3793   6.4679   6.6041
     6.7910   6.8812   6.9598   7.1705   7.2619   7.4626   7.5525   7.7189
     7.8187   8.0260   8.1528   8.2747   8.5424   8.7392   8.8502   9.0413
     9.1583   9.4198   9.5309   9.7606  10.2131  10.4882  11.0022  11.1871

     occupation numbers 
     1.0000   1.0000   1.0000   1.0000   1.0000   1.0000   1.0000   1.0000
     1.0000   1.0000   1.0000   1.0000   1.0000   1.0000   1.0000   1.0000
     1.0000   1.0000   1.0000   1.0000   1.0000   1.0000   1.0000   1.0000
     1.0000   1.0000   1.0000   1.0000   1.0000   1.0000   1.0000   1.0000
     1.0000   1.0000   1.0000   1.0000   1.0000   1.0000   1.0000   1.0000
     1.0000   1.0000   1.0000   1.0000   1.0000   1.0000   1.0000   1.0000
     1.0000   1.0000   1.0000   1.0000   1.0000   1.0000   1.0000   1.0000
     1.0000   1.0000   1.0000   1.0000   1.0000   1.0000   1.0000   1.0000
     1.0000   1.0000   1.0000   1.0000   1.0000   1.0000   1.0000   1.0000

          k = 0.5000 0.0962 0.0974 (  6086 PWs)   bands (ev):

    -9.5335  -8.7456  -8.6352  -8.4221  -7.7255  -7.5488  -7.1268  -7.1015
     1.7865   2.2441   2.6920   2.8734   2.9034   3.0166   3.1344   3.2678
     3.5123   3.5643   3.6606   3.6861   3.8596   3.9706   4.1477   4.2803
     4.4150   4.5384   4.6740   4.7993   4.9692   5.0205   5.1105   5.1917
     5.3232   5.3677   5.4647   5.4931   5.5994   5.6595   5.7229   5.7978
     5.9019   6.0718   6.1441   6.2318   6.3102   6.3760   6.5013   6.5749
     6.7627   6.8443   6.9942   7.1937   7.2544   7.4787   7.5932   7.7415
     7.8759   8.0080   8.1330   8.2470   8.5478   8.7338   8.7888   8.9630
     9.1664   9.4518   9.5723   9.7416  10.1965  10.4994  11.0002  11.2037

     occupation numbers 
     1.0000   1.0000   1.0000   1.0000   1.0000   1.0000   1.0000   1.0000
     1.0000   1.0000   1.0000   1.0000   1.0000   1.0000   1.0000   1.0000
     1.0000   1.0000   1.0000   1.0000   1.0000   1.0000   1.0000   1.0000
     1.0000   1.0000   1.0000   1.0000   1.0000   1.0000   1.0000   1.0000
     1.0000   1.0000   1.0000   1.0000   1.0000   1.0000   1.0000   1.0000
     1.0000   1.0000   1.0000   1.0000   1.0000   1.0000   1.0000   1.0000
     1.0000   1.0000   1.0000   1.0000   1.0000   1.0000   1.0000   1.0000
     1.0000   1.0000   1.0000   1.0000   1.0000   1.0000   1.0000   1.0000
     1.0000   1.0000   1.0000   1.0000   1.0000   1.0000   1.0000   1.0000

     highest occupied level (ev):    12.3924

!    total energy              =   -1444.99781789 Ry
     estimated scf accuracy    <          6.1E-09 Ry

     The total energy is the sum of the following terms:
     one-electron contribution =    -537.86320616 Ry
     hartree contribution      =     451.10501648 Ry
     xc contribution           =    -441.06026148 Ry
     ewald contribution        =    -917.17936674 Ry

     convergence has been achieved in  33 iterations

     Forces acting on atoms (cartesian axes, Ry/au):

     atom    1 type  1   force =     0.16992699   -0.08495330   -0.04228912
     atom    2 type  1   force =     0.10617639   -0.56961024    0.53010763
     atom    3 type  2   force =     0.04140827    0.09648394    0.10678819
     atom    4 type  2   force =    -0.18337274    0.14822293   -0.12805446
     atom    5 type  1   force =    -0.01102871   -0.01108233   -0.22864363
     atom    6 type  1   force =    -0.01848004   -0.06484654    0.09180505
     atom    7 type  2   force =    -0.27933153   -0.28054046    0.20136721
     atom    8 type  2   force =    -0.00996636   -0.43466834   -0.27664639
     atom    9 type  1   force =    -0.16438069   -0.12659916    0.06172751
     atom   10 type  1   force =     0.07817214    0.06340286   -0.66811408
     atom   11 type  2   force =    -0.08354801    0.01795682   -0.00223488
     atom   12 type  2   force =     0.11164156    0.08306741    0.51898119
     atom   13 type  1   force =    -0.30090358    0.21998437    0.03123595
     atom   14 type  1   force =     0.06767699   -0.05618574    0.15237866
     atom   15 type  2   force =     0.13219850    0.78110769   -0.11739140
     atom   16 type  2   force =     0.34381083    0.21826008   -0.23101744
     The non-local contrib.  to forces
     atom    1 type  1   force =     0.26185235   -0.56286446    0.09342206
     atom    2 type  1   force =     0.23575483   -0.28213508    0.67834669
     atom    3 type  2   force =    -0.09474603   -0.36385702    0.25459459
     atom    4 type  2   force =     0.06129753   -0.12765993    0.28392501
     atom    5 type  1   force =     0.02452724    0.12724367   -0.35716214
     atom    6 type  1   force =    -0.04928515   -0.13877156    0.23084105
     atom    7 type  2   force =     0.36136439   -0.00821948   -0.05566789
     atom    8 type  2   force =    -0.18876864   -0.00658224   -0.28749611
     atom    9 type  1   force =    -0.32333000    0.07419253    0.14925109
     atom   10 type  1   force =     0.21644687    0.06257249   -0.57420284
     atom   11 type  2   force =     0.16606471    0.16434893    0.03322390
     atom   12 type  2   force =    -0.05372537   -0.05857268    0.03892732
     atom   13 type  1   force =    -0.42666737    0.18130562    0.03296893
     atom   14 type  1   force =     0.13594253   -0.15577494    0.32976324
     atom   15 type  2   force =    -0.10036277    0.06537318    0.52360812
     atom   16 type  2   force =    -0.19921172    0.09385651   -0.04380255
     The ionic contribution  to forces
     atom    1 type  1   force =     2.61138440    0.13045627    1.25795610
     atom    2 type  1   force =     2.13025445  -10.79202909   14.47467068
     atom    3 type  2   force =     1.36145355    2.98179954    2.58528466
     atom    4 type  2   force =    -2.28529490    1.85583743   -1.84654721
     atom    5 type  1   force =     0.00935842   -5.50691421  -12.68231096
     atom    6 type  1   force =    -0.87944630   -1.90850025    4.41899733
     atom    7 type  2   force =    -4.45414363   -7.59735932    4.83181269
     atom    8 type  2   force =     0.50579738   -5.59860008   -9.02521974
     atom    9 type  1   force =    -3.27241434   -3.33835336    6.11432420
     atom   10 type  1   force =     1.52429719    8.54406115   -6.40978278
     atom   11 type  2   force =    -2.10562989   -0.88544687    1.80263604
     atom   12 type  2   force =     1.77323773    1.72721719    5.42501768
     atom   13 type  1   force =    -4.02861895    8.17983642  -10.74799906
     atom   14 type  1   force =     1.74680583   -0.75938468    9.47166582
     atom   15 type  2   force =     1.28246475    9.65335591   -1.49175193
     atom   16 type  2   force =     4.08049432    3.31402395   -8.17875350
     The local contribution  to forces
     atom    1 type  1   force =    -2.67331591    0.30737284   -1.39610875
     atom    2 type  1   force =    -2.23081845   10.43583324  -14.52785531
     atom    3 type  2   force =    -1.22582902   -2.52414210   -2.73035396
     atom    4 type  2   force =     2.04018108   -1.58032017    1.43621757
     atom    5 type  1   force =    -0.04548421    5.37294775   12.76804853
     atom    6 type  1   force =     0.90495235    1.96710935   -4.53216282
     atom    7 type  2   force =     3.81515932    7.32314011   -4.57395673
     atom    8 type  2   force =    -0.32879180    5.16821796    9.03184867
     atom    9 type  1   force =     3.39558742    3.12829151   -6.18919743
     atom   10 type  1   force =    -1.64190650   -8.52716514    6.22158556
     atom   11 type  2   force =     1.85697081    0.74057137   -1.83792547
     atom   12 type  2   force =    -1.60765244   -1.58561894   -4.94217361
     atom   13 type  1   force =     4.09647793   -8.10527823   10.74882922
     atom   14 type  1   force =    -1.79945718    0.84499978   -9.60730170
     atom   15 type  2   force =    -1.05030913   -8.93336811    0.85519624
     atom   16 type  2   force =    -3.53761338   -3.18767553    7.98965902
     The core correction contribution to forces
     atom    1 type  1   force =    -0.02999971    0.04012518    0.00240880
     atom    2 type  1   force =    -0.02901269    0.06876824   -0.09499134
     atom    3 type  2   force =     0.00053092    0.00269141   -0.00281904
     atom    4 type  2   force =     0.00044418    0.00037149   -0.00167302
     atom    5 type  1   force =     0.00057504   -0.00428198    0.04291357
     atom    6 type  1   force =     0.00530111    0.01533623   -0.02603183
     atom    7 type  2   force =    -0.00171033    0.00193065   -0.00076244
     atom    8 type  2   force =     0.00179775    0.00229011    0.00426530
     atom    9 type  1   force =     0.03576914    0.00923401   -0.01265675
     atom   10 type  1   force =    -0.02066910   -0.01610495    0.09436113
     atom   11 type  2   force =    -0.00095320   -0.00152297   -0.00024524
     atom   12 type  2   force =    -0.00021898    0.00003378   -0.00280021
     atom   13 type  1   force =     0.05788092   -0.03597715   -0.00242226
     atom   14 type  1   force =    -0.01561754    0.01396174   -0.04191468
     atom   15 type  2   force =     0.00040678   -0.00428827   -0.00437762
     atom   16 type  2   force =     0.00014568   -0.00194366    0.00191605
     The Hubbard contrib.    to forces
     atom    1 type  1   force =     0.00000000    0.00000000    0.00000000
     atom    2 type  1   force =     0.00000000    0.00000000    0.00000000
     atom    3 type  2   force =     0.00000000    0.00000000    0.00000000
     atom    4 type  2   force =     0.00000000    0.00000000    0.00000000
     atom    5 type  1   force =     0.00000000    0.00000000    0.00000000
     atom    6 type  1   force =     0.00000000    0.00000000    0.00000000
     atom    7 type  2   force =     0.00000000    0.00000000    0.00000000
     atom    8 type  2   force =     0.00000000    0.00000000    0.00000000
     atom    9 type  1   force =     0.00000000    0.00000000    0.00000000
     atom   10 type  1   force =     0.00000000    0.00000000    0.00000000
     atom   11 type  2   force =     0.00000000    0.00000000    0.00000000
     atom   12 type  2   force =     0.00000000    0.00000000    0.00000000
     atom   13 type  1   force =     0.00000000    0.00000000    0.00000000
     atom   14 type  1   force =     0.00000000    0.00000000    0.00000000
     atom   15 type  2   force =     0.00000000    0.00000000    0.00000000
     atom   16 type  2   force =     0.00000000    0.00000000    0.00000000
     The SCF correction term to forces
     atom    1 type  1   force =     0.00000685   -0.00004287    0.00003240
     atom    2 type  1   force =    -0.00000077   -0.00004727   -0.00006335
     atom    3 type  2   force =    -0.00000015   -0.00000762    0.00008168
     atom    4 type  2   force =     0.00000035   -0.00000563    0.00002293
     atom    5 type  1   force =    -0.00000422   -0.00007730   -0.00013290
     atom    6 type  1   force =    -0.00000106   -0.00002005    0.00016107
     atom    7 type  2   force =    -0.00000030   -0.00003215   -0.00005868
     atom    8 type  2   force =    -0.00000007    0.00000619   -0.00004478
     atom    9 type  1   force =     0.00000808    0.00003642    0.00000614
     atom   10 type  1   force =     0.00000468    0.00003958   -0.00007542
     atom   11 type  2   force =     0.00000055    0.00000662    0.00007563
     atom   12 type  2   force =     0.00000160    0.00000832    0.00000975
     atom   13 type  1   force =     0.00002489    0.00009798   -0.00014115
     atom   14 type  1   force =     0.00000432    0.00001262    0.00016571
     atom   15 type  2   force =    -0.00000015    0.00003524   -0.00006647
     atom   16 type  2   force =    -0.00000309   -0.00000091   -0.00003672

     Total force =     1.763019     Total SCF correction =     0.000390

     init_run     :     13.15s CPU      8.31s WALL (       1 calls)
     electrons    :   1172.17s CPU    763.99s WALL (       1 calls)
     forces       :      5.12s CPU      3.11s WALL (       1 calls)

     Called by init_run:
     wfcinit      :      9.90s CPU      5.86s WALL (       1 calls)
     wfcinit:atom :      0.07s CPU      0.06s WALL (      14 calls)
     wfcinit:wfcr :      9.39s CPU      5.42s WALL (      14 calls)
     potinit      :      1.00s CPU      0.63s WALL (       1 calls)
     hinit0       :      1.98s CPU      1.59s WALL (       1 calls)

     Called by electrons:
     c_bands      :   1011.50s CPU    655.25s WALL (      33 calls)
     sum_band     :    147.00s CPU     99.33s WALL (      33 calls)
     v_of_rho     :      5.92s CPU      3.83s WALL (      34 calls)
     v_h          :      0.32s CPU      0.22s WALL (      34 calls)
     v_xc         :      5.74s CPU      3.70s WALL (      35 calls)
     newd         :      6.54s CPU      4.65s WALL (      34 calls)
     mix_rho      :      0.77s CPU      0.58s WALL (      33 calls)

     Called by c_bands:
     init_us_2    :      5.14s CPU      3.13s WALL (     952 calls)
     init_us_2:cp :      5.12s CPU      3.12s WALL (     952 calls)
     cegterg      :    934.58s CPU    593.16s WALL (     462 calls)

     Called by sum_band:
     sum_band:wei :      0.02s CPU      0.02s WALL (      33 calls)
     sum_band:loo :    129.12s CPU     84.16s WALL (      33 calls)
     sum_band:buf :      0.62s CPU      0.36s WALL (     462 calls)
     sum_band:ini :      1.78s CPU      0.96s WALL (     462 calls)
     sum_band:cal :     14.55s CPU      7.93s WALL (     462 calls)
     sum_band:bec :      2.57s CPU      2.19s WALL (     462 calls)
     addusdens    :      8.17s CPU      6.27s WALL (      33 calls)
     addusd:skk   :      0.08s CPU      0.06s WALL (      66 calls)
     addusd:dgemm :      0.74s CPU      0.39s WALL (      66 calls)
     addusd:qvan2 :      4.53s CPU      3.39s WALL (      66 calls)

     Called by *egterg:
     cdiaghg      :     79.83s CPU     66.24s WALL (    3760 calls)
     cegterg:over :     55.91s CPU     31.53s WALL (    3298 calls)
     cegterg:upda :     36.08s CPU     22.43s WALL (    3298 calls)
     cegterg:last :     51.43s CPU     29.58s WALL (    1152 calls)
     cdiaghg:chol :      3.71s CPU      3.19s WALL (    3760 calls)
     cdiaghg:inve :      1.28s CPU      1.04s WALL (    3760 calls)
     cdiaghg:para :     12.06s CPU      9.42s WALL (    7520 calls)
     h_psi        :    645.80s CPU    404.81s WALL (    3774 calls)
     s_psi        :     42.30s CPU     20.91s WALL (    3774 calls)
     g_psi        :      5.54s CPU      4.63s WALL (    3298 calls)

     Called by h_psi:
     h_psi:calbec :     55.91s CPU     29.28s WALL (    3774 calls)
     vloc_psi     :    543.58s CPU    349.92s WALL (    3774 calls)
     add_vuspsi   :     40.98s CPU     21.28s WALL (    3774 calls)

     General routines
     calbec       :     72.24s CPU     38.22s WALL (    4292 calls)
     fft          :      5.18s CPU      4.09s WALL (     451 calls)
     ffts         :      0.44s CPU      0.35s WALL (      67 calls)
     fftw         :    545.58s CPU    344.70s WALL (  227324 calls)
     interpolate  :      0.51s CPU      0.40s WALL (      34 calls)

     Parallel routines

     PWSCF        :  19m51.12s CPU  12m56.08s WALL


   This run was terminated on:  18:37:32   1Oct2025            

=------------------------------------------------------------------------------=
   JOB DONE.
=------------------------------------------------------------------------------=
Note: The following floating-point exceptions are signalling: IEEE_UNDERFLOW_FLAG IEEE_DENORMAL
Note: The following floating-point exceptions are signalling: IEEE_UNDERFLOW_FLAG IEEE_DENORMAL
Note: The following floating-point exceptions are signalling: IEEE_UNDERFLOW_FLAG IEEE_DENORMAL
Note: The following floating-point exceptions are signalling: IEEE_UNDERFLOW_FLAG IEEE_DENORMAL
Note: The following floating-point exceptions are signalling: IEEE_UNDERFLOW_FLAG IEEE_DENORMAL
Note: The following floating-point exceptions are signalling: IEEE_UNDERFLOW_FLAG IEEE_DENORMAL
Note: The following floating-point exceptions are signalling: IEEE_UNDERFLOW_FLAG IEEE_DENORMAL
Note: The following floating-point exceptions are signalling: IEEE_UNDERFLOW_FLAG IEEE_DENORMAL
Note: The following floating-point exceptions are signalling: IEEE_UNDERFLOW_FLAG IEEE_DENORMAL
Note: The following floating-point exceptions are signalling: IEEE_UNDERFLOW_FLAG IEEE_DENORMAL
Note: The following floating-point exceptions are signalling: IEEE_UNDERFLOW_FLAG IEEE_DENORMAL
Note: The following floating-point exceptions are signalling: IEEE_UNDERFLOW_FLAG IEEE_DENORMAL
Note: The following floating-point exceptions are signalling: IEEE_UNDERFLOW_FLAG IEEE_DENORMAL
Note: The following floating-point exceptions are signalling: IEEE_UNDERFLOW_FLAG IEEE_DENORMAL
Note: The following floating-point exceptions are signalling: IEEE_UNDERFLOW_FLAG IEEE_DENORMAL
Note: The following floating-point exceptions are signalling: IEEE_UNDERFLOW_FLAG IEEE_DENORMAL
Note: The following floating-point exceptions are signalling: IEEE_UNDERFLOW_FLAG IEEE_DENORMAL
Note: The following floating-point exceptions are signalling: IEEE_UNDERFLOW_FLAG IEEE_DENORMAL
Note: The following floating-point exceptions are signalling: IEEE_UNDERFLOW_FLAG IEEE_DENORMAL
Note: The following floating-point exceptions are signalling: IEEE_UNDERFLOW_FLAG IEEE_DENORMAL
Note: The following floating-point exceptions are signalling: IEEE_UNDERFLOW_FLAG IEEE_DENORMAL
Note: The following floating-point exceptions are signalling: IEEE_UNDERFLOW_FLAG IEEE_DENORMAL
Note: The following floating-point exceptions are signalling: IEEE_UNDERFLOW_FLAG IEEE_DENORMAL
Note: The following floating-point exceptions are signalling: IEEE_UNDERFLOW_FLAG IEEE_DENORMAL
Note: The following floating-point exceptions are signalling: IEEE_UNDERFLOW_FLAG IEEE_DENORMAL
Note: The following floating-point exceptions are signalling: IEEE_UNDERFLOW_FLAG IEEE_DENORMAL
Note: The following floating-point exceptions are signalling: IEEE_UNDERFLOW_FLAG IEEE_DENORMAL
Note: The following floating-point exceptions are signalling: IEEE_UNDERFLOW_FLAG IEEE_DENORMAL
Note: The following floating-point exceptions are signalling: IEEE_UNDERFLOW_FLAG IEEE_DENORMAL
Note: The following floating-point exceptions are signalling: IEEE_UNDERFLOW_FLAG IEEE_DENORMAL
Note: The following floating-point exceptions are signalling: IEEE_UNDERFLOW_FLAG IEEE_DENORMAL
Note: The following floating-point exceptions are signalling: IEEE_UNDERFLOW_FLAG IEEE_DENORMAL
