
     Program PWSCF v.7.5 starts on 22Nov2025 at 17:53: 1 

     This program is part of the open-source Quantum ESPRESSO suite
     for quantum simulation of materials; please cite
         "P. Giannozzi et al., J. Phys.:Condens. Matter 21 395502 (2009);
         "P. Giannozzi et al., J. Phys.:Condens. Matter 29 465901 (2017);
         "P. Giannozzi et al., J. Chem. Phys. 152 154105 (2020);
          URL http://www.quantum-espresso.org", 
     in publications or presentations arising from this work. More details at
     http://www.quantum-espresso.org/quote

     Parallel version (MPI), running on    16 processors

     MPI processes distributed on     1 nodes
     63737 MiB available memory on the printing compute node when the environment starts
 
     Waiting for input...
     Reading input from standard input

     Current dimensions of program PWSCF are:
     Max number of different atomic species (ntypx) = 10
     Max number of k-points (npk) =  40000
     Max angular momentum in pseudopotentials (lmaxx) =  4
scan_end: No INFO end statement, corrupted file?
scan_end: No INFO end statement, corrupted file?
     Message from routine setup:
     no reason to have ecutrho>4*ecutwfc
 
     R & G space division:  proc/nbgrp/npool/nimage =      16
     Subspace diagonalization in iterative solution of the eigenvalue problem:
     a serial algorithm will be used

 
     Parallelization info
     --------------------
     sticks:   dense  smooth     PW     G-vecs:    dense   smooth      PW
     Min          56      45     13                 2194     1571     249
     Max          58      46     14                 2197     1576     254
     Sum         913     721    211                35123    25169    4031
 
     Using Slab Decomposition
 


     bravais-lattice index     =            4
     lattice parameter (alat)  =       6.1003  a.u.
     unit-cell volume          =     317.5095 (a.u.)^3
     number of atoms/cell      =            4
     number of atomic types    =            2
     number of electrons       =        36.00
     number of Kohn-Sham states=           36
     kinetic-energy cutoff     =      70.0000  Ry
     charge density cutoff     =     350.0000  Ry
     scf convergence threshold =      1.0E-09
     mixing beta               =       0.1000
     number of iterations used =            8  local-TF  mixing
     Exchange-correlation= SLA  PW   PBE  PBE
                           (   1   4   3   4   0   0   0)

     celldm(1)=   6.100300  celldm(2)=   0.000000  celldm(3)=   1.615000
     celldm(4)=   0.000000  celldm(5)=   0.000000  celldm(6)=   0.000000

     crystal axes: (cart. coord. in units of alat)
               a(1) = (   1.000000   0.000000   0.000000 )  
               a(2) = (  -0.500000   0.866025   0.000000 )  
               a(3) = (   0.000000   0.000000   1.615000 )  

     reciprocal axes: (cart. coord. in units 2 pi/alat)
               b(1) = (  1.000000  0.577350  0.000000 )  
               b(2) = (  0.000000  1.154701  0.000000 )  
               b(3) = (  0.000000  0.000000  0.619195 )  


     PseudoPot. # 1 for Zn read from file:
     ../pseudos_PBE_Opium/Zn.upf
     MD5 check sum: 2d924c7d9f8796048ba68707c56a506a
     Pseudo is Norm-conserving, Zval = 12.0
     Generated by new atomic code, or converted to UPF format
     Using radial grid of 1163 points,  3 beta functions with: 
                l(1) =   0
                l(2) =   1
                l(3) =   2

     PseudoPot. # 2 for O  read from file:
     ../pseudos_PBE_Opium/O.upf
     MD5 check sum: 0a268a9e6805e8a522e3d83b0fddfbcb
     Pseudo is Norm-conserving, Zval =  6.0
     Generated by new atomic code, or converted to UPF format
     Using radial grid of 1130 points,  1 beta functions with: 
                l(1) =   1

     atomic species   valence    mass     pseudopotential
     Zn               12.00    65.38000     Zn( 1.00)
     O                 6.00    15.99900     O ( 1.00)

     12 Sym. Ops. (no inversion) found ( 6 have fractional translation)


                                    s                        frac. trans.

      isym =  1     identity                                     

 cryst.   s( 1) = (     1          0          0      )
                  (     0          1          0      )
                  (     0          0          1      )

 cart.    s( 1) = (  1.0000000  0.0000000  0.0000000 )
                  (  0.0000000  1.0000000  0.0000000 )
                  (  0.0000000  0.0000000  1.0000000 )


      isym =  2     180 deg rotation - cart. axis [0,0,1]        

 cryst.   s( 2) = (    -1          0          0      )    f =(  0.0000000 )
                  (     0         -1          0      )       (  0.0000000 )
                  (     0          0          1      )       (  0.5000000 )

 cart.    s( 2) = ( -1.0000000  0.0000000  0.0000000 )    f =(  0.0000000 )
                  (  0.0000000 -1.0000000  0.0000000 )       (  0.0000000 )
                  (  0.0000000  0.0000000  1.0000000 )       (  0.8075000 )


      isym =  3      60 deg rotation - cryst. axis [0,0,1]       

 cryst.   s( 3) = (     1          1          0      )    f =( -0.0000000 )
                  (    -1          0          0      )       (  0.0000000 )
                  (     0          0          1      )       (  0.5000000 )

 cart.    s( 3) = (  0.5000000 -0.8660254  0.0000000 )    f =( -0.0000000 )
                  (  0.8660254  0.5000000  0.0000000 )       (  0.0000000 )
                  (  0.0000000  0.0000000  1.0000000 )       (  0.8075000 )


      isym =  4      60 deg rotation - cryst. axis [0,0,-1]      

 cryst.   s( 4) = (     0         -1          0      )    f =(  0.0000000 )
                  (     1          1          0      )       (  0.0000000 )
                  (     0          0          1      )       (  0.5000000 )

 cart.    s( 4) = (  0.5000000  0.8660254  0.0000000 )    f =( -0.0000000 )
                  ( -0.8660254  0.5000000  0.0000000 )       (  0.0000000 )
                  (  0.0000000  0.0000000  1.0000000 )       (  0.8075000 )


      isym =  5     120 deg rotation - cryst. axis [0,0,1]       

 cryst.   s( 5) = (     0          1          0      )
                  (    -1         -1          0      )
                  (     0          0          1      )

 cart.    s( 5) = ( -0.5000000 -0.8660254  0.0000000 )
                  (  0.8660254 -0.5000000  0.0000000 )
                  (  0.0000000  0.0000000  1.0000000 )


      isym =  6     120 deg rotation - cryst. axis [0,0,-1]      

 cryst.   s( 6) = (    -1         -1          0      )
                  (     1          0          0      )
                  (     0          0          1      )

 cart.    s( 6) = ( -0.5000000  0.8660254  0.0000000 )
                  ( -0.8660254 -0.5000000  0.0000000 )
                  (  0.0000000  0.0000000  1.0000000 )


      isym =  7     inv. 180 deg rotation - cart. axis [0,1,0]   

 cryst.   s( 7) = (     1          0          0      )    f =( -0.0000000 )
                  (    -1         -1          0      )       (  0.0000000 )
                  (     0          0          1      )       (  0.5000000 )

 cart.    s( 7) = (  1.0000000  0.0000000  0.0000000 )    f =( -0.0000000 )
                  (  0.0000000 -1.0000000  0.0000000 )       (  0.0000000 )
                  (  0.0000000  0.0000000  1.0000000 )       (  0.8075000 )


      isym =  8     inv. 180 deg rotation - cart. axis [1,0,0]   

 cryst.   s( 8) = (    -1          0          0      )
                  (     1          1          0      )
                  (     0          0          1      )

 cart.    s( 8) = ( -1.0000000  0.0000000  0.0000000 )
                  (  0.0000000  1.0000000  0.0000000 )
                  (  0.0000000  0.0000000  1.0000000 )


      isym =  9     inv. 180 deg rotation - cryst. axis [1,-1,0] 

 cryst.   s( 9) = (     0          1          0      )    f =(  0.0000000 )
                  (     1          0          0      )       (  0.0000000 )
                  (     0          0          1      )       (  0.5000000 )

 cart.    s( 9) = ( -0.5000000  0.8660254  0.0000000 )    f =(  0.0000000 )
                  (  0.8660254  0.5000000  0.0000000 )       (  0.0000000 )
                  (  0.0000000  0.0000000  1.0000000 )       (  0.8075000 )


      isym = 10     inv. 180 deg rotation - cryst. axis [2,1,0]  

 cryst.   s(10) = (    -1         -1          0      )    f =(  0.0000000 )
                  (     0          1          0      )       (  0.0000000 )
                  (     0          0          1      )       (  0.5000000 )

 cart.    s(10) = ( -0.5000000 -0.8660254  0.0000000 )    f =( -0.0000000 )
                  ( -0.8660254  0.5000000  0.0000000 )       (  0.0000000 )
                  (  0.0000000  0.0000000  1.0000000 )       (  0.8075000 )


      isym = 11     inv. 180 deg rotation - cryst. axis [0,1,0]  

 cryst.   s(11) = (     1          1          0      )
                  (     0         -1          0      )
                  (     0          0          1      )

 cart.    s(11) = (  0.5000000  0.8660254  0.0000000 )
                  (  0.8660254 -0.5000000  0.0000000 )
                  (  0.0000000  0.0000000  1.0000000 )


      isym = 12     inv. 180 deg rotation - cryst. axis [1,1,0]  

 cryst.   s(12) = (     0         -1          0      )
                  (    -1          0          0      )
                  (     0          0          1      )

 cart.    s(12) = (  0.5000000 -0.8660254  0.0000000 )
                  ( -0.8660254 -0.5000000  0.0000000 )
                  (  0.0000000  0.0000000  1.0000000 )


     point group C_6v (6mm) 
     there are  6 classes
     the character table:

       E     2C6   2C3   C2    3s_v  3s_d 
A_1    1.00  1.00  1.00  1.00  1.00  1.00
A_2    1.00  1.00  1.00  1.00 -1.00 -1.00
B_1    1.00 -1.00  1.00 -1.00  1.00 -1.00
B_2    1.00 -1.00  1.00 -1.00 -1.00  1.00
E_1    2.00  1.00 -1.00 -2.00  0.00  0.00
E_2    2.00 -1.00 -1.00  2.00  0.00  0.00

     the symmetry operations in each class and the name of the first element:

     E        1
          identity                                               
     2C6      3    4
           60 deg rotation - cryst. axis [0,0,1]                 
     2C3      5    6
          120 deg rotation - cryst. axis [0,0,1]                 
     C2       2
          180 deg rotation - cart. axis [0,0,1]                  
     3s_v     8   12   11
          inv. 180 deg rotation - cart. axis [1,0,0]             
     3s_d     7    9   10
          inv. 180 deg rotation - cart. axis [0,1,0]             

   Cartesian axes

     site n.     atom                  positions (alat units)
         1        Zn     tau(   1) = (   0.5000000   0.2886751   0.8085882  )
         2        Zn     tau(   2) = (  -0.0000000   0.5773503   0.0010882  )
         3        O      tau(   3) = (   0.5000000   0.2886751   1.4206125  )
         4        O      tau(   4) = (  -0.0000000   0.5773503   0.6131125  )

   Crystallographic axes

     site n.     atom                  positions (cryst. coord.)
         1        Zn     tau(   1) = (  0.6666667  0.3333333  0.5006738  )
         2        Zn     tau(   2) = (  0.3333333  0.6666667  0.0006738  )
         3        O      tau(   3) = (  0.6666667  0.3333333  0.8796362  )
         4        O      tau(   4) = (  0.3333333  0.6666667  0.3796362  )

     number of k points=    50
                       cart. coord. in units 2pi/alat
        k(    1) = (   0.0000000   0.0000000   0.0000000), wk =   0.0039062
        k(    2) = (   0.0000000   0.0000000   0.0773994), wk =   0.0078125
        k(    3) = (   0.0000000   0.0000000   0.1547988), wk =   0.0078125
        k(    4) = (   0.0000000   0.0000000   0.2321981), wk =   0.0078125
        k(    5) = (   0.0000000   0.0000000  -0.3095975), wk =   0.0039062
        k(    6) = (   0.0000000   0.1443376   0.0000000), wk =   0.0234375
        k(    7) = (   0.0000000   0.1443376   0.0773994), wk =   0.0468750
        k(    8) = (   0.0000000   0.1443376   0.1547988), wk =   0.0468750
        k(    9) = (   0.0000000   0.1443376   0.2321981), wk =   0.0468750
        k(   10) = (   0.0000000   0.1443376  -0.3095975), wk =   0.0234375
        k(   11) = (   0.0000000   0.2886751   0.0000000), wk =   0.0234375
        k(   12) = (   0.0000000   0.2886751   0.0773994), wk =   0.0468750
        k(   13) = (   0.0000000   0.2886751   0.1547988), wk =   0.0468750
        k(   14) = (   0.0000000   0.2886751   0.2321981), wk =   0.0468750
        k(   15) = (   0.0000000   0.2886751  -0.3095975), wk =   0.0234375
        k(   16) = (   0.0000000   0.4330127   0.0000000), wk =   0.0234375
        k(   17) = (   0.0000000   0.4330127   0.0773994), wk =   0.0468750
        k(   18) = (   0.0000000   0.4330127   0.1547988), wk =   0.0468750
        k(   19) = (   0.0000000   0.4330127   0.2321981), wk =   0.0468750
        k(   20) = (   0.0000000   0.4330127  -0.3095975), wk =   0.0234375
        k(   21) = (   0.0000000  -0.5773503   0.0000000), wk =   0.0117188
        k(   22) = (   0.0000000  -0.5773503   0.0773994), wk =   0.0234375
        k(   23) = (   0.0000000  -0.5773503   0.1547988), wk =   0.0234375
        k(   24) = (   0.0000000  -0.5773503   0.2321981), wk =   0.0234375
        k(   25) = (   0.0000000  -0.5773503  -0.3095975), wk =   0.0117188
        k(   26) = (   0.1250000   0.2165064   0.0000000), wk =   0.0234375
        k(   27) = (   0.1250000   0.2165064   0.0773994), wk =   0.0468750
        k(   28) = (   0.1250000   0.2165064   0.1547988), wk =   0.0468750
        k(   29) = (   0.1250000   0.2165064   0.2321981), wk =   0.0468750
        k(   30) = (   0.1250000   0.2165064  -0.3095975), wk =   0.0234375
        k(   31) = (   0.1250000   0.3608439   0.0000000), wk =   0.0468750
        k(   32) = (   0.1250000   0.3608439   0.0773994), wk =   0.0937500
        k(   33) = (   0.1250000   0.3608439   0.1547988), wk =   0.0937500
        k(   34) = (   0.1250000   0.3608439   0.2321981), wk =   0.0937500
        k(   35) = (   0.1250000   0.3608439  -0.3095975), wk =   0.0468750
        k(   36) = (   0.1250000   0.5051815   0.0000000), wk =   0.0468750
        k(   37) = (   0.1250000   0.5051815   0.0773994), wk =   0.0937500
        k(   38) = (   0.1250000   0.5051815   0.1547988), wk =   0.0937500
        k(   39) = (   0.1250000   0.5051815   0.2321981), wk =   0.0937500
        k(   40) = (   0.1250000   0.5051815  -0.3095975), wk =   0.0468750
        k(   41) = (   0.2500000   0.4330127   0.0000000), wk =   0.0234375
        k(   42) = (   0.2500000   0.4330127   0.0773994), wk =   0.0468750
        k(   43) = (   0.2500000   0.4330127   0.1547988), wk =   0.0468750
        k(   44) = (   0.2500000   0.4330127   0.2321981), wk =   0.0468750
        k(   45) = (   0.2500000   0.4330127  -0.3095975), wk =   0.0234375
        k(   46) = (   0.2500000   0.5773503   0.0000000), wk =   0.0234375
        k(   47) = (   0.2500000   0.5773503   0.0773994), wk =   0.0468750
        k(   48) = (   0.2500000   0.5773503   0.1547988), wk =   0.0468750
        k(   49) = (   0.2500000   0.5773503   0.2321981), wk =   0.0468750
        k(   50) = (   0.2500000   0.5773503  -0.3095975), wk =   0.0234375

                       cryst. coord.
        k(    1) = (   0.0000000   0.0000000   0.0000000), wk =   0.0039062
        k(    2) = (   0.0000000   0.0000000   0.1250000), wk =   0.0078125
        k(    3) = (   0.0000000   0.0000000   0.2500000), wk =   0.0078125
        k(    4) = (   0.0000000   0.0000000   0.3750000), wk =   0.0078125
        k(    5) = (   0.0000000   0.0000000  -0.5000000), wk =   0.0039062
        k(    6) = (   0.0000000   0.1250000   0.0000000), wk =   0.0234375
        k(    7) = (   0.0000000   0.1250000   0.1250000), wk =   0.0468750
        k(    8) = (   0.0000000   0.1250000   0.2500000), wk =   0.0468750
        k(    9) = (   0.0000000   0.1250000   0.3750000), wk =   0.0468750
        k(   10) = (   0.0000000   0.1250000  -0.5000000), wk =   0.0234375
        k(   11) = (   0.0000000   0.2500000   0.0000000), wk =   0.0234375
        k(   12) = (   0.0000000   0.2500000   0.1250000), wk =   0.0468750
        k(   13) = (   0.0000000   0.2500000   0.2500000), wk =   0.0468750
        k(   14) = (   0.0000000   0.2500000   0.3750000), wk =   0.0468750
        k(   15) = (   0.0000000   0.2500000  -0.5000000), wk =   0.0234375
        k(   16) = (   0.0000000   0.3750000   0.0000000), wk =   0.0234375
        k(   17) = (   0.0000000   0.3750000   0.1250000), wk =   0.0468750
        k(   18) = (   0.0000000   0.3750000   0.2500000), wk =   0.0468750
        k(   19) = (   0.0000000   0.3750000   0.3750000), wk =   0.0468750
        k(   20) = (   0.0000000   0.3750000  -0.5000000), wk =   0.0234375
        k(   21) = (   0.0000000  -0.5000000   0.0000000), wk =   0.0117188
        k(   22) = (   0.0000000  -0.5000000   0.1250000), wk =   0.0234375
        k(   23) = (   0.0000000  -0.5000000   0.2500000), wk =   0.0234375
        k(   24) = (   0.0000000  -0.5000000   0.3750000), wk =   0.0234375
        k(   25) = (   0.0000000  -0.5000000  -0.5000000), wk =   0.0117188
        k(   26) = (   0.1250000   0.1250000   0.0000000), wk =   0.0234375
        k(   27) = (   0.1250000   0.1250000   0.1250000), wk =   0.0468750
        k(   28) = (   0.1250000   0.1250000   0.2500000), wk =   0.0468750
        k(   29) = (   0.1250000   0.1250000   0.3750000), wk =   0.0468750
        k(   30) = (   0.1250000   0.1250000  -0.5000000), wk =   0.0234375
        k(   31) = (   0.1250000   0.2500000   0.0000000), wk =   0.0468750
        k(   32) = (   0.1250000   0.2500000   0.1250000), wk =   0.0937500
        k(   33) = (   0.1250000   0.2500000   0.2500000), wk =   0.0937500
        k(   34) = (   0.1250000   0.2500000   0.3750000), wk =   0.0937500
        k(   35) = (   0.1250000   0.2500000  -0.5000000), wk =   0.0468750
        k(   36) = (   0.1250000   0.3750000   0.0000000), wk =   0.0468750
        k(   37) = (   0.1250000   0.3750000   0.1250000), wk =   0.0937500
        k(   38) = (   0.1250000   0.3750000   0.2500000), wk =   0.0937500
        k(   39) = (   0.1250000   0.3750000   0.3750000), wk =   0.0937500
        k(   40) = (   0.1250000   0.3750000  -0.5000000), wk =   0.0468750
        k(   41) = (   0.2500000   0.2500000   0.0000000), wk =   0.0234375
        k(   42) = (   0.2500000   0.2500000   0.1250000), wk =   0.0468750
        k(   43) = (   0.2500000   0.2500000   0.2500000), wk =   0.0468750
        k(   44) = (   0.2500000   0.2500000   0.3750000), wk =   0.0468750
        k(   45) = (   0.2500000   0.2500000  -0.5000000), wk =   0.0234375
        k(   46) = (   0.2500000   0.3750000   0.0000000), wk =   0.0234375
        k(   47) = (   0.2500000   0.3750000   0.1250000), wk =   0.0468750
        k(   48) = (   0.2500000   0.3750000   0.2500000), wk =   0.0468750
        k(   49) = (   0.2500000   0.3750000   0.3750000), wk =   0.0468750
        k(   50) = (   0.2500000   0.3750000  -0.5000000), wk =   0.0234375

     Dense  grid:    35123 G-vectors     FFT dimensions: (  40,  40,  60)

     Smooth grid:    25169 G-vectors     FFT dimensions: (  36,  36,  54)

     Dynamical RAM for                 wfc:       0.11 MB

     Dynamical RAM for     wfc (w. buffer):       5.49 MB

     Dynamical RAM for           str. fact:       0.07 MB

     Dynamical RAM for           local pot:       0.00 MB

     Dynamical RAM for          nlocal pot:       0.07 MB

     Dynamical RAM for                qrad:       0.86 MB

     Dynamical RAM for          rho,v,vnew:       0.25 MB

     Dynamical RAM for               rhoin:       0.08 MB

     Dynamical RAM for            rho*nmix:       0.54 MB

     Dynamical RAM for           G-vectors:       0.14 MB

     Dynamical RAM for          h,s,v(r/c):       0.24 MB

     Dynamical RAM for          <psi|beta>:       0.01 MB

     Dynamical RAM for                 psi:       0.22 MB

     Dynamical RAM for                hpsi:       0.22 MB

     Dynamical RAM for      wfcinit/wfcrot:       0.25 MB

     Estimated static dynamical RAM per process >       7.30 MB

     Estimated max dynamical RAM per process >       8.78 MB

     Estimated total dynamical RAM >     140.46 MB

     Initial potential from superposition of free atoms

     starting charge      35.0000, renormalised to      36.0000
     Starting wfcs are   26 randomized atomic wfcs +   10 random wfcs

     total cpu time spent up to now is        0.9 secs

     Self-consistent Calculation

     iteration #  1     ecut=    70.00 Ry     beta= 0.10
     Davidson diagonalization with overlap

---- Real-time Memory Report at c_bands before calling an iterative solver
            99 MiB given to the printing process from OS
             0 MiB allocation reported by mallinfo(arena+hblkhd)
         63495 MiB available memory on the node where the printing process lives
------------------
     ethr =  1.00E-02,  avg # of iterations =  6.0

     total cpu time spent up to now is        4.5 secs

     total energy              =    -270.79711760 Ry
     estimated scf accuracy    <       0.89812608 Ry

     iteration #  2     ecut=    70.00 Ry     beta= 0.10
     Davidson diagonalization with overlap

---- Real-time Memory Report at c_bands before calling an iterative solver
           104 MiB given to the printing process from OS
             0 MiB allocation reported by mallinfo(arena+hblkhd)
         63494 MiB available memory on the node where the printing process lives
------------------
     ethr =  2.49E-03,  avg # of iterations =  1.0

     total cpu time spent up to now is        6.4 secs

     total energy              =    -270.43071113 Ry
     estimated scf accuracy    <       0.71738040 Ry

     iteration #  3     ecut=    70.00 Ry     beta= 0.10
     Davidson diagonalization with overlap

---- Real-time Memory Report at c_bands before calling an iterative solver
           104 MiB given to the printing process from OS
             0 MiB allocation reported by mallinfo(arena+hblkhd)
         63495 MiB available memory on the node where the printing process lives
------------------
     ethr =  1.99E-03,  avg # of iterations =  1.6

     total cpu time spent up to now is        8.3 secs

     total energy              =    -270.56298393 Ry
     estimated scf accuracy    <       0.04010401 Ry

     iteration #  4     ecut=    70.00 Ry     beta= 0.10
     Davidson diagonalization with overlap

---- Real-time Memory Report at c_bands before calling an iterative solver
           104 MiB given to the printing process from OS
             0 MiB allocation reported by mallinfo(arena+hblkhd)
         63497 MiB available memory on the node where the printing process lives
------------------
     ethr =  1.11E-04,  avg # of iterations =  4.0

     total cpu time spent up to now is       10.7 secs

     total energy              =    -270.55099522 Ry
     estimated scf accuracy    <       0.02876997 Ry

     iteration #  5     ecut=    70.00 Ry     beta= 0.10
     Davidson diagonalization with overlap

---- Real-time Memory Report at c_bands before calling an iterative solver
           104 MiB given to the printing process from OS
             0 MiB allocation reported by mallinfo(arena+hblkhd)
         63499 MiB available memory on the node where the printing process lives
------------------
     ethr =  7.99E-05,  avg # of iterations =  1.5

     total cpu time spent up to now is       12.6 secs

     total energy              =    -270.55515828 Ry
     estimated scf accuracy    <       0.00112112 Ry

     iteration #  6     ecut=    70.00 Ry     beta= 0.10
     Davidson diagonalization with overlap

---- Real-time Memory Report at c_bands before calling an iterative solver
           104 MiB given to the printing process from OS
             0 MiB allocation reported by mallinfo(arena+hblkhd)
         63500 MiB available memory on the node where the printing process lives
------------------
     ethr =  3.11E-06,  avg # of iterations =  6.7

     total cpu time spent up to now is       15.6 secs

     total energy              =    -270.55513996 Ry
     estimated scf accuracy    <       0.00086521 Ry

     iteration #  7     ecut=    70.00 Ry     beta= 0.10
     Davidson diagonalization with overlap

---- Real-time Memory Report at c_bands before calling an iterative solver
           104 MiB given to the printing process from OS
             0 MiB allocation reported by mallinfo(arena+hblkhd)
         63505 MiB available memory on the node where the printing process lives
------------------
     ethr =  2.40E-06,  avg # of iterations =  1.0

     total cpu time spent up to now is       17.5 secs

     total energy              =    -270.55517403 Ry
     estimated scf accuracy    <       0.00000856 Ry

     iteration #  8     ecut=    70.00 Ry     beta= 0.10
     Davidson diagonalization with overlap

---- Real-time Memory Report at c_bands before calling an iterative solver
           104 MiB given to the printing process from OS
             0 MiB allocation reported by mallinfo(arena+hblkhd)
         63508 MiB available memory on the node where the printing process lives
------------------
     ethr =  2.38E-08,  avg # of iterations =  2.0

     total cpu time spent up to now is       19.8 secs

     total energy              =    -270.55517777 Ry
     estimated scf accuracy    <       0.00000891 Ry

     iteration #  9     ecut=    70.00 Ry     beta= 0.10
     Davidson diagonalization with overlap

---- Real-time Memory Report at c_bands before calling an iterative solver
           104 MiB given to the printing process from OS
             0 MiB allocation reported by mallinfo(arena+hblkhd)
         63514 MiB available memory on the node where the printing process lives
------------------
     ethr =  2.38E-08,  avg # of iterations =  1.2

     total cpu time spent up to now is       21.7 secs

     total energy              =    -270.55518038 Ry
     estimated scf accuracy    <       0.00000191 Ry

     iteration # 10     ecut=    70.00 Ry     beta= 0.10
     Davidson diagonalization with overlap

---- Real-time Memory Report at c_bands before calling an iterative solver
           104 MiB given to the printing process from OS
             0 MiB allocation reported by mallinfo(arena+hblkhd)
         63517 MiB available memory on the node where the printing process lives
------------------
     ethr =  5.30E-09,  avg # of iterations =  1.0

     total cpu time spent up to now is       23.5 secs

     total energy              =    -270.55518249 Ry
     estimated scf accuracy    <       0.00000010 Ry

     iteration # 11     ecut=    70.00 Ry     beta= 0.10
     Davidson diagonalization with overlap

---- Real-time Memory Report at c_bands before calling an iterative solver
           104 MiB given to the printing process from OS
             0 MiB allocation reported by mallinfo(arena+hblkhd)
         63518 MiB available memory on the node where the printing process lives
------------------
     ethr =  2.77E-10,  avg # of iterations =  2.1

     total cpu time spent up to now is       25.9 secs

     total energy              =    -270.55518351 Ry
     estimated scf accuracy    <       0.00000056 Ry

     iteration # 12     ecut=    70.00 Ry     beta= 0.10
     Davidson diagonalization with overlap

---- Real-time Memory Report at c_bands before calling an iterative solver
           104 MiB given to the printing process from OS
             0 MiB allocation reported by mallinfo(arena+hblkhd)
         63521 MiB available memory on the node where the printing process lives
------------------
     ethr =  2.77E-10,  avg # of iterations =  2.0

     total cpu time spent up to now is       28.3 secs

     total energy              =    -270.55518456 Ry
     estimated scf accuracy    <          1.3E-09 Ry

     iteration # 13     ecut=    70.00 Ry     beta= 0.10
     Davidson diagonalization with overlap

---- Real-time Memory Report at c_bands before calling an iterative solver
           104 MiB given to the printing process from OS
             0 MiB allocation reported by mallinfo(arena+hblkhd)
         63525 MiB available memory on the node where the printing process lives
------------------
     ethr =  3.51E-12,  avg # of iterations =  3.1

     total cpu time spent up to now is       30.6 secs

     total energy              =    -270.55518533 Ry
     estimated scf accuracy    <          1.3E-09 Ry

     iteration # 14     ecut=    70.00 Ry     beta= 0.10
     Davidson diagonalization with overlap

---- Real-time Memory Report at c_bands before calling an iterative solver
           104 MiB given to the printing process from OS
             0 MiB allocation reported by mallinfo(arena+hblkhd)
         63529 MiB available memory on the node where the printing process lives
------------------
     ethr =  3.51E-12,  avg # of iterations =  2.0

     total cpu time spent up to now is       33.0 secs

     total energy              =    -270.55518594 Ry
     estimated scf accuracy    <          3.7E-09 Ry

     iteration # 15     ecut=    70.00 Ry     beta= 0.10
     Davidson diagonalization with overlap

---- Real-time Memory Report at c_bands before calling an iterative solver
           104 MiB given to the printing process from OS
             0 MiB allocation reported by mallinfo(arena+hblkhd)
         63529 MiB available memory on the node where the printing process lives
------------------
     ethr =  3.51E-12,  avg # of iterations =  2.0

     total cpu time spent up to now is       35.3 secs

     End of self-consistent calculation

          k = 0.0000 0.0000 0.0000 (  3141 PWs)   bands (ev):

    -9.3745  -8.6423   2.8817   2.8817   2.9293   3.0098   3.0780   3.0780
     4.0710   4.0710   4.2841   4.2841   4.5733   7.8338   7.8338   8.5234
     8.6107   8.6107   9.5100  13.9852  16.8874  21.7016  21.7016  22.7290
    22.9560  22.9560  25.1810  26.7850  26.7850  28.4549  28.4549  28.6019
    29.8545  31.8508  33.6078  33.6078

     occupation numbers 
     1.0000   1.0000   1.0000   1.0000   1.0000   1.0000   1.0000   1.0000
     1.0000   1.0000   1.0000   1.0000   1.0000   1.0000   1.0000   1.0000
     1.0000   1.0000   0.0000   0.0000   0.0000   0.0000   0.0000   0.0000
     0.0000   0.0000   0.0000   0.0000   0.0000   0.0000   0.0000   0.0000
     0.0000   0.0000   0.0000   0.0000

          k = 0.0000 0.0000 0.0774 (  3134 PWs)   bands (ev):

    -9.3480  -8.6716   2.8856   2.8856   2.9010   2.9320   3.0666   3.0666
     4.0820   4.0820   4.2795   4.2795   4.7600   7.8641   7.8641   8.1761
     8.5820   8.5820   9.9083  13.8411  17.0158  21.6997  21.6997  22.1599
    22.8372  22.8372  25.4148  26.9561  26.9561  28.4994  28.6609  28.6609
    30.4652  31.7731  33.3570  33.3570

     occupation numbers 
     1.0000   1.0000   1.0000   1.0000   1.0000   1.0000   1.0000   1.0000
     1.0000   1.0000   1.0000   1.0000   1.0000   1.0000   1.0000   1.0000
     1.0000   1.0000   0.0000   0.0000   0.0000   0.0000   0.0000   0.0000
     0.0000   0.0000   0.0000   0.0000   0.0000   0.0000   0.0000   0.0000
     0.0000   0.0000   0.0000   0.0000

          k = 0.0000 0.0000 0.1548 (  3152 PWs)   bands (ev):

    -9.2721  -8.7545   2.7939   2.8289   2.8984   2.8984   3.0361   3.0361
     4.1124   4.1124   4.2644   4.2644   5.2114   7.6010   7.9500   7.9500
     8.4997   8.4997  10.6182  13.4434  17.3865  21.0174  21.7157  21.7157
    22.5521  22.5521  25.8354  27.4332  27.4332  28.1374  29.1070  29.1070
    31.8578  31.9530  32.8697  32.8697

     occupation numbers 
     1.0000   1.0000   1.0000   1.0000   1.0000   1.0000   1.0000   1.0000
     1.0000   1.0000   1.0000   1.0000   1.0000   1.0000   1.0000   1.0000
     1.0000   1.0000   0.0000   0.0000   0.0000   0.0000   0.0000   0.0000
     0.0000   0.0000   0.0000   0.0000   0.0000   0.0000   0.0000   0.0000
     0.0000   0.0000   0.0000   0.0000

          k = 0.0000 0.0000 0.2322 (  3122 PWs)   bands (ev):

    -9.1569  -8.8768   2.7041   2.7460   2.9216   2.9216   2.9956   2.9956
     4.1545   4.1545   4.2372   4.2372   5.7817   7.0008   8.0779   8.0779
     8.3755   8.3755  11.3913  12.8606  17.9831  19.8355  21.7933  21.7933
    22.2307  22.2307  26.3286  27.5523  28.1191  28.1191  29.2880  29.2880
    32.3607  32.7854  32.7854  33.3763

     occupation numbers 
     1.0000   1.0000   1.0000   1.0000   1.0000   1.0000   1.0000   1.0000
     1.0000   1.0000   1.0000   1.0000   1.0000   1.0000   1.0000   1.0000
     1.0000   1.0000   0.0000   0.0000   0.0000   0.0000   0.0000   0.0000
     0.0000   0.0000   0.0000   0.0000   0.0000   0.0000   0.0000   0.0000
     0.0000   0.0000   0.0000   0.0000

          k = 0.0000 0.0000-0.3096 (  3134 PWs)   bands (ev):

    -9.0183  -9.0183   2.6928   2.6928   2.9550   2.9550   2.9550   2.9550
     4.1989   4.1989   4.1989   4.1989   6.3906   6.3906   8.2274   8.2274
     8.2274   8.2274  12.1573  12.1573  18.8035  18.8035  21.9645  21.9645
    21.9645  21.9645  26.9114  26.9114  28.8471  28.8471  28.8471  28.8471
    33.1267  33.1267  33.5218  33.5218

     occupation numbers 
     1.0000   1.0000   1.0000   1.0000   1.0000   1.0000   1.0000   1.0000
     1.0000   1.0000   1.0000   1.0000   1.0000   1.0000   1.0000   1.0000
     1.0000   1.0000   0.0000   0.0000   0.0000   0.0000   0.0000   0.0000
     0.0000   0.0000   0.0000   0.0000   0.0000   0.0000   0.0000   0.0000
     0.0000   0.0000   0.0000   0.0000

          k = 0.0000 0.1443 0.0000 (  3134 PWs)   bands (ev):

    -9.2877  -8.6038   2.7926   2.9312   2.9773   3.0579   3.1492   3.1519
     4.0351   4.0671   4.2914   4.3553   4.5538   7.2896   7.6322   7.8385
     8.4220   8.5027  10.4906  14.6040  16.8776  20.2547  21.8454  21.8814
    22.9483  23.1232  24.3209  26.0167  27.0863  28.9816  30.1728  30.2366
    30.8738  32.1874  33.7293  33.8479

     occupation numbers 
     1.0000   1.0000   1.0000   1.0000   1.0000   1.0000   1.0000   1.0000
     1.0000   1.0000   1.0000   1.0000   1.0000   1.0000   1.0000   1.0000
     1.0000   1.0000   0.0000   0.0000   0.0000   0.0000   0.0000   0.0000
     0.0000   0.0000   0.0000   0.0000   0.0000   0.0000   0.0000   0.0000
     0.0000   0.0000   0.0000   0.0000

          k = 0.0000 0.1443 0.0774 (  3132 PWs)   bands (ev):

    -9.2628  -8.6309   2.7767   2.9361   2.9470   3.0002   3.1255   3.1369
     4.0501   4.0781   4.2855   4.3228   4.7769   7.3196   7.6664   7.7049
     8.3803   8.4706  10.6900  14.4268  17.0182  20.2859  21.7623  21.8440
    22.2976  22.9830  24.8127  26.2808  27.2521  28.9305  30.1043  30.2655
    31.2700  32.2902  33.4571  33.8903

     occupation numbers 
     1.0000   1.0000   1.0000   1.0000   1.0000   1.0000   1.0000   1.0000
     1.0000   1.0000   1.0000   1.0000   1.0000   1.0000   1.0000   1.0000
     1.0000   1.0000   0.0000   0.0000   0.0000   0.0000   0.0000   0.0000
     0.0000   0.0000   0.0000   0.0000   0.0000   0.0000   0.0000   0.0000
     0.0000   0.0000   0.0000   0.0000

          k = 0.0000 0.1443 0.1548 (  3119 PWs)   bands (ev):

    -9.1912  -8.7075   2.7284   2.8030   2.9514   2.9739   3.0876   3.1041
     4.0897   4.1082   4.2675   4.2888   5.2524   7.2910   7.5009   7.7634
     8.2511   8.3788  11.1989  13.9648  17.3998  20.3068  21.0945  21.6882
    21.8592  22.6735  25.5208  26.9588  27.5246  28.7871  30.0682  30.3276
    31.8766  32.5188  33.0415  33.9690

     occupation numbers 
     1.0000   1.0000   1.0000   1.0000   1.0000   1.0000   1.0000   1.0000
     1.0000   1.0000   1.0000   1.0000   1.0000   1.0000   1.0000   1.0000
     1.0000   1.0000   0.0000   0.0000   0.0000   0.0000   0.0000   0.0000
     0.0000   0.0000   0.0000   0.0000   0.0000   0.0000   0.0000   0.0000
     0.0000   0.0000   0.0000   0.0000

          k = 0.0000 0.1443 0.2322 (  3115 PWs)   bands (ev):

    -9.0828  -8.8210   2.6674   2.6875   2.9781   2.9810   3.0459   3.0602
     4.1431   4.1505   4.2370   4.2491   5.8149   6.8861   7.6288   7.9072
     8.0547   8.2402  11.8732  13.3304  17.9811  19.6821  20.8211  21.3629
    21.9316  22.3500  26.2025  27.3806  27.8787  28.9914  29.8471  30.1080
    31.7672  32.5171  33.2437  34.5462

     occupation numbers 
     1.0000   1.0000   1.0000   1.0000   1.0000   1.0000   1.0000   1.0000
     1.0000   1.0000   1.0000   1.0000   1.0000   1.0000   1.0000   1.0000
     1.0000   1.0000   0.0000   0.0000   0.0000   0.0000   0.0000   0.0000
     0.0000   0.0000   0.0000   0.0000   0.0000   0.0000   0.0000   0.0000
     0.0000   0.0000   0.0000   0.0000

          k = 0.0000 0.1443-0.3096 (  3122 PWs)   bands (ev):

    -8.9529  -8.9529   2.6439   2.6439   3.0075   3.0075   3.0157   3.0157
     4.1962   4.1962   4.1992   4.1992   6.3761   6.3761   7.8332   7.8332
     8.0747   8.0747  12.6094  12.6094  18.7548  18.7548  21.0523  21.0523
    22.0933  22.0933  26.8434  26.8434  28.9051  28.9051  29.6290  29.6290
    32.0105  32.0105  34.0726  34.0726

     occupation numbers 
     1.0000   1.0000   1.0000   1.0000   1.0000   1.0000   1.0000   1.0000
     1.0000   1.0000   1.0000   1.0000   1.0000   1.0000   1.0000   1.0000
     1.0000   1.0000   0.0000   0.0000   0.0000   0.0000   0.0000   0.0000
     0.0000   0.0000   0.0000   0.0000   0.0000   0.0000   0.0000   0.0000
     0.0000   0.0000   0.0000   0.0000

          k = 0.0000 0.2887 0.0000 (  3136 PWs)   bands (ev):

    -9.0642  -8.5177   2.6392   2.9771   3.0389   3.1681   3.3420   3.4841
     3.9582   4.0915   4.3053   4.4763   4.5998   6.1452   6.9295   7.1424
     8.1087   8.2249  11.9538  15.7942  16.8261  18.3775  20.3835  21.8289
    22.1637  22.9596  24.1870  26.4737  26.9045  29.3308  31.8128  32.8280
    33.0274  33.2191  34.1635  35.3453

     occupation numbers 
     1.0000   1.0000   1.0000   1.0000   1.0000   1.0000   1.0000   1.0000
     1.0000   1.0000   1.0000   1.0000   1.0000   1.0000   1.0000   1.0000
     1.0000   1.0000   0.0000   0.0000   0.0000   0.0000   0.0000   0.0000
     0.0000   0.0000   0.0000   0.0000   0.0000   0.0000   0.0000   0.0000
     0.0000   0.0000   0.0000   0.0000

          k = 0.0000 0.2887 0.0774 (  3136 PWs)   bands (ev):

    -9.0435  -8.5385   2.6225   2.9244   3.0472   3.1528   3.3264   3.3913
     3.9880   4.1003   4.2976   4.4033   4.8718   6.1939   6.8696   7.1864
     8.0895   8.1856  12.0486  15.5035  17.0186  18.4214  20.3410  21.7253
    22.1594  22.8831  24.0067  26.7051  27.1160  29.5122  31.3580  32.7735
    32.8810  33.7813  33.9130  35.2649

     occupation numbers 
     1.0000   1.0000   1.0000   1.0000   1.0000   1.0000   1.0000   1.0000
     1.0000   1.0000   1.0000   1.0000   1.0000   1.0000   1.0000   1.0000
     1.0000   1.0000   0.0000   0.0000   0.0000   0.0000   0.0000   0.0000
     0.0000   0.0000   0.0000   0.0000   0.0000   0.0000   0.0000   0.0000
     0.0000   0.0000   0.0000   0.0000

          k = 0.0000 0.2887 0.1548 (  3132 PWs)   bands (ev):

    -8.9845  -8.5977   2.5814   2.7802   3.0720   3.1292   3.2726   3.2843
     4.0524   4.1248   4.2754   4.3460   5.3289   6.3121   6.7676   7.3100
     7.9775   8.0731  12.3432  14.8971  17.3816  18.5141  20.1795  21.3555
    22.1633  22.7006  24.0255  27.1211  27.3421  30.0123  30.9259  31.9844
    32.8599  33.7065  34.0233  35.9616

     occupation numbers 
     1.0000   1.0000   1.0000   1.0000   1.0000   1.0000   1.0000   1.0000
     1.0000   1.0000   1.0000   1.0000   1.0000   1.0000   1.0000   1.0000
     1.0000   1.0000   0.0000   0.0000   0.0000   0.0000   0.0000   0.0000
     0.0000   0.0000   0.0000   0.0000   0.0000   0.0000   0.0000   0.0000
     0.0000   0.0000   0.0000   0.0000

          k = 0.0000 0.2887 0.2322 (  3133 PWs)   bands (ev):

    -8.8960  -8.6865   2.5449   2.6333   3.1126   3.1268   3.1984   3.2267
     4.1312   4.1607   4.2420   4.2846   5.7527   6.2892   6.9076   7.4909
     7.7076   7.9030  12.8346  14.1888  17.7972  18.5004  20.0612  20.7875
    22.2094  22.4936  24.6119  26.4824  28.2796  30.5436  30.7060  30.8889
    32.9493  33.3215  34.5293  35.7137

     occupation numbers 
     1.0000   1.0000   1.0000   1.0000   1.0000   1.0000   1.0000   1.0000
     1.0000   1.0000   1.0000   1.0000   1.0000   1.0000   1.0000   1.0000
     1.0000   1.0000   0.0000   0.0000   0.0000   0.0000   0.0000   0.0000
     0.0000   0.0000   0.0000   0.0000   0.0000   0.0000   0.0000   0.0000
     0.0000   0.0000   0.0000   0.0000

          k = 0.0000 0.2887-0.3096 (  3136 PWs)   bands (ev):

    -8.7913  -8.7913   2.5529   2.5529   3.1507   3.1507   3.1662   3.1662
     4.2018   4.2018   4.2116   4.2116   6.0700   6.0700   7.3072   7.3072
     7.6991   7.6991  13.4748  13.4748  18.2185  18.2185  20.2823  20.2823
    22.3202  22.3202  25.5287  25.5287  29.4283  29.4283  30.8400  30.8400
    33.0889  33.0889  35.1393  35.1393

     occupation numbers 
     1.0000   1.0000   1.0000   1.0000   1.0000   1.0000   1.0000   1.0000
     1.0000   1.0000   1.0000   1.0000   1.0000   1.0000   1.0000   1.0000
     1.0000   1.0000   0.0000   0.0000   0.0000   0.0000   0.0000   0.0000
     0.0000   0.0000   0.0000   0.0000   0.0000   0.0000   0.0000   0.0000
     0.0000   0.0000   0.0000   0.0000

          k = 0.0000 0.4330 0.0000 (  3146 PWs)   bands (ev):

    -8.8066  -8.4544   2.6042   2.9316   3.1197   3.3876   3.5765   3.6333
     4.0416   4.1787   4.3214   4.5172   4.7593   5.2773   6.1306   6.6207
     7.6347   7.9231  13.4631  16.2983  16.4115  17.3824  19.5697  21.0209
    22.0870  22.9276  24.5932  26.9791  28.0697  28.1683  31.8141  33.0232
    34.4829  34.7481  35.3836  36.3095

     occupation numbers 
     1.0000   1.0000   1.0000   1.0000   1.0000   1.0000   1.0000   1.0000
     1.0000   1.0000   1.0000   1.0000   1.0000   1.0000   1.0000   1.0000
     1.0000   1.0000   0.0000   0.0000   0.0000   0.0000   0.0000   0.0000
     0.0000   0.0000   0.0000   0.0000   0.0000   0.0000   0.0000   0.0000
     0.0000   0.0000   0.0000   0.0000

          k = 0.0000 0.4330 0.0774 (  3148 PWs)   bands (ev):

    -8.7924  -8.4668   2.5838   2.8761   3.1331   3.3693   3.5541   3.5700
     4.0552   4.1828   4.3130   4.4782   4.8613   5.3843   6.1408   6.6768
     7.6649   7.8771  13.4674  15.8651  16.7715  17.4028  19.5420  21.1190
    22.1075  22.8856  24.0883  27.1536  28.3369  28.5818  30.8914  33.5421
    34.3557  34.8522  35.1889  36.0908

     occupation numbers 
     1.0000   1.0000   1.0000   1.0000   1.0000   1.0000   1.0000   1.0000
     1.0000   1.0000   1.0000   1.0000   1.0000   1.0000   1.0000   1.0000
     1.0000   1.0000   0.0000   0.0000   0.0000   0.0000   0.0000   0.0000
     0.0000   0.0000   0.0000   0.0000   0.0000   0.0000   0.0000   0.0000
     0.0000   0.0000   0.0000   0.0000

          k = 0.0000 0.4330 0.1548 (  3152 PWs)   bands (ev):

    -8.7520  -8.5025   2.5360   2.7367   3.1728   3.3370   3.4661   3.4930
     4.1084   4.1948   4.2917   4.4142   5.0188   5.5156   6.3244   6.8320
     7.6820   7.7454  13.5312  15.3121  17.1005  17.4573  19.5091  21.2058
    22.1720  22.7700  23.5052  26.9886  28.8305  29.6461  30.0755  33.1853
    33.6280  35.1578  35.2005  35.8846

     occupation numbers 
     1.0000   1.0000   1.0000   1.0000   1.0000   1.0000   1.0000   1.0000
     1.0000   1.0000   1.0000   1.0000   1.0000   1.0000   1.0000   1.0000
     1.0000   1.0000   0.0000   0.0000   0.0000   0.0000   0.0000   0.0000
     0.0000   0.0000   0.0000   0.0000   0.0000   0.0000   0.0000   0.0000
     0.0000   0.0000   0.0000   0.0000

          k = 0.0000 0.4330 0.2322 (  3146 PWs)   bands (ev):

    -8.6926  -8.5574   2.4967   2.5923   3.2362   3.3248   3.3900   3.4084
     4.1846   4.2136   4.2648   4.3428   5.1731   5.4599   6.7661   7.0539
     7.5455   7.5558  13.7519  14.7209  17.3264  17.5008  19.6552  20.7721
    22.2833  22.6082  23.8404  26.0574  29.6160  30.1149  30.4365  31.8673
    33.7293  34.8842  35.2643  35.6676

     occupation numbers 
     1.0000   1.0000   1.0000   1.0000   1.0000   1.0000   1.0000   1.0000
     1.0000   1.0000   1.0000   1.0000   1.0000   1.0000   1.0000   1.0000
     1.0000   1.0000   0.0000   0.0000   0.0000   0.0000   0.0000   0.0000
     0.0000   0.0000   0.0000   0.0000   0.0000   0.0000   0.0000   0.0000
     0.0000   0.0000   0.0000   0.0000

          k = 0.0000 0.4330-0.3096 (  3146 PWs)   bands (ev):

    -8.6241  -8.6241   2.5077   2.5077   3.3179   3.3179   3.3430   3.3430
     4.2377   4.2377   4.2654   4.2654   5.3251   5.3251   7.2308   7.2308
     7.3041   7.3041  14.1678  14.1678  17.4592  17.4592  20.1142  20.1142
    22.4354  22.4354  24.8533  24.8533  30.4680  30.4680  30.6474  30.6474
    34.2572  34.2572  35.4465  35.4465

     occupation numbers 
     1.0000   1.0000   1.0000   1.0000   1.0000   1.0000   1.0000   1.0000
     1.0000   1.0000   1.0000   1.0000   1.0000   1.0000   1.0000   1.0000
     1.0000   1.0000   0.0000   0.0000   0.0000   0.0000   0.0000   0.0000
     0.0000   0.0000   0.0000   0.0000   0.0000   0.0000   0.0000   0.0000
     0.0000   0.0000   0.0000   0.0000

          k = 0.0000-0.5774 0.0000 (  3138 PWs)   bands (ev):

    -8.6744  -8.4501   2.6693   2.8903   3.1434   3.5507   3.5514   3.6890
     4.1105   4.2429   4.3312   4.4086   4.8951   5.0975   5.8120   6.3822
     7.3387   7.7896  14.5101  15.5604  16.2508  17.3047  19.2983  21.1333
    21.9194  23.0578  24.5867  27.1067  27.6849  29.3071  31.5330  33.4131
    33.5087  34.4594  35.6924  36.0203

     occupation numbers 
     1.0000   1.0000   1.0000   1.0000   1.0000   1.0000   1.0000   1.0000
     1.0000   1.0000   1.0000   1.0000   1.0000   1.0000   1.0000   1.0000
     1.0000   1.0000   0.0000   0.0000   0.0000   0.0000   0.0000   0.0000
     0.0000   0.0000   0.0000   0.0000   0.0000   0.0000   0.0000   0.0000
     0.0000   0.0000   0.0000   0.0000

          k = 0.0000-0.5774 0.0774 (  3122 PWs)   bands (ev):

    -8.6646  -8.4572   2.6428   2.8305   3.1593   3.5252   3.5365   3.6621
     4.1513   4.2444   4.3226   4.4086   4.8656   5.0681   5.9843   6.4454
     7.3928   7.7409  14.3921  15.4683  16.3947  17.3311  19.2471  21.2295
    21.9580  23.0094  24.0488  27.2162  28.3865  29.4601  30.5345  33.3120
    34.4106  34.4339  35.2700  35.8996

     occupation numbers 
     1.0000   1.0000   1.0000   1.0000   1.0000   1.0000   1.0000   1.0000
     1.0000   1.0000   1.0000   1.0000   1.0000   1.0000   1.0000   1.0000
     1.0000   1.0000   0.0000   0.0000   0.0000   0.0000   0.0000   0.0000
     0.0000   0.0000   0.0000   0.0000   0.0000   0.0000   0.0000   0.0000
     0.0000   0.0000   0.0000   0.0000

          k = 0.0000-0.5774 0.1548 (  3144 PWs)   bands (ev):

    -8.6371  -8.4781   2.5790   2.6946   3.2062   3.4844   3.5045   3.5885
     4.2322   4.2488   4.3033   4.4055   4.8296   4.9995   6.3898   6.6180
     7.4838   7.6012  14.2107  15.1999  16.6838  17.3658  19.2219  21.2695
    22.0698  22.8739  23.4366  27.1159  29.5473  29.6267  29.9106  33.1091
    33.8744  34.7563  34.9811  35.6067

     occupation numbers 
     1.0000   1.0000   1.0000   1.0000   1.0000   1.0000   1.0000   1.0000
     1.0000   1.0000   1.0000   1.0000   1.0000   1.0000   1.0000   1.0000
     1.0000   1.0000   0.0000   0.0000   0.0000   0.0000   0.0000   0.0000
     0.0000   0.0000   0.0000   0.0000   0.0000   0.0000   0.0000   0.0000
     0.0000   0.0000   0.0000   0.0000

          k = 0.0000-0.5774 0.2322 (  3166 PWs)   bands (ev):

    -8.5974  -8.5113   2.5182   2.5677   3.2813   3.4607   3.4742   3.4867
     4.2565   4.2836   4.3075   4.3924   4.8284   4.9243   6.8585   6.8606
     7.3886   7.4675  14.1950  14.8076  16.9593  17.3204  19.4524  20.7399
    22.2426  22.6775  23.7894  26.1101  29.7114  30.4214  30.6354  32.7280
    33.1989  34.6127  34.7832  35.2679

     occupation numbers 
     1.0000   1.0000   1.0000   1.0000   1.0000   1.0000   1.0000   1.0000
     1.0000   1.0000   1.0000   1.0000   1.0000   1.0000   1.0000   1.0000
     1.0000   1.0000   0.0000   0.0000   0.0000   0.0000   0.0000   0.0000
     0.0000   0.0000   0.0000   0.0000   0.0000   0.0000   0.0000   0.0000
     0.0000   0.0000   0.0000   0.0000

          k = 0.0000-0.5774-0.3096 (  3160 PWs)   bands (ev):

    -8.5530  -8.5530   2.5057   2.5057   3.3785   3.3785   3.4579   3.4579
     4.2679   4.2679   4.3615   4.3615   4.8629   4.8629   7.1305   7.1305
     7.2519   7.2519  14.4205  14.4205  17.1757  17.1757  20.0025  20.0025
    22.4552  22.4552  24.8311  24.8311  30.2694  30.2694  31.5957  31.5957
    33.8790  33.8790  34.9759  34.9759

     occupation numbers 
     1.0000   1.0000   1.0000   1.0000   1.0000   1.0000   1.0000   1.0000
     1.0000   1.0000   1.0000   1.0000   1.0000   1.0000   1.0000   1.0000
     1.0000   1.0000   0.0000   0.0000   0.0000   0.0000   0.0000   0.0000
     0.0000   0.0000   0.0000   0.0000   0.0000   0.0000   0.0000   0.0000
     0.0000   0.0000   0.0000   0.0000

          k = 0.1250 0.2165 0.0000 (  3140 PWs)   bands (ev):

    -9.1323  -8.5416   2.7183   2.9238   3.0488   3.0892   3.2931   3.3868
     3.9889   4.0672   4.2996   4.4753   4.5519   6.6239   6.8914   7.4041
     8.2225   8.2441  11.5793  15.5267  16.8799  18.9686  20.5574  21.8994
    21.9387  23.8544  24.2763  24.6441  29.2315  29.2991  30.5352  31.1563
    32.8229  32.9753  34.2387  35.1603

     occupation numbers 
     1.0000   1.0000   1.0000   1.0000   1.0000   1.0000   1.0000   1.0000
     1.0000   1.0000   1.0000   1.0000   1.0000   1.0000   1.0000   1.0000
     1.0000   1.0000   0.0000   0.0000   0.0000   0.0000   0.0000   0.0000
     0.0000   0.0000   0.0000   0.0000   0.0000   0.0000   0.0000   0.0000
     0.0000   0.0000   0.0000   0.0000

          k = 0.1250 0.2165 0.0774 (  3132 PWs)   bands (ev):

    -9.1103  -8.5644   2.6997   2.8943   3.0428   3.0658   3.2792   3.3081
     4.0093   4.0821   4.2923   4.3885   4.8381   6.6734   6.8721   7.3846
     8.1954   8.2049  11.6990  15.2756  17.0475  19.0035  20.6122  21.5963
    21.8196  23.5198  24.5035  25.0612  28.9404  29.5293  30.9020  31.3223
    32.2109  32.8450  34.2184  35.5568

     occupation numbers 
     1.0000   1.0000   1.0000   1.0000   1.0000   1.0000   1.0000   1.0000
     1.0000   1.0000   1.0000   1.0000   1.0000   1.0000   1.0000   1.0000
     1.0000   1.0000   0.0000   0.0000   0.0000   0.0000   0.0000   0.0000
     0.0000   0.0000   0.0000   0.0000   0.0000   0.0000   0.0000   0.0000
     0.0000   0.0000   0.0000   0.0000

          k = 0.1250 0.2165 0.1548 (  3128 PWs)   bands (ev):

    -9.0472  -8.6291   2.6513   2.7782   3.0354   3.0455   3.2125   3.2423
     4.0630   4.1133   4.2712   4.3331   5.3200   6.7650   6.8252   7.4086
     8.0694   8.0935  12.0516  14.7043  17.4202  19.0671  20.6622  20.8819
    21.7260  23.0069  25.1072  25.7248  28.3949  29.9875  30.9427  31.4373
    31.9027  32.8952  34.0861  35.6449

     occupation numbers 
     1.0000   1.0000   1.0000   1.0000   1.0000   1.0000   1.0000   1.0000
     1.0000   1.0000   1.0000   1.0000   1.0000   1.0000   1.0000   1.0000
     1.0000   1.0000   0.0000   0.0000   0.0000   0.0000   0.0000   0.0000
     0.0000   0.0000   0.0000   0.0000   0.0000   0.0000   0.0000   0.0000
     0.0000   0.0000   0.0000   0.0000

          k = 0.1250 0.2165 0.2322 (  3122 PWs)   bands (ev):

    -8.9522  -8.7258   2.6008   2.6499   3.0406   3.0542   3.1612   3.1951
     4.1341   4.1533   4.2384   4.2764   5.8161   6.5432   7.0854   7.5305
     7.8108   7.9277  12.6007  14.0049  17.9104  18.9613  20.3406  20.5290
    21.8375  22.5285  25.9295  26.2982  27.9901  29.1190  31.0453  31.8181
    32.6080  32.7637  33.8737  34.8056

     occupation numbers 
     1.0000   1.0000   1.0000   1.0000   1.0000   1.0000   1.0000   1.0000
     1.0000   1.0000   1.0000   1.0000   1.0000   1.0000   1.0000   1.0000
     1.0000   1.0000   0.0000   0.0000   0.0000   0.0000   0.0000   0.0000
     0.0000   0.0000   0.0000   0.0000   0.0000   0.0000   0.0000   0.0000
     0.0000   0.0000   0.0000   0.0000

          k = 0.1250 0.2165-0.3096 (  3122 PWs)   bands (ev):

    -8.8393  -8.8393   2.5897   2.5897   3.0547   3.0547   3.1574   3.1574
     4.1952   4.1952   4.2107   4.2107   6.2294   6.2294   7.4296   7.4296
     7.7394   7.7394  13.2777  13.2777  18.4836  18.4836  20.3182  20.3182
    22.1300  22.1300  26.5142  26.5142  28.0974  28.0974  31.6697  31.6697
    32.6856  32.6856  34.1908  34.1908

     occupation numbers 
     1.0000   1.0000   1.0000   1.0000   1.0000   1.0000   1.0000   1.0000
     1.0000   1.0000   1.0000   1.0000   1.0000   1.0000   1.0000   1.0000
     1.0000   1.0000   0.0000   0.0000   0.0000   0.0000   0.0000   0.0000
     0.0000   0.0000   0.0000   0.0000   0.0000   0.0000   0.0000   0.0000
     0.0000   0.0000   0.0000   0.0000

          k = 0.1250 0.3608 0.0000 (  3143 PWs)   bands (ev):

    -8.8894  -8.4681   2.6801   2.9324   3.1005   3.2614   3.5142   3.6445
     3.9568   4.1169   4.3163   4.5024   4.7699   5.6881   6.2694   6.6282
     7.8184   7.8674  13.0625  16.2939  17.0582  17.6833  19.7648  20.6589
    21.3578  23.3905  24.5823  26.0095  28.8912  29.5300  31.4127  32.8161
    33.6332  33.9994  35.2225  35.7114

     occupation numbers 
     1.0000   1.0000   1.0000   1.0000   1.0000   1.0000   1.0000   1.0000
     1.0000   1.0000   1.0000   1.0000   1.0000   1.0000   1.0000   1.0000
     1.0000   1.0000   0.0000   0.0000   0.0000   0.0000   0.0000   0.0000
     0.0000   0.0000   0.0000   0.0000   0.0000   0.0000   0.0000   0.0000
     0.0000   0.0000   0.0000   0.0000

          k = 0.1250 0.3608 0.0774 (  3143 PWs)   bands (ev):

    -8.8728  -8.4834   2.6591   2.8965   3.0996   3.2467   3.4937   3.5315
     3.9831   4.1427   4.3089   4.4651   4.9525   5.7661   6.2719   6.6475
     7.7938   7.8562  13.1118  16.0126  17.1914  17.7254  19.8293  20.6322
    21.2305  23.4626  24.4670  26.0909  28.6722  30.0590  31.2205  32.2381
    33.3757  34.4363  35.5399  35.7612

     occupation numbers 
     1.0000   1.0000   1.0000   1.0000   1.0000   1.0000   1.0000   1.0000
     1.0000   1.0000   1.0000   1.0000   1.0000   1.0000   1.0000   1.0000
     1.0000   1.0000   0.0000   0.0000   0.0000   0.0000   0.0000   0.0000
     0.0000   0.0000   0.0000   0.0000   0.0000   0.0000   0.0000   0.0000
     0.0000   0.0000   0.0000   0.0000

          k = 0.1250 0.3608 0.1548 (  3141 PWs)   bands (ev):

    -8.8257  -8.5274   2.6084   2.7824   3.1124   3.2177   3.3842   3.4416
     4.0534   4.1732   4.2898   4.4057   5.2494   5.9047   6.3635   6.7545
     7.6594   7.8251  13.2864  15.4355  17.4112  17.8271  19.7659  20.5461
    21.2102  23.3884  24.4383  26.3352  28.3602  30.3276  31.1505  31.6051
    33.6796  34.5235  35.0870  35.9974

     occupation numbers 
     1.0000   1.0000   1.0000   1.0000   1.0000   1.0000   1.0000   1.0000
     1.0000   1.0000   1.0000   1.0000   1.0000   1.0000   1.0000   1.0000
     1.0000   1.0000   0.0000   0.0000   0.0000   0.0000   0.0000   0.0000
     0.0000   0.0000   0.0000   0.0000   0.0000   0.0000   0.0000   0.0000
     0.0000   0.0000   0.0000   0.0000

          k = 0.1250 0.3608 0.2322 (  3148 PWs)   bands (ev):

    -8.7558  -8.5942   2.5638   2.6474   3.1436   3.1991   3.3144   3.3733
     4.1419   4.1991   4.2661   4.3337   5.4869   5.8424   6.7473   6.9591
     7.4535   7.6550  13.6315  14.7784  17.6380  17.9010  19.6370  20.1324
    21.7237  22.9221  24.9050  26.2797  28.2835  29.4883  31.4872  31.7598
    34.0565  34.4168  34.9849  35.7175

     occupation numbers 
     1.0000   1.0000   1.0000   1.0000   1.0000   1.0000   1.0000   1.0000
     1.0000   1.0000   1.0000   1.0000   1.0000   1.0000   1.0000   1.0000
     1.0000   1.0000   0.0000   0.0000   0.0000   0.0000   0.0000   0.0000
     0.0000   0.0000   0.0000   0.0000   0.0000   0.0000   0.0000   0.0000
     0.0000   0.0000   0.0000   0.0000

          k = 0.1250 0.3608-0.3096 (  3146 PWs)   bands (ev):

    -8.6744  -8.6744   2.5684   2.5684   3.1778   3.1778   3.3178   3.3178
     4.2108   4.2108   4.2631   4.2631   5.6810   5.6810   7.1085   7.1085
     7.3553   7.3553  14.1482  14.1482  17.8319  17.8319  19.7562  19.7562
    22.3391  22.3391  25.6335  25.6335  28.7554  28.7554  31.7000  31.7000
    34.3373  34.3373  35.2556  35.2556

     occupation numbers 
     1.0000   1.0000   1.0000   1.0000   1.0000   1.0000   1.0000   1.0000
     1.0000   1.0000   1.0000   1.0000   1.0000   1.0000   1.0000   1.0000
     1.0000   1.0000   0.0000   0.0000   0.0000   0.0000   0.0000   0.0000
     0.0000   0.0000   0.0000   0.0000   0.0000   0.0000   0.0000   0.0000
     0.0000   0.0000   0.0000   0.0000

          k = 0.1250 0.5052 0.0000 (  3136 PWs)   bands (ev):

    -8.6799  -8.4473   2.7236   3.0201   3.1257   3.4358   3.6214   3.7121
     4.0798   4.1600   4.3431   4.4976   4.7819   5.2824   5.7936   6.1988
     7.3134   7.5995  14.5266  16.2472  16.3376  17.3418  19.4000  20.8884
    21.0639  22.6908  24.6614  27.5094  28.8055  29.1505  31.3562  33.2733
    34.0657  34.4191  35.5787  36.0575

     occupation numbers 
     1.0000   1.0000   1.0000   1.0000   1.0000   1.0000   1.0000   1.0000
     1.0000   1.0000   1.0000   1.0000   1.0000   1.0000   1.0000   1.0000
     1.0000   1.0000   0.0000   0.0000   0.0000   0.0000   0.0000   0.0000
     0.0000   0.0000   0.0000   0.0000   0.0000   0.0000   0.0000   0.0000
     0.0000   0.0000   0.0000   0.0000

          k = 0.1250 0.5052 0.0774 (  3138 PWs)   bands (ev):

    -8.6698  -8.4548   2.7022   2.9573   3.1312   3.4231   3.5914   3.6702
     4.0920   4.1880   4.3396   4.5022   4.7763   5.2933   5.8907   6.2913
     7.3490   7.5627  14.4827  15.9868  16.5829  17.3728  19.2597  20.7878
    21.1856  22.7954  24.5900  27.3850  28.5447  29.8717  30.7481  33.0273
    34.2600  34.5587  35.2957  36.0621

     occupation numbers 
     1.0000   1.0000   1.0000   1.0000   1.0000   1.0000   1.0000   1.0000
     1.0000   1.0000   1.0000   1.0000   1.0000   1.0000   1.0000   1.0000
     1.0000   1.0000   0.0000   0.0000   0.0000   0.0000   0.0000   0.0000
     0.0000   0.0000   0.0000   0.0000   0.0000   0.0000   0.0000   0.0000
     0.0000   0.0000   0.0000   0.0000

          k = 0.1250 0.5052 0.1548 (  3151 PWs)   bands (ev):

    -8.6415  -8.4766   2.6474   2.8098   3.1588   3.3977   3.5320   3.5804
     4.1382   4.2186   4.3382   4.4872   4.8138   5.2434   6.1562   6.5649
     7.3044   7.5431  14.4286  15.6255  16.8557  17.4283  19.0305  20.3871
    21.6446  22.9815  24.4626  26.9433  28.5770  30.1731  30.7862  32.2593
    34.0798  34.6142  35.2544  36.2090

     occupation numbers 
     1.0000   1.0000   1.0000   1.0000   1.0000   1.0000   1.0000   1.0000
     1.0000   1.0000   1.0000   1.0000   1.0000   1.0000   1.0000   1.0000
     1.0000   1.0000   0.0000   0.0000   0.0000   0.0000   0.0000   0.0000
     0.0000   0.0000   0.0000   0.0000   0.0000   0.0000   0.0000   0.0000
     0.0000   0.0000   0.0000   0.0000

          k = 0.1250 0.5052 0.2322 (  3149 PWs)   bands (ev):

    -8.6005  -8.5112   2.5952   2.6680   3.2161   3.3633   3.4839   3.4941
     4.1882   4.2283   4.3548   4.4439   4.9062   5.1393   6.4693   6.9294
     7.1115   7.5174  14.5046  15.1932  17.0940  17.4123  19.0237  19.8460
    22.2621  23.0236  24.5456  26.0297  29.0495  30.2514  30.9489  31.4898
    34.2295  34.7571  35.1650  35.9593

     occupation numbers 
     1.0000   1.0000   1.0000   1.0000   1.0000   1.0000   1.0000   1.0000
     1.0000   1.0000   1.0000   1.0000   1.0000   1.0000   1.0000   1.0000
     1.0000   1.0000   0.0000   0.0000   0.0000   0.0000   0.0000   0.0000
     0.0000   0.0000   0.0000   0.0000   0.0000   0.0000   0.0000   0.0000
     0.0000   0.0000   0.0000   0.0000

          k = 0.1250 0.5052-0.3096 (  3144 PWs)   bands (ev):

    -8.5545  -8.5545   2.5929   2.5929   3.2949   3.2949   3.4640   3.4640
     4.2187   4.2187   4.3940   4.3940   5.0210   5.0210   6.7784   6.7784
     7.3269   7.3269  14.7778  14.7778  17.2862  17.2862  19.3363  19.3363
    22.7818  22.7818  25.0913  25.0913  29.8231  29.8231  31.0302  31.0302
    34.5913  34.5913  35.5369  35.5369

     occupation numbers 
     1.0000   1.0000   1.0000   1.0000   1.0000   1.0000   1.0000   1.0000
     1.0000   1.0000   1.0000   1.0000   1.0000   1.0000   1.0000   1.0000
     1.0000   1.0000   0.0000   0.0000   0.0000   0.0000   0.0000   0.0000
     0.0000   0.0000   0.0000   0.0000   0.0000   0.0000   0.0000   0.0000
     0.0000   0.0000   0.0000   0.0000

          k = 0.2500 0.4330 0.0000 (  3130 PWs)   bands (ev):

    -8.6852  -8.4446   2.8492   2.9686   3.2506   3.3264   3.6859   3.8070
     3.9505   4.0903   4.3465   4.6020   4.7113   5.4395   5.7947   5.9503
     7.3233   7.3926  14.5881  16.3368  17.2154  17.3443  19.7467  19.9883
    20.3040  23.1439  23.9862  27.2706  30.4183  30.8769  31.5384  31.6486
    32.9988  34.8469  35.0526  35.7180

     occupation numbers 
     1.0000   1.0000   1.0000   1.0000   1.0000   1.0000   1.0000   1.0000
     1.0000   1.0000   1.0000   1.0000   1.0000   1.0000   1.0000   1.0000
     1.0000   1.0000   0.0000   0.0000   0.0000   0.0000   0.0000   0.0000
     0.0000   0.0000   0.0000   0.0000   0.0000   0.0000   0.0000   0.0000
     0.0000   0.0000   0.0000   0.0000

          k = 0.2500 0.4330 0.0774 (  3146 PWs)   bands (ev):

    -8.6748  -8.4524   2.8465   2.9214   3.2506   3.2899   3.6539   3.6733
     3.9846   4.1594   4.3442   4.5994   4.7662   5.4721   5.7916   6.0931
     7.2625   7.4451  14.6024  16.2361  17.2403  17.3845  19.3939  19.7921
    20.6589  23.3845  24.1434  26.9423  30.0888  30.4924  31.4778  31.9081
    33.2244  34.5387  35.2623  35.9187

     occupation numbers 
     1.0000   1.0000   1.0000   1.0000   1.0000   1.0000   1.0000   1.0000
     1.0000   1.0000   1.0000   1.0000   1.0000   1.0000   1.0000   1.0000
     1.0000   1.0000   0.0000   0.0000   0.0000   0.0000   0.0000   0.0000
     0.0000   0.0000   0.0000   0.0000   0.0000   0.0000   0.0000   0.0000
     0.0000   0.0000   0.0000   0.0000

          k = 0.2500 0.4330 0.1548 (  3158 PWs)   bands (ev):

    -8.6457  -8.4752   2.8190   2.8205   3.2018   3.2472   3.5343   3.5755
     4.0622   4.2062   4.3464   4.5506   4.9150   5.4640   5.8908   6.4429
     7.1030   7.5346  14.6702  15.9602  17.3129  17.4810  18.8900  19.3487
    21.3038  23.9729  24.3021  26.3809  29.3601  29.5692  31.6562  32.4188
    33.7123  33.7925  35.6876  36.1107

     occupation numbers 
     1.0000   1.0000   1.0000   1.0000   1.0000   1.0000   1.0000   1.0000
     1.0000   1.0000   1.0000   1.0000   1.0000   1.0000   1.0000   1.0000
     1.0000   1.0000   0.0000   0.0000   0.0000   0.0000   0.0000   0.0000
     0.0000   0.0000   0.0000   0.0000   0.0000   0.0000   0.0000   0.0000
     0.0000   0.0000   0.0000   0.0000

          k = 0.2500 0.4330 0.2322 (  3151 PWs)   bands (ev):

    -8.6035  -8.5111   2.7306   2.7524   3.1654   3.2311   3.4728   3.4958
     4.1407   4.2127   4.3673   4.4814   5.0750   5.3604   6.1379   6.6711
     7.0535   7.5292  14.8467  15.5695  17.4243  17.5692  18.5555  18.8855
    22.1258  23.8937  24.7107  26.0149  28.6161  29.0737  31.7806  32.3694
    33.6318  33.9852  36.0759  36.1914

     occupation numbers 
     1.0000   1.0000   1.0000   1.0000   1.0000   1.0000   1.0000   1.0000
     1.0000   1.0000   1.0000   1.0000   1.0000   1.0000   1.0000   1.0000
     1.0000   1.0000   0.0000   0.0000   0.0000   0.0000   0.0000   0.0000
     0.0000   0.0000   0.0000   0.0000   0.0000   0.0000   0.0000   0.0000
     0.0000   0.0000   0.0000   0.0000

          k = 0.2500 0.4330-0.3096 (  3156 PWs)   bands (ev):

    -8.5560  -8.5560   2.7051   2.7051   3.1948   3.1948   3.4589   3.4589
     4.1922   4.1922   4.4146   4.4146   5.2245   5.2245   6.4365   6.4365
     7.3463   7.3463  15.1622  15.1622  17.5419  17.5419  18.5671  18.5671
    23.0468  23.0468  25.4600  25.4600  28.6507  28.6507  31.9938  31.9938
    33.8885  33.8885  36.1822  36.1822

     occupation numbers 
     1.0000   1.0000   1.0000   1.0000   1.0000   1.0000   1.0000   1.0000
     1.0000   1.0000   1.0000   1.0000   1.0000   1.0000   1.0000   1.0000
     1.0000   1.0000   0.0000   0.0000   0.0000   0.0000   0.0000   0.0000
     0.0000   0.0000   0.0000   0.0000   0.0000   0.0000   0.0000   0.0000
     0.0000   0.0000   0.0000   0.0000

          k = 0.2500 0.5774 0.0000 (  3144 PWs)   bands (ev):

    -8.5649  -8.4697   2.8310   3.1683   3.3379   3.4649   3.7487   3.8190
     4.0435   4.1169   4.2919   4.3146   4.9886   5.0590   5.2189   6.4304
     6.8873   7.1301  15.8288  16.3207  16.4901  17.1546  19.3862  19.8096
    21.5516  22.0432  23.4975  29.0980  29.3671  30.8870  31.4349  31.7448
    34.4267  35.0461  35.1818  35.4828

     occupation numbers 
     1.0000   1.0000   1.0000   1.0000   1.0000   1.0000   1.0000   1.0000
     1.0000   1.0000   1.0000   1.0000   1.0000   1.0000   1.0000   1.0000
     1.0000   1.0000   0.0000   0.0000   0.0000   0.0000   0.0000   0.0000
     0.0000   0.0000   0.0000   0.0000   0.0000   0.0000   0.0000   0.0000
     0.0000   0.0000   0.0000   0.0000

          k = 0.2500 0.5774 0.0774 (  3135 PWs)   bands (ev):

    -8.5597  -8.4717   2.8376   3.1344   3.2366   3.4571   3.7102   3.7670
     4.0622   4.1331   4.3281   4.3632   4.9476   5.1809   5.1850   6.5495
     6.8878   7.1415  15.7741  16.4229  16.4574  17.1962  19.0173  19.5484
    21.7270  22.4215  23.7807  28.4443  28.9870  30.5599  31.6463  32.0753
    34.1755  34.6752  35.4718  35.9497

     occupation numbers 
     1.0000   1.0000   1.0000   1.0000   1.0000   1.0000   1.0000   1.0000
     1.0000   1.0000   1.0000   1.0000   1.0000   1.0000   1.0000   1.0000
     1.0000   1.0000   0.0000   0.0000   0.0000   0.0000   0.0000   0.0000
     0.0000   0.0000   0.0000   0.0000   0.0000   0.0000   0.0000   0.0000
     0.0000   0.0000   0.0000   0.0000

          k = 0.2500 0.5774 0.1548 (  3141 PWs)   bands (ev):

    -8.5457  -8.4782   2.8417   3.0471   3.0743   3.3955   3.6528   3.6795
     4.0862   4.1426   4.4154   4.4717   4.8993   5.1044   5.4380   6.7390
     6.8400   7.2709  15.7117  16.3505  16.6365  17.3209  18.3182  18.9933
    22.2138  23.1589  24.3889  27.1074  28.3754  29.9830  31.7162  32.3866
    33.9974  34.5060  35.8868  36.6371

     occupation numbers 
     1.0000   1.0000   1.0000   1.0000   1.0000   1.0000   1.0000   1.0000
     1.0000   1.0000   1.0000   1.0000   1.0000   1.0000   1.0000   1.0000
     1.0000   1.0000   0.0000   0.0000   0.0000   0.0000   0.0000   0.0000
     0.0000   0.0000   0.0000   0.0000   0.0000   0.0000   0.0000   0.0000
     0.0000   0.0000   0.0000   0.0000

          k = 0.2500 0.5774 0.2322 (  3144 PWs)   bands (ev):

    -8.5264  -8.4899   2.8145   2.8873   3.0829   3.2832   3.6197   3.6283
     4.1051   4.1361   4.5049   4.5584   4.8799   5.0097   5.7634   6.4569
     7.1588   7.3956  15.7478  16.1560  16.8873  17.4689  17.7676  18.4223
    22.9642  23.8108  24.8781  25.7700  28.0986  29.1936  31.8128  32.2736
    34.1194  34.5268  36.0005  36.2516

     occupation numbers 
     1.0000   1.0000   1.0000   1.0000   1.0000   1.0000   1.0000   1.0000
     1.0000   1.0000   1.0000   1.0000   1.0000   1.0000   1.0000   1.0000
     1.0000   1.0000   0.0000   0.0000   0.0000   0.0000   0.0000   0.0000
     0.0000   0.0000   0.0000   0.0000   0.0000   0.0000   0.0000   0.0000
     0.0000   0.0000   0.0000   0.0000

          k = 0.2500 0.5774-0.3096 (  3144 PWs)   bands (ev):

    -8.5066  -8.5066   2.8098   2.8098   3.1661   3.1661   3.6117   3.6117
     4.1221   4.1221   4.5644   4.5644   4.9236   4.9236   6.1159   6.1159
     7.3687   7.3687  15.9167  15.9167  17.1843  17.1843  17.9584  17.9584
    23.7867  23.7867  25.0373  25.0373  28.4404  28.4404  32.0203  32.0203
    34.3780  34.3780  35.9871  35.9871

     occupation numbers 
     1.0000   1.0000   1.0000   1.0000   1.0000   1.0000   1.0000   1.0000
     1.0000   1.0000   1.0000   1.0000   1.0000   1.0000   1.0000   1.0000
     1.0000   1.0000   0.0000   0.0000   0.0000   0.0000   0.0000   0.0000
     0.0000   0.0000   0.0000   0.0000   0.0000   0.0000   0.0000   0.0000
     0.0000   0.0000   0.0000   0.0000

     highest occupied, lowest unoccupied level (ev):     8.6107    9.5100

!    total energy              =    -270.55518865 Ry
     estimated scf accuracy    <          1.8E-10 Ry

     The total energy is the sum of the following terms:
     one-electron contribution =     -80.53568156 Ry
     hartree contribution      =      73.99438415 Ry
     xc contribution           =     -45.40897576 Ry
     ewald contribution        =    -218.60491548 Ry

     convergence has been achieved in  15 iterations

     Forces acting on atoms (cartesian axes, Ry/au):

     atom    1 type  1   force =     0.00000000    0.00000000    0.00000028
     atom    2 type  1   force =    -0.00000000   -0.00000000    0.00000028
     atom    3 type  2   force =     0.00000000    0.00000000   -0.00000028
     atom    4 type  2   force =    -0.00000000   -0.00000000   -0.00000028
     The non-local contrib.  to forces
     atom    1 type  1   force =     0.00000000   -0.00000000   -0.00391884
     atom    2 type  1   force =     0.00000000   -0.00000000   -0.00391884
     atom    3 type  2   force =    -0.00000000    0.00000000    0.00239490
     atom    4 type  2   force =     0.00000000   -0.00000000    0.00239490
     The ionic contribution  to forces
     atom    1 type  1   force =    -0.00000000    0.00000000    0.06973285
     atom    2 type  1   force =     0.00000000   -0.00000000    0.06973285
     atom    3 type  2   force =    -0.00000000    0.00000000   -0.06973285
     atom    4 type  2   force =     0.00000000   -0.00000000   -0.06973285
     The local contribution  to forces
     atom    1 type  1   force =    -0.00000001    0.00000001   -0.06581389
     atom    2 type  1   force =     0.00000004   -0.00000002   -0.06581389
     atom    3 type  2   force =    -0.00000000    0.00000000    0.06733158
     atom    4 type  2   force =     0.00000001   -0.00000001    0.06733159
     The core correction contribution to forces
     atom    1 type  1   force =     0.00000000    0.00000000    0.00000000
     atom    2 type  1   force =     0.00000000    0.00000000    0.00000000
     atom    3 type  2   force =     0.00000000    0.00000000    0.00000000
     atom    4 type  2   force =     0.00000000    0.00000000    0.00000000
     The Hubbard contrib.    to forces
     atom    1 type  1   force =     0.00000000    0.00000000    0.00000000
     atom    2 type  1   force =     0.00000000    0.00000000    0.00000000
     atom    3 type  2   force =     0.00000000    0.00000000    0.00000000
     atom    4 type  2   force =     0.00000000    0.00000000    0.00000000
     The SCF correction term to forces
     atom    1 type  1   force =     0.00000000   -0.00000000   -0.00000744
     atom    2 type  1   force =    -0.00000000    0.00000000   -0.00000744
     atom    3 type  2   force =     0.00000000   -0.00000000   -0.00000151
     atom    4 type  2   force =    -0.00000000    0.00000000   -0.00000151

     Total force =     0.000001     Total SCF correction =     0.000011
     SCF correction compared to forces is large: reduce conv_thr to get better values


     Computing stress (Cartesian axis) and pressure

          total   stress  (Ry/bohr**3)                   (kbar)     P=        0.07
   0.00000055   0.00000000   0.00000000            0.08        0.00        0.00
   0.00000000   0.00000055   0.00000000            0.00        0.08        0.00
   0.00000000   0.00000000   0.00000031            0.00        0.00        0.04

     kinetic stress (kbar)  73005.45      0.00      0.00
                                0.00  73005.45      0.00
                                0.00      0.00  73032.60

     local   stress (kbar)  47954.64     -0.00     -0.00
                               -0.00  47954.64      0.00
                               -0.00      0.00  45993.11

     nonloc. stress (kbar) -91309.55      0.00      0.00
                                0.00 -91309.55      0.00
                                0.00      0.00 -91336.77

     hartree stress (kbar)  11119.68     -0.00      0.00
                               -0.00  11119.68     -0.00
                                0.00     -0.00  12042.92

     exc-cor stress (kbar)  -6663.40     -0.00      0.00
                               -0.00  -6663.40     -0.00
                                0.00     -0.00  -6663.64

     corecor stress (kbar)      0.00      0.00      0.00
                                0.00      0.00      0.00
                                0.00      0.00      0.00

     ewald   stress (kbar) -34106.75      0.00     -0.00
                                0.00 -34106.75     -0.00
                               -0.00     -0.00 -33068.18

     hubbard stress (kbar)      0.00      0.00      0.00
                                0.00      0.00      0.00
                                0.00      0.00      0.00

     DFT-D   stress (kbar)      0.00      0.00      0.00
                                0.00      0.00      0.00
                                0.00      0.00      0.00

     XDM     stress (kbar)      0.00      0.00      0.00
                                0.00      0.00      0.00
                                0.00      0.00      0.00

     dft-nl  stress (kbar)      0.00      0.00      0.00
                                0.00      0.00      0.00
                                0.00      0.00      0.00

     TS-vdW  stress (kbar)      0.00      0.00      0.00
                                0.00      0.00      0.00
                                0.00      0.00      0.00

     MDB     stress (kbar)      0.00      0.00      0.00
                                0.00      0.00      0.00
                                0.00      0.00      0.00

     3D-RISM stress (kbar)      0.00      0.00      0.00
                                0.00      0.00      0.00
                                0.00      0.00      0.00

     Message from routine punch:
     Nothing written, as per user request (disk_io='none')
 
     init_run     :      0.68s CPU      0.72s WALL (       1 calls)
     electrons    :     33.48s CPU     34.40s WALL (       1 calls)
     forces       :      0.05s CPU      0.05s WALL (       1 calls)
     stress       :      0.23s CPU      0.23s WALL (       1 calls)

     Called by init_run:
     wfcinit      :      0.62s CPU      0.65s WALL (       1 calls)
     wfcinit:atom :      0.00s CPU      0.00s WALL (      50 calls)
     wfcinit:wfcr :      0.60s CPU      0.63s WALL (      50 calls)
     potinit      :      0.01s CPU      0.02s WALL (       1 calls)
     hinit0       :      0.03s CPU      0.03s WALL (       1 calls)

     Called by electrons:
     c_bands      :     29.14s CPU     29.92s WALL (      15 calls)
     sum_band     :      4.10s CPU      4.24s WALL (      15 calls)
     v_of_rho     :      0.10s CPU      0.11s WALL (      16 calls)
     v_h          :      0.01s CPU      0.01s WALL (      16 calls)
     v_xc         :      0.09s CPU      0.10s WALL (      16 calls)
     mix_rho      :      0.12s CPU      0.13s WALL (      15 calls)

     Called by c_bands:
     init_us_2    :      0.15s CPU      0.15s WALL (    1650 calls)
     cegterg      :     28.79s CPU     29.55s WALL (     750 calls)

     Called by sum_band:
     sum_band:wei :      0.00s CPU      0.00s WALL (      15 calls)
     sum_band:loo :      4.08s CPU      4.22s WALL (      15 calls)
     sum_band:buf :      0.02s CPU      0.02s WALL (     750 calls)
     sum_band:ini :      0.07s CPU      0.07s WALL (     750 calls)

     Called by *egterg:
     cdiaghg      :      7.69s CPU      7.73s WALL (    2609 calls)
     cegterg:over :      1.06s CPU      1.10s WALL (    1859 calls)
     cegterg:upda :      0.47s CPU      0.47s WALL (    1859 calls)
     cegterg:last :      0.83s CPU      0.84s WALL (    1313 calls)
     h_psi        :     18.53s CPU     19.21s WALL (    2659 calls)
     g_psi        :      0.05s CPU      0.05s WALL (    1859 calls)

     Called by h_psi:
     h_psi:calbec :      0.41s CPU      0.43s WALL (    2659 calls)
     vloc_psi     :     17.76s CPU     18.42s WALL (    2659 calls)
                                        0.00s GPU  (    2659 calls)
     add_vuspsi   :      0.29s CPU      0.30s WALL (    2659 calls)

     General routines
     calbec       :      0.57s CPU      0.59s WALL (    3509 calls)
     fft          :      0.05s CPU      0.06s WALL (     197 calls)
     ffts         :      0.07s CPU      0.08s WALL (     363 calls)
     fftw         :     20.04s CPU     20.78s WALL (  154762 calls)
     interpolate  :      0.01s CPU      0.01s WALL (      16 calls)
 
     Parallel routines
 
     PWSCF        :     34.58s CPU     35.56s WALL

 
   This run was terminated on:  17:53:37  22Nov2025            

=------------------------------------------------------------------------------=
   JOB DONE.
=------------------------------------------------------------------------------=
