
     Program PWSCF v.7.5 starts on 12Mar2026 at 18: 7:53 

     This program is part of the open-source Quantum ESPRESSO suite
     for quantum simulation of materials; please cite
         "P. Giannozzi et al., J. Phys.:Condens. Matter 21 395502 (2009);
         "P. Giannozzi et al., J. Phys.:Condens. Matter 29 465901 (2017);
         "P. Giannozzi et al., J. Chem. Phys. 152 154105 (2020);
          URL http://www.quantum-espresso.org", 
     in publications or presentations arising from this work. More details at
     http://www.quantum-espresso.org/quote

     Parallel version (MPI), running on    16 processors

     MPI processes distributed on     1 nodes
     46113 MiB available memory on the printing compute node when the environment starts
 
     Waiting for input...
     Reading input from standard input
Warning: card &CELL ignored
Warning: card &FCP ignored
Warning: card &RISM ignored

     Current dimensions of program PWSCF are:
     Max number of different atomic species (ntypx) = 10
     Max number of k-points (npk) =  40000
     Max angular momentum in pseudopotentials (lmaxx) =  4
     Message from routine setup:
     using ibrav=0 with symmetry is DISCOURAGED, use correct ibrav instead
 
     R & G space division:  proc/nbgrp/npool/nimage =      16
     Subspace diagonalization in iterative solution of the eigenvalue problem:
     a serial algorithm will be used

 
     Parallelization info
     --------------------
     sticks:   dense  smooth     PW     G-vecs:    dense   smooth      PW
     Min          50      50     15                 1804     1804     291
     Max          51      51     16                 1811     1811     296
     Sum         805     805    241                28913    28913    4673
 
     Using Slab Decomposition
 


     bravais-lattice index     =            0
     lattice parameter (alat)  =       6.0471  a.u.
     unit-cell volume          =     299.2245 (a.u.)^3
     number of atoms/cell      =            4
     number of atomic types    =            2
     number of electrons       =        52.00
     number of Kohn-Sham states=           36
     kinetic-energy cutoff     =      80.0000  Ry
     charge density cutoff     =     320.0000  Ry
     scf convergence threshold =      1.0E-12
     mixing beta               =       0.3000
     number of iterations used =            8  local-TF  mixing
     energy convergence thresh.=      1.0E-08
     force convergence thresh. =      1.0E-04
     Exchange-correlation= SLA  PW   NOGX NOGC
                           (   1   4   0   0   0   0   0)
     nstep                     =          300


     celldm(1)=   6.047124  celldm(2)=   0.000000  celldm(3)=   0.000000
     celldm(4)=   0.000000  celldm(5)=   0.000000  celldm(6)=   0.000000

     crystal axes: (cart. coord. in units of alat)
               a(1) = (   1.000000   0.000000   0.000000 )  
               a(2) = (  -0.500000   0.866025   0.000000 )  
               a(3) = (   0.000000   0.000000   1.562500 )  

     reciprocal axes: (cart. coord. in units 2 pi/alat)
               b(1) = (  1.000000  0.577350  0.000000 )  
               b(2) = (  0.000000  1.154701  0.000000 )  
               b(3) = (  0.000000  0.000000  0.640000 )  


     PseudoPot. # 1 for Zn read from file:
     /home/jvc/LDA_Study/pseudos/pseudo_dojo/Zn_pseudo-dojo_NC_SR_LDA.upf
     MD5 check sum: 492e12d15cacde48a98384ec5dd6fb31
     Pseudo is Norm-conserving + core correction, Zval = 20.0
     Generated using ONCVPSP code by D. R. Hamann
     Using radial grid of 1296 points,  6 beta functions with: 
                l(1) =   0
                l(2) =   0
                l(3) =   1
                l(4) =   1
                l(5) =   2
                l(6) =   2

     PseudoPot. # 2 for O  read from file:
     /home/jvc/LDA_Study/pseudos/pseudo_dojo/O_pseudo-dojo_NC_SR_LDA.upf
     MD5 check sum: 86ed389b6a5065e60c3f64c68a612de9
     Pseudo is Norm-conserving + core correction, Zval =  6.0
     Generated using ONCVPSP code by D. R. Hamann
     Using radial grid of  926 points,  5 beta functions with: 
                l(1) =   0
                l(2) =   0
                l(3) =   1
                l(4) =   1
                l(5) =   2

     atomic species   valence    mass     pseudopotential
     Zn               20.00    65.38000     Zn( 1.00)
     O                 6.00    15.99900     O ( 1.00)

     12 Sym. Ops. (no inversion) found ( 6 have fractional translation)


                                    s                        frac. trans.

      isym =  1     identity                                     

 cryst.   s( 1) = (     1          0          0      )
                  (     0          1          0      )
                  (     0          0          1      )

 cart.    s( 1) = (  1.0000000  0.0000000  0.0000000 )
                  (  0.0000000  1.0000000  0.0000000 )
                  (  0.0000000  0.0000000  1.0000000 )


      isym =  2     180 deg rotation - cart. axis [0,0,1]        

 cryst.   s( 2) = (    -1          0          0      )    f =(  0.0000000 )
                  (     0         -1          0      )       (  0.0000000 )
                  (     0          0          1      )       (  0.5000000 )

 cart.    s( 2) = ( -1.0000000  0.0000000  0.0000000 )    f =(  0.0000000 )
                  (  0.0000000 -1.0000000  0.0000000 )       (  0.0000000 )
                  (  0.0000000  0.0000000  1.0000000 )       (  0.7812500 )


      isym =  3      60 deg rotation - cryst. axis [0,0,1]       

 cryst.   s( 3) = (     1          1          0      )    f =( -0.0000000 )
                  (    -1          0          0      )       ( -0.0000000 )
                  (     0          0          1      )       (  0.5000000 )

 cart.    s( 3) = (  0.5000000 -0.8660254  0.0000000 )    f =( -0.0000000 )
                  (  0.8660254  0.5000000  0.0000000 )       ( -0.0000000 )
                  (  0.0000000  0.0000000  1.0000000 )       (  0.7812500 )


      isym =  4      60 deg rotation - cryst. axis [0,0,-1]      

 cryst.   s( 4) = (     0         -1          0      )    f =( -0.0000000 )
                  (     1          1          0      )       (  0.0000000 )
                  (     0          0          1      )       (  0.5000000 )

 cart.    s( 4) = (  0.5000000  0.8660254  0.0000000 )    f =( -0.0000000 )
                  ( -0.8660254  0.5000000  0.0000000 )       (  0.0000000 )
                  (  0.0000000  0.0000000  1.0000000 )       (  0.7812500 )


      isym =  5     120 deg rotation - cryst. axis [0,0,1]       

 cryst.   s( 5) = (     0          1          0      )
                  (    -1         -1          0      )
                  (     0          0          1      )

 cart.    s( 5) = ( -0.5000000 -0.8660254  0.0000000 )
                  (  0.8660254 -0.5000000  0.0000000 )
                  (  0.0000000  0.0000000  1.0000000 )


      isym =  6     120 deg rotation - cryst. axis [0,0,-1]      

 cryst.   s( 6) = (    -1         -1          0      )
                  (     1          0          0      )
                  (     0          0          1      )

 cart.    s( 6) = ( -0.5000000  0.8660254  0.0000000 )
                  ( -0.8660254 -0.5000000  0.0000000 )
                  (  0.0000000  0.0000000  1.0000000 )


      isym =  7     inv. 180 deg rotation - cart. axis [0,1,0]   

 cryst.   s( 7) = (     1          0          0      )    f =( -0.0000000 )
                  (    -1         -1          0      )       (  0.0000000 )
                  (     0          0          1      )       (  0.5000000 )

 cart.    s( 7) = (  1.0000000  0.0000000  0.0000000 )    f =( -0.0000000 )
                  (  0.0000000 -1.0000000  0.0000000 )       (  0.0000000 )
                  (  0.0000000  0.0000000  1.0000000 )       (  0.7812500 )


      isym =  8     inv. 180 deg rotation - cart. axis [1,0,0]   

 cryst.   s( 8) = (    -1          0          0      )
                  (     1          1          0      )
                  (     0          0          1      )

 cart.    s( 8) = ( -1.0000000  0.0000000  0.0000000 )
                  (  0.0000000  1.0000000  0.0000000 )
                  (  0.0000000  0.0000000  1.0000000 )


      isym =  9     inv. 180 deg rotation - cryst. axis [1,-1,0] 

 cryst.   s( 9) = (     0          1          0      )    f =( -0.0000000 )
                  (     1          0          0      )       ( -0.0000000 )
                  (     0          0          1      )       (  0.5000000 )

 cart.    s( 9) = ( -0.5000000  0.8660254  0.0000000 )    f =( -0.0000000 )
                  (  0.8660254  0.5000000  0.0000000 )       ( -0.0000000 )
                  (  0.0000000  0.0000000  1.0000000 )       (  0.7812500 )


      isym = 10     inv. 180 deg rotation - cryst. axis [2,1,0]  

 cryst.   s(10) = (    -1         -1          0      )    f =(  0.0000000 )
                  (     0          1          0      )       (  0.0000000 )
                  (     0          0          1      )       (  0.5000000 )

 cart.    s(10) = ( -0.5000000 -0.8660254  0.0000000 )    f =( -0.0000000 )
                  ( -0.8660254  0.5000000  0.0000000 )       (  0.0000000 )
                  (  0.0000000  0.0000000  1.0000000 )       (  0.7812500 )


      isym = 11     inv. 180 deg rotation - cryst. axis [0,1,0]  

 cryst.   s(11) = (     1          1          0      )
                  (     0         -1          0      )
                  (     0          0          1      )

 cart.    s(11) = (  0.5000000  0.8660254  0.0000000 )
                  (  0.8660254 -0.5000000  0.0000000 )
                  (  0.0000000  0.0000000  1.0000000 )


      isym = 12     inv. 180 deg rotation - cryst. axis [1,1,0]  

 cryst.   s(12) = (     0         -1          0      )
                  (    -1          0          0      )
                  (     0          0          1      )

 cart.    s(12) = (  0.5000000 -0.8660254  0.0000000 )
                  ( -0.8660254 -0.5000000  0.0000000 )
                  (  0.0000000  0.0000000  1.0000000 )


   Cartesian axes

     site n.     atom                  positions (alat units)
         1        Zn     tau(   1) = (   0.5000000   0.2886751   0.6875000  )
         2        Zn     tau(   2) = (  -0.0000000   0.5773503   1.4687500  )
         3        O      tau(   3) = (   0.5000000   0.2886751   1.4687500  )
         4        O      tau(   4) = (  -0.0000000   0.5773503   0.6875000  )

   Crystallographic axes

     site n.     atom                  positions (cryst. coord.)
         1        Zn     tau(   1) = (  0.6666667  0.3333333  0.4400000  )
         2        Zn     tau(   2) = (  0.3333333  0.6666667  0.9400000  )
         3        O      tau(   3) = (  0.6666667  0.3333333  0.9400000  )
         4        O      tau(   4) = (  0.3333333  0.6666667  0.4400000  )

     number of k points=    21
                       cart. coord. in units 2pi/alat
        k(    1) = (   0.0000000   0.0000000   0.0000000), wk =   0.0138889
        k(    2) = (   0.0000000   0.0000000   0.1600000), wk =   0.0277778
        k(    3) = (   0.0000000   0.0000000  -0.3200000), wk =   0.0138889
        k(    4) = (   0.0000000   0.1924501   0.0000000), wk =   0.0833333
        k(    5) = (   0.0000000   0.1924501   0.1600000), wk =   0.1666667
        k(    6) = (   0.0000000   0.1924501  -0.3200000), wk =   0.0833333
        k(    7) = (   0.0000000   0.3849002   0.0000000), wk =   0.0833333
        k(    8) = (   0.0000000   0.3849002   0.1600000), wk =   0.1666667
        k(    9) = (   0.0000000   0.3849002  -0.3200000), wk =   0.0833333
        k(   10) = (   0.0000000  -0.5773503   0.0000000), wk =   0.0416667
        k(   11) = (   0.0000000  -0.5773503   0.1600000), wk =   0.0833333
        k(   12) = (   0.0000000  -0.5773503  -0.3200000), wk =   0.0416667
        k(   13) = (   0.1666667   0.2886751   0.0000000), wk =   0.0833333
        k(   14) = (   0.1666667   0.2886751   0.1600000), wk =   0.1666667
        k(   15) = (   0.1666667   0.2886751  -0.3200000), wk =   0.0833333
        k(   16) = (   0.1666667   0.4811252   0.0000000), wk =   0.1666667
        k(   17) = (   0.1666667   0.4811252   0.1600000), wk =   0.3333333
        k(   18) = (   0.1666667   0.4811252  -0.3200000), wk =   0.1666667
        k(   19) = (   0.3333333   0.5773503   0.0000000), wk =   0.0277778
        k(   20) = (   0.3333333   0.5773503   0.1600000), wk =   0.0555556
        k(   21) = (   0.3333333   0.5773503  -0.3200000), wk =   0.0277778

                       cryst. coord.
        k(    1) = (   0.0000000   0.0000000   0.0000000), wk =   0.0138889
        k(    2) = (   0.0000000   0.0000000   0.2500000), wk =   0.0277778
        k(    3) = (   0.0000000   0.0000000  -0.5000000), wk =   0.0138889
        k(    4) = (   0.0000000   0.1666667   0.0000000), wk =   0.0833333
        k(    5) = (   0.0000000   0.1666667   0.2500000), wk =   0.1666667
        k(    6) = (   0.0000000   0.1666667  -0.5000000), wk =   0.0833333
        k(    7) = (   0.0000000   0.3333333   0.0000000), wk =   0.0833333
        k(    8) = (   0.0000000   0.3333333   0.2500000), wk =   0.1666667
        k(    9) = (   0.0000000   0.3333333  -0.5000000), wk =   0.0833333
        k(   10) = (   0.0000000  -0.5000000   0.0000000), wk =   0.0416667
        k(   11) = (   0.0000000  -0.5000000   0.2500000), wk =   0.0833333
        k(   12) = (   0.0000000  -0.5000000  -0.5000000), wk =   0.0416667
        k(   13) = (   0.1666667   0.1666667   0.0000000), wk =   0.0833333
        k(   14) = (   0.1666667   0.1666667   0.2500000), wk =   0.1666667
        k(   15) = (   0.1666667   0.1666667  -0.5000000), wk =   0.0833333
        k(   16) = (   0.1666667   0.3333333   0.0000000), wk =   0.1666667
        k(   17) = (   0.1666667   0.3333333   0.2500000), wk =   0.3333333
        k(   18) = (   0.1666667   0.3333333  -0.5000000), wk =   0.1666667
        k(   19) = (   0.3333333   0.3333333   0.0000000), wk =   0.0277778
        k(   20) = (   0.3333333   0.3333333   0.2500000), wk =   0.0555556
        k(   21) = (   0.3333333   0.3333333  -0.5000000), wk =   0.0277778

     Dense  grid:    28913 G-vectors     FFT dimensions: (  36,  36,  54)

     Dynamical RAM for                 wfc:       0.12 MB

     Dynamical RAM for     wfc (w. buffer):       2.73 MB

     Dynamical RAM for           str. fact:       0.06 MB

     Dynamical RAM for           local pot:       0.00 MB

     Dynamical RAM for          nlocal pot:       0.21 MB

     Dynamical RAM for                qrad:       2.87 MB

     Dynamical RAM for          rho,v,vnew:       0.20 MB

     Dynamical RAM for               rhoin:       0.07 MB

     Dynamical RAM for            rho*nmix:       0.44 MB

     Dynamical RAM for           G-vectors:       0.12 MB

     Dynamical RAM for          h,s,v(r/c):       0.24 MB

     Dynamical RAM for          <psi|beta>:       0.03 MB

     Dynamical RAM for                 psi:       0.25 MB

     Dynamical RAM for                hpsi:       0.25 MB

     Dynamical RAM for      wfcinit/wfcrot:       0.28 MB

     Estimated static dynamical RAM per process >       6.54 MB

     Estimated max dynamical RAM per process >       7.76 MB

     Estimated total dynamical RAM >     124.19 MB

     Initial potential from superposition of free atoms

     starting charge      51.9998, renormalised to      52.0000
     Starting wfcs are   28 randomized atomic wfcs +    8 random wfcs

     total cpu time spent up to now is        0.7 secs

     Self-consistent Calculation

     iteration #  1     ecut=    80.00 Ry     beta= 0.30
     Davidson diagonalization with overlap

---- Real-time Memory Report at c_bands before calling an iterative solver
            97 MiB given to the printing process from OS
             0 MiB allocation reported by mallinfo(arena+hblkhd)
         45995 MiB available memory on the node where the printing process lives
------------------
     ethr =  1.00E-02,  avg # of iterations =  4.4

     total cpu time spent up to now is        2.7 secs

     total energy              =    -901.86502828 Ry
     estimated scf accuracy    <       0.80439431 Ry

     iteration #  2     ecut=    80.00 Ry     beta= 0.30
     Davidson diagonalization with overlap

---- Real-time Memory Report at c_bands before calling an iterative solver
           101 MiB given to the printing process from OS
             0 MiB allocation reported by mallinfo(arena+hblkhd)
         46103 MiB available memory on the node where the printing process lives
------------------
     ethr =  1.55E-03,  avg # of iterations =  1.0

     total cpu time spent up to now is        4.0 secs

     total energy              =    -901.74839198 Ry
     estimated scf accuracy    <       0.31467684 Ry

     iteration #  3     ecut=    80.00 Ry     beta= 0.30
     Davidson diagonalization with overlap

---- Real-time Memory Report at c_bands before calling an iterative solver
           101 MiB given to the printing process from OS
             0 MiB allocation reported by mallinfo(arena+hblkhd)
         45505 MiB available memory on the node where the printing process lives
------------------
     ethr =  6.05E-04,  avg # of iterations =  2.1

     total cpu time spent up to now is        5.5 secs

     total energy              =    -901.79691738 Ry
     estimated scf accuracy    <       0.01613018 Ry

     iteration #  4     ecut=    80.00 Ry     beta= 0.30
     Davidson diagonalization with overlap

---- Real-time Memory Report at c_bands before calling an iterative solver
           101 MiB given to the printing process from OS
             0 MiB allocation reported by mallinfo(arena+hblkhd)
         45506 MiB available memory on the node where the printing process lives
------------------
     ethr =  3.10E-05,  avg # of iterations =  2.3

     total cpu time spent up to now is        7.0 secs

     total energy              =    -901.79690660 Ry
     estimated scf accuracy    <       0.00266802 Ry

     iteration #  5     ecut=    80.00 Ry     beta= 0.30
     Davidson diagonalization with overlap

---- Real-time Memory Report at c_bands before calling an iterative solver
           101 MiB given to the printing process from OS
             0 MiB allocation reported by mallinfo(arena+hblkhd)
         45850 MiB available memory on the node where the printing process lives
------------------
     ethr =  5.13E-06,  avg # of iterations =  3.1

     total cpu time spent up to now is        8.5 secs

     total energy              =    -901.79745076 Ry
     estimated scf accuracy    <       0.00014019 Ry

     iteration #  6     ecut=    80.00 Ry     beta= 0.30
     Davidson diagonalization with overlap

---- Real-time Memory Report at c_bands before calling an iterative solver
           101 MiB given to the printing process from OS
             0 MiB allocation reported by mallinfo(arena+hblkhd)
         46154 MiB available memory on the node where the printing process lives
------------------
     ethr =  2.70E-07,  avg # of iterations =  2.0

     total cpu time spent up to now is        9.9 secs

     total energy              =    -901.79745182 Ry
     estimated scf accuracy    <       0.00002360 Ry

     iteration #  7     ecut=    80.00 Ry     beta= 0.30
     Davidson diagonalization with overlap

---- Real-time Memory Report at c_bands before calling an iterative solver
           101 MiB given to the printing process from OS
             0 MiB allocation reported by mallinfo(arena+hblkhd)
         45899 MiB available memory on the node where the printing process lives
------------------
     ethr =  4.54E-08,  avg # of iterations =  2.0

     total cpu time spent up to now is       11.4 secs

     total energy              =    -901.79745664 Ry
     estimated scf accuracy    <       0.00000082 Ry

     iteration #  8     ecut=    80.00 Ry     beta= 0.30
     Davidson diagonalization with overlap

---- Real-time Memory Report at c_bands before calling an iterative solver
           101 MiB given to the printing process from OS
             0 MiB allocation reported by mallinfo(arena+hblkhd)
         45460 MiB available memory on the node where the printing process lives
------------------
     ethr =  1.58E-09,  avg # of iterations =  1.4

     total cpu time spent up to now is       12.7 secs

     total energy              =    -901.79745633 Ry
     estimated scf accuracy    <       0.00000075 Ry

     iteration #  9     ecut=    80.00 Ry     beta= 0.30
     Davidson diagonalization with overlap

---- Real-time Memory Report at c_bands before calling an iterative solver
           101 MiB given to the printing process from OS
             0 MiB allocation reported by mallinfo(arena+hblkhd)
         45453 MiB available memory on the node where the printing process lives
------------------
     ethr =  1.44E-09,  avg # of iterations =  2.0

     total cpu time spent up to now is       14.2 secs

     total energy              =    -901.79745645 Ry
     estimated scf accuracy    <       0.00000005 Ry

     iteration # 10     ecut=    80.00 Ry     beta= 0.30
     Davidson diagonalization with overlap

---- Real-time Memory Report at c_bands before calling an iterative solver
           101 MiB given to the printing process from OS
             0 MiB allocation reported by mallinfo(arena+hblkhd)
         46251 MiB available memory on the node where the printing process lives
------------------
     ethr =  9.72E-11,  avg # of iterations =  1.9

     total cpu time spent up to now is       15.5 secs

     total energy              =    -901.79745645 Ry
     estimated scf accuracy    <          9.8E-09 Ry

     iteration # 11     ecut=    80.00 Ry     beta= 0.30
     Davidson diagonalization with overlap

---- Real-time Memory Report at c_bands before calling an iterative solver
           101 MiB given to the printing process from OS
             0 MiB allocation reported by mallinfo(arena+hblkhd)
         46222 MiB available memory on the node where the printing process lives
------------------
     ethr =  1.88E-11,  avg # of iterations =  2.0

     total cpu time spent up to now is       17.1 secs

     total energy              =    -901.79745645 Ry
     estimated scf accuracy    <          3.3E-10 Ry

     iteration # 12     ecut=    80.00 Ry     beta= 0.30
     Davidson diagonalization with overlap

---- Real-time Memory Report at c_bands before calling an iterative solver
           101 MiB given to the printing process from OS
             0 MiB allocation reported by mallinfo(arena+hblkhd)
         45479 MiB available memory on the node where the printing process lives
------------------
     ethr =  6.40E-13,  avg # of iterations =  2.0

     total cpu time spent up to now is       18.7 secs

     total energy              =    -901.79745645 Ry
     estimated scf accuracy    <          5.4E-10 Ry

     iteration # 13     ecut=    80.00 Ry     beta= 0.30
     Davidson diagonalization with overlap

---- Real-time Memory Report at c_bands before calling an iterative solver
           101 MiB given to the printing process from OS
             0 MiB allocation reported by mallinfo(arena+hblkhd)
         45478 MiB available memory on the node where the printing process lives
------------------
     ethr =  6.40E-13,  avg # of iterations =  2.0

     total cpu time spent up to now is       20.4 secs

     total energy              =    -901.79745645 Ry
     estimated scf accuracy    <          2.6E-11 Ry

     iteration # 14     ecut=    80.00 Ry     beta= 0.30
     Davidson diagonalization with overlap

---- Real-time Memory Report at c_bands before calling an iterative solver
           102 MiB given to the printing process from OS
             0 MiB allocation reported by mallinfo(arena+hblkhd)
         46212 MiB available memory on the node where the printing process lives
------------------
     ethr =  1.00E-13,  avg # of iterations =  1.0

     total cpu time spent up to now is       21.7 secs

     total energy              =    -901.79745645 Ry
     estimated scf accuracy    <          5.8E-12 Ry

     iteration # 15     ecut=    80.00 Ry     beta= 0.30
     Davidson diagonalization with overlap

---- Real-time Memory Report at c_bands before calling an iterative solver
           102 MiB given to the printing process from OS
             0 MiB allocation reported by mallinfo(arena+hblkhd)
         46268 MiB available memory on the node where the printing process lives
------------------
     ethr =  1.00E-13,  avg # of iterations =  1.0

     total cpu time spent up to now is       23.0 secs

     End of self-consistent calculation

          k = 0.0000 0.0000 0.0000 (  3573 PWs)   bands (ev):

  -112.3111-112.3108 -67.0324 -67.0278 -66.9377 -66.9377 -66.9368 -66.9368
    -7.8466  -6.9720   3.8489   3.8489   3.9069   3.9069   5.1403   5.5100
     5.6642   5.6642   5.9166   5.9166   6.3281   9.3498  10.2707  10.2707
    10.6641  10.6641  11.7250  15.6360  18.9139  23.2804  23.2804  24.6203
    24.6203  26.4726  26.5731  29.6165

     occupation numbers 
     1.0000   1.0000   1.0000   1.0000   1.0000   1.0000   1.0000   1.0000
     1.0000   1.0000   1.0000   1.0000   1.0000   1.0000   1.0000   1.0000
     1.0000   1.0000   1.0000   1.0000   1.0000   1.0000   1.0000   1.0000
     1.0000   1.0000   0.0000   0.0000   0.0000   0.0000   0.0000   0.0000
     0.0000   0.0000   0.0000   0.0000

          k = 0.0000 0.0000 0.1600 (  3645 PWs)   bands (ev):

  -112.3111-112.3109 -67.0318 -67.0285 -66.9376 -66.9376 -66.9370 -66.9370
    -7.7250  -7.1067   3.8493   3.8493   3.8896   3.8896   4.9674   5.3283
     5.7111   5.7111   5.8889   5.8889   6.8926   8.7557  10.3339  10.3339
    10.6127  10.6127  12.6719  15.3486  19.2110  23.2761  23.2761  23.4731
    24.1530  24.1530  27.9787  30.1594

     occupation numbers 
     1.0000   1.0000   1.0000   1.0000   1.0000   1.0000   1.0000   1.0000
     1.0000   1.0000   1.0000   1.0000   1.0000   1.0000   1.0000   1.0000
     1.0000   1.0000   1.0000   1.0000   1.0000   1.0000   1.0000   1.0000
     1.0000   1.0000   0.0000   0.0000   0.0000   0.0000   0.0000   0.0000
     0.0000   0.0000   0.0000   0.0000

          k = 0.0000 0.0000-0.3200 (  3626 PWs)   bands (ev):

  -112.3110-112.3110 -67.0301 -67.0301 -66.9373 -66.9373 -66.9373 -66.9373
    -7.4225  -7.4225   3.8611   3.8611   3.8611   3.8611   5.0142   5.0142
     5.8095   5.8095   5.8095   5.8095   7.8378   7.8378  10.4794  10.4794
    10.4794  10.4794  14.2440  14.2440  20.6817  20.6817  23.5114  23.5114
    23.5114  23.5114  29.0549  29.0549

     occupation numbers 
     1.0000   1.0000   1.0000   1.0000   1.0000   1.0000   1.0000   1.0000
     1.0000   1.0000   1.0000   1.0000   1.0000   1.0000   1.0000   1.0000
     1.0000   1.0000   1.0000   1.0000   1.0000   1.0000   1.0000   1.0000
     1.0000   1.0000   0.0000   0.0000   0.0000   0.0000   0.0000   0.0000
     0.0000   0.0000   0.0000   0.0000

          k = 0.0000 0.1925 0.0000 (  3619 PWs)   bands (ev):

  -112.3111-112.3108 -67.0321 -67.0280 -66.9385 -66.9380 -66.9376 -66.9370
    -7.6598  -6.8782   3.7654   3.8744   4.0302   4.1357   4.8773   5.5000
     5.5627   5.6233   5.9302   6.3156   6.5383   9.1887   9.4022   9.4533
     9.7211  10.2159  13.1938  16.6928  18.7578  21.2640  23.2385  23.8492
    24.1992  25.5683  27.7933  27.9344

     occupation numbers 
     1.0000   1.0000   1.0000   1.0000   1.0000   1.0000   1.0000   1.0000
     1.0000   1.0000   1.0000   1.0000   1.0000   1.0000   1.0000   1.0000
     1.0000   1.0000   1.0000   1.0000   1.0000   1.0000   1.0000   1.0000
     1.0000   1.0000   0.0000   0.0000   0.0000   0.0000   0.0000   0.0000
     0.0000   0.0000   0.0000   0.0000

          k = 0.0000 0.1925 0.1600 (  3622 PWs)   bands (ev):

  -112.3110-112.3108 -67.0315 -67.0286 -66.9384 -66.9378 -66.9378 -66.9371
    -7.5488  -6.9958   3.7523   3.8259   4.0365   4.1098   4.7985   5.1913
     5.6784   5.7530   5.8939   6.0838   7.1781   8.6554   9.3902   9.7990
     9.9191  10.1493  13.6924  16.2246  19.0433  21.4700  22.6301  23.0556
    23.8513  24.8213  28.0733  29.1710

     occupation numbers 
     1.0000   1.0000   1.0000   1.0000   1.0000   1.0000   1.0000   1.0000
     1.0000   1.0000   1.0000   1.0000   1.0000   1.0000   1.0000   1.0000
     1.0000   1.0000   1.0000   1.0000   1.0000   1.0000   1.0000   1.0000
     1.0000   1.0000   0.0000   0.0000   0.0000   0.0000   0.0000   0.0000
     0.0000   0.0000   0.0000   0.0000

          k = 0.0000 0.1925-0.3200 (  3626 PWs)   bands (ev):

  -112.3109-112.3109 -67.0301 -67.0301 -66.9381 -66.9381 -66.9375 -66.9375
    -7.2757  -7.2757   3.7590   3.7590   4.0636   4.0636   4.8704   4.8704
     5.7953   5.7953   5.9217   5.9217   7.9704   7.9704   9.7751   9.7751
     9.9798   9.9798  14.9619  14.9619  20.3594  20.3594  22.2164  22.2164
    24.0892  24.0892  29.6087  29.6087

     occupation numbers 
     1.0000   1.0000   1.0000   1.0000   1.0000   1.0000   1.0000   1.0000
     1.0000   1.0000   1.0000   1.0000   1.0000   1.0000   1.0000   1.0000
     1.0000   1.0000   1.0000   1.0000   1.0000   1.0000   1.0000   1.0000
     1.0000   1.0000   0.0000   0.0000   0.0000   0.0000   0.0000   0.0000
     0.0000   0.0000   0.0000   0.0000

          k = 0.0000 0.3849 0.0000 (  3625 PWs)   bands (ev):

  -112.3110-112.3108 -67.0313 -67.0286 -66.9400 -66.9393 -66.9385 -66.9373
    -7.2355  -6.7178   3.6731   4.0635   4.5088   4.6741   4.7300   5.1611
     5.5520   5.6755   5.9469   6.2189   7.4745   7.5911   7.7182   8.6132
     9.2637   9.5133  15.2252  18.0813  18.5121  19.4544  21.4114  22.0717
    24.8037  26.4911  26.6131  27.9917

     occupation numbers 
     1.0000   1.0000   1.0000   1.0000   1.0000   1.0000   1.0000   1.0000
     1.0000   1.0000   1.0000   1.0000   1.0000   1.0000   1.0000   1.0000
     1.0000   1.0000   1.0000   1.0000   1.0000   1.0000   1.0000   1.0000
     1.0000   1.0000   0.0000   0.0000   0.0000   0.0000   0.0000   0.0000
     0.0000   0.0000   0.0000   0.0000

          k = 0.0000 0.3849 0.1600 (  3612 PWs)   bands (ev):

  -112.3109-112.3108 -67.0309 -67.0290 -66.9399 -66.9394 -66.9383 -66.9375
    -7.1563  -6.7892   3.6584   3.9167   4.5206   4.6334   4.6794   4.9328
     5.6212   5.8298   5.8954   6.1586   7.2697   7.5437   8.4312   8.7168
     9.1761   9.7166  15.3157  17.2200  18.9933  19.7005  20.9511  22.1374
    24.8174  25.6711  26.3024  29.5550

     occupation numbers 
     1.0000   1.0000   1.0000   1.0000   1.0000   1.0000   1.0000   1.0000
     1.0000   1.0000   1.0000   1.0000   1.0000   1.0000   1.0000   1.0000
     1.0000   1.0000   1.0000   1.0000   1.0000   1.0000   1.0000   1.0000
     1.0000   1.0000   0.0000   0.0000   0.0000   0.0000   0.0000   0.0000
     0.0000   0.0000   0.0000   0.0000

          k = 0.0000 0.3849-0.3200 (  3616 PWs)   bands (ev):

  -112.3109-112.3109 -67.0300 -67.0300 -66.9397 -66.9397 -66.9379 -66.9379
    -6.9689  -6.9689   3.7076   3.7076   4.5635   4.5635   4.7051   4.7051
     5.7664   5.7664   6.0217   6.0217   7.3388   7.3388   8.9543   8.9543
     9.4494   9.4494  15.9933  15.9933  19.6949  19.6949  21.0674  21.0674
    25.0189  25.0189  28.0818  28.0818

     occupation numbers 
     1.0000   1.0000   1.0000   1.0000   1.0000   1.0000   1.0000   1.0000
     1.0000   1.0000   1.0000   1.0000   1.0000   1.0000   1.0000   1.0000
     1.0000   1.0000   1.0000   1.0000   1.0000   1.0000   1.0000   1.0000
     1.0000   1.0000   0.0000   0.0000   0.0000   0.0000   0.0000   0.0000
     0.0000   0.0000   0.0000   0.0000

          k = 0.0000-0.5774 0.0000 (  3626 PWs)   bands (ev):

  -112.3109-112.3108 -67.0307 -67.0291 -66.9408 -66.9402 -66.9388 -66.9375
    -6.9632  -6.6852   3.7409   4.3680   4.8112   4.8374   4.8996   5.0340
     5.5195   5.7402   5.9522   6.0155   6.6045   6.9233   7.9897   8.2479
     8.7288   9.3683  16.8056  17.4920  18.4383  19.0571  20.2872  22.2514
    25.2161  26.0638  26.1971  29.7979

     occupation numbers 
     1.0000   1.0000   1.0000   1.0000   1.0000   1.0000   1.0000   1.0000
     1.0000   1.0000   1.0000   1.0000   1.0000   1.0000   1.0000   1.0000
     1.0000   1.0000   1.0000   1.0000   1.0000   1.0000   1.0000   1.0000
     1.0000   1.0000   0.0000   0.0000   0.0000   0.0000   0.0000   0.0000
     0.0000   0.0000   0.0000   0.0000

          k = 0.0000-0.5774 0.1600 (  3612 PWs)   bands (ev):

  -112.3109-112.3108 -67.0304 -67.0294 -66.9407 -66.9403 -66.9386 -66.9377
    -6.9149  -6.7176   3.7208   4.1394   4.7420   4.7575   4.8506   4.9806
     5.5976   5.8328   5.8915   6.0007   6.6265   6.8174   8.1122   8.6321
     8.8213   9.6668  16.2988  17.2209  18.9488  19.1930  20.1148  22.0304
    25.2217  25.7240  25.9736  30.9246

     occupation numbers 
     1.0000   1.0000   1.0000   1.0000   1.0000   1.0000   1.0000   1.0000
     1.0000   1.0000   1.0000   1.0000   1.0000   1.0000   1.0000   1.0000
     1.0000   1.0000   1.0000   1.0000   1.0000   1.0000   1.0000   1.0000
     1.0000   1.0000   0.0000   0.0000   0.0000   0.0000   0.0000   0.0000
     0.0000   0.0000   0.0000   0.0000

          k = 0.0000-0.5774-0.3200 (  3612 PWs)   bands (ev):

  -112.3108-112.3108 -67.0299 -67.0299 -66.9405 -66.9405 -66.9382 -66.9382
    -6.8083  -6.8083   3.8045   3.8045   4.6770   4.6770   4.8984   4.8984
     5.7507   5.7507   5.9411   5.9411   6.7020   6.7020   8.3845   8.3845
     9.6489   9.6489  16.3883  16.3883  19.3752  19.3752  20.6955  20.6955
    25.3410  25.3410  27.8570  27.8570

     occupation numbers 
     1.0000   1.0000   1.0000   1.0000   1.0000   1.0000   1.0000   1.0000
     1.0000   1.0000   1.0000   1.0000   1.0000   1.0000   1.0000   1.0000
     1.0000   1.0000   1.0000   1.0000   1.0000   1.0000   1.0000   1.0000
     1.0000   1.0000   0.0000   0.0000   0.0000   0.0000   0.0000   0.0000
     0.0000   0.0000   0.0000   0.0000

          k = 0.1667 0.2887 0.0000 (  3627 PWs)   bands (ev):

  -112.3110-112.3108 -67.0315 -67.0285 -66.9394 -66.9391 -66.9383 -66.9374
    -7.3522  -6.7519   3.7617   3.9024   4.3878   4.5364   4.7479   5.2628
     5.5539   5.6424   5.9344   6.2663   7.3210   8.0838   8.1975   8.6627
     9.2748   9.5248  14.7982  18.1532  18.6137  19.9641  21.8493  22.4430
    24.2416  25.1402  26.2341  30.7817

     occupation numbers 
     1.0000   1.0000   1.0000   1.0000   1.0000   1.0000   1.0000   1.0000
     1.0000   1.0000   1.0000   1.0000   1.0000   1.0000   1.0000   1.0000
     1.0000   1.0000   1.0000   1.0000   1.0000   1.0000   1.0000   1.0000
     1.0000   1.0000   0.0000   0.0000   0.0000   0.0000   0.0000   0.0000
     0.0000   0.0000   0.0000   0.0000

          k = 0.1667 0.2887 0.1600 (  3623 PWs)   bands (ev):

  -112.3110-112.3108 -67.0311 -67.0289 -66.9393 -66.9390 -66.9382 -66.9376
    -7.2627  -6.8374   3.7395   3.8115   4.3917   4.4895   4.6958   5.0079
     5.6158   5.8023   5.8971   6.1742   7.4893   7.9960   8.5859   8.6942
     9.1813   9.7732  15.0223  17.2622  19.0083  20.2011  21.6348  22.0035
    23.7703  25.6551  26.5167  30.1207

     occupation numbers 
     1.0000   1.0000   1.0000   1.0000   1.0000   1.0000   1.0000   1.0000
     1.0000   1.0000   1.0000   1.0000   1.0000   1.0000   1.0000   1.0000
     1.0000   1.0000   1.0000   1.0000   1.0000   1.0000   1.0000   1.0000
     1.0000   1.0000   0.0000   0.0000   0.0000   0.0000   0.0000   0.0000
     0.0000   0.0000   0.0000   0.0000

          k = 0.1667 0.2887-0.3200 (  3618 PWs)   bands (ev):

  -112.3109-112.3109 -67.0300 -67.0300 -66.9391 -66.9391 -66.9380 -66.9380
    -7.0481  -7.0481   3.7184   3.7184   4.4229   4.4229   4.7397   4.7397
     5.7554   5.7554   6.0195   6.0195   7.7087   7.7087   8.9169   8.9169
     9.5278   9.5278  15.9010  15.9010  19.9598  19.9598  21.2057  21.2057
    24.5369  24.5369  29.0869  29.0869

     occupation numbers 
     1.0000   1.0000   1.0000   1.0000   1.0000   1.0000   1.0000   1.0000
     1.0000   1.0000   1.0000   1.0000   1.0000   1.0000   1.0000   1.0000
     1.0000   1.0000   1.0000   1.0000   1.0000   1.0000   1.0000   1.0000
     1.0000   1.0000   0.0000   0.0000   0.0000   0.0000   0.0000   0.0000
     0.0000   0.0000   0.0000   0.0000

          k = 0.1667 0.4811 0.0000 (  3618 PWs)   bands (ev):

  -112.3109-112.3108 -67.0306 -67.0291 -66.9404 -66.9399 -66.9390 -66.9379
    -6.9748  -6.6799   3.9486   4.2815   4.7898   4.8493   4.9939   5.1195
     5.4439   5.6949   5.9368   6.1160   6.8332   7.0636   7.4647   8.2103
     8.2521   9.3720  16.8206  18.6744  18.7435  19.1211  20.6538  22.2021
    22.7310  24.9682  27.5378  30.7532

     occupation numbers 
     1.0000   1.0000   1.0000   1.0000   1.0000   1.0000   1.0000   1.0000
     1.0000   1.0000   1.0000   1.0000   1.0000   1.0000   1.0000   1.0000
     1.0000   1.0000   1.0000   1.0000   1.0000   1.0000   1.0000   1.0000
     1.0000   1.0000   0.0000   0.0000   0.0000   0.0000   0.0000   0.0000
     0.0000   0.0000   0.0000   0.0000

          k = 0.1667 0.4811 0.1600 (  3615 PWs)   bands (ev):

  -112.3109-112.3108 -67.0304 -67.0294 -66.9403 -66.9399 -66.9389 -66.9381
    -6.9244  -6.7151   3.9095   4.1320   4.7067   4.8158   4.8665   5.0345
     5.5354   5.7642   5.9210   6.0881   6.8261   6.9789   7.5176   8.0689
     8.9131   9.7151  16.6508  17.8315  19.2347  19.3183  20.2451  21.5761
    23.5039  25.4115  27.6567  30.2647

     occupation numbers 
     1.0000   1.0000   1.0000   1.0000   1.0000   1.0000   1.0000   1.0000
     1.0000   1.0000   1.0000   1.0000   1.0000   1.0000   1.0000   1.0000
     1.0000   1.0000   1.0000   1.0000   1.0000   1.0000   1.0000   1.0000
     1.0000   1.0000   0.0000   0.0000   0.0000   0.0000   0.0000   0.0000
     0.0000   0.0000   0.0000   0.0000

          k = 0.1667 0.4811-0.3200 (  3598 PWs)   bands (ev):

  -112.3108-112.3108 -67.0299 -67.0299 -66.9401 -66.9401 -66.9385 -66.9385
    -6.8120  -6.8120   3.9163   3.9163   4.6762   4.6762   4.9213   4.9213
     5.6855   5.6855   6.0067   6.0067   6.8723   6.8723   7.7799   7.7799
     9.7661   9.7661  16.8567  16.8567  19.5801  19.5801  20.3208  20.3208
    25.1046  25.1046  28.3908  28.3908

     occupation numbers 
     1.0000   1.0000   1.0000   1.0000   1.0000   1.0000   1.0000   1.0000
     1.0000   1.0000   1.0000   1.0000   1.0000   1.0000   1.0000   1.0000
     1.0000   1.0000   1.0000   1.0000   1.0000   1.0000   1.0000   1.0000
     1.0000   1.0000   0.0000   0.0000   0.0000   0.0000   0.0000   0.0000
     0.0000   0.0000   0.0000   0.0000

          k = 0.3333 0.5774 0.0000 (  3630 PWs)   bands (ev):

  -112.3108-112.3108 -67.0299 -67.0299 -66.9401 -66.9398 -66.9398 -66.9386
    -6.7537  -6.7537   4.4747   4.4747   4.9092   4.9092   5.1053   5.3070
     5.4095   5.5842   5.9255   6.2977   6.2977   6.8735   6.8735   6.9240
     8.9412   8.9412  18.5600  18.5600  18.8292  19.7229  20.4391  20.4391
    23.2996  25.2726  25.2726  32.0204

     occupation numbers 
     1.0000   1.0000   1.0000   1.0000   1.0000   1.0000   1.0000   1.0000
     1.0000   1.0000   1.0000   1.0000   1.0000   1.0000   1.0000   1.0000
     1.0000   1.0000   1.0000   1.0000   1.0000   1.0000   1.0000   1.0000
     1.0000   1.0000   0.0000   0.0000   0.0000   0.0000   0.0000   0.0000
     0.0000   0.0000   0.0000   0.0000

          k = 0.3333 0.5774 0.1600 (  3600 PWs)   bands (ev):

  -112.3108-112.3108 -67.0299 -67.0299 -66.9398 -66.9398 -66.9398 -66.9388
    -6.7443  -6.7443   4.3721   4.3721   4.7697   4.7697   5.1148   5.2408
     5.4576   5.5487   6.0917   6.3340   6.3340   6.7808   6.8227   6.8227
     9.4442   9.4442  18.3082  18.3082  18.8944  19.4613  19.9871  19.9871
    24.3331  25.9563  25.9563  30.1416

     occupation numbers 
     1.0000   1.0000   1.0000   1.0000   1.0000   1.0000   1.0000   1.0000
     1.0000   1.0000   1.0000   1.0000   1.0000   1.0000   1.0000   1.0000
     1.0000   1.0000   1.0000   1.0000   1.0000   1.0000   1.0000   1.0000
     1.0000   1.0000   0.0000   0.0000   0.0000   0.0000   0.0000   0.0000
     0.0000   0.0000   0.0000   0.0000

          k = 0.3333 0.5774-0.3200 (  3606 PWs)   bands (ev):

  -112.3108-112.3108 -67.0299 -67.0299 -66.9398 -66.9398 -66.9393 -66.9393
    -6.7348  -6.7348   4.2323   4.2323   4.6987   4.6987   5.1583   5.1583
     5.5071   5.5071   6.3598   6.3598   6.4412   6.4412   6.7919   6.7919
     9.9360   9.9360  17.9354  17.9354  19.1026  19.1026  19.7171  19.7171
    26.5856  26.5856  26.8606  26.8606

     occupation numbers 
     1.0000   1.0000   1.0000   1.0000   1.0000   1.0000   1.0000   1.0000
     1.0000   1.0000   1.0000   1.0000   1.0000   1.0000   1.0000   1.0000
     1.0000   1.0000   1.0000   1.0000   1.0000   1.0000   1.0000   1.0000
     1.0000   1.0000   0.0000   0.0000   0.0000   0.0000   0.0000   0.0000
     0.0000   0.0000   0.0000   0.0000

     highest occupied, lowest unoccupied level (ev):    10.6641   11.7250

!    total energy              =    -901.79745645 Ry
     estimated scf accuracy    <          5.3E-13 Ry

     The total energy is the sum of the following terms:
     one-electron contribution =    -596.18873172 Ry
     hartree contribution      =     318.15292765 Ry
     xc contribution           =    -105.37889750 Ry
     ewald contribution        =    -518.38275487 Ry

     convergence has been achieved in  15 iterations

     Forces acting on atoms (cartesian axes, Ry/au):

     atom    1 type  1   force =     0.00000000    0.00000000    0.00000327
     atom    2 type  1   force =     0.00000000   -0.00000000    0.00000327
     atom    3 type  2   force =     0.00000000    0.00000000   -0.00000327
     atom    4 type  2   force =     0.00000000    0.00000000   -0.00000327
     The non-local contrib.  to forces
     atom    1 type  1   force =     0.00000000    0.00000000    0.00000364
     atom    2 type  1   force =     0.00000000   -0.00000000    0.00000364
     atom    3 type  2   force =     0.00000000    0.00000000    0.00000126
     atom    4 type  2   force =     0.00000000    0.00000000    0.00000126
     The ionic contribution  to forces
     atom    1 type  1   force =    -0.00000001    0.00000001   -0.00000000
     atom    2 type  1   force =     0.00000001   -0.00000001    0.00000000
     atom    3 type  2   force =    -0.00000001    0.00000000    0.00000000
     atom    4 type  2   force =     0.00000001   -0.00000000   -0.00000000
     The local contribution  to forces
     atom    1 type  1   force =    -0.00000007    0.00000004    0.00000111
     atom    2 type  1   force =     0.00000021   -0.00000012    0.00000111
     atom    3 type  2   force =    -0.00000000    0.00000000   -0.00000010
     atom    4 type  2   force =     0.00000001   -0.00000001   -0.00000010
     The core correction contribution to forces
     atom    1 type  1   force =     0.00000000   -0.00000000    0.00000221
     atom    2 type  1   force =    -0.00000000    0.00000000    0.00000221
     atom    3 type  2   force =     0.00000000   -0.00000000   -0.00000076
     atom    4 type  2   force =    -0.00000000    0.00000000   -0.00000076
     The Hubbard contrib.    to forces
     atom    1 type  1   force =     0.00000000    0.00000000    0.00000000
     atom    2 type  1   force =     0.00000000    0.00000000    0.00000000
     atom    3 type  2   force =     0.00000000    0.00000000    0.00000000
     atom    4 type  2   force =     0.00000000    0.00000000    0.00000000
     The SCF correction term to forces
     atom    1 type  1   force =     0.00000000   -0.00000000   -0.00000001
     atom    2 type  1   force =    -0.00000000    0.00000000   -0.00000001
     atom    3 type  2   force =     0.00000000   -0.00000000   -0.00000000
     atom    4 type  2   force =    -0.00000000    0.00000000   -0.00000000

     Total force =     0.000007     Total SCF correction =     0.000000


     Computing stress (Cartesian axis) and pressure

          total   stress  (Ry/bohr**3)                   (kbar)     P=       88.79
   0.00104382   0.00000000   0.00000000          153.55        0.00        0.00
   0.00000000   0.00104382   0.00000000            0.00      153.55        0.00
   0.00000000   0.00000000  -0.00027689            0.00        0.00      -40.73

     kinetic stress (kbar) 135580.54      0.00      0.00
                                0.00 135580.54     -0.00
                                0.00      0.00 136514.69

     local   stress (kbar) -30895.10     -0.00     -0.00
                               -0.00 -30895.10     -0.00
                               -0.00     -0.00   8976.52

     nonloc. stress (kbar) -69562.79      0.00      0.00
                                0.00 -69562.79     -0.00
                                0.00      0.00 -70075.86

     hartree stress (kbar)  56859.45      0.00      0.00
                                0.00  56859.45      0.00
                                0.00      0.00  42691.77

     exc-cor stress (kbar)  -6921.91      0.00      0.00
                                0.00  -6921.91      0.00
                                0.00      0.00  -6921.91

     corecor stress (kbar)  -8733.15     -0.00     -0.00
                               -0.00  -8733.15      0.00
                               -0.00      0.00  -8725.04

     ewald   stress (kbar) -76173.49      0.00      0.00
                                0.00 -76173.49     -0.00
                                0.00     -0.00-102500.90

     hubbard stress (kbar)      0.00      0.00      0.00
                                0.00      0.00      0.00
                                0.00      0.00      0.00

     DFT-D   stress (kbar)      0.00      0.00      0.00
                                0.00      0.00      0.00
                                0.00      0.00      0.00

     XDM     stress (kbar)      0.00      0.00      0.00
                                0.00      0.00      0.00
                                0.00      0.00      0.00

     dft-nl  stress (kbar)      0.00      0.00      0.00
                                0.00      0.00      0.00
                                0.00      0.00      0.00

     TS-vdW  stress (kbar)      0.00      0.00      0.00
                                0.00      0.00      0.00
                                0.00      0.00      0.00

     MDB     stress (kbar)      0.00      0.00      0.00
                                0.00      0.00      0.00
                                0.00      0.00      0.00

     3D-RISM stress (kbar)      0.00      0.00      0.00
                                0.00      0.00      0.00
                                0.00      0.00      0.00


     BFGS Geometry Optimization
     Energy error            =      4.3E-11 Ry
     Gradient error          =      3.3E-06 Ry/Bohr

     bfgs converged in   1 scf cycles and   0 bfgs steps
     (criteria: energy <  1.0E-08 Ry, force <  1.0E-04 Ry/Bohr)

     End of BFGS Geometry Optimization

     Final energy             =    -901.7974564471 Ry
Begin final coordinates

ATOMIC_POSITIONS (crystal)
Zn               0.6666666667        0.3333333333        0.4400000000
Zn               0.3333333333        0.6666666667        0.9400000000
O                0.6666666667        0.3333333333        0.9400000000
O                0.3333333333        0.6666666667        0.4400000000
End final coordinates


     Message from routine punch:
     Nothing written, as per user request (disk_io='none')
 
     init_run     :      0.46s CPU      0.51s WALL (       1 calls)
     electrons    :     21.65s CPU     22.28s WALL (       1 calls)
     forces       :      0.09s CPU      0.09s WALL (       1 calls)
     stress       :      0.33s CPU      0.33s WALL (       1 calls)

     Called by init_run:
     wfcinit      :      0.39s CPU      0.42s WALL (       1 calls)
     wfcinit:atom :      0.00s CPU      0.00s WALL (      21 calls)
     wfcinit:wfcr :      0.38s CPU      0.41s WALL (      21 calls)
     potinit      :      0.01s CPU      0.01s WALL (       1 calls)
     hinit0       :      0.04s CPU      0.05s WALL (       1 calls)

     Called by electrons:
     c_bands      :     18.93s CPU     19.43s WALL (      15 calls)
     sum_band     :      2.49s CPU      2.60s WALL (      15 calls)
     v_of_rho     :      0.02s CPU      0.03s WALL (      16 calls)
     v_h          :      0.01s CPU      0.01s WALL (      16 calls)
     v_xc         :      0.02s CPU      0.02s WALL (      18 calls)
     mix_rho      :      0.20s CPU      0.21s WALL (      15 calls)

     Called by c_bands:
     init_us_2    :      0.17s CPU      0.18s WALL (     693 calls)
     cegterg      :     18.13s CPU     18.61s WALL (     315 calls)

     Called by sum_band:
     sum_band:wei :      0.00s CPU      0.00s WALL (      15 calls)
     sum_band:loo :      2.46s CPU      2.58s WALL (      15 calls)
     sum_band:buf :      0.01s CPU      0.01s WALL (     315 calls)
     sum_band:ini :      0.08s CPU      0.08s WALL (     315 calls)

     Called by *egterg:
     cdiaghg      :      3.57s CPU      3.58s WALL (     952 calls)
     cegterg:over :      0.87s CPU      0.89s WALL (     637 calls)
     cegterg:upda :      0.45s CPU      0.45s WALL (     637 calls)
     cegterg:last :      0.80s CPU      0.80s WALL (     552 calls)
     h_psi        :     12.18s CPU     12.64s WALL (     973 calls)
     g_psi        :      0.03s CPU      0.03s WALL (     637 calls)

     Called by h_psi:
     h_psi:calbec :      0.68s CPU      0.70s WALL (     973 calls)
     vloc_psi     :     10.72s CPU     11.16s WALL (     973 calls)
                                        0.00s GPU  (     973 calls)
     add_vuspsi   :      0.72s CPU      0.73s WALL (     973 calls)

     General routines
     calbec       :      0.97s CPU      1.00s WALL (    1330 calls)
     fft          :      0.03s CPU      0.03s WALL (      55 calls)
     ffts         :      0.11s CPU      0.12s WALL (     415 calls)
     fftw         :     12.12s CPU     12.64s WALL (   63380 calls)
 
     Parallel routines
 
     PWSCF        :     22.68s CPU     23.39s WALL

 
   This run was terminated on:  18: 8:17  12Mar2026            

=------------------------------------------------------------------------------=
   JOB DONE.
=------------------------------------------------------------------------------=
