
     Program PWSCF v.7.5 starts on 12Mar2026 at 18: 4:33 

     This program is part of the open-source Quantum ESPRESSO suite
     for quantum simulation of materials; please cite
         "P. Giannozzi et al., J. Phys.:Condens. Matter 21 395502 (2009);
         "P. Giannozzi et al., J. Phys.:Condens. Matter 29 465901 (2017);
         "P. Giannozzi et al., J. Chem. Phys. 152 154105 (2020);
          URL http://www.quantum-espresso.org", 
     in publications or presentations arising from this work. More details at
     http://www.quantum-espresso.org/quote

     Parallel version (MPI), running on    16 processors

     MPI processes distributed on     1 nodes
     43183 MiB available memory on the printing compute node when the environment starts
 
     Waiting for input...
     Reading input from standard input
Warning: card &CELL ignored
Warning: card &FCP ignored
Warning: card &RISM ignored

     Current dimensions of program PWSCF are:
     Max number of different atomic species (ntypx) = 10
     Max number of k-points (npk) =  40000
     Max angular momentum in pseudopotentials (lmaxx) =  4
     Message from routine setup:
     using ibrav=0 with symmetry is DISCOURAGED, use correct ibrav instead
 
     R & G space division:  proc/nbgrp/npool/nimage =      16
     Subspace diagonalization in iterative solution of the eigenvalue problem:
     a serial algorithm will be used

 
     Parallelization info
     --------------------
     sticks:   dense  smooth     PW     G-vecs:    dense   smooth      PW
     Min          47      47     13                 1695     1695     269
     Max          48      48     14                 1703     1703     276
     Sum         757     757    223                27197    27197    4355
 
     Using Slab Decomposition
 


     bravais-lattice index     =            0
     lattice parameter (alat)  =       5.8582  a.u.
     unit-cell volume          =     280.8152 (a.u.)^3
     number of atoms/cell      =            4
     number of atomic types    =            2
     number of electrons       =        52.00
     number of Kohn-Sham states=           36
     kinetic-energy cutoff     =      80.0000  Ry
     charge density cutoff     =     320.0000  Ry
     scf convergence threshold =      1.0E-12
     mixing beta               =       0.3000
     number of iterations used =            8  local-TF  mixing
     energy convergence thresh.=      1.0E-08
     force convergence thresh. =      1.0E-04
     Exchange-correlation= SLA  PW   NOGX NOGC
                           (   1   4   0   0   0   0   0)
     nstep                     =          300


     celldm(1)=   5.858151  celldm(2)=   0.000000  celldm(3)=   0.000000
     celldm(4)=   0.000000  celldm(5)=   0.000000  celldm(6)=   0.000000

     crystal axes: (cart. coord. in units of alat)
               a(1) = (   1.000000   0.000000   0.000000 )  
               a(2) = (  -0.500000   0.866025   0.000000 )  
               a(3) = (   0.000000   0.000000   1.612903 )  

     reciprocal axes: (cart. coord. in units 2 pi/alat)
               b(1) = (  1.000000  0.577350  0.000000 )  
               b(2) = (  0.000000  1.154701  0.000000 )  
               b(3) = (  0.000000  0.000000  0.620000 )  


     PseudoPot. # 1 for Zn read from file:
     /home/jvc/LDA_Study/pseudos/pseudo_dojo/Zn_pseudo-dojo_NC_SR_LDA.upf
     MD5 check sum: 492e12d15cacde48a98384ec5dd6fb31
     Pseudo is Norm-conserving + core correction, Zval = 20.0
     Generated using ONCVPSP code by D. R. Hamann
     Using radial grid of 1296 points,  6 beta functions with: 
                l(1) =   0
                l(2) =   0
                l(3) =   1
                l(4) =   1
                l(5) =   2
                l(6) =   2

     PseudoPot. # 2 for O  read from file:
     /home/jvc/LDA_Study/pseudos/pseudo_dojo/O_pseudo-dojo_NC_SR_LDA.upf
     MD5 check sum: 86ed389b6a5065e60c3f64c68a612de9
     Pseudo is Norm-conserving + core correction, Zval =  6.0
     Generated using ONCVPSP code by D. R. Hamann
     Using radial grid of  926 points,  5 beta functions with: 
                l(1) =   0
                l(2) =   0
                l(3) =   1
                l(4) =   1
                l(5) =   2

     atomic species   valence    mass     pseudopotential
     Zn               20.00    65.38000     Zn( 1.00)
     O                 6.00    15.99900     O ( 1.00)

     12 Sym. Ops. (no inversion) found ( 6 have fractional translation)


                                    s                        frac. trans.

      isym =  1     identity                                     

 cryst.   s( 1) = (     1          0          0      )
                  (     0          1          0      )
                  (     0          0          1      )

 cart.    s( 1) = (  1.0000000  0.0000000  0.0000000 )
                  (  0.0000000  1.0000000  0.0000000 )
                  (  0.0000000  0.0000000  1.0000000 )


      isym =  2     180 deg rotation - cart. axis [0,0,1]        

 cryst.   s( 2) = (    -1          0          0      )    f =(  0.0000000 )
                  (     0         -1          0      )       (  0.0000000 )
                  (     0          0          1      )       (  0.5000000 )

 cart.    s( 2) = ( -1.0000000  0.0000000  0.0000000 )    f =(  0.0000000 )
                  (  0.0000000 -1.0000000  0.0000000 )       (  0.0000000 )
                  (  0.0000000  0.0000000  1.0000000 )       (  0.8064516 )


      isym =  3      60 deg rotation - cryst. axis [0,0,1]       

 cryst.   s( 3) = (     1          1          0      )    f =( -0.0000000 )
                  (    -1          0          0      )       (  0.0000000 )
                  (     0          0          1      )       (  0.5000000 )

 cart.    s( 3) = (  0.5000000 -0.8660254  0.0000000 )    f =( -0.0000000 )
                  (  0.8660254  0.5000000  0.0000000 )       (  0.0000000 )
                  (  0.0000000  0.0000000  1.0000000 )       (  0.8064516 )


      isym =  4      60 deg rotation - cryst. axis [0,0,-1]      

 cryst.   s( 4) = (     0         -1          0      )    f =(  0.0000000 )
                  (     1          1          0      )       (  0.0000000 )
                  (     0          0          1      )       (  0.5000000 )

 cart.    s( 4) = (  0.5000000  0.8660254  0.0000000 )    f =( -0.0000000 )
                  ( -0.8660254  0.5000000  0.0000000 )       (  0.0000000 )
                  (  0.0000000  0.0000000  1.0000000 )       (  0.8064516 )


      isym =  5     120 deg rotation - cryst. axis [0,0,1]       

 cryst.   s( 5) = (     0          1          0      )
                  (    -1         -1          0      )
                  (     0          0          1      )

 cart.    s( 5) = ( -0.5000000 -0.8660254  0.0000000 )
                  (  0.8660254 -0.5000000  0.0000000 )
                  (  0.0000000  0.0000000  1.0000000 )


      isym =  6     120 deg rotation - cryst. axis [0,0,-1]      

 cryst.   s( 6) = (    -1         -1          0      )
                  (     1          0          0      )
                  (     0          0          1      )

 cart.    s( 6) = ( -0.5000000  0.8660254  0.0000000 )
                  ( -0.8660254 -0.5000000  0.0000000 )
                  (  0.0000000  0.0000000  1.0000000 )


      isym =  7     inv. 180 deg rotation - cart. axis [0,1,0]   

 cryst.   s( 7) = (     1          0          0      )    f =( -0.0000000 )
                  (    -1         -1          0      )       (  0.0000000 )
                  (     0          0          1      )       (  0.5000000 )

 cart.    s( 7) = (  1.0000000  0.0000000  0.0000000 )    f =( -0.0000000 )
                  (  0.0000000 -1.0000000  0.0000000 )       (  0.0000000 )
                  (  0.0000000  0.0000000  1.0000000 )       (  0.8064516 )


      isym =  8     inv. 180 deg rotation - cart. axis [1,0,0]   

 cryst.   s( 8) = (    -1          0          0      )
                  (     1          1          0      )
                  (     0          0          1      )

 cart.    s( 8) = ( -1.0000000  0.0000000  0.0000000 )
                  (  0.0000000  1.0000000  0.0000000 )
                  (  0.0000000  0.0000000  1.0000000 )


      isym =  9     inv. 180 deg rotation - cryst. axis [1,-1,0] 

 cryst.   s( 9) = (     0          1          0      )    f =(  0.0000000 )
                  (     1          0          0      )       (  0.0000000 )
                  (     0          0          1      )       (  0.5000000 )

 cart.    s( 9) = ( -0.5000000  0.8660254  0.0000000 )    f =(  0.0000000 )
                  (  0.8660254  0.5000000  0.0000000 )       (  0.0000000 )
                  (  0.0000000  0.0000000  1.0000000 )       (  0.8064516 )


      isym = 10     inv. 180 deg rotation - cryst. axis [2,1,0]  

 cryst.   s(10) = (    -1         -1          0      )    f =(  0.0000000 )
                  (     0          1          0      )       (  0.0000000 )
                  (     0          0          1      )       (  0.5000000 )

 cart.    s(10) = ( -0.5000000 -0.8660254  0.0000000 )    f =( -0.0000000 )
                  ( -0.8660254  0.5000000  0.0000000 )       (  0.0000000 )
                  (  0.0000000  0.0000000  1.0000000 )       (  0.8064516 )


      isym = 11     inv. 180 deg rotation - cryst. axis [0,1,0]  

 cryst.   s(11) = (     1          1          0      )
                  (     0         -1          0      )
                  (     0          0          1      )

 cart.    s(11) = (  0.5000000  0.8660254  0.0000000 )
                  (  0.8660254 -0.5000000  0.0000000 )
                  (  0.0000000  0.0000000  1.0000000 )


      isym = 12     inv. 180 deg rotation - cryst. axis [1,1,0]  

 cryst.   s(12) = (     0         -1          0      )
                  (    -1          0          0      )
                  (     0          0          1      )

 cart.    s(12) = (  0.5000000 -0.8660254  0.0000000 )
                  ( -0.8660254 -0.5000000  0.0000000 )
                  (  0.0000000  0.0000000  1.0000000 )


   Cartesian axes

     site n.     atom                  positions (alat units)
         1        Zn     tau(   1) = (   0.5000000   0.2886751   0.7096774  )
         2        Zn     tau(   2) = (  -0.0000000   0.5773503   1.5161290  )
         3        O      tau(   3) = (   0.5000000   0.2886751   1.5161290  )
         4        O      tau(   4) = (  -0.0000000   0.5773503   0.7096774  )

   Crystallographic axes

     site n.     atom                  positions (cryst. coord.)
         1        Zn     tau(   1) = (  0.6666667  0.3333333  0.4400000  )
         2        Zn     tau(   2) = (  0.3333333  0.6666667  0.9400000  )
         3        O      tau(   3) = (  0.6666667  0.3333333  0.9400000  )
         4        O      tau(   4) = (  0.3333333  0.6666667  0.4400000  )

     number of k points=    21
                       cart. coord. in units 2pi/alat
        k(    1) = (   0.0000000   0.0000000   0.0000000), wk =   0.0138889
        k(    2) = (   0.0000000   0.0000000   0.1550000), wk =   0.0277778
        k(    3) = (   0.0000000   0.0000000  -0.3100000), wk =   0.0138889
        k(    4) = (   0.0000000   0.1924501   0.0000000), wk =   0.0833333
        k(    5) = (   0.0000000   0.1924501   0.1550000), wk =   0.1666667
        k(    6) = (   0.0000000   0.1924501  -0.3100000), wk =   0.0833333
        k(    7) = (   0.0000000   0.3849002   0.0000000), wk =   0.0833333
        k(    8) = (   0.0000000   0.3849002   0.1550000), wk =   0.1666667
        k(    9) = (   0.0000000   0.3849002  -0.3100000), wk =   0.0833333
        k(   10) = (   0.0000000  -0.5773503   0.0000000), wk =   0.0416667
        k(   11) = (   0.0000000  -0.5773503   0.1550000), wk =   0.0833333
        k(   12) = (   0.0000000  -0.5773503  -0.3100000), wk =   0.0416667
        k(   13) = (   0.1666667   0.2886751   0.0000000), wk =   0.0833333
        k(   14) = (   0.1666667   0.2886751   0.1550000), wk =   0.1666667
        k(   15) = (   0.1666667   0.2886751  -0.3100000), wk =   0.0833333
        k(   16) = (   0.1666667   0.4811252   0.0000000), wk =   0.1666667
        k(   17) = (   0.1666667   0.4811252   0.1550000), wk =   0.3333333
        k(   18) = (   0.1666667   0.4811252  -0.3100000), wk =   0.1666667
        k(   19) = (   0.3333333   0.5773503   0.0000000), wk =   0.0277778
        k(   20) = (   0.3333333   0.5773503   0.1550000), wk =   0.0555556
        k(   21) = (   0.3333333   0.5773503  -0.3100000), wk =   0.0277778

                       cryst. coord.
        k(    1) = (   0.0000000   0.0000000   0.0000000), wk =   0.0138889
        k(    2) = (   0.0000000   0.0000000   0.2500000), wk =   0.0277778
        k(    3) = (   0.0000000   0.0000000  -0.5000000), wk =   0.0138889
        k(    4) = (   0.0000000   0.1666667   0.0000000), wk =   0.0833333
        k(    5) = (   0.0000000   0.1666667   0.2500000), wk =   0.1666667
        k(    6) = (   0.0000000   0.1666667  -0.5000000), wk =   0.0833333
        k(    7) = (   0.0000000   0.3333333   0.0000000), wk =   0.0833333
        k(    8) = (   0.0000000   0.3333333   0.2500000), wk =   0.1666667
        k(    9) = (   0.0000000   0.3333333  -0.5000000), wk =   0.0833333
        k(   10) = (   0.0000000  -0.5000000   0.0000000), wk =   0.0416667
        k(   11) = (   0.0000000  -0.5000000   0.2500000), wk =   0.0833333
        k(   12) = (   0.0000000  -0.5000000  -0.5000000), wk =   0.0416667
        k(   13) = (   0.1666667   0.1666667   0.0000000), wk =   0.0833333
        k(   14) = (   0.1666667   0.1666667   0.2500000), wk =   0.1666667
        k(   15) = (   0.1666667   0.1666667  -0.5000000), wk =   0.0833333
        k(   16) = (   0.1666667   0.3333333   0.0000000), wk =   0.1666667
        k(   17) = (   0.1666667   0.3333333   0.2500000), wk =   0.3333333
        k(   18) = (   0.1666667   0.3333333  -0.5000000), wk =   0.1666667
        k(   19) = (   0.3333333   0.3333333   0.0000000), wk =   0.0277778
        k(   20) = (   0.3333333   0.3333333   0.2500000), wk =   0.0555556
        k(   21) = (   0.3333333   0.3333333  -0.5000000), wk =   0.0277778

     Dense  grid:    27197 G-vectors     FFT dimensions: (  36,  36,  54)

     Dynamical RAM for                 wfc:       0.12 MB

     Dynamical RAM for     wfc (w. buffer):       2.56 MB

     Dynamical RAM for           str. fact:       0.05 MB

     Dynamical RAM for           local pot:       0.00 MB

     Dynamical RAM for          nlocal pot:       0.20 MB

     Dynamical RAM for                qrad:       2.87 MB

     Dynamical RAM for          rho,v,vnew:       0.20 MB

     Dynamical RAM for               rhoin:       0.07 MB

     Dynamical RAM for            rho*nmix:       0.42 MB

     Dynamical RAM for           G-vectors:       0.11 MB

     Dynamical RAM for          h,s,v(r/c):       0.24 MB

     Dynamical RAM for          <psi|beta>:       0.03 MB

     Dynamical RAM for                 psi:       0.23 MB

     Dynamical RAM for                hpsi:       0.23 MB

     Dynamical RAM for      wfcinit/wfcrot:       0.26 MB

     Estimated static dynamical RAM per process >       6.33 MB

     Estimated max dynamical RAM per process >       7.49 MB

     Estimated total dynamical RAM >     119.85 MB

     Initial potential from superposition of free atoms

     starting charge      51.9998, renormalised to      52.0000
     Starting wfcs are   28 randomized atomic wfcs +    8 random wfcs

     total cpu time spent up to now is        0.7 secs

     Self-consistent Calculation

     iteration #  1     ecut=    80.00 Ry     beta= 0.30
     Davidson diagonalization with overlap

---- Real-time Memory Report at c_bands before calling an iterative solver
            97 MiB given to the printing process from OS
             0 MiB allocation reported by mallinfo(arena+hblkhd)
         43020 MiB available memory on the node where the printing process lives
------------------
     ethr =  1.00E-02,  avg # of iterations =  4.6

     total cpu time spent up to now is        2.7 secs

     total energy              =    -901.83615558 Ry
     estimated scf accuracy    <       0.81730336 Ry

     iteration #  2     ecut=    80.00 Ry     beta= 0.30
     Davidson diagonalization with overlap

---- Real-time Memory Report at c_bands before calling an iterative solver
           101 MiB given to the printing process from OS
             0 MiB allocation reported by mallinfo(arena+hblkhd)
         43497 MiB available memory on the node where the printing process lives
------------------
     ethr =  1.57E-03,  avg # of iterations =  1.0

     total cpu time spent up to now is        4.0 secs

     total energy              =    -901.70958183 Ry
     estimated scf accuracy    <       0.32476995 Ry

     iteration #  3     ecut=    80.00 Ry     beta= 0.30
     Davidson diagonalization with overlap

---- Real-time Memory Report at c_bands before calling an iterative solver
           101 MiB given to the printing process from OS
             0 MiB allocation reported by mallinfo(arena+hblkhd)
         42998 MiB available memory on the node where the printing process lives
------------------
     ethr =  6.25E-04,  avg # of iterations =  2.4

     total cpu time spent up to now is        5.4 secs

     total energy              =    -901.76253118 Ry
     estimated scf accuracy    <       0.01482818 Ry

     iteration #  4     ecut=    80.00 Ry     beta= 0.30
     Davidson diagonalization with overlap

---- Real-time Memory Report at c_bands before calling an iterative solver
           101 MiB given to the printing process from OS
             0 MiB allocation reported by mallinfo(arena+hblkhd)
         42999 MiB available memory on the node where the printing process lives
------------------
     ethr =  2.85E-05,  avg # of iterations =  2.8

     total cpu time spent up to now is        6.8 secs

     total energy              =    -901.76246541 Ry
     estimated scf accuracy    <       0.00272805 Ry

     iteration #  5     ecut=    80.00 Ry     beta= 0.30
     Davidson diagonalization with overlap

---- Real-time Memory Report at c_bands before calling an iterative solver
           101 MiB given to the printing process from OS
             0 MiB allocation reported by mallinfo(arena+hblkhd)
         43624 MiB available memory on the node where the printing process lives
------------------
     ethr =  5.25E-06,  avg # of iterations =  2.4

     total cpu time spent up to now is        8.3 secs

     total energy              =    -901.76302290 Ry
     estimated scf accuracy    <       0.00011026 Ry

     iteration #  6     ecut=    80.00 Ry     beta= 0.30
     Davidson diagonalization with overlap

---- Real-time Memory Report at c_bands before calling an iterative solver
           102 MiB given to the printing process from OS
             0 MiB allocation reported by mallinfo(arena+hblkhd)
         43556 MiB available memory on the node where the printing process lives
------------------
     ethr =  2.12E-07,  avg # of iterations =  2.0

     total cpu time spent up to now is        9.7 secs

     total energy              =    -901.76302787 Ry
     estimated scf accuracy    <       0.00001530 Ry

     iteration #  7     ecut=    80.00 Ry     beta= 0.30
     Davidson diagonalization with overlap

---- Real-time Memory Report at c_bands before calling an iterative solver
           102 MiB given to the printing process from OS
             0 MiB allocation reported by mallinfo(arena+hblkhd)
         42996 MiB available memory on the node where the printing process lives
------------------
     ethr =  2.94E-08,  avg # of iterations =  2.0

     total cpu time spent up to now is       11.1 secs

     total energy              =    -901.76303106 Ry
     estimated scf accuracy    <       0.00000074 Ry

     iteration #  8     ecut=    80.00 Ry     beta= 0.30
     Davidson diagonalization with overlap

---- Real-time Memory Report at c_bands before calling an iterative solver
           102 MiB given to the printing process from OS
             0 MiB allocation reported by mallinfo(arena+hblkhd)
         42982 MiB available memory on the node where the printing process lives
------------------
     ethr =  1.43E-09,  avg # of iterations =  1.0

     total cpu time spent up to now is       12.4 secs

     total energy              =    -901.76303079 Ry
     estimated scf accuracy    <       0.00000066 Ry

     iteration #  9     ecut=    80.00 Ry     beta= 0.30
     Davidson diagonalization with overlap

---- Real-time Memory Report at c_bands before calling an iterative solver
           102 MiB given to the printing process from OS
             0 MiB allocation reported by mallinfo(arena+hblkhd)
         43706 MiB available memory on the node where the printing process lives
------------------
     ethr =  1.26E-09,  avg # of iterations =  2.0

     total cpu time spent up to now is       13.9 secs

     total energy              =    -901.76303092 Ry
     estimated scf accuracy    <       0.00000002 Ry

     iteration # 10     ecut=    80.00 Ry     beta= 0.30
     Davidson diagonalization with overlap

---- Real-time Memory Report at c_bands before calling an iterative solver
           102 MiB given to the printing process from OS
             0 MiB allocation reported by mallinfo(arena+hblkhd)
         43591 MiB available memory on the node where the printing process lives
------------------
     ethr =  3.43E-11,  avg # of iterations =  2.0

     total cpu time spent up to now is       15.3 secs

     total energy              =    -901.76303091 Ry
     estimated scf accuracy    <          9.0E-09 Ry

     iteration # 11     ecut=    80.00 Ry     beta= 0.30
     Davidson diagonalization with overlap

---- Real-time Memory Report at c_bands before calling an iterative solver
           102 MiB given to the printing process from OS
             0 MiB allocation reported by mallinfo(arena+hblkhd)
         43604 MiB available memory on the node where the printing process lives
------------------
     ethr =  1.73E-11,  avg # of iterations =  2.0

     total cpu time spent up to now is       16.7 secs

     total energy              =    -901.76303092 Ry
     estimated scf accuracy    <          1.9E-10 Ry

     iteration # 12     ecut=    80.00 Ry     beta= 0.30
     Davidson diagonalization with overlap

---- Real-time Memory Report at c_bands before calling an iterative solver
           102 MiB given to the printing process from OS
             0 MiB allocation reported by mallinfo(arena+hblkhd)
         42953 MiB available memory on the node where the printing process lives
------------------
     ethr =  3.71E-13,  avg # of iterations =  2.0

     total cpu time spent up to now is       18.2 secs

     total energy              =    -901.76303092 Ry
     estimated scf accuracy    <          2.5E-10 Ry

     iteration # 13     ecut=    80.00 Ry     beta= 0.30
     Davidson diagonalization with overlap

---- Real-time Memory Report at c_bands before calling an iterative solver
           102 MiB given to the printing process from OS
             0 MiB allocation reported by mallinfo(arena+hblkhd)
         42957 MiB available memory on the node where the printing process lives
------------------
     ethr =  3.71E-13,  avg # of iterations =  2.0

     total cpu time spent up to now is       19.9 secs

     total energy              =    -901.76303092 Ry
     estimated scf accuracy    <          1.4E-11 Ry

     iteration # 14     ecut=    80.00 Ry     beta= 0.30
     Davidson diagonalization with overlap

---- Real-time Memory Report at c_bands before calling an iterative solver
           102 MiB given to the printing process from OS
             0 MiB allocation reported by mallinfo(arena+hblkhd)
         42976 MiB available memory on the node where the printing process lives
------------------
     ethr =  1.00E-13,  avg # of iterations =  1.0

     total cpu time spent up to now is       21.1 secs

     total energy              =    -901.76303092 Ry
     estimated scf accuracy    <          6.3E-12 Ry

     iteration # 15     ecut=    80.00 Ry     beta= 0.30
     Davidson diagonalization with overlap

---- Real-time Memory Report at c_bands before calling an iterative solver
           102 MiB given to the printing process from OS
             0 MiB allocation reported by mallinfo(arena+hblkhd)
         42984 MiB available memory on the node where the printing process lives
------------------
     ethr =  1.00E-13,  avg # of iterations =  1.0

     total cpu time spent up to now is       22.3 secs

     End of self-consistent calculation

          k = 0.0000 0.0000 0.0000 (  3405 PWs)   bands (ev):

  -111.1953-111.1949 -65.9397 -65.9341 -65.8373 -65.8373 -65.8363 -65.8363
    -7.2747  -6.3698   4.5264   4.5264   4.5827   4.5827   5.7702   6.4983
     6.7452   6.7452   7.0030   7.0030   7.4849  10.2130  11.6871  11.6871
    12.0524  12.0524  13.2049  17.2920  20.1400  25.1455  25.1455  26.5417
    26.5417  27.9855  28.0057  31.4828

     occupation numbers 
     1.0000   1.0000   1.0000   1.0000   1.0000   1.0000   1.0000   1.0000
     1.0000   1.0000   1.0000   1.0000   1.0000   1.0000   1.0000   1.0000
     1.0000   1.0000   1.0000   1.0000   1.0000   1.0000   1.0000   1.0000
     1.0000   1.0000   0.0000   0.0000   0.0000   0.0000   0.0000   0.0000
     0.0000   0.0000   0.0000   0.0000

          k = 0.0000 0.0000 0.1550 (  3405 PWs)   bands (ev):

  -111.1952-111.1949 -65.9389 -65.9349 -65.8372 -65.8372 -65.8364 -65.8364
    -7.1500  -6.5106   4.5283   4.5283   4.5676   4.5676   5.7280   6.2881
     6.7912   6.7912   6.9730   6.9730   7.9505   9.7114  11.7451  11.7451
    12.0039  12.0039  14.0676  16.8828  20.5334  24.8181  25.1453  25.1453
    26.0527  26.0527  29.9112  32.2026

     occupation numbers 
     1.0000   1.0000   1.0000   1.0000   1.0000   1.0000   1.0000   1.0000
     1.0000   1.0000   1.0000   1.0000   1.0000   1.0000   1.0000   1.0000
     1.0000   1.0000   1.0000   1.0000   1.0000   1.0000   1.0000   1.0000
     1.0000   1.0000   0.0000   0.0000   0.0000   0.0000   0.0000   0.0000
     0.0000   0.0000   0.0000   0.0000

          k = 0.0000 0.0000-0.3100 (  3422 PWs)   bands (ev):

  -111.1951-111.1951 -65.9369 -65.9369 -65.8368 -65.8368 -65.8368 -65.8368
    -6.8383  -6.8383   4.5415   4.5415   4.5415   4.5415   5.8995   5.8995
     6.8901   6.8901   6.8901   6.8901   8.8412   8.8412  11.8793  11.8793
    11.8793  11.8793  15.6395  15.6395  22.0702  22.0702  25.3907  25.3907
    25.3907  25.3907  31.1204  31.1204

     occupation numbers 
     1.0000   1.0000   1.0000   1.0000   1.0000   1.0000   1.0000   1.0000
     1.0000   1.0000   1.0000   1.0000   1.0000   1.0000   1.0000   1.0000
     1.0000   1.0000   1.0000   1.0000   1.0000   1.0000   1.0000   1.0000
     1.0000   1.0000   0.0000   0.0000   0.0000   0.0000   0.0000   0.0000
     0.0000   0.0000   0.0000   0.0000

          k = 0.0000 0.1925 0.0000 (  3401 PWs)   bands (ev):

  -111.1952-111.1948 -65.9393 -65.9344 -65.8386 -65.8377 -65.8377 -65.8366
    -7.0587  -6.2482   4.4200   4.5385   4.7359   4.8448   5.5887   6.5195
     6.5624   6.6981   7.0158   7.4690   7.5821  10.3994  10.5271  10.7416
    11.0663  11.5285  14.6654  18.3995  19.9409  22.9881  25.0132  25.6058
    25.7656  27.5842  29.5039  29.5581

     occupation numbers 
     1.0000   1.0000   1.0000   1.0000   1.0000   1.0000   1.0000   1.0000
     1.0000   1.0000   1.0000   1.0000   1.0000   1.0000   1.0000   1.0000
     1.0000   1.0000   1.0000   1.0000   1.0000   1.0000   1.0000   1.0000
     1.0000   1.0000   0.0000   0.0000   0.0000   0.0000   0.0000   0.0000
     0.0000   0.0000   0.0000   0.0000

          k = 0.0000 0.1925 0.1550 (  3408 PWs)   bands (ev):

  -111.1951-111.1949 -65.9386 -65.9351 -65.8385 -65.8378 -65.8376 -65.8368
    -6.9447  -6.3715   4.4099   4.4895   4.7446   4.8207   5.5809   6.1368
     6.7529   6.8123   6.9765   7.1961   8.2355   9.7910  10.6908  11.1003
    11.1383  11.4655  15.1317  17.7456  20.4183  23.2179  24.0482  24.7195
    25.7690  26.7672  29.7244  30.9600

     occupation numbers 
     1.0000   1.0000   1.0000   1.0000   1.0000   1.0000   1.0000   1.0000
     1.0000   1.0000   1.0000   1.0000   1.0000   1.0000   1.0000   1.0000
     1.0000   1.0000   1.0000   1.0000   1.0000   1.0000   1.0000   1.0000
     1.0000   1.0000   0.0000   0.0000   0.0000   0.0000   0.0000   0.0000
     0.0000   0.0000   0.0000   0.0000

          k = 0.0000 0.1925-0.3100 (  3406 PWs)   bands (ev):

  -111.1950-111.1950 -65.9368 -65.9368 -65.8381 -65.8381 -65.8372 -65.8372
    -6.6628  -6.6628   4.4221   4.4221   4.7751   4.7751   5.7445   5.7445
     6.8723   6.8723   7.0110   7.0110   9.0679   9.0679  11.0120  11.0120
    11.3064  11.3064  16.3754  16.3754  21.8275  21.8275  23.8973  23.8973
    26.0124  26.0124  31.4151  31.4151

     occupation numbers 
     1.0000   1.0000   1.0000   1.0000   1.0000   1.0000   1.0000   1.0000
     1.0000   1.0000   1.0000   1.0000   1.0000   1.0000   1.0000   1.0000
     1.0000   1.0000   1.0000   1.0000   1.0000   1.0000   1.0000   1.0000
     1.0000   1.0000   0.0000   0.0000   0.0000   0.0000   0.0000   0.0000
     0.0000   0.0000   0.0000   0.0000

          k = 0.0000 0.3849 0.0000 (  3394 PWs)   bands (ev):

  -111.1950-111.1948 -65.9382 -65.9350 -65.8412 -65.8404 -65.8386 -65.8372
    -6.5693  -6.0310   4.2969   4.7219   5.2911   5.4676   5.5002   6.0743
     6.6162   6.7019   7.0294   7.3507   8.6332   8.6759   8.9171   9.8145
    10.4188  10.5977  16.7508  19.5944  19.8195  21.1910  22.6562  23.6990
    26.7850  28.1330  28.1646  30.2439

     occupation numbers 
     1.0000   1.0000   1.0000   1.0000   1.0000   1.0000   1.0000   1.0000
     1.0000   1.0000   1.0000   1.0000   1.0000   1.0000   1.0000   1.0000
     1.0000   1.0000   1.0000   1.0000   1.0000   1.0000   1.0000   1.0000
     1.0000   1.0000   0.0000   0.0000   0.0000   0.0000   0.0000   0.0000
     0.0000   0.0000   0.0000   0.0000

          k = 0.0000 0.3849 0.1550 (  3398 PWs)   bands (ev):

  -111.1949-111.1948 -65.9378 -65.9355 -65.8411 -65.8405 -65.8384 -65.8374
    -6.4879  -6.1063   4.2901   4.5716   5.3067   5.4287   5.4865   5.8268
     6.6854   6.8854   6.9739   7.2807   8.4490   8.7354   9.4908   9.9102
    10.3369  10.7747  16.7799  18.5454  20.6292  21.3794  22.2782  23.6234
    26.7871  27.5150  27.8905  31.5949

     occupation numbers 
     1.0000   1.0000   1.0000   1.0000   1.0000   1.0000   1.0000   1.0000
     1.0000   1.0000   1.0000   1.0000   1.0000   1.0000   1.0000   1.0000
     1.0000   1.0000   1.0000   1.0000   1.0000   1.0000   1.0000   1.0000
     1.0000   1.0000   0.0000   0.0000   0.0000   0.0000   0.0000   0.0000
     0.0000   0.0000   0.0000   0.0000

          k = 0.0000 0.3849-0.3100 (  3372 PWs)   bands (ev):

  -111.1949-111.1949 -65.9366 -65.9366 -65.8408 -65.8408 -65.8379 -65.8379
    -6.2941  -6.2941   4.3561   4.3561   5.3566   5.3566   5.5603   5.5603
     6.8361   6.8361   7.1174   7.1174   8.5328   8.5328  10.1304  10.1304
    10.4869  10.4869  17.3557  17.3557  21.3590  21.3590  22.5116  22.5116
    26.9520  26.9520  29.5963  29.5963

     occupation numbers 
     1.0000   1.0000   1.0000   1.0000   1.0000   1.0000   1.0000   1.0000
     1.0000   1.0000   1.0000   1.0000   1.0000   1.0000   1.0000   1.0000
     1.0000   1.0000   1.0000   1.0000   1.0000   1.0000   1.0000   1.0000
     1.0000   1.0000   0.0000   0.0000   0.0000   0.0000   0.0000   0.0000
     0.0000   0.0000   0.0000   0.0000

          k = 0.0000-0.5774 0.0000 (  3402 PWs)   bands (ev):

  -111.1949-111.1947 -65.9374 -65.9356 -65.8425 -65.8418 -65.8390 -65.8375
    -6.2583  -5.9714   4.3554   5.0397   5.6572   5.6778   5.7144   5.8904
     6.5788   6.7891   7.0328   7.0959   7.6380   8.0941   9.1050   9.3687
     9.7894  10.5134  18.5015  18.9801  19.4385  20.8905  21.4974  23.8631
    27.2126  27.6850  27.7305  32.2632

     occupation numbers 
     1.0000   1.0000   1.0000   1.0000   1.0000   1.0000   1.0000   1.0000
     1.0000   1.0000   1.0000   1.0000   1.0000   1.0000   1.0000   1.0000
     1.0000   1.0000   1.0000   1.0000   1.0000   1.0000   1.0000   1.0000
     1.0000   1.0000   0.0000   0.0000   0.0000   0.0000   0.0000   0.0000
     0.0000   0.0000   0.0000   0.0000

          k = 0.0000-0.5774 0.1550 (  3394 PWs)   bands (ev):

  -111.1948-111.1948 -65.9372 -65.9359 -65.8424 -65.8419 -65.8388 -65.8377
    -6.2093  -6.0057   4.3490   4.8089   5.5880   5.5923   5.6957   5.8398
     6.6557   6.8902   6.9680   7.0837   7.6990   7.9768   9.2181   9.6995
     9.9161  10.7721  17.6971  18.6100  20.3785  20.9543  21.4747  23.4732
    27.1951  27.4780  27.5759  32.4155

     occupation numbers 
     1.0000   1.0000   1.0000   1.0000   1.0000   1.0000   1.0000   1.0000
     1.0000   1.0000   1.0000   1.0000   1.0000   1.0000   1.0000   1.0000
     1.0000   1.0000   1.0000   1.0000   1.0000   1.0000   1.0000   1.0000
     1.0000   1.0000   0.0000   0.0000   0.0000   0.0000   0.0000   0.0000
     0.0000   0.0000   0.0000   0.0000

          k = 0.0000-0.5774-0.3100 (  3388 PWs)   bands (ev):

  -111.1948-111.1948 -65.9365 -65.9365 -65.8421 -65.8421 -65.8383 -65.8383
    -6.1002  -6.1002   4.4619   4.4619   5.5207   5.5207   5.7531   5.7531
     6.8166   6.8166   7.0168   7.0168   7.8265   7.8265   9.4700   9.4700
    10.7269  10.7269  17.6920  17.6920  21.0912  21.0912  22.0867  22.0867
    27.2396  27.2396  29.3115  29.3115

     occupation numbers 
     1.0000   1.0000   1.0000   1.0000   1.0000   1.0000   1.0000   1.0000
     1.0000   1.0000   1.0000   1.0000   1.0000   1.0000   1.0000   1.0000
     1.0000   1.0000   1.0000   1.0000   1.0000   1.0000   1.0000   1.0000
     1.0000   1.0000   0.0000   0.0000   0.0000   0.0000   0.0000   0.0000
     0.0000   0.0000   0.0000   0.0000

          k = 0.1667 0.2887 0.0000 (  3383 PWs)   bands (ev):

  -111.1950-111.1948 -65.9385 -65.9348 -65.8402 -65.8397 -65.8384 -65.8374
    -6.7036  -6.0794   4.4010   4.5599   5.1472   5.2995   5.5019   6.2128
     6.6123   6.6603   7.0135   7.4076   8.3936   9.3034   9.4729   9.8504
    10.4482  10.5774  16.3117  19.7363  19.9645  21.6406  23.5369  23.7303
    25.6982  27.1157  28.2973  32.1945

     occupation numbers 
     1.0000   1.0000   1.0000   1.0000   1.0000   1.0000   1.0000   1.0000
     1.0000   1.0000   1.0000   1.0000   1.0000   1.0000   1.0000   1.0000
     1.0000   1.0000   1.0000   1.0000   1.0000   1.0000   1.0000   1.0000
     1.0000   1.0000   0.0000   0.0000   0.0000   0.0000   0.0000   0.0000
     0.0000   0.0000   0.0000   0.0000

          k = 0.1667 0.2887 0.1550 (  3396 PWs)   bands (ev):

  -111.1950-111.1948 -65.9380 -65.9354 -65.8401 -65.8398 -65.8383 -65.8375
    -6.6117  -6.1695   4.3838   4.4673   5.1536   5.2549   5.4963   5.9212
     6.6756   6.8590   6.9708   7.3009   8.6439   9.2486   9.7052   9.8875
    10.3589  10.8237  16.4943  18.6274  20.6273  21.8971  22.9731  23.5961
    25.4592  27.5798  28.2801  31.8914

     occupation numbers 
     1.0000   1.0000   1.0000   1.0000   1.0000   1.0000   1.0000   1.0000
     1.0000   1.0000   1.0000   1.0000   1.0000   1.0000   1.0000   1.0000
     1.0000   1.0000   1.0000   1.0000   1.0000   1.0000   1.0000   1.0000
     1.0000   1.0000   0.0000   0.0000   0.0000   0.0000   0.0000   0.0000
     0.0000   0.0000   0.0000   0.0000

          k = 0.1667 0.2887-0.3100 (  3386 PWs)   bands (ev):

  -111.1949-111.1949 -65.9367 -65.9367 -65.8399 -65.8399 -65.8379 -65.8379
    -6.3897  -6.3897   4.3728   4.3728   5.1885   5.1885   5.6014   5.6014
     6.8209   6.8209   7.1168   7.1168   8.9316   8.9316  10.0993  10.0993
    10.5848  10.5848  17.2909  17.2909  21.5822  21.5822  22.7372  22.7372
    26.3550  26.3550  30.7014  30.7014

     occupation numbers 
     1.0000   1.0000   1.0000   1.0000   1.0000   1.0000   1.0000   1.0000
     1.0000   1.0000   1.0000   1.0000   1.0000   1.0000   1.0000   1.0000
     1.0000   1.0000   1.0000   1.0000   1.0000   1.0000   1.0000   1.0000
     1.0000   1.0000   0.0000   0.0000   0.0000   0.0000   0.0000   0.0000
     0.0000   0.0000   0.0000   0.0000

          k = 0.1667 0.4811 0.0000 (  3396 PWs)   bands (ev):

  -111.1949-111.1947 -65.9374 -65.9356 -65.8418 -65.8413 -65.8395 -65.8382
    -6.2724  -5.9661   4.5955   4.9748   5.5971   5.6695   5.8659   5.9742
     6.4818   6.7213   7.0095   7.2036   7.8908   8.2292   8.5460   9.2408
     9.3803  10.5152  18.4278  19.8025  20.2859  20.9778  21.8575  23.8459
    24.0755  26.9984  29.8307  32.6221

     occupation numbers 
     1.0000   1.0000   1.0000   1.0000   1.0000   1.0000   1.0000   1.0000
     1.0000   1.0000   1.0000   1.0000   1.0000   1.0000   1.0000   1.0000
     1.0000   1.0000   1.0000   1.0000   1.0000   1.0000   1.0000   1.0000
     1.0000   1.0000   0.0000   0.0000   0.0000   0.0000   0.0000   0.0000
     0.0000   0.0000   0.0000   0.0000

          k = 0.1667 0.4811 0.1550 (  3391 PWs)   bands (ev):

  -111.1948-111.1948 -65.9372 -65.9359 -65.8417 -65.8413 -65.8393 -65.8384
    -6.2209  -6.0036   4.5679   4.8210   5.5352   5.6772   5.7009   5.8925
     6.5705   6.8068   6.9848   7.1723   7.9232   8.1311   8.6122   9.1098
     9.9986  10.8185  18.1110  19.0835  20.8280  21.1175  21.5965  23.0031
    25.0652  27.3609  29.7133  32.1713

     occupation numbers 
     1.0000   1.0000   1.0000   1.0000   1.0000   1.0000   1.0000   1.0000
     1.0000   1.0000   1.0000   1.0000   1.0000   1.0000   1.0000   1.0000
     1.0000   1.0000   1.0000   1.0000   1.0000   1.0000   1.0000   1.0000
     1.0000   1.0000   0.0000   0.0000   0.0000   0.0000   0.0000   0.0000
     0.0000   0.0000   0.0000   0.0000

          k = 0.1667 0.4811-0.3100 (  3386 PWs)   bands (ev):

  -111.1948-111.1948 -65.9365 -65.9365 -65.8415 -65.8415 -65.8389 -65.8389
    -6.1052  -6.1052   4.5990   4.5990   5.5269   5.5269   5.7648   5.7648
     6.7319   6.7319   7.0767   7.0767   8.0062   8.0062   8.8497   8.8497
    10.8366  10.8366  18.1602  18.1602  21.2916  21.2916  21.7951  21.7951
    26.8023  26.8023  30.0894  30.0894

     occupation numbers 
     1.0000   1.0000   1.0000   1.0000   1.0000   1.0000   1.0000   1.0000
     1.0000   1.0000   1.0000   1.0000   1.0000   1.0000   1.0000   1.0000
     1.0000   1.0000   1.0000   1.0000   1.0000   1.0000   1.0000   1.0000
     1.0000   1.0000   0.0000   0.0000   0.0000   0.0000   0.0000   0.0000
     0.0000   0.0000   0.0000   0.0000

          k = 0.3333 0.5774 0.0000 (  3408 PWs)   bands (ev):

  -111.1948-111.1948 -65.9365 -65.9365 -65.8411 -65.8410 -65.8410 -65.8394
    -6.0302  -6.0302   5.2203   5.2203   5.7543   5.7543   5.8526   6.3178
     6.3523   6.5135   6.9897   7.4514   7.4514   7.6396   7.9708   7.9708
    10.1039  10.1039  20.3281  20.3336  20.3336  20.8435  21.6242  21.6242
    24.9204  27.5505  27.5505  33.9150

     occupation numbers 
     1.0000   1.0000   1.0000   1.0000   1.0000   1.0000   1.0000   1.0000
     1.0000   1.0000   1.0000   1.0000   1.0000   1.0000   1.0000   1.0000
     1.0000   1.0000   1.0000   1.0000   1.0000   1.0000   1.0000   1.0000
     1.0000   1.0000   0.0000   0.0000   0.0000   0.0000   0.0000   0.0000
     0.0000   0.0000   0.0000   0.0000

          k = 0.3333 0.5774 0.1550 (  3378 PWs)   bands (ev):

  -111.1948-111.1948 -65.9365 -65.9365 -65.8410 -65.8410 -65.8408 -65.8397
    -6.0214  -6.0214   5.1189   5.1189   5.6235   5.6235   5.8998   6.1802
     6.4495   6.5163   7.0703   7.5109   7.5109   7.5300   7.9323   7.9323
    10.5633  10.5633  19.7618  19.7618  20.3692  20.7056  21.5688  21.5688
    25.8109  28.1900  28.1900  31.4111

     occupation numbers 
     1.0000   1.0000   1.0000   1.0000   1.0000   1.0000   1.0000   1.0000
     1.0000   1.0000   1.0000   1.0000   1.0000   1.0000   1.0000   1.0000
     1.0000   1.0000   1.0000   1.0000   1.0000   1.0000   1.0000   1.0000
     1.0000   1.0000   0.0000   0.0000   0.0000   0.0000   0.0000   0.0000
     0.0000   0.0000   0.0000   0.0000

          k = 0.3333 0.5774-0.3100 (  3372 PWs)   bands (ev):

  -111.1948-111.1948 -65.9365 -65.9365 -65.8410 -65.8410 -65.8402 -65.8402
    -6.0125  -6.0125   4.9917   4.9917   5.5488   5.5488   6.0221   6.0221
     6.5055   6.5055   7.2859   7.2859   7.5562   7.5562   7.9035   7.9035
    11.0272  11.0272  19.1783  19.1783  20.4973  20.4973  21.5505  21.5505
    28.1483  28.1483  28.8222  28.8222

     occupation numbers 
     1.0000   1.0000   1.0000   1.0000   1.0000   1.0000   1.0000   1.0000
     1.0000   1.0000   1.0000   1.0000   1.0000   1.0000   1.0000   1.0000
     1.0000   1.0000   1.0000   1.0000   1.0000   1.0000   1.0000   1.0000
     1.0000   1.0000   0.0000   0.0000   0.0000   0.0000   0.0000   0.0000
     0.0000   0.0000   0.0000   0.0000

     highest occupied, lowest unoccupied level (ev):    12.0524   13.2049

!    total energy              =    -901.76303092 Ry
     estimated scf accuracy    <          2.8E-13 Ry

     The total energy is the sum of the following terms:
     one-electron contribution =    -580.23913878 Ry
     hartree contribution      =     312.21836246 Ry
     xc contribution           =    -105.58990357 Ry
     ewald contribution        =    -528.15235102 Ry

     convergence has been achieved in  15 iterations

     Forces acting on atoms (cartesian axes, Ry/au):

     atom    1 type  1   force =    -0.00000000   -0.00000000    0.00000317
     atom    2 type  1   force =     0.00000000    0.00000000    0.00000317
     atom    3 type  2   force =     0.00000000    0.00000000   -0.00000317
     atom    4 type  2   force =    -0.00000000   -0.00000000   -0.00000317
     The non-local contrib.  to forces
     atom    1 type  1   force =     0.00000000    0.00000000    0.00000361
     atom    2 type  1   force =     0.00000000   -0.00000000    0.00000361
     atom    3 type  2   force =     0.00000000    0.00000000    0.00000124
     atom    4 type  2   force =     0.00000000   -0.00000000    0.00000124
     The ionic contribution  to forces
     atom    1 type  1   force =    -0.00000001    0.00000001   -0.00000000
     atom    2 type  1   force =     0.00000001   -0.00000001    0.00000000
     atom    3 type  2   force =    -0.00000001    0.00000000    0.00000000
     atom    4 type  2   force =     0.00000001   -0.00000000   -0.00000000
     The local contribution  to forces
     atom    1 type  1   force =    -0.00000007    0.00000004    0.00000111
     atom    2 type  1   force =     0.00000020   -0.00000012    0.00000111
     atom    3 type  2   force =    -0.00000000    0.00000000   -0.00000009
     atom    4 type  2   force =     0.00000001   -0.00000001   -0.00000009
     The core correction contribution to forces
     atom    1 type  1   force =     0.00000000   -0.00000000    0.00000205
     atom    2 type  1   force =    -0.00000000    0.00000000    0.00000205
     atom    3 type  2   force =     0.00000000   -0.00000000   -0.00000071
     atom    4 type  2   force =    -0.00000000    0.00000000   -0.00000071
     The Hubbard contrib.    to forces
     atom    1 type  1   force =     0.00000000    0.00000000    0.00000000
     atom    2 type  1   force =     0.00000000    0.00000000    0.00000000
     atom    3 type  2   force =     0.00000000    0.00000000    0.00000000
     atom    4 type  2   force =     0.00000000    0.00000000    0.00000000
     The SCF correction term to forces
     atom    1 type  1   force =     0.00000000   -0.00000000   -0.00000000
     atom    2 type  1   force =    -0.00000000    0.00000000   -0.00000000
     atom    3 type  2   force =     0.00000000   -0.00000000   -0.00000000
     atom    4 type  2   force =    -0.00000000    0.00000000   -0.00000000

     Total force =     0.000006     Total SCF correction =     0.000000


     Computing stress (Cartesian axis) and pressure

          total   stress  (Ry/bohr**3)                   (kbar)     P=      274.95
   0.00277335   0.00000000   0.00000000          407.97        0.00        0.00
   0.00000000   0.00277335   0.00000000            0.00      407.97        0.00
   0.00000000   0.00000000   0.00006061            0.00        0.00        8.92

     kinetic stress (kbar) 144735.27      0.00      0.00
                                0.00 144735.27      0.00
                                0.00      0.00 145667.17

     local   stress (kbar) -34764.13     -0.00     -0.00
                               -0.00 -34764.13      0.00
                               -0.00      0.00  21581.22

     nonloc. stress (kbar) -74188.91      0.00      0.00
                                0.00 -74188.91      0.00
                                0.00      0.00 -74728.73

     hartree stress (kbar)  61332.01     -0.00      0.00
                               -0.00  61332.01     -0.00
                                0.00     -0.00  40891.60

     exc-cor stress (kbar)  -7408.39      0.00      0.00
                                0.00  -7408.39      0.00
                                0.00      0.00  -7408.39

     corecor stress (kbar)  -9309.52     -0.00     -0.00
                               -0.00  -9309.52      0.00
                               -0.00      0.00  -9298.00

     ewald   stress (kbar) -79988.36      0.00      0.00
                                0.00 -79988.36      0.00
                                0.00      0.00-116695.96

     hubbard stress (kbar)      0.00      0.00      0.00
                                0.00      0.00      0.00
                                0.00      0.00      0.00

     DFT-D   stress (kbar)      0.00      0.00      0.00
                                0.00      0.00      0.00
                                0.00      0.00      0.00

     XDM     stress (kbar)      0.00      0.00      0.00
                                0.00      0.00      0.00
                                0.00      0.00      0.00

     dft-nl  stress (kbar)      0.00      0.00      0.00
                                0.00      0.00      0.00
                                0.00      0.00      0.00

     TS-vdW  stress (kbar)      0.00      0.00      0.00
                                0.00      0.00      0.00
                                0.00      0.00      0.00

     MDB     stress (kbar)      0.00      0.00      0.00
                                0.00      0.00      0.00
                                0.00      0.00      0.00

     3D-RISM stress (kbar)      0.00      0.00      0.00
                                0.00      0.00      0.00
                                0.00      0.00      0.00


     BFGS Geometry Optimization
     Energy error            =      4.0E-11 Ry
     Gradient error          =      3.2E-06 Ry/Bohr

     bfgs converged in   1 scf cycles and   0 bfgs steps
     (criteria: energy <  1.0E-08 Ry, force <  1.0E-04 Ry/Bohr)

     End of BFGS Geometry Optimization

     Final energy             =    -901.7630309163 Ry
Begin final coordinates

ATOMIC_POSITIONS (crystal)
Zn               0.6666666667        0.3333333333        0.4400000000
Zn               0.3333333333        0.6666666667        0.9400000000
O                0.6666666667        0.3333333333        0.9400000000
O                0.3333333333        0.6666666667        0.4400000000
End final coordinates


     Message from routine punch:
     Nothing written, as per user request (disk_io='none')
 
     init_run     :      0.44s CPU      0.49s WALL (       1 calls)
     electrons    :     20.98s CPU     21.63s WALL (       1 calls)
     forces       :      0.09s CPU      0.09s WALL (       1 calls)
     stress       :      0.26s CPU      0.27s WALL (       1 calls)

     Called by init_run:
     wfcinit      :      0.38s CPU      0.40s WALL (       1 calls)
     wfcinit:atom :      0.00s CPU      0.00s WALL (      21 calls)
     wfcinit:wfcr :      0.37s CPU      0.39s WALL (      21 calls)
     potinit      :      0.01s CPU      0.01s WALL (       1 calls)
     hinit0       :      0.03s CPU      0.05s WALL (       1 calls)

     Called by electrons:
     c_bands      :     18.32s CPU     18.85s WALL (      15 calls)
     sum_band     :      2.45s CPU      2.55s WALL (      15 calls)
     v_of_rho     :      0.02s CPU      0.02s WALL (      16 calls)
     v_h          :      0.01s CPU      0.01s WALL (      16 calls)
     v_xc         :      0.02s CPU      0.02s WALL (      18 calls)
     mix_rho      :      0.18s CPU      0.19s WALL (      15 calls)

     Called by c_bands:
     init_us_2    :      0.16s CPU      0.17s WALL (     693 calls)
     cegterg      :     17.59s CPU     18.09s WALL (     315 calls)

     Called by sum_band:
     sum_band:wei :      0.00s CPU      0.00s WALL (      15 calls)
     sum_band:loo :      2.43s CPU      2.53s WALL (      15 calls)
     sum_band:buf :      0.01s CPU      0.01s WALL (     315 calls)
     sum_band:ini :      0.07s CPU      0.07s WALL (     315 calls)

     Called by *egterg:
     cdiaghg      :      3.64s CPU      3.65s WALL (     949 calls)
     cegterg:over :      0.82s CPU      0.83s WALL (     634 calls)
     cegterg:upda :      0.36s CPU      0.36s WALL (     634 calls)
     cegterg:last :      0.70s CPU      0.71s WALL (     547 calls)
     h_psi        :     11.88s CPU     12.35s WALL (     970 calls)
     g_psi        :      0.02s CPU      0.02s WALL (     634 calls)

     Called by h_psi:
     h_psi:calbec :      0.65s CPU      0.67s WALL (     970 calls)
     vloc_psi     :     10.51s CPU     10.96s WALL (     970 calls)
                                        0.00s GPU  (     970 calls)
     add_vuspsi   :      0.67s CPU      0.68s WALL (     970 calls)

     General routines
     calbec       :      0.89s CPU      0.91s WALL (    1327 calls)
     fft          :      0.02s CPU      0.03s WALL (      55 calls)
     ffts         :      0.10s CPU      0.11s WALL (     387 calls)
     fftw         :     11.88s CPU     12.39s WALL (   63542 calls)
 
     Parallel routines
 
     PWSCF        :     21.93s CPU     22.64s WALL

 
   This run was terminated on:  18: 4:55  12Mar2026            

=------------------------------------------------------------------------------=
   JOB DONE.
=------------------------------------------------------------------------------=
