
     Program PWSCF v.7.5 starts on 20Dec2025 at 23:51:35 

     This program is part of the open-source Quantum ESPRESSO suite
     for quantum simulation of materials; please cite
         "P. Giannozzi et al., J. Phys.:Condens. Matter 21 395502 (2009);
         "P. Giannozzi et al., J. Phys.:Condens. Matter 29 465901 (2017);
         "P. Giannozzi et al., J. Chem. Phys. 152 154105 (2020);
          URL http://www.quantum-espresso.org", 
     in publications or presentations arising from this work. More details at
     http://www.quantum-espresso.org/quote

     Parallel version (MPI), running on    16 processors

     MPI processes distributed on     1 nodes
     62455 MiB available memory on the printing compute node when the environment starts
 
     Waiting for input...
     Reading input from standard input

     Current dimensions of program PWSCF are:
     Max number of different atomic species (ntypx) = 10
     Max number of k-points (npk) =  40000
     Max angular momentum in pseudopotentials (lmaxx) =  4
 
     R & G space division:  proc/nbgrp/npool/nimage =      16
     Subspace diagonalization in iterative solution of the eigenvalue problem:
     a serial algorithm will be used

 
     Parallelization info
     --------------------
     sticks:   dense  smooth     PW     G-vecs:    dense   smooth      PW
     Min          51      51     15                 1931     1931     303
     Max          52      52     16                 1940     1940     308
     Sum         823     823    241                30963    30963    4867
 
     Using Slab Decomposition
 


     bravais-lattice index     =            4
     lattice parameter (alat)  =       6.1227  a.u.
     unit-cell volume          =     320.2489 (a.u.)^3
     number of atoms/cell      =            4
     number of atomic types    =            2
     number of electrons       =        52.00
     number of Kohn-Sham states=           36
     kinetic-energy cutoff     =      80.0000  Ry
     charge density cutoff     =     320.0000  Ry
     scf convergence threshold =      1.0E-08
     mixing beta               =       0.3000
     number of iterations used =            8  plain     mixing
     Exchange-correlation= PBE
                           (   1   4   3   4   0   0   0)

     celldm(1)=   6.122712  celldm(2)=   0.000000  celldm(3)=   1.611111
     celldm(4)=   0.000000  celldm(5)=   0.000000  celldm(6)=   0.000000

     crystal axes: (cart. coord. in units of alat)
               a(1) = (   1.000000   0.000000   0.000000 )  
               a(2) = (  -0.500000   0.866025   0.000000 )  
               a(3) = (   0.000000   0.000000   1.611111 )  

     reciprocal axes: (cart. coord. in units 2 pi/alat)
               b(1) = (  1.000000  0.577350  0.000000 )  
               b(2) = (  0.000000  1.154701  0.000000 )  
               b(3) = (  0.000000  0.000000  0.620690 )  


     PseudoPot. # 1 for Zn read from file:
     /home/jvc/ZnO_database/pseudos/ppdojo_PBE/Zn_ppdojo_SR_NC_PBE.upf
     MD5 check sum: 9b7be680307954c2706c150df658ede8
     Pseudo is Norm-conserving + core correction, Zval = 20.0
     Generated using ONCVPSP code by D. R. Hamann
     Using radial grid of 1326 points,  6 beta functions with: 
                l(1) =   0
                l(2) =   0
                l(3) =   1
                l(4) =   1
                l(5) =   2
                l(6) =   2

     PseudoPot. # 2 for O  read from file:
     /home/jvc/ZnO_database/pseudos/ppdojo_PBE/O_ppdojo_SR_NC_PBE.upf
     MD5 check sum: 3e3f909f7470e8921608ab6b1f57bbae
     Pseudo is Norm-conserving + core correction, Zval =  6.0
     Generated using ONCVPSP code by D. R. Hamann
     Using radial grid of  936 points,  5 beta functions with: 
                l(1) =   0
                l(2) =   0
                l(3) =   1
                l(4) =   1
                l(5) =   2

     atomic species   valence    mass     pseudopotential
     Zn               20.00    65.38000     Zn( 1.00)
     O                 6.00    15.99900     O ( 1.00)

     12 Sym. Ops. (no inversion) found ( 6 have fractional translation)



   Cartesian axes

     site n.     atom                  positions (alat units)
         1        Zn     tau(   1) = (   0.5000000   0.2886751   0.8065088  )
         2        Zn     tau(   2) = (  -0.0000000   0.5773503   0.0009533  )
         3        O      tau(   3) = (   0.5000000   0.2886751   1.4173239  )
         4        O      tau(   4) = (  -0.0000000   0.5773503   0.6117684  )

     number of k points=   126

     Number of k-points >= 100: set verbosity='high' to print them.

     Dense  grid:    30963 G-vectors     FFT dimensions: (  36,  36,  60)

     Estimated max dynamical RAM per process >      21.93 MB

     Estimated total dynamical RAM >     350.91 MB

     Initial potential from superposition of free atoms

     starting charge      51.9997, renormalised to      52.0000
     Starting wfcs are   28 randomized atomic wfcs +    8 random wfcs

     total cpu time spent up to now is        2.1 secs

     Self-consistent Calculation

     iteration #  1     ecut=    80.00 Ry     beta= 0.30
     Davidson diagonalization with overlap
     ethr =  1.00E-02,  avg # of iterations =  4.3

     total cpu time spent up to now is       10.7 secs

     total energy              =    -902.28487542 Ry
     estimated scf accuracy    <       0.84810041 Ry

     iteration #  2     ecut=    80.00 Ry     beta= 0.30
     Davidson diagonalization with overlap
     ethr =  1.63E-03,  avg # of iterations =  2.0

     total cpu time spent up to now is       16.7 secs

     total energy              =    -902.41741739 Ry
     estimated scf accuracy    <       0.02949290 Ry

     iteration #  3     ecut=    80.00 Ry     beta= 0.30
     Davidson diagonalization with overlap
     ethr =  5.67E-05,  avg # of iterations =  2.7

     total cpu time spent up to now is       22.9 secs

     total energy              =    -902.41665900 Ry
     estimated scf accuracy    <       0.01125964 Ry

     iteration #  4     ecut=    80.00 Ry     beta= 0.30
     Davidson diagonalization with overlap
     ethr =  2.17E-05,  avg # of iterations =  1.9

     total cpu time spent up to now is       28.7 secs

     total energy              =    -902.41703723 Ry
     estimated scf accuracy    <       0.00039688 Ry

     iteration #  5     ecut=    80.00 Ry     beta= 0.30
     Davidson diagonalization with overlap
     ethr =  7.63E-07,  avg # of iterations =  3.3

     total cpu time spent up to now is       36.5 secs

     total energy              =    -902.41714347 Ry
     estimated scf accuracy    <       0.00018808 Ry

     iteration #  6     ecut=    80.00 Ry     beta= 0.30
     Davidson diagonalization with overlap
     ethr =  3.62E-07,  avg # of iterations =  2.0

     total cpu time spent up to now is       42.8 secs

     total energy              =    -902.41719776 Ry
     estimated scf accuracy    <       0.00002710 Ry

     iteration #  7     ecut=    80.00 Ry     beta= 0.30
     Davidson diagonalization with overlap
     ethr =  5.21E-08,  avg # of iterations =  2.0

     total cpu time spent up to now is       49.0 secs

     total energy              =    -902.41720215 Ry
     estimated scf accuracy    <       0.00000085 Ry

     iteration #  8     ecut=    80.00 Ry     beta= 0.30
     Davidson diagonalization with overlap
     ethr =  1.63E-09,  avg # of iterations =  2.0

     total cpu time spent up to now is       56.1 secs

     total energy              =    -902.41720236 Ry
     estimated scf accuracy    <       0.00000013 Ry

     iteration #  9     ecut=    80.00 Ry     beta= 0.30
     Davidson diagonalization with overlap
     ethr =  2.48E-10,  avg # of iterations =  2.0

     total cpu time spent up to now is       63.4 secs

     total energy              =    -902.41720229 Ry
     estimated scf accuracy    <       0.00000035 Ry

     iteration # 10     ecut=    80.00 Ry     beta= 0.30
     Davidson diagonalization with overlap
     ethr =  2.48E-10,  avg # of iterations =  2.0

     total cpu time spent up to now is       70.5 secs

     End of self-consistent calculation

     Number of k-points >= 100: set verbosity='high' to print the bands.

     highest occupied, lowest unoccupied level (ev):     9.7429   10.6117

!    total energy              =    -902.41720233 Ry
     estimated scf accuracy    <          2.1E-09 Ry

     The total energy is the sum of the following terms:
     one-electron contribution =    -613.72025150 Ry
     hartree contribution      =     326.08327816 Ry
     xc contribution           =    -106.82384863 Ry
     ewald contribution        =    -507.95638035 Ry

     convergence has been achieved in  10 iterations

     Forces acting on atoms (cartesian axes, Ry/au):

     atom    1 type  1   force =     0.00000000    0.00000000   -0.00068872
     atom    2 type  1   force =     0.00000000   -0.00000000   -0.00068872
     atom    3 type  2   force =     0.00000000    0.00000000    0.00068872
     atom    4 type  2   force =     0.00000000    0.00000000    0.00068872

     Total force =     0.001377     Total SCF correction =     0.000025
     Message from routine punch:
     Nothing written, as per user request (disk_io='none')
 
     init_run     :      1.83s CPU      1.95s WALL (       1 calls)
     electrons    :     66.13s CPU     68.45s WALL (       1 calls)
     forces       :      0.31s CPU      0.31s WALL (       1 calls)

     Called by init_run:
     wfcinit      :      1.76s CPU      1.88s WALL (       1 calls)
     potinit      :      0.01s CPU      0.02s WALL (       1 calls)
     hinit0       :      0.03s CPU      0.04s WALL (       1 calls)

     Called by electrons:
     c_bands      :     58.79s CPU     60.86s WALL (      10 calls)
     sum_band     :      7.27s CPU      7.52s WALL (      10 calls)
     v_of_rho     :      0.06s CPU      0.06s WALL (      11 calls)
     mix_rho      :      0.01s CPU      0.01s WALL (      10 calls)

     Called by c_bands:
     init_us_2    :      0.47s CPU      0.51s WALL (    2772 calls)
     cegterg      :     56.02s CPU     57.96s WALL (    1260 calls)

     Called by *egterg:
     cdiaghg      :     13.45s CPU     13.49s WALL (    4316 calls)
     h_psi        :     36.61s CPU     38.38s WALL (    4442 calls)
     g_psi        :      0.10s CPU      0.11s WALL (    3056 calls)

     Called by h_psi:
     h_psi:calbec :      1.71s CPU      1.78s WALL (    4442 calls)
     vloc_psi     :     32.53s CPU     34.15s WALL (    4442 calls)
                                        0.00s GPU  (    4442 calls)
     add_vuspsi   :      2.01s CPU      2.06s WALL (    4442 calls)

     General routines
     calbec       :      1.93s CPU      2.00s WALL (    4946 calls)
     fft          :      0.03s CPU      0.04s WALL (     120 calls)
     ffts         :      0.00s CPU      0.00s WALL (      10 calls)
     fftw         :     36.47s CPU     38.22s WALL (  273324 calls)
 
     Parallel routines
 
     PWSCF        :   1m 8.38s CPU   1m10.85s WALL

 
   This run was terminated on:  23:52:45  20Dec2025            

=------------------------------------------------------------------------------=
   JOB DONE.
=------------------------------------------------------------------------------=
