
     Program PWSCF v.7.5 starts on  7Apr2026 at 18:11:21 

     This program is part of the open-source Quantum ESPRESSO suite
     for quantum simulation of materials; please cite
         "P. Giannozzi et al., J. Phys.:Condens. Matter 21 395502 (2009);
         "P. Giannozzi et al., J. Phys.:Condens. Matter 29 465901 (2017);
         "P. Giannozzi et al., J. Chem. Phys. 152 154105 (2020);
          URL http://www.quantum-espresso.org", 
     in publications or presentations arising from this work. More details at
     http://www.quantum-espresso.org/quote

     Parallel version (MPI), running on    64 processors

     MPI processes distributed on     1 nodes
     123375 MiB available memory on the printing compute node when the environment starts
 
     Waiting for input...
     Reading input from standard input

     Current dimensions of program PWSCF are:
     Max number of different atomic species (ntypx) = 10
     Max number of k-points (npk) =  40000
     Max angular momentum in pseudopotentials (lmaxx) =  4
     Message from routine setup:
     using ibrav=0 with symmetry is DISCOURAGED, use correct ibrav instead
 
     K-points division:     npool     =       8
     R & G space division:  proc/nbgrp/npool/nimage =       8
     Subspace diagonalization in iterative solution of the eigenvalue problem:
     one sub-group per band group will be used
     scalapack distributed-memory algorithm (size of sub-group:  2*  2 procs)

 
     Parallelization info
     --------------------
     sticks:   dense  smooth     PW     G-vecs:    dense   smooth      PW
     Min         402     402    108                29600    29600    4193
     Max         403     403    110                29607    29607    4198
     Sum        3217    3217    871               236823   236823   33555
 
     Using Slab Decomposition
 


     bravais-lattice index     =            0
     lattice parameter (alat)  =      12.0798  a.u.
     unit-cell volume          =    2450.8693 (a.u.)^3
     number of atoms/cell      =           32
     number of atomic types    =            2
     number of electrons       =       416.00
     number of Kohn-Sham states=          208
     kinetic-energy cutoff     =      80.0000  Ry
     charge density cutoff     =     320.0000  Ry
     scf convergence threshold =      1.0E-08
     mixing beta               =       0.3000
     number of iterations used =            8  plain     mixing
     Exchange-correlation= SLA  PW   NOGX NOGC
                           (   1   4   0   0   0   0   0)

     celldm(1)=  12.079803  celldm(2)=   0.000000  celldm(3)=   0.000000
     celldm(4)=   0.000000  celldm(5)=   0.000000  celldm(6)=   0.000000

     crystal axes: (cart. coord. in units of alat)
               a(1) = (   1.000000   0.000000   0.000000 )  
               a(2) = (  -0.500000   0.866025   0.000000 )  
               a(3) = (   0.000000   0.000000   1.605499 )  

     reciprocal axes: (cart. coord. in units 2 pi/alat)
               b(1) = (  1.000000  0.577350  0.000000 )  
               b(2) = (  0.000000  1.154701  0.000000 )  
               b(3) = (  0.000000  0.000000  0.622859 )  


     PseudoPot. # 1 for Zn read from file:
     /home/jvc/ZnO_database/pseudos/ppdojo_LDA/Zn_pseudo-dojo_NC_SR_LDA.upf
     MD5 check sum: 492e12d15cacde48a98384ec5dd6fb31
     Pseudo is Norm-conserving + core correction, Zval = 20.0
     Generated using ONCVPSP code by D. R. Hamann
     Using radial grid of 1296 points,  6 beta functions with: 
                l(1) =   0
                l(2) =   0
                l(3) =   1
                l(4) =   1
                l(5) =   2
                l(6) =   2

     PseudoPot. # 2 for O  read from file:
     /home/jvc/ZnO_database/pseudos/ppdojo_LDA/O_pseudo-dojo_NC_SR_LDA.upf
     MD5 check sum: 86ed389b6a5065e60c3f64c68a612de9
     Pseudo is Norm-conserving + core correction, Zval =  6.0
     Generated using ONCVPSP code by D. R. Hamann
     Using radial grid of  926 points,  5 beta functions with: 
                l(1) =   0
                l(2) =   0
                l(3) =   1
                l(4) =   1
                l(5) =   2

     atomic species   valence    mass     pseudopotential
     Zn               20.00    65.38000     Zn( 1.00)
     O                 6.00    15.99900     O ( 1.00)

      6 Sym. Ops. (no inversion) found ( 4 have fractional translation)



   Cartesian axes

     site n.     atom                  positions (alat units)
         1        Zn     tau(   1) = (  -0.0000000   0.2886751  -0.0001252  )
         2        Zn     tau(   2) = (   0.2500000   0.1443376   0.4012494  )
         3        O      tau(   3) = (  -0.0000000   0.2886751   0.3036056  )
         4        O      tau(   4) = (   0.2500000   0.1443376   0.7065446  )
         5        Zn     tau(   5) = (  -0.0000000   0.2886751   0.8026241  )
         6        Zn     tau(   6) = (   0.2500000   0.1443376   1.2039987  )
         7        O      tau(   7) = (  -0.0000000   0.2886751   1.1079192  )
         8        O      tau(   8) = (   0.2500000   0.1443376   1.5092939  )
         9        Zn     tau(   9) = (  -0.2500000   0.7216878  -0.0001252  )
        10        Zn     tau(  10) = (   0.0000000   0.5773503   0.4012494  )
        11        O      tau(  11) = (  -0.2500000   0.7216878   0.3051699  )
        12        O      tau(  12) = (   0.0000000   0.5773503   0.7065446  )
        13        Zn     tau(  13) = (  -0.2500000   0.7216878   0.8026241  )
        14        Zn     tau(  14) = (   0.0000000   0.5773503   1.2039987  )
        15        O      tau(  15) = (  -0.2500000   0.7216878   1.1079192  )
        16        O      tau(  16) = (   0.0000000   0.5773503   1.5092939  )
        17        Zn     tau(  17) = (   0.5000000   0.2886751  -0.0001252  )
        18        Zn     tau(  18) = (   0.7500000   0.1443376   0.4012494  )
        19        O      tau(  19) = (   0.5000000   0.2886751   0.3051699  )
        20        O      tau(  20) = (   0.7500000   0.1443376   0.7065446  )
        21        Zn     tau(  21) = (   0.5000000   0.2886751   0.8026241  )
        22        Zn     tau(  22) = (   0.7500000   0.1443376   1.2039987  )
        23        O      tau(  23) = (   0.5000000   0.2886751   1.1079192  )
        24        O      tau(  24) = (   0.7500000   0.1443376   1.5092939  )
        25        Zn     tau(  25) = (   0.2500000   0.7216878  -0.0001252  )
        26        Zn     tau(  26) = (   0.5000000   0.5773503   0.4012494  )
        27        O      tau(  27) = (   0.2500000   0.7216878   0.3051699  )
        28        O      tau(  28) = (   0.5000000   0.5773503   0.7065446  )
        29        Zn     tau(  29) = (   0.2500000   0.7216878   0.8026241  )
        30        Zn     tau(  30) = (   0.5000000   0.5773503   1.2039987  )
        31        O      tau(  31) = (   0.2500000   0.7216878   1.1079192  )
        32        O      tau(  32) = (   0.5000000   0.5773503   1.5092939  )

     number of k points=    24
                       cart. coord. in units 2pi/alat
        k(    1) = (   0.0000000   0.0000000   0.0000000), wk =   0.0138889
        k(    2) = (   0.0000000   0.0000000   0.1557149), wk =   0.0277778
        k(    3) = (   0.0000000   0.0000000  -0.3114297), wk =   0.0138889
        k(    4) = (   0.0000000   0.1924501   0.0000000), wk =   0.0833333
        k(    5) = (   0.0000000   0.1924501   0.1557149), wk =   0.0833333
        k(    6) = (   0.0000000   0.1924501  -0.3114297), wk =   0.0833333
        k(    7) = (   0.0000000   0.3849002   0.0000000), wk =   0.0833333
        k(    8) = (   0.0000000   0.3849002   0.1557149), wk =   0.0833333
        k(    9) = (   0.0000000   0.3849002  -0.3114297), wk =   0.0833333
        k(   10) = (   0.0000000  -0.5773503   0.0000000), wk =   0.0416667
        k(   11) = (   0.0000000  -0.5773503   0.1557149), wk =   0.0833333
        k(   12) = (   0.0000000  -0.5773503  -0.3114297), wk =   0.0416667
        k(   13) = (   0.1666667   0.2886751   0.0000000), wk =   0.0833333
        k(   14) = (   0.1666667   0.2886751   0.1557149), wk =   0.1666667
        k(   15) = (   0.1666667   0.2886751  -0.3114297), wk =   0.0833333
        k(   16) = (   0.1666667   0.4811252   0.0000000), wk =   0.1666667
        k(   17) = (   0.1666667   0.4811252   0.1557149), wk =   0.1666667
        k(   18) = (   0.1666667   0.4811252  -0.3114297), wk =   0.1666667
        k(   19) = (   0.3333333   0.5773503   0.0000000), wk =   0.0277778
        k(   20) = (   0.3333333   0.5773503   0.1557149), wk =   0.0555556
        k(   21) = (   0.3333333   0.5773503  -0.3114297), wk =   0.0277778
        k(   22) = (   0.0000000  -0.1924501   0.1557149), wk =   0.0833333
        k(   23) = (   0.0000000  -0.3849002   0.1557149), wk =   0.0833333
        k(   24) = (  -0.1666667  -0.4811252   0.1557149), wk =   0.1666667

     Dense  grid:   236823 G-vectors     FFT dimensions: (  72,  72, 120)

     Estimated max dynamical RAM per process >     146.96 MB

     Estimated total dynamical RAM >       8.79 GB

     Initial potential from superposition of free atoms

     starting charge     415.9983, renormalised to     416.0000
     Starting wfcs are  224 randomized atomic wfcs

     total cpu time spent up to now is       13.1 secs

     Self-consistent Calculation

     iteration #  1     ecut=    80.00 Ry     beta= 0.30
     Davidson diagonalization with overlap
     ethr =  1.00E-02,  avg # of iterations =  2.0

     total cpu time spent up to now is       57.4 secs

     total energy              =   -7213.52814570 Ry
     estimated scf accuracy    <       6.64486127 Ry

     iteration #  2     ecut=    80.00 Ry     beta= 0.30
     Davidson diagonalization with overlap
     ethr =  1.60E-03,  avg # of iterations =  2.0

     total cpu time spent up to now is       98.6 secs

     total energy              =   -7214.68762847 Ry
     estimated scf accuracy    <       0.21873886 Ry

     iteration #  3     ecut=    80.00 Ry     beta= 0.30
     Davidson diagonalization with overlap
     ethr =  5.26E-05,  avg # of iterations =  3.3

     total cpu time spent up to now is      139.6 secs

     total energy              =   -7214.67638426 Ry
     estimated scf accuracy    <       0.08619416 Ry

     iteration #  4     ecut=    80.00 Ry     beta= 0.30
     Davidson diagonalization with overlap
     ethr =  2.07E-05,  avg # of iterations =  2.0

     total cpu time spent up to now is      180.7 secs

     total energy              =   -7214.68732907 Ry
     estimated scf accuracy    <       0.01714648 Ry

     iteration #  5     ecut=    80.00 Ry     beta= 0.30
     Davidson diagonalization with overlap
     ethr =  4.12E-06,  avg # of iterations =  1.0

     total cpu time spent up to now is      211.3 secs

     total energy              =   -7214.67946279 Ry
     estimated scf accuracy    <       0.01319811 Ry

     iteration #  6     ecut=    80.00 Ry     beta= 0.30
     Davidson diagonalization with overlap
     ethr =  3.17E-06,  avg # of iterations =  2.6

     total cpu time spent up to now is      254.6 secs

     total energy              =   -7214.68358020 Ry
     estimated scf accuracy    <       0.00200996 Ry

     iteration #  7     ecut=    80.00 Ry     beta= 0.30
     Davidson diagonalization with overlap
     ethr =  4.83E-07,  avg # of iterations =  2.0

     total cpu time spent up to now is      295.7 secs

     total energy              =   -7214.68391999 Ry
     estimated scf accuracy    <       0.00001146 Ry

     iteration #  8     ecut=    80.00 Ry     beta= 0.30
     Davidson diagonalization with overlap
     ethr =  2.76E-09,  avg # of iterations =  5.1

     total cpu time spent up to now is      351.0 secs

     total energy              =   -7214.68392262 Ry
     estimated scf accuracy    <       0.00000837 Ry

     iteration #  9     ecut=    80.00 Ry     beta= 0.30
     Davidson diagonalization with overlap
     ethr =  2.01E-09,  avg # of iterations =  2.5

     total cpu time spent up to now is      393.3 secs

     total energy              =   -7214.68392441 Ry
     estimated scf accuracy    <       0.00000061 Ry

     iteration # 10     ecut=    80.00 Ry     beta= 0.30
     Davidson diagonalization with overlap
     ethr =  1.47E-10,  avg # of iterations =  2.5

     total cpu time spent up to now is      436.3 secs

     total energy              =   -7214.68392456 Ry
     estimated scf accuracy    <       0.00000005 Ry

     iteration # 11     ecut=    80.00 Ry     beta= 0.30
     Davidson diagonalization with overlap
     ethr =  1.16E-11,  avg # of iterations =  2.0

     total cpu time spent up to now is      472.0 secs

     total energy              =   -7214.68392456 Ry
     estimated scf accuracy    <       0.00000002 Ry

     iteration # 12     ecut=    80.00 Ry     beta= 0.30
     Davidson diagonalization with overlap
     ethr =  5.32E-12,  avg # of iterations =  2.0

     total cpu time spent up to now is      512.3 secs

     End of self-consistent calculation

          k = 0.0000 0.0000 0.0000 ( 29695 PWs)   bands (ev):

  -112.5989-112.5988-112.5988-112.5985-112.5972-112.5971-112.5971-112.5947
  -112.5925-112.5914-112.5913-112.5913-112.5896-112.5895-112.5895-112.5772
   -67.2512 -67.2503 -67.2503 -67.2500 -67.2495 -67.2492 -67.2492 -67.2487
   -67.2484 -67.2484 -67.2482 -67.2482 -67.2480 -67.2473 -67.2472 -67.2472
   -67.2463 -67.2463 -67.2460 -67.2458 -67.2453 -67.2453 -67.2441 -67.2436
   -67.2436 -67.2431 -67.2429 -67.2429 -67.2427 -67.2427 -67.2421 -67.2409
   -67.2409 -67.2408 -67.2405 -67.2405 -67.2401 -67.2401 -67.2395 -67.2395
   -67.2393 -67.2393 -67.2381 -67.2377 -67.2377 -67.2290 -67.2270 -67.2270
    -8.0144  -7.6029  -7.6013  -7.2111  -7.2111  -7.2111  -7.1617  -7.0691
    -7.0685  -7.0685  -7.0678  -7.0678  -7.0674  -6.9494  -6.9493  -6.9493
     3.6011   3.6019   3.6019   3.6021   3.6021   3.6030   3.8161   3.8161
     3.8164   3.8449   3.8476   3.9892   3.9910   3.9910   4.0843   4.0843
     4.0862   4.1514   4.1576   4.1576   4.1578   4.1578   4.2874   4.2874
     4.3630   4.3633   4.3633   4.6072   4.6083   4.6083   4.6085   4.6095
     4.6095   4.6603   4.6640   4.6640   4.6646   4.6659   4.6659   4.7357
     4.7368   4.7368   4.8021   4.8054   4.8054   4.9380   4.9403   4.9403
     5.3727   5.3727   5.4106   5.4111   5.4111   5.5163   5.5163   5.5183
     5.5183   5.5617   5.5628   5.5628   5.5906   5.5911   5.5911   5.5919
     5.5938   5.5938   5.6113   5.6113   5.6639   5.6650   5.6650   5.6956
     5.6956   5.6956   5.6963   5.6974   5.6974   5.7515   5.7522   5.7522
     5.9265   6.1670   6.1697   6.1697   6.1705   6.1729   6.1729   6.2608
     6.2608   6.2610   6.3467   6.3485   6.3485   7.1061   7.1081   7.1081
     7.6670   7.6670   7.6674   7.8072   7.8105   8.4816   8.4816   8.4820
     8.4829   8.4856   8.4856   8.6539   8.6552   8.6552   8.6567   8.6567
     8.6601   8.7330   8.7330   8.7338   9.1972   9.1996   9.1996   9.2521
     9.2521   9.6816   9.6816   9.6845   9.6845  10.0068  10.1053  10.1053

          k = 0.0000 0.0000 0.1557 ( 29623 PWs)   bands (ev):

  -112.5989-112.5988-112.5988-112.5985-112.5972-112.5971-112.5971-112.5947
  -112.5925-112.5914-112.5913-112.5913-112.5896-112.5895-112.5895-112.5772
   -67.2512 -67.2503 -67.2503 -67.2500 -67.2495 -67.2492 -67.2492 -67.2487
   -67.2484 -67.2484 -67.2482 -67.2482 -67.2480 -67.2473 -67.2472 -67.2472
   -67.2463 -67.2463 -67.2460 -67.2458 -67.2453 -67.2453 -67.2441 -67.2436
   -67.2436 -67.2431 -67.2429 -67.2429 -67.2427 -67.2427 -67.2421 -67.2409
   -67.2409 -67.2408 -67.2405 -67.2405 -67.2401 -67.2401 -67.2395 -67.2395
   -67.2393 -67.2393 -67.2381 -67.2377 -67.2377 -67.2290 -67.2270 -67.2270
    -7.9839  -7.7630  -7.4371  -7.1996  -7.1995  -7.1995  -7.1961  -7.1203
    -7.1201  -7.1201  -7.0198  -7.0197  -7.0197  -6.9575  -6.9573  -6.9573
     3.6276   3.6276   3.6277   3.6584   3.6586   3.6586   3.7840   3.7840
     3.7842   3.8337   3.9237   3.9274   3.9286   3.9286   4.0198   4.0879
     4.0879   4.1173   4.1236   4.1236   4.1999   4.1999   4.2752   4.2752
     4.3794   4.3798   4.3798   4.5062   4.5070   4.5070   4.6544   4.6567
     4.6567   4.6919   4.6945   4.6945   4.7096   4.7109   4.7109   4.7218
     4.7233   4.7233   4.7823   4.7854   4.7854   4.9090   4.9112   4.9112
     5.3853   5.3853   5.4561   5.4567   5.4567   5.4676   5.4676   5.5598
     5.5598   5.5633   5.5644   5.5644   5.5783   5.5797   5.5797   5.6062
     5.6062   5.6091   5.6104   5.6104   5.6328   5.6336   5.6336   5.6540
     5.6552   5.6552   5.7328   5.7332   5.7332   5.7520   5.7528   5.7528
     6.1136   6.1513   6.1535   6.1535   6.2121   6.2144   6.2144   6.2212
     6.2220   6.2220   6.3235   6.3255   6.3255   7.1722   7.2951   7.2963
     7.2963   7.7366   7.7366   7.7368   8.1895   8.1902   8.1902   8.2354
     8.2354   8.2360   8.4427   8.7622   8.7638   8.7638   8.7922   8.7922
     8.7932   8.8839   8.8839   8.8850   9.1443   9.1467   9.1467   9.2850
     9.2850   9.5189   9.5189   9.6487   9.8459   9.8459  10.0736  10.0736

          k = 0.0000 0.0000-0.3114 ( 29552 PWs)   bands (ev):

  -112.5989-112.5988-112.5988-112.5985-112.5972-112.5971-112.5971-112.5947
  -112.5925-112.5914-112.5913-112.5913-112.5896-112.5895-112.5895-112.5772
   -67.2512 -67.2503 -67.2503 -67.2500 -67.2495 -67.2492 -67.2492 -67.2487
   -67.2484 -67.2484 -67.2482 -67.2482 -67.2480 -67.2473 -67.2472 -67.2472
   -67.2463 -67.2463 -67.2461 -67.2458 -67.2453 -67.2453 -67.2441 -67.2436
   -67.2436 -67.2431 -67.2429 -67.2429 -67.2427 -67.2427 -67.2421 -67.2409
   -67.2409 -67.2408 -67.2405 -67.2405 -67.2401 -67.2401 -67.2395 -67.2395
   -67.2393 -67.2393 -67.2381 -67.2377 -67.2377 -67.2290 -67.2270 -67.2270
    -7.8987  -7.8940  -7.2972  -7.2903  -7.1703  -7.1703  -7.1684  -7.1657
    -7.1636  -7.1636  -6.9848  -6.9848  -6.9840  -6.9790  -6.9780  -6.9780
     3.7032   3.7032   3.7035   3.7075   3.7075   3.7077   3.7847   3.7859
     3.7859   3.7889   3.7892   3.7892   3.8989   3.9046   4.0270   4.0318
     4.0977   4.0977   4.1032   4.1032   4.2401   4.2401   4.2453   4.2453
     4.4254   4.4257   4.4257   4.4308   4.4316   4.4316   4.6707   4.6712
     4.6720   4.6720   4.6736   4.6736   4.7343   4.7379   4.7379   4.7400
     4.7423   4.7423   4.8278   4.8293   4.8293   4.8323   4.8345   4.8345
     5.4170   5.4170   5.4227   5.4227   5.5452   5.5461   5.5461   5.5487
     5.5493   5.5493   5.5665   5.5671   5.5671   5.5714   5.5733   5.5733
     5.5872   5.5872   5.5927   5.5927   5.6297   5.6300   5.6300   5.6340
     5.6358   5.6358   5.7465   5.7465   5.7466   5.7507   5.7520   5.7520
     6.1673   6.1694   6.1694   6.1700   6.1711   6.1711   6.2672   6.2687
     6.2687   6.2725   6.2757   6.2757   6.5746   6.5797   7.7306   7.7310
     7.7310   7.7352   7.7352   7.7354   7.9228   7.9241   7.9241   7.9271
     7.9271   7.9280   8.8916   8.8916   8.8935   8.8982   8.8982   8.8985
     8.9897   8.9905   8.9905   8.9956   8.9990   8.9990   9.0574   9.0633
     9.3761   9.3761   9.3817   9.3817   9.9793   9.9793   9.9863   9.9863

          k = 0.0000 0.1925 0.0000 ( 29598 PWs)   bands (ev):

  -112.5989-112.5988-112.5988-112.5985-112.5972-112.5971-112.5971-112.5947
  -112.5925-112.5914-112.5914-112.5913-112.5896-112.5895-112.5895-112.5772
   -67.2511 -67.2504 -67.2503 -67.2499 -67.2495 -67.2491 -67.2491 -67.2486
   -67.2484 -67.2483 -67.2481 -67.2481 -67.2479 -67.2473 -67.2473 -67.2472
   -67.2464 -67.2463 -67.2460 -67.2459 -67.2455 -67.2453 -67.2441 -67.2437
   -67.2437 -67.2431 -67.2429 -67.2429 -67.2427 -67.2426 -67.2420 -67.2409
   -67.2409 -67.2408 -67.2406 -67.2405 -67.2402 -67.2400 -67.2397 -67.2396
   -67.2393 -67.2392 -67.2381 -67.2378 -67.2377 -67.2290 -67.2270 -67.2270
    -7.9698  -7.5690  -7.5674  -7.2859  -7.2146  -7.2146  -7.1418  -7.1064
    -7.1055  -7.0698  -7.0694  -7.0688  -7.0686  -6.9475  -6.9474  -6.9464
     3.6047   3.6053   3.6469   3.6472   3.6477   3.6481   3.7609   3.8184
     3.8206   3.8369   3.8370   4.0313   4.0475   4.0760   4.0771   4.1087
     4.1454   4.1777   4.1813   4.1825   4.1868   4.1869   4.2847   4.3211
     4.3457   4.3459   4.3525   4.5508   4.5513   4.5522   4.5523   4.5785
     4.5796   4.6072   4.6094   4.6615   4.6798   4.6804   4.6809   4.6827
     4.6838   4.6847   4.8347   4.8371   4.8421   4.8821   4.9501   4.9517
     5.3542   5.3696   5.3792   5.3968   5.3970   5.5144   5.5154   5.5156
     5.5166   5.5169   5.5187   5.5267   5.5589   5.5591   5.5604   5.5609
     5.5743   5.5764   5.6154   5.6277   5.6288   5.6419   5.6595   5.6714
     5.6722   5.7163   5.7163   5.7172   5.7177   5.7902   5.7908   5.8897
     5.9174   5.9881   6.1403   6.1413   6.2483   6.2500   6.2514   6.2527
     6.4200   6.4223   6.5056   6.5060   6.5345   7.0925   7.0934   7.2650
     7.5836   7.5837   7.7897   7.8070   7.8100   8.2845   8.2851   8.2862
     8.2882   8.5699   8.5724   8.6424   8.6452   8.7049   8.7058   8.7084
     8.7090   8.7147   8.7157   8.8884   8.9830   9.0983   9.0999   9.1509
     9.2672   9.4738   9.4764   9.6051   9.6080   9.6327   9.9582  10.0514

          k = 0.0000 0.1925 0.1557 ( 29580 PWs)   bands (ev):

  -112.5989-112.5988-112.5988-112.5985-112.5972-112.5971-112.5971-112.5947
  -112.5925-112.5914-112.5914-112.5913-112.5896-112.5895-112.5895-112.5772
   -67.2511 -67.2504 -67.2503 -67.2499 -67.2495 -67.2491 -67.2491 -67.2487
   -67.2484 -67.2483 -67.2481 -67.2481 -67.2479 -67.2473 -67.2473 -67.2472
   -67.2464 -67.2463 -67.2460 -67.2459 -67.2455 -67.2453 -67.2441 -67.2437
   -67.2437 -67.2431 -67.2429 -67.2429 -67.2427 -67.2426 -67.2420 -67.2409
   -67.2409 -67.2408 -67.2406 -67.2405 -67.2402 -67.2400 -67.2397 -67.2396
   -67.2393 -67.2392 -67.2381 -67.2378 -67.2377 -67.2290 -67.2270 -67.2270
    -7.9401  -7.7247  -7.4081  -7.2717  -7.2028  -7.2028  -7.1752  -7.1725
    -7.1222  -7.1221  -7.0423  -7.0197  -7.0196  -6.9577  -6.9558  -6.9557
     3.6088   3.6634   3.6636   3.6832   3.7154   3.7156   3.7335   3.8074
     3.8075   3.8228   3.8826   3.9829   4.0086   4.0095   4.0134   4.0625
     4.1127   4.1510   4.1533   4.1644   4.2203   4.2307   4.2832   4.3086
     4.3583   4.3586   4.3677   4.4670   4.4671   4.4852   4.5902   4.6075
     4.6088   4.6382   4.6536   4.6628   4.6631   4.6840   4.7037   4.7047
     4.7271   4.7275   4.7994   4.8082   4.8101   4.8555   4.9138   4.9149
     5.3687   5.3822   5.4034   5.4296   5.4303   5.4615   5.4649   5.5264
     5.5273   5.5296   5.5395   5.5396   5.5478   5.5550   5.5599   5.5630
     5.5636   5.5660   5.5997   5.6099   5.6272   5.6500   5.6648   5.6656
     5.6736   5.6740   5.7047   5.7625   5.7631   5.7956   5.7960   5.8481
     6.0479   6.1169   6.1182   6.1186   6.1653   6.1672   6.2891   6.3464
     6.3473   6.4976   6.4983   6.5448   6.6042   7.1897   7.2415   7.2419
     7.3451   7.6678   7.6679   7.8552   7.9556   7.9557   8.1792   8.2880
     8.3177   8.3187   8.4000   8.5906   8.5920   8.7652   8.7660   8.8430
     8.9206   8.9207   8.9319   8.9390   9.0167   9.0488   9.0505   9.1859
     9.2156   9.2861   9.4120   9.4333   9.6701   9.7782   9.9386  10.0180

          k = 0.0000 0.1925-0.3114 ( 29572 PWs)   bands (ev):

  -112.5989-112.5988-112.5988-112.5985-112.5972-112.5971-112.5971-112.5947
  -112.5925-112.5914-112.5914-112.5913-112.5896-112.5895-112.5895-112.5772
   -67.2511 -67.2504 -67.2503 -67.2499 -67.2495 -67.2491 -67.2491 -67.2487
   -67.2484 -67.2483 -67.2481 -67.2481 -67.2479 -67.2473 -67.2473 -67.2472
   -67.2464 -67.2463 -67.2460 -67.2459 -67.2455 -67.2453 -67.2441 -67.2437
   -67.2437 -67.2431 -67.2429 -67.2429 -67.2427 -67.2426 -67.2420 -67.2409
   -67.2409 -67.2408 -67.2406 -67.2405 -67.2402 -67.2400 -67.2397 -67.2396
   -67.2393 -67.2392 -67.2381 -67.2378 -67.2377 -67.2290 -67.2270 -67.2270
    -7.8570  -7.8523  -7.2728  -7.2659  -7.2341  -7.2288  -7.1731  -7.1718
    -7.1677  -7.1664  -6.9939  -6.9876  -6.9838  -6.9832  -6.9776  -6.9770
     3.6659   3.6700   3.7323   3.7324   3.7363   3.7366   3.8291   3.8324
     3.8549   3.8553   3.8581   3.8585   3.9063   3.9109   3.9686   3.9706
     4.1236   4.1290   4.1447   4.1471   4.2569   4.2613   4.2724   4.2776
     4.3960   4.3961   4.4012   4.4018   4.4100   4.4157   4.6016   4.6026
     4.6320   4.6331   4.6331   4.6344   4.7198   4.7234   4.7502   4.7524
     4.7547   4.7559   4.7808   4.7856   4.8239   4.8246   4.8283   4.8298
     5.4051   5.4108   5.4140   5.4197   5.4667   5.4680   5.4918   5.4923
     5.4934   5.4940   5.5365   5.5421   5.5464   5.5469   5.5505   5.5513
     5.5890   5.5945   5.5994   5.6049   5.6242   5.6293   5.6557   5.6558
     5.6599   5.6611   5.7771   5.7795   5.7900   5.7903   5.7943   5.7953
     6.1122   6.1136   6.1143   6.1164   6.1604   6.1617   6.4360   6.4366
     6.4409   6.4420   6.5924   6.5973   6.6273   6.6321   7.5909   7.5924
     7.5929   7.5948   7.6771   7.6786   7.9197   7.9215   7.9235   7.9245
     8.0326   8.0364   8.7900   8.7907   8.7959   8.7977   8.9325   8.9352
     8.9613   8.9622   8.9672   8.9683   9.0007   9.0068   9.0639   9.0713
     9.1356   9.1407   9.2826   9.2881   9.8348   9.8385   9.9189   9.9259

          k = 0.0000 0.3849 0.0000 ( 29632 PWs)   bands (ev):

  -112.5989-112.5988-112.5988-112.5985-112.5972-112.5971-112.5971-112.5947
  -112.5925-112.5914-112.5914-112.5913-112.5896-112.5895-112.5895-112.5772
   -67.2510 -67.2504 -67.2503 -67.2497 -67.2493 -67.2490 -67.2489 -67.2485
   -67.2482 -67.2481 -67.2480 -67.2480 -67.2477 -67.2475 -67.2475 -67.2472
   -67.2467 -67.2463 -67.2461 -67.2459 -67.2458 -67.2454 -67.2441 -67.2439
   -67.2437 -67.2430 -67.2429 -67.2429 -67.2425 -67.2423 -67.2417 -67.2411
   -67.2410 -67.2408 -67.2407 -67.2405 -67.2402 -67.2401 -67.2397 -67.2397
   -67.2391 -67.2390 -67.2383 -67.2382 -67.2378 -67.2290 -67.2271 -67.2270
    -7.8442  -7.4751  -7.4736  -7.4584  -7.2215  -7.2214  -7.2081  -7.2070
    -7.0889  -7.0717  -7.0714  -7.0707  -7.0704  -6.9674  -6.9440  -6.9439
     3.6251   3.6256   3.7314   3.7513   3.7527   3.7529   3.7534   3.7537
     3.7541   3.9125   3.9235   3.9236   4.1145   4.1727   4.1761   4.1769
     4.2015   4.2499   4.2509   4.2607   4.2677   4.2679   4.3165   4.3605
     4.3609   4.3769   4.4182   4.4481   4.4491   4.4495   4.4498   4.4850
     4.4868   4.4959   4.4966   4.5181   4.5871   4.5878   4.6897   4.6910
     4.6913   4.6917   4.7376   4.8452   4.9039   4.9056   4.9738   4.9751
     5.2611   5.3045   5.3351   5.3355   5.3702   5.4220   5.4224   5.4535
     5.5128   5.5148   5.5189   5.5202   5.5204   5.5211   5.5215   5.5216
     5.5418   5.5438   5.5618   5.5635   5.6249   5.6479   5.6772   5.6780
     5.7248   5.7422   5.7423   5.7429   5.7434   5.7841   5.8723   5.8735
     5.9005   6.0487   6.0498   6.0949   6.4337   6.4355   6.4366   6.4373
     6.6949   6.6951   6.7771   6.9366   6.9381   7.0431   7.0432   7.4034
     7.4037   7.7480   7.7509   7.7528   7.9346   7.9352   7.9366   7.9387
     8.1021   8.2964   8.6270   8.6301   8.6893   8.6902   8.7399   8.7402
     8.7417   8.7442   8.8016   8.8040   8.8762   8.8973   8.8985   8.9827
     9.0287   9.0310   9.2215   9.3952   9.3978   9.4472   9.8081   9.8990

          k = 0.0000 0.3849 0.1557 ( 29618 PWs)   bands (ev):

  -112.5989-112.5988-112.5988-112.5985-112.5972-112.5971-112.5971-112.5947
  -112.5925-112.5914-112.5914-112.5913-112.5896-112.5895-112.5895-112.5772
   -67.2510 -67.2504 -67.2503 -67.2497 -67.2493 -67.2490 -67.2489 -67.2486
   -67.2482 -67.2481 -67.2480 -67.2480 -67.2477 -67.2475 -67.2475 -67.2472
   -67.2467 -67.2463 -67.2461 -67.2459 -67.2458 -67.2454 -67.2441 -67.2439
   -67.2437 -67.2430 -67.2429 -67.2429 -67.2425 -67.2423 -67.2417 -67.2411
   -67.2410 -67.2408 -67.2407 -67.2405 -67.2402 -67.2401 -67.2397 -67.2397
   -67.2391 -67.2390 -67.2383 -67.2382 -67.2378 -67.2290 -67.2271 -67.2270
    -7.8166  -7.6177  -7.4391  -7.3286  -7.3026  -7.2093  -7.2093  -7.1262
    -7.1259  -7.1187  -7.1140  -7.0196  -7.0196  -6.9851  -6.9527  -6.9526
     3.6155   3.7093   3.7174   3.7645   3.7647   3.7700   3.8079   3.8296
     3.8296   3.8928   3.8991   3.8991   4.0469   4.1088   4.1212   4.1214
     4.1783   4.2259   4.2279   4.2455   4.2885   4.3177   4.3285   4.3489
     4.3495   4.3632   4.3873   4.3876   4.4045   4.4216   4.4617   4.4989
     4.5040   4.5050   4.5407   4.5728   4.5731   4.5798   4.7053   4.7060
     4.7163   4.7310   4.7312   4.7553   4.8560   4.8574   4.9136   4.9141
     5.2923   5.3256   5.3391   5.3397   5.3822   5.4482   5.4599   5.4627
     5.4658   5.4730   5.4733   5.4843   5.4845   5.5081   5.5384   5.5388
     5.5605   5.5794   5.5838   5.6178   5.6387   5.6509   5.6735   5.6742
     5.6795   5.6942   5.6945   5.7728   5.8098   5.8105   5.8989   5.8995
     6.0504   6.0521   6.1432   6.2611   6.2875   6.2892   6.5744   6.5749
     6.7290   6.7291   6.7510   6.8675   7.0865   7.0946   7.0946   7.2177
     7.5204   7.5206   7.6112   7.6118   7.7124   8.1133   8.1589   8.1717
     8.1718   8.1848   8.3343   8.4359   8.4379   8.5445   8.6917   8.6934
     8.7561   8.8824   8.8914   8.8924   8.9165   8.9398   8.9402   9.0286
     9.0534   9.1998   9.2415   9.3452   9.3992   9.5907   9.7674   9.8613

          k = 0.0000 0.3849-0.3114 ( 29590 PWs)   bands (ev):

  -112.5989-112.5988-112.5988-112.5985-112.5972-112.5971-112.5971-112.5947
  -112.5925-112.5914-112.5914-112.5913-112.5896-112.5895-112.5895-112.5772
   -67.2510 -67.2504 -67.2503 -67.2497 -67.2493 -67.2490 -67.2489 -67.2486
   -67.2482 -67.2481 -67.2480 -67.2480 -67.2477 -67.2475 -67.2475 -67.2472
   -67.2467 -67.2463 -67.2461 -67.2459 -67.2458 -67.2454 -67.2441 -67.2439
   -67.2437 -67.2430 -67.2429 -67.2429 -67.2425 -67.2423 -67.2417 -67.2411
   -67.2410 -67.2408 -67.2407 -67.2405 -67.2402 -67.2401 -67.2397 -67.2397
   -67.2391 -67.2390 -67.2383 -67.2382 -67.2378 -67.2290 -67.2271 -67.2270
    -7.7399  -7.7351  -7.3868  -7.3816  -7.2067  -7.1999  -7.1785  -7.1772
    -7.1732  -7.1718  -7.0395  -7.0331  -6.9819  -6.9814  -6.9758  -6.9752
     3.6568   3.6609   3.8303   3.8306   3.8340   3.8343   3.8345   3.8379
     3.8792   3.8822   3.9342   3.9358   3.9763   3.9765   3.9780   3.9784
     4.1929   4.1985   4.2266   4.2286   4.3283   4.3315   4.3471   4.3476
     4.3515   4.3517   4.3611   4.3649   4.3670   4.3700   4.4679   4.4695
     4.5405   4.5422   4.5422   4.5429   4.6268   4.6298   4.6563   4.6612
     4.7615   4.7638   4.7653   4.7657   4.8161   4.8161   4.8194   4.8210
     5.3676   5.3715   5.3760   5.3816   5.4000   5.4005   5.4025   5.4031
     5.4127   5.4184   5.4763   5.4820   5.5281   5.5287   5.5314   5.5316
     5.5934   5.5988   5.6110   5.6162   5.6324   5.6374   5.6718   5.6719
     5.6755   5.6768   5.7231   5.7260   5.8748   5.8749   5.8783   5.8794
     6.1415   6.1427   6.1431   6.1450   6.5344   6.5353   6.6417   6.6460
     6.6876   6.6880   6.6926   6.6929   7.0765   7.0804   7.3048   7.3065
     7.3076   7.3091   7.7352   7.7387   7.8503   7.8521   7.8547   7.8556
     8.3148   8.3191   8.4018   8.4059   8.5627   8.5638   8.5691   8.5718
     8.6783   8.6820   8.9453   8.9463   8.9512   8.9515   9.0282   9.0334
     9.2178   9.2240   9.2580   9.2652   9.6122   9.6155   9.7499   9.7569

          k = 0.0000-0.5774 0.0000 ( 29548 PWs)   bands (ev):

  -112.5989-112.5988-112.5988-112.5985-112.5972-112.5971-112.5971-112.5947
  -112.5925-112.5914-112.5914-112.5913-112.5896-112.5896-112.5895-112.5772
   -67.2510 -67.2505 -67.2503 -67.2497 -67.2492 -67.2489 -67.2488 -67.2484
   -67.2482 -67.2481 -67.2479 -67.2479 -67.2478 -67.2477 -67.2475 -67.2471
   -67.2466 -67.2465 -67.2464 -67.2459 -67.2459 -67.2455 -67.2441 -67.2440
   -67.2437 -67.2430 -67.2429 -67.2428 -67.2424 -67.2419 -67.2417 -67.2411
   -67.2410 -67.2408 -67.2406 -67.2405 -67.2405 -67.2401 -67.2397 -67.2396
   -67.2387 -67.2387 -67.2387 -67.2386 -67.2378 -67.2290 -67.2271 -67.2270
    -7.6612  -7.6611  -7.3441  -7.3432  -7.3427  -7.3416  -7.2247  -7.2247
    -7.0727  -7.0723  -7.0717  -7.0715  -7.0221  -7.0218  -6.9424  -6.9423
     3.6761   3.6772   3.6777   3.6785   3.7909   3.7923   3.8183   3.8188
     3.8192   3.8193   4.0297   4.0300   4.1031   4.1033   4.1653   4.1661
     4.2515   4.2524   4.3545   4.3565   4.3575   4.3589   4.3757   4.3774
     4.3800   4.3808   4.3818   4.3823   4.3874   4.3884   4.3887   4.3893
     4.4603   4.4615   4.5254   4.5259   4.5647   4.5676   4.6337   4.6357
     4.6902   4.6913   4.6916   4.6920   4.9350   4.9353   5.0244   5.0247
     5.2387   5.2388   5.2448   5.2453   5.3930   5.3936   5.3943   5.3951
     5.5071   5.5073   5.5079   5.5080   5.5190   5.5196   5.5204   5.5223
     5.5305   5.5313   5.5322   5.5337   5.6355   5.6364   5.6784   5.6792
     5.7528   5.7528   5.7532   5.7540   5.7778   5.7806   5.9060   5.9081
     5.9607   5.9611   6.0382   6.0386   6.5533   6.5552   6.5562   6.5566
     6.7310   6.7317   7.1107   7.1112   7.2465   7.2470   7.4642   7.4650
     7.4653   7.4659   7.4747   7.4772   7.7410   7.7414   7.7431   7.7453
     8.3499   8.3508   8.4967   8.4984   8.6966   8.6981   8.7016   8.7021
     8.7052   8.7076   8.7482   8.7484   8.7503   8.7527   8.7861   8.7863
     9.1025   9.1044   9.1051   9.1071   9.5549   9.5560   9.6790   9.6805

          k = 0.0000-0.5774 0.1557 ( 29628 PWs)   bands (ev):

  -112.5989-112.5988-112.5988-112.5985-112.5972-112.5971-112.5971-112.5947
  -112.5925-112.5914-112.5914-112.5913-112.5896-112.5896-112.5895-112.5772
   -67.2510 -67.2505 -67.2503 -67.2497 -67.2492 -67.2489 -67.2488 -67.2484
   -67.2482 -67.2481 -67.2479 -67.2479 -67.2478 -67.2477 -67.2475 -67.2471
   -67.2467 -67.2465 -67.2464 -67.2459 -67.2459 -67.2455 -67.2441 -67.2440
   -67.2437 -67.2430 -67.2429 -67.2428 -67.2424 -67.2419 -67.2417 -67.2411
   -67.2410 -67.2408 -67.2406 -67.2405 -67.2405 -67.2401 -67.2397 -67.2396
   -67.2387 -67.2387 -67.2387 -67.2386 -67.2378 -67.2290 -67.2271 -67.2270
    -7.6372  -7.6371  -7.4653  -7.4651  -7.2204  -7.2201  -7.2124  -7.2123
    -7.1280  -7.1278  -7.0466  -7.0462  -7.0195  -7.0195  -6.9513  -6.9512
     3.6753   3.6766   3.7570   3.7582   3.7717   3.7729   3.8477   3.8477
     3.8757   3.8759   4.0205   4.0208   4.0542   4.0544   4.0916   4.0926
     4.2597   4.2606   4.3256   4.3271   4.3327   4.3351   4.3562   4.3569
     4.3597   4.3614   4.4021   4.4047   4.4253   4.4265   4.4432   4.4453
     4.4564   4.4578   4.4811   4.4815   4.5482   4.5510   4.5626   4.5648
     4.6998   4.7007   4.7331   4.7333   4.8898   4.8904   4.9004   4.9007
     5.2765   5.2769   5.2783   5.2789   5.4043   5.4050   5.4412   5.4421
     5.4498   5.4503   5.4713   5.4716   5.4734   5.4743   5.5307   5.5308
     5.5651   5.5657   5.6119   5.6132   5.6270   5.6279   5.6753   5.6759
     5.7002   5.7004   5.7308   5.7327   5.8282   5.8289   5.9483   5.9497
     6.0532   6.0545   6.2124   6.2134   6.3903   6.3919   6.7012   6.7018
     6.7827   6.7835   7.0917   7.0923   7.1364   7.1374   7.3970   7.3976
     7.4254   7.4259   7.5269   7.5288   7.6836   7.6845   7.9940   7.9946
     8.2711   8.2734   8.2831   8.2844   8.4303   8.4321   8.5447   8.5462
     8.6315   8.6337   8.8442   8.8445   8.8771   8.8778   8.9450   8.9458
     9.1392   9.1404   9.3271   9.3278   9.5394   9.5405   9.6360   9.6374

          k = 0.0000-0.5774-0.3114 ( 29644 PWs)   bands (ev):

  -112.5989-112.5988-112.5988-112.5985-112.5972-112.5971-112.5971-112.5947
  -112.5925-112.5914-112.5914-112.5913-112.5896-112.5896-112.5895-112.5772
   -67.2510 -67.2505 -67.2503 -67.2497 -67.2492 -67.2489 -67.2488 -67.2484
   -67.2482 -67.2481 -67.2479 -67.2479 -67.2478 -67.2477 -67.2475 -67.2472
   -67.2467 -67.2465 -67.2464 -67.2459 -67.2459 -67.2455 -67.2441 -67.2440
   -67.2437 -67.2430 -67.2429 -67.2429 -67.2424 -67.2419 -67.2417 -67.2411
   -67.2410 -67.2408 -67.2406 -67.2405 -67.2405 -67.2401 -67.2397 -67.2396
   -67.2387 -67.2387 -67.2387 -67.2386 -67.2378 -67.2290 -67.2271 -67.2270
    -7.5713  -7.5705  -7.5664  -7.5656  -7.1812  -7.1799  -7.1759  -7.1745
    -7.1200  -7.1186  -7.1136  -7.1117  -6.9810  -6.9805  -6.9749  -6.9743
     3.7200   3.7212   3.7239   3.7252   3.9152   3.9159   3.9167   3.9191
     3.9438   3.9443   3.9453   3.9457   3.9688   3.9691   3.9731   3.9736
     4.2823   4.2824   4.2867   4.2891   4.3348   4.3366   4.3381   4.3389
     4.3841   4.3845   4.3881   4.3883   4.4452   4.4467   4.4470   4.4485
     4.4673   4.4699   4.4705   4.4728   4.5015   4.5030   4.5057   4.5093
     4.7546   4.7562   4.7582   4.7586   4.8150   4.8155   4.8182   4.8198
     5.3495   5.3498   5.3543   5.3556   5.3609   5.3616   5.3644   5.3650
     5.4296   5.4303   5.4347   5.4367   5.5224   5.5230   5.5256   5.5256
     5.5997   5.6005   5.6043   5.6066   5.6749   5.6754   5.6755   5.6767
     5.6788   5.6794   5.6795   5.6821   5.9050   5.9052   5.9084   5.9096
     6.2086   6.2103   6.2105   6.2123   6.6856   6.6888   6.6898   6.6906
     6.8051   6.8053   6.8094   6.8101   7.1643   7.1657   7.1672   7.1689
     7.6643   7.6649   7.6684   7.6712   7.7643   7.7660   7.7694   7.7700
     8.1544   8.1562   8.1594   8.1607   8.4600   8.4616   8.4666   8.4694
     8.6770   8.6784   8.6821   8.6832   8.9430   8.9439   8.9488   8.9490
     9.4239   9.4258   9.4287   9.4326   9.5093   9.5106   9.5153   9.5188

          k = 0.1667 0.2887 0.0000 ( 29617 PWs)   bands (ev):

  -112.5989-112.5988-112.5988-112.5985-112.5972-112.5971-112.5971-112.5947
  -112.5925-112.5914-112.5914-112.5913-112.5896-112.5895-112.5895-112.5772
   -67.2511 -67.2504 -67.2503 -67.2498 -67.2493 -67.2491 -67.2490 -67.2486
   -67.2483 -67.2482 -67.2481 -67.2481 -67.2477 -67.2475 -67.2473 -67.2473
   -67.2466 -67.2462 -67.2461 -67.2460 -67.2457 -67.2454 -67.2441 -67.2438
   -67.2437 -67.2430 -67.2429 -67.2429 -67.2426 -67.2424 -67.2418 -67.2411
   -67.2409 -67.2408 -67.2407 -67.2404 -67.2402 -67.2400 -67.2398 -67.2396
   -67.2392 -67.2390 -67.2383 -67.2380 -67.2378 -67.2290 -67.2270 -67.2270
    -7.8847  -7.5051  -7.5035  -7.3461  -7.3461  -7.1490  -7.1399  -7.1394
    -7.1388  -7.1382  -7.1053  -7.0390  -7.0383  -6.9546  -6.9493  -6.9492
     3.6457   3.6463   3.6465   3.6469   3.7732   3.7740   3.7747   3.7758
     3.7812   3.7815   3.9377   3.9663   4.1087   4.1106   4.1115   4.2094
     4.2101   4.2186   4.2436   4.2572   4.2580   4.2887   4.3219   4.3223
     4.3229   4.3293   4.3912   4.4648   4.4660   4.4863   4.4864   4.4874
     4.4882   4.5799   4.5807   4.5939   4.5949   4.5958   4.5968   4.6182
     4.7556   4.7570   4.8325   4.8339   4.8820   4.8836   4.8928   5.0113
     5.3121   5.3136   5.3238   5.3649   5.3802   5.4623   5.4660   5.4665
     5.5045   5.5061   5.5119   5.5138   5.5190   5.5210   5.5445   5.5448
     5.5450   5.5467   5.6207   5.6212   5.6214   5.6219   5.6226   5.6572
     5.6578   5.6932   5.6950   5.7008   5.8318   5.8331   5.8641   5.8654
     5.9037   6.0612   6.0619   6.2028   6.2060   6.2964   6.4966   6.6517
     6.6520   6.6634   6.6640   6.6644   6.6662   6.7185   7.4532   7.4547
     7.5676   7.7398   7.7410   7.7813   7.7836   7.8261   7.8289   8.4391
     8.4399   8.4407   8.4418   8.4590   8.5647   8.7108   8.7115   8.7129
     8.7150   8.7493   8.7514   8.8146   8.8389   9.0113   9.0127   9.1644
     9.1664   9.2285   9.2318   9.2329   9.4435   9.4461   9.8601   9.9291

          k = 0.1667 0.2887 0.1557 ( 29628 PWs)   bands (ev):

  -112.5989-112.5988-112.5988-112.5985-112.5972-112.5971-112.5971-112.5947
  -112.5925-112.5914-112.5914-112.5913-112.5896-112.5895-112.5895-112.5772
   -67.2511 -67.2504 -67.2503 -67.2498 -67.2494 -67.2491 -67.2490 -67.2486
   -67.2483 -67.2482 -67.2481 -67.2481 -67.2477 -67.2475 -67.2473 -67.2473
   -67.2466 -67.2462 -67.2461 -67.2460 -67.2457 -67.2454 -67.2441 -67.2438
   -67.2437 -67.2430 -67.2429 -67.2429 -67.2426 -67.2424 -67.2418 -67.2411
   -67.2409 -67.2408 -67.2407 -67.2404 -67.2402 -67.2400 -67.2398 -67.2396
   -67.2392 -67.2390 -67.2383 -67.2380 -67.2378 -67.2290 -67.2270 -67.2270
    -7.8564  -7.6521  -7.3538  -7.3299  -7.3299  -7.2166  -7.2165  -7.1397
    -7.1363  -7.0778  -7.0642  -7.0642  -7.0034  -6.9630  -6.9628  -6.9599
     3.6435   3.6441   3.7319   3.7326   3.7565   3.7569   3.7890   3.8018
     3.8188   3.8484   3.9169   3.9476   4.0463   4.0472   4.0621   4.1889
     4.1939   4.1952   4.1992   4.2074   4.2676   4.2964   4.3258   4.3261
     4.3336   4.3341   4.3779   4.3848   4.4266   4.4271   4.5119   4.5128
     4.5528   4.5614   4.5621   4.6079   4.6091   4.6221   4.6585   4.6589
     4.7686   4.7828   4.7976   4.7985   4.8154   4.8165   4.8633   4.9634
     5.3282   5.3294   5.3415   5.3783   5.4155   5.4529   5.4616   5.4774
     5.4822   5.4832   5.4910   5.4917   5.4937   5.5084   5.5417   5.5423
     5.5594   5.5788   5.6079   5.6080   5.6148   5.6489   5.6494   5.6649
     5.6960   5.6969   5.7032   5.7113   5.8039   5.8126   5.8378   5.8389
     6.1334   6.1578   6.1587   6.1663   6.2489   6.2872   6.4630   6.5004
     6.5013   6.7597   6.7601   6.8091   6.8102   6.8578   7.2137   7.4602
     7.4615   7.4807   7.6960   7.8068   7.8078   8.0829   8.0837   8.1534
     8.2754   8.2796   8.2806   8.4335   8.4866   8.6058   8.7693   8.7700
     8.7942   8.8336   8.8786   8.9191   9.0060   9.0069   9.0426   9.0441
     9.1451   9.1854   9.1864   9.2484   9.4493   9.6289   9.8215   9.8922

          k = 0.1667 0.2887-0.3114 ( 29614 PWs)   bands (ev):

  -112.5989-112.5988-112.5988-112.5985-112.5972-112.5971-112.5971-112.5947
  -112.5925-112.5914-112.5914-112.5913-112.5896-112.5895-112.5895-112.5772
   -67.2511 -67.2504 -67.2503 -67.2498 -67.2494 -67.2491 -67.2490 -67.2486
   -67.2483 -67.2482 -67.2481 -67.2481 -67.2477 -67.2475 -67.2473 -67.2473
   -67.2466 -67.2462 -67.2461 -67.2460 -67.2457 -67.2454 -67.2441 -67.2438
   -67.2437 -67.2430 -67.2429 -67.2429 -67.2426 -67.2424 -67.2418 -67.2411
   -67.2409 -67.2408 -67.2407 -67.2404 -67.2402 -67.2400 -67.2398 -67.2396
   -67.2392 -67.2390 -67.2383 -67.2380 -67.2378 -67.2290 -67.2270 -67.2270
    -7.7776  -7.7728  -7.2871  -7.2862  -7.2820  -7.2809  -7.2275  -7.2207
    -7.1167  -7.1113  -7.0064  -7.0054  -7.0002  -6.9990  -6.9794  -6.9733
     3.6945   3.6949   3.6985   3.6989   3.8541   3.8584   3.8873   3.8883
     3.8892   3.8904   3.8914   3.8929   3.9126   3.9160   4.0070   4.0093
     4.1768   4.1817   4.1907   4.1931   4.3012   4.3041   4.3342   4.3392
     4.3398   4.3450   4.3669   4.3678   4.3722   4.3723   4.5281   4.5290
     4.5298   4.5306   4.6070   4.6085   4.6834   4.6858   4.6869   4.6879
     4.7413   4.7420   4.7456   4.7467   4.8069   4.8104   4.8609   4.8652
     5.3861   5.3916   5.3933   5.3938   5.3960   5.3976   5.4106   5.4163
     5.4654   5.4677   5.4974   5.5023   5.5172   5.5174   5.5215   5.5225
     5.5914   5.5968   5.6229   5.6265   5.6266   5.6280   5.6312   5.6320
     5.7482   5.7516   5.7529   5.7567   5.7735   5.7749   5.7759   5.7760
     6.1866   6.1890   6.3296   6.3300   6.3307   6.3323   6.3797   6.3848
     6.6265   6.6310   6.8782   6.8794   6.8823   6.8841   7.1448   7.1471
     7.6494   7.6510   7.6531   7.6538   7.9904   7.9911   7.9945   7.9956
     8.0289   8.0317   8.4020   8.4093   8.6590   8.6606   8.7238   8.7295
     8.8327   8.8382   8.9860   8.9867   8.9913   8.9936   9.1166   9.1190
     9.1207   9.1214   9.1247   9.1258   9.6791   9.6814   9.7834   9.7904

          k = 0.1667 0.4811 0.0000 ( 29594 PWs)   bands (ev):

  -112.5989-112.5988-112.5988-112.5985-112.5972-112.5971-112.5971-112.5947
  -112.5925-112.5914-112.5914-112.5913-112.5896-112.5896-112.5895-112.5772
   -67.2510 -67.2505 -67.2503 -67.2497 -67.2492 -67.2490 -67.2489 -67.2485
   -67.2482 -67.2481 -67.2479 -67.2479 -67.2478 -67.2476 -67.2474 -67.2472
   -67.2468 -67.2464 -67.2462 -67.2460 -67.2458 -67.2456 -67.2441 -67.2439
   -67.2438 -67.2430 -67.2429 -67.2428 -67.2424 -67.2420 -67.2415 -67.2412
   -67.2410 -67.2408 -67.2407 -67.2405 -67.2403 -67.2402 -67.2398 -67.2395
   -67.2391 -67.2387 -67.2387 -67.2383 -67.2379 -67.2290 -67.2271 -67.2270
    -7.7301  -7.5364  -7.3922  -7.3909  -7.3805  -7.2585  -7.2573  -7.1593
    -7.1583  -7.1065  -7.0455  -7.0219  -7.0213  -6.9851  -6.9640  -6.9521
     3.6649   3.6653   3.7128   3.7137   3.7144   3.7149   3.7850   3.8635
     3.8838   3.9170   3.9174   4.0142   4.0808   4.1321   4.1333   4.2443
     4.2732   4.2741   4.2794   4.3183   4.3249   4.3589   4.3603   4.3616
     4.3700   4.3707   4.3743   4.3752   4.3893   4.3898   4.4455   4.4893
     4.4901   4.4944   4.5165   4.5197   4.5381   4.5791   4.5886   4.5894
     4.6800   4.7765   4.8136   4.8149   4.8198   4.8878   4.9938   5.0946
     5.2373   5.2401   5.2740   5.3495   5.3579   5.3727   5.4140   5.4236
     5.4441   5.4456   5.5133   5.5148   5.5263   5.5272   5.5294   5.5302
     5.5311   5.5315   5.5579   5.5587   5.6291   5.6295   5.6301   5.6310
     5.6424   5.6517   5.6572   5.7778   5.7886   5.8622   5.8927   5.8939
     5.9228   6.0590   6.1162   6.2476   6.2799   6.2826   6.3543   6.6591
     6.8825   6.8842   6.9475   7.1146   7.1987   7.1999   7.3602   7.4401
     7.4433   7.6195   7.6202   7.6479   7.6746   7.8666   7.8986   8.2011
     8.2356   8.2375   8.3368   8.3494   8.5266   8.6127   8.6146   8.7308
     8.7330   8.7580   8.7694   8.7709   8.8051   8.8072   8.8481   8.8494
     9.0634   9.1338   9.1546   9.1568   9.3712   9.4566   9.6644   9.7103

          k = 0.1667 0.4811 0.1557 ( 29621 PWs)   bands (ev):

  -112.5989-112.5988-112.5988-112.5985-112.5972-112.5971-112.5971-112.5947
  -112.5925-112.5914-112.5914-112.5913-112.5896-112.5896-112.5895-112.5772
   -67.2510 -67.2505 -67.2503 -67.2497 -67.2492 -67.2490 -67.2489 -67.2485
   -67.2482 -67.2481 -67.2479 -67.2479 -67.2478 -67.2476 -67.2474 -67.2472
   -67.2468 -67.2464 -67.2462 -67.2460 -67.2458 -67.2456 -67.2441 -67.2439
   -67.2438 -67.2430 -67.2429 -67.2428 -67.2424 -67.2420 -67.2415 -67.2412
   -67.2410 -67.2408 -67.2407 -67.2405 -67.2403 -67.2402 -67.2398 -67.2395
   -67.2391 -67.2387 -67.2387 -67.2383 -67.2379 -67.2290 -67.2271 -67.2270
    -7.7047  -7.5222  -7.5152  -7.3643  -7.3630  -7.2598  -7.2421  -7.1526
    -7.0992  -7.0778  -7.0719  -7.0509  -7.0055  -6.9965  -6.9673  -6.9671
     3.6626   3.7225   3.7290   3.7491   3.7638   3.7752   3.7905   3.8429
     3.8559   3.9384   3.9878   4.0155   4.0449   4.0707   4.0749   4.2355
     4.2562   4.2688   4.2771   4.2853   4.2877   4.3006   4.3417   4.3502
     4.3638   4.3693   4.3908   4.4080   4.4134   4.4226   4.4294   4.4635
     4.4742   4.4792   4.4866   4.5068   4.5463   4.5802   4.5931   4.6496
     4.6564   4.6839   4.7713   4.7948   4.8248   4.8357   4.9484   5.0079
     5.2717   5.2723   5.2994   5.3327   5.3876   5.4160   5.4310   5.4440
     5.4486   5.4490   5.4563   5.4654   5.4667   5.4689   5.4956   5.5346
     5.5622   5.5760   5.6041   5.6170   5.6225   5.6337   5.6403   5.6499
     5.6624   5.7034   5.7052   5.7191   5.7645   5.8105   5.8423   5.9320
     6.1841   6.1855   6.2225   6.2475   6.2701   6.3966   6.4485   6.6344
     6.6977   6.9676   7.0425   7.0478   7.0792   7.1839   7.2003   7.3740
     7.4064   7.6748   7.7751   7.7912   7.8751   7.9143   7.9242   7.9699
     8.1338   8.1365   8.2257   8.3188   8.3367   8.4278   8.5183   8.5520
     8.5601   8.6352   8.7378   8.8276   8.9290   9.0138   9.0295   9.0444
     9.1230   9.1564   9.2222   9.3670   9.3695   9.4155   9.6375   9.6701

          k = 0.1667 0.4811-0.3114 ( 29628 PWs)   bands (ev):

  -112.5989-112.5988-112.5988-112.5985-112.5972-112.5971-112.5971-112.5947
  -112.5925-112.5914-112.5914-112.5913-112.5896-112.5896-112.5895-112.5772
   -67.2510 -67.2505 -67.2503 -67.2497 -67.2492 -67.2490 -67.2489 -67.2485
   -67.2482 -67.2481 -67.2479 -67.2479 -67.2478 -67.2476 -67.2474 -67.2472
   -67.2468 -67.2464 -67.2462 -67.2460 -67.2458 -67.2456 -67.2441 -67.2439
   -67.2438 -67.2430 -67.2429 -67.2428 -67.2424 -67.2420 -67.2416 -67.2412
   -67.2410 -67.2408 -67.2407 -67.2405 -67.2403 -67.2402 -67.2398 -67.2395
   -67.2391 -67.2387 -67.2387 -67.2383 -67.2379 -67.2290 -67.2271 -67.2270
    -7.6344  -7.6295  -7.4571  -7.4521  -7.3169  -7.3117  -7.1508  -7.1441
    -7.0817  -7.0762  -7.0673  -7.0608  -7.0139  -7.0076  -6.9810  -6.9750
     3.7088   3.7126   3.7853   3.7865   3.7886   3.7898   3.9076   3.9097
     3.9153   3.9173   3.9279   3.9308   3.9948   3.9993   4.1313   4.1326
     4.2389   4.2410   4.2778   4.2789   4.2961   4.2998   4.3059   4.3095
     4.3444   4.3463   4.4009   4.4029   4.4115   4.4132   4.4329   4.4344
     4.4628   4.4678   4.5509   4.5525   4.5539   4.5551   4.6106   4.6153
     4.6351   4.6371   4.7272   4.7315   4.8704   4.8734   4.8951   4.8983
     5.3491   5.3532   5.3540   5.3577   5.3599   5.3653   5.3761   5.3788
     5.4190   5.4246   5.4579   5.4633   5.4715   5.4758   5.5093   5.5134
     5.5963   5.6015   5.6071   5.6123   5.6306   5.6354   5.6632   5.6678
     5.7111   5.7146   5.7220   5.7241   5.7828   5.7848   5.8513   5.8532
     6.1762   6.1780   6.4862   6.4865   6.4948   6.4991   6.6560   6.6575
     6.6811   6.6845   6.7543   6.7564   7.1432   7.1477   7.3628   7.3671
     7.6314   7.6346   7.7765   7.7804   7.8446   7.8490   8.0042   8.0102
     8.0276   8.0323   8.2311   8.2362   8.2653   8.2699   8.3432   8.3477
     8.7085   8.7135   8.7763   8.7810   8.8503   8.8573   9.1687   9.1745
     9.2498   9.2549   9.3344   9.3385   9.5021   9.5058   9.5494   9.5549

          k = 0.3333 0.5774 0.0000 ( 29655 PWs)   bands (ev):

  -112.5989-112.5989-112.5988-112.5985-112.5972-112.5972-112.5971-112.5947
  -112.5925-112.5914-112.5914-112.5913-112.5896-112.5896-112.5895-112.5772
   -67.2509 -67.2505 -67.2503 -67.2496 -67.2490 -67.2490 -67.2489 -67.2484
   -67.2482 -67.2481 -67.2479 -67.2479 -67.2476 -67.2476 -67.2475 -67.2472
   -67.2468 -67.2467 -67.2461 -67.2459 -67.2458 -67.2457 -67.2441 -67.2439
   -67.2438 -67.2430 -67.2429 -67.2428 -67.2422 -67.2420 -67.2413 -67.2412
   -67.2412 -67.2408 -67.2407 -67.2406 -67.2402 -67.2402 -67.2399 -67.2393
   -67.2392 -67.2389 -67.2384 -67.2383 -67.2380 -67.2290 -67.2271 -67.2271
    -7.5644  -7.5643  -7.5643  -7.2780  -7.2767  -7.2767  -7.2763  -7.2761
    -7.2746  -7.0197  -7.0183  -7.0038  -7.0014  -6.9923  -6.9923  -6.9920
     3.6944   3.6956   3.6958   3.6962   3.6966   3.6973   3.8525   3.8531
     3.8538   4.0242   4.0243   4.0299   4.0790   4.0791   4.0795   4.2865
     4.2883   4.3150   4.3167   4.3170   4.3174   4.3191   4.3192   4.3311
     4.3337   4.3338   4.3655   4.3661   4.3678   4.4447   4.4453   4.4866
     4.4881   4.4881   4.4881   4.4903   4.4905   4.6668   4.6679   4.6703
     4.7331   4.7337   4.7345   4.7935   4.8985   4.9002   5.1425   5.1446
     5.2451   5.2455   5.2459   5.2809   5.3744   5.3764   5.3921   5.3928
     5.3932   5.4416   5.4459   5.4477   5.5215   5.5216   5.5219   5.5220
     5.5226   5.5240   5.5587   5.5598   5.5600   5.5601   5.5606   5.5618
     5.6393   5.6394   5.6404   5.7952   5.7989   5.7993   5.9770   5.9793
     6.0439   6.0446   6.0454   6.1321   6.2222   6.2252   6.4540   6.4556
     7.2232   7.2268   7.3194   7.3208   7.3208   7.3210   7.3213   7.3229
     7.4075   7.4097   7.4105   7.7256   7.7269   7.7280   8.0624   8.0625
     8.2368   8.2981   8.2986   8.2997   8.6016   8.6021   8.6040   8.6042
     8.6063   8.6077   8.7804   8.7817   8.8148   8.8155   8.8176   8.8184
     8.8191   8.8198   9.3992   9.4000   9.4017   9.4338   9.4343   9.4357

          k = 0.3333 0.5774 0.1557 ( 29628 PWs)   bands (ev):

  -112.5989-112.5989-112.5988-112.5985-112.5972-112.5972-112.5971-112.5947
  -112.5925-112.5914-112.5914-112.5913-112.5896-112.5896-112.5895-112.5772
   -67.2509 -67.2505 -67.2503 -67.2496 -67.2490 -67.2490 -67.2490 -67.2484
   -67.2482 -67.2481 -67.2479 -67.2479 -67.2476 -67.2476 -67.2475 -67.2472
   -67.2468 -67.2467 -67.2461 -67.2459 -67.2458 -67.2457 -67.2441 -67.2439
   -67.2438 -67.2430 -67.2429 -67.2428 -67.2422 -67.2420 -67.2413 -67.2412
   -67.2412 -67.2408 -67.2406 -67.2406 -67.2402 -67.2402 -67.2399 -67.2393
   -67.2392 -67.2389 -67.2384 -67.2383 -67.2380 -67.2290 -67.2271 -67.2271
    -7.5425  -7.5424  -7.5424  -7.3865  -7.3864  -7.3863  -7.1671  -7.1670
    -7.1668  -7.0182  -7.0163  -7.0139  -7.0136  -7.0133  -7.0059  -7.0026
     3.7076   3.7082   3.7087   3.7646   3.7649   3.7655   3.8285   3.8291
     3.8298   4.0372   4.0373   4.0378   4.0459   4.0802   4.0803   4.1750
     4.3054   4.3081   4.3081   4.3194   4.3215   4.3222   4.3236   4.3252
     4.3255   4.3465   4.3471   4.3484   4.3792   4.3797   4.4279   4.4773
     4.4791   4.4798   4.5381   4.5395   4.5404   4.6376   4.6390   4.6396
     4.6485   4.6496   4.6518   4.7288   4.9112   4.9130   5.0500   5.0519
     5.2747   5.2752   5.2755   5.2940   5.3476   5.4012   5.4177   5.4182
     5.4185   5.4368   5.4456   5.4465   5.4469   5.4917   5.4922   5.4927
     5.5743   5.5750   5.5755   5.5757   5.5777   5.6309   5.6310   5.6319
     5.6391   5.6402   5.6412   5.7645   5.7667   5.7675   5.9104   5.9128
     6.2319   6.2656   6.2682   6.2683   6.2683   6.2701   6.4224   6.4242
     6.8388   7.0535   7.0550   7.0554   7.4818   7.4838   7.4848   7.5297
     7.5301   7.5311   7.6049   7.7275   7.7285   7.7297   8.1562   8.1611
     8.1627   8.1629   8.1722   8.1733   8.2817   8.2823   8.2832   8.4749
     8.4750   8.4753   8.6783   8.6794   8.9941   8.9949   8.9951   9.1341
     9.1347   9.1358   9.3482   9.3490   9.3506   9.4355   9.4360   9.4374

          k = 0.3333 0.5774-0.3114 ( 29628 PWs)   bands (ev):

  -112.5989-112.5989-112.5988-112.5985-112.5972-112.5972-112.5971-112.5947
  -112.5925-112.5914-112.5914-112.5913-112.5896-112.5896-112.5895-112.5772
   -67.2509 -67.2505 -67.2503 -67.2496 -67.2490 -67.2490 -67.2490 -67.2484
   -67.2482 -67.2481 -67.2479 -67.2479 -67.2476 -67.2476 -67.2475 -67.2472
   -67.2468 -67.2467 -67.2461 -67.2459 -67.2458 -67.2457 -67.2441 -67.2439
   -67.2438 -67.2430 -67.2429 -67.2428 -67.2422 -67.2420 -67.2413 -67.2412
   -67.2412 -67.2408 -67.2406 -67.2406 -67.2402 -67.2402 -67.2399 -67.2393
   -67.2392 -67.2389 -67.2384 -67.2383 -67.2380 -67.2290 -67.2271 -67.2271
    -7.4832  -7.4821  -7.4820  -7.4780  -7.4777  -7.4766  -7.0791  -7.0781
    -7.0769  -7.0730  -7.0714  -7.0700  -7.0163  -7.0117  -7.0105  -7.0047
     3.7662   3.7668   3.7678   3.7696   3.7702   3.7703   3.9046   3.9048
     3.9051   3.9077   3.9078   3.9088   4.0913   4.0972   4.2212   4.2223
     4.2259   4.2276   4.3049   4.3084   4.3086   4.3086   4.3104   4.3105
     4.3223   4.3224   4.3230   4.3242   4.3257   4.3268   4.5241   4.5268
     4.5269   4.5271   4.5279   4.5290   4.5832   4.5874   4.5975   4.5985
     4.5999   4.6018   4.6034   4.6052   4.9523   4.9555   4.9592   4.9595
     5.3168   5.3226   5.3475   5.3481   5.3481   5.3523   5.3531   5.3539
     5.4197   5.4257   5.4519   5.4523   5.4525   5.4563   5.4576   5.4588
     5.6051   5.6058   5.6059   5.6097   5.6102   5.6123   5.7086   5.7110
     5.7116   5.7136   5.7138   5.7156   5.7612   5.7632   5.7640   5.7652
     6.3474   6.3498   6.3505   6.3527   6.4889   6.4916   6.6861   6.6905
     6.6908   6.6912   6.6916   6.6918   7.6754   7.6757   7.6758   7.6794
     7.6797   7.6821   7.7249   7.7271   7.7277   7.7313   7.7325   7.7351
     7.9278   7.9360   8.3141   8.3155   8.3161   8.3200   8.3200   8.3205
     8.4235   8.4279   8.4311   8.4339   9.2005   9.2018   9.2020   9.2063
     9.2080   9.2114   9.3661   9.3663   9.3690   9.3708   9.3723   9.3761

          k = 0.0000-0.1925 0.1557 ( 29580 PWs)   bands (ev):

  -112.5989-112.5988-112.5988-112.5985-112.5972-112.5971-112.5971-112.5947
  -112.5925-112.5914-112.5914-112.5913-112.5896-112.5895-112.5895-112.5772
   -67.2511 -67.2504 -67.2503 -67.2499 -67.2495 -67.2491 -67.2491 -67.2487
   -67.2484 -67.2483 -67.2481 -67.2481 -67.2479 -67.2473 -67.2473 -67.2472
   -67.2464 -67.2463 -67.2460 -67.2459 -67.2455 -67.2453 -67.2441 -67.2437
   -67.2437 -67.2431 -67.2429 -67.2429 -67.2427 -67.2426 -67.2420 -67.2409
   -67.2409 -67.2408 -67.2406 -67.2405 -67.2402 -67.2400 -67.2397 -67.2396
   -67.2393 -67.2392 -67.2381 -67.2378 -67.2377 -67.2290 -67.2270 -67.2270
    -7.9401  -7.7247  -7.4081  -7.2717  -7.2028  -7.2028  -7.1752  -7.1725
    -7.1222  -7.1221  -7.0423  -7.0197  -7.0196  -6.9577  -6.9558  -6.9557
     3.6087   3.6637   3.6637   3.6834   3.7153   3.7153   3.7337   3.8073
     3.8075   3.8229   3.8824   3.9827   4.0087   4.0097   4.0128   4.0637
     4.1127   4.1510   4.1536   4.1638   4.2201   4.2308   4.2834   4.3086
     4.3584   4.3585   4.3677   4.4667   4.4672   4.4852   4.5896   4.6083
     4.6094   4.6381   4.6544   4.6621   4.6633   4.6839   4.7023   4.7044
     4.7271   4.7280   4.7995   4.8085   4.8102   4.8555   4.9135   4.9151
     5.3687   5.3822   5.4040   5.4295   5.4296   5.4614   5.4649   5.5268
     5.5274   5.5297   5.5402   5.5403   5.5469   5.5547   5.5598   5.5626
     5.5628   5.5660   5.6001   5.6099   5.6272   5.6498   5.6648   5.6652
     5.6741   5.6746   5.7055   5.7625   5.7626   5.7954   5.7961   5.8478
     6.0471   6.1171   6.1189   6.1189   6.1646   6.1661   6.2899   6.3467
     6.3482   6.4976   6.4979   6.5443   6.6044   7.1897   7.2411   7.2419
     7.3455   7.6676   7.6681   7.8552   7.9555   7.9560   8.1789   8.2879
     8.3181   8.3183   8.4001   8.5907   8.5920   8.7654   8.7660   8.8430
     8.9198   8.9212   8.9319   8.9392   9.0166   9.0490   9.0503   9.1859
     9.2156   9.2859   9.4122   9.4334   9.6701   9.7782   9.9385  10.0180

          k = 0.0000-0.3849 0.1557 ( 29618 PWs)   bands (ev):

  -112.5989-112.5988-112.5988-112.5985-112.5972-112.5971-112.5971-112.5947
  -112.5925-112.5914-112.5914-112.5913-112.5896-112.5895-112.5895-112.5772
   -67.2510 -67.2504 -67.2503 -67.2497 -67.2493 -67.2490 -67.2489 -67.2485
   -67.2482 -67.2481 -67.2480 -67.2480 -67.2477 -67.2475 -67.2475 -67.2472
   -67.2467 -67.2463 -67.2461 -67.2459 -67.2458 -67.2454 -67.2441 -67.2439
   -67.2437 -67.2430 -67.2429 -67.2429 -67.2425 -67.2423 -67.2417 -67.2411
   -67.2410 -67.2408 -67.2407 -67.2405 -67.2402 -67.2401 -67.2397 -67.2397
   -67.2391 -67.2390 -67.2383 -67.2382 -67.2378 -67.2290 -67.2271 -67.2270
    -7.8166  -7.6177  -7.4391  -7.3286  -7.3026  -7.2093  -7.2093  -7.1262
    -7.1259  -7.1188  -7.1140  -7.0196  -7.0196  -6.9851  -6.9527  -6.9526
     3.6153   3.7092   3.7180   3.7648   3.7649   3.7709   3.8067   3.8292
     3.8293   3.8925   3.8987   3.8990   4.0465   4.1102   4.1215   4.1221
     4.1784   4.2258   4.2286   4.2440   4.2878   4.3179   4.3285   4.3491
     4.3493   4.3637   4.3872   4.3872   4.4044   4.4216   4.4611   4.4991
     4.5047   4.5057   4.5413   4.5717   4.5732   4.5797   4.7043   4.7056
     4.7165   4.7311   4.7315   4.7555   4.8561   4.8578   4.9130   4.9147
     5.2928   5.3255   5.3389   5.3390   5.3821   5.4483   5.4599   5.4628
     5.4651   5.4734   5.4739   5.4847   5.4848   5.5079   5.5382   5.5383
     5.5603   5.5797   5.5838   5.6179   5.6385   5.6516   5.6735   5.6741
     5.6796   5.6944   5.6947   5.7721   5.8098   5.8102   5.8988   5.8997
     6.0509   6.0524   6.1432   6.2609   6.2873   6.2886   6.5744   6.5754
     6.7288   6.7291   6.7515   6.8676   7.0862   7.0944   7.0945   7.2176
     7.5202   7.5208   7.6115   7.6118   7.7125   8.1131   8.1590   8.1714
     8.1715   8.1853   8.3341   8.4363   8.4382   8.5444   8.6919   8.6931
     8.7554   8.8827   8.8916   8.8924   8.9165   8.9393   8.9405   9.0288
     9.0534   9.1998   9.2414   9.3454   9.3992   9.5906   9.7675   9.8613

          k =-0.1667-0.4811 0.1557 ( 29621 PWs)   bands (ev):

  -112.5989-112.5988-112.5988-112.5985-112.5972-112.5971-112.5971-112.5947
  -112.5925-112.5914-112.5914-112.5913-112.5896-112.5896-112.5895-112.5772
   -67.2510 -67.2505 -67.2503 -67.2497 -67.2492 -67.2490 -67.2489 -67.2485
   -67.2482 -67.2481 -67.2479 -67.2479 -67.2478 -67.2476 -67.2474 -67.2472
   -67.2468 -67.2464 -67.2462 -67.2460 -67.2458 -67.2456 -67.2441 -67.2439
   -67.2438 -67.2430 -67.2429 -67.2428 -67.2424 -67.2420 -67.2415 -67.2412
   -67.2410 -67.2408 -67.2407 -67.2405 -67.2403 -67.2402 -67.2398 -67.2395
   -67.2391 -67.2387 -67.2387 -67.2383 -67.2379 -67.2290 -67.2271 -67.2270
    -7.7047  -7.5222  -7.5152  -7.3643  -7.3630  -7.2599  -7.2421  -7.1526
    -7.0992  -7.0777  -7.0719  -7.0509  -7.0055  -6.9965  -6.9673  -6.9670
     3.6622   3.7228   3.7295   3.7495   3.7640   3.7745   3.7902   3.8428
     3.8557   3.9386   3.9876   4.0153   4.0452   4.0701   4.0754   4.2356
     4.2565   4.2690   4.2768   4.2853   4.2877   4.3004   4.3415   4.3502
     4.3637   4.3692   4.3907   4.4081   4.4134   4.4229   4.4295   4.4636
     4.4741   4.4791   4.4868   4.5069   4.5463   4.5800   4.5926   4.6496
     4.6566   4.6838   4.7710   4.7950   4.8249   4.8355   4.9486   5.0080
     5.2716   5.2726   5.2993   5.3323   5.3876   5.4162   5.4310   5.4441
     5.4482   5.4493   5.4565   5.4653   5.4668   5.4689   5.4954   5.5346
     5.5621   5.5762   5.6040   5.6169   5.6226   5.6336   5.6407   5.6499
     5.6624   5.7032   5.7054   5.7193   5.7640   5.8105   5.8425   5.9319
     6.1841   6.1855   6.2226   6.2476   6.2701   6.3966   6.4483   6.6344
     6.6975   6.9679   7.0428   7.0475   7.0793   7.1840   7.2002   7.3736
     7.4064   7.6748   7.7751   7.7912   7.8751   7.9140   7.9248   7.9702
     8.1334   8.1368   8.2258   8.3188   8.3368   8.4273   8.5184   8.5519
     8.5602   8.6353   8.7378   8.8275   8.9291   9.0138   9.0296   9.0444
     9.1231   9.1563   9.2222   9.3670   9.3693   9.4156   9.6376   9.6700

     highest occupied level (ev):    10.1053

!    total energy              =   -7214.68392456 Ry
     estimated scf accuracy    <          1.8E-09 Ry

     The total energy is the sum of the following terms:
     one-electron contribution =   -4807.89616076 Ry
     hartree contribution      =    2559.61598455 Ry
     xc contribution           =    -842.34494986 Ry
     ewald contribution        =   -4124.05879849 Ry

     convergence has been achieved in  12 iterations

     Forces acting on atoms (cartesian axes, Ry/au):

     atom    1 type  1   force =     0.00000000    0.00000000   -0.00241615
     atom    2 type  1   force =    -0.00059983    0.00034631   -0.00043467
     atom    3 type  2   force =     0.00000000    0.00000000    0.00511907
     atom    4 type  2   force =    -0.00015714    0.00009072   -0.00034727
     atom    5 type  1   force =     0.00000000    0.00000000    0.00027414
     atom    6 type  1   force =     0.00001321   -0.00000763    0.00023123
     atom    7 type  2   force =     0.00000000    0.00000000   -0.00019165
     atom    8 type  2   force =     0.00027794   -0.00016047   -0.00034988
     atom    9 type  1   force =     0.00007788    0.00004496   -0.00014162
     atom   10 type  1   force =    -0.00000000   -0.00069262   -0.00043467
     atom   11 type  2   force =    -0.00000614   -0.00000355    0.00017485
     atom   12 type  2   force =     0.00000000   -0.00018145   -0.00034727
     atom   13 type  1   force =    -0.00008437   -0.00004871    0.00013730
     atom   14 type  1   force =     0.00000000    0.00001525    0.00023123
     atom   15 type  2   force =    -0.00001048   -0.00000605   -0.00019625
     atom   16 type  2   force =     0.00000000    0.00032094   -0.00034988
     atom   17 type  1   force =    -0.00000000   -0.00008993   -0.00014162
     atom   18 type  1   force =     0.00059983    0.00034631   -0.00043467
     atom   19 type  2   force =     0.00000000    0.00000709    0.00017485
     atom   20 type  2   force =     0.00015714    0.00009072   -0.00034727
     atom   21 type  1   force =     0.00000000    0.00009742    0.00013730
     atom   22 type  1   force =    -0.00001321   -0.00000763    0.00023123
     atom   23 type  2   force =     0.00000000    0.00001210   -0.00019625
     atom   24 type  2   force =    -0.00027794   -0.00016047   -0.00034988
     atom   25 type  1   force =    -0.00007788    0.00004496   -0.00014162
     atom   26 type  1   force =     0.00000000   -0.00000000   -0.00008749
     atom   27 type  2   force =     0.00000614   -0.00000355    0.00017485
     atom   28 type  2   force =     0.00000000    0.00000000   -0.00001159
     atom   29 type  1   force =     0.00008437   -0.00004871    0.00013730
     atom   30 type  1   force =     0.00000000    0.00000000    0.00010314
     atom   31 type  2   force =     0.00001048   -0.00000605   -0.00019625
     atom   32 type  2   force =     0.00000000   -0.00000000   -0.00001055

     Total force =     0.005988     Total SCF correction =     0.000093


     Computing stress (Cartesian axis) and pressure

          total   stress  (Ry/bohr**3)                   (kbar)     P=       -1.61
  -0.00001315   0.00000000   0.00000000           -1.93        0.00        0.00
   0.00000000  -0.00001315  -0.00000000            0.00       -1.93       -0.00
   0.00000000  -0.00000000  -0.00000649            0.00       -0.00       -0.95

     Message from routine punch:
     Nothing written, as per user request (disk_io='none')
 
     init_run     :     12.12s CPU     12.57s WALL (       1 calls)
     electrons    :    490.49s CPU    499.17s WALL (       1 calls)
     forces       :      7.40s CPU      7.47s WALL (       1 calls)
     stress       :     24.25s CPU     24.32s WALL (       1 calls)

     Called by init_run:
     wfcinit      :     11.82s CPU     12.23s WALL (       1 calls)
     potinit      :      0.06s CPU      0.07s WALL (       1 calls)
     hinit0       :      0.11s CPU      0.12s WALL (       1 calls)

     Called by electrons:
     c_bands      :    448.17s CPU    456.25s WALL (      12 calls)
     sum_band     :     41.33s CPU     41.87s WALL (      12 calls)
     v_of_rho     :      0.36s CPU      0.37s WALL (      13 calls)
     mix_rho      :      0.49s CPU      0.51s WALL (      12 calls)

     Called by c_bands:
     init_us_2    :      5.73s CPU      5.80s WALL (      81 calls)
     cegterg      :    429.52s CPU    437.19s WALL (      36 calls)

     Called by *egterg:
     cdiaghg      :     18.42s CPU     20.52s WALL (     134 calls)
     h_psi        :    271.66s CPU    274.70s WALL (     137 calls)
     g_psi        :      0.71s CPU      0.71s WALL (      98 calls)

     Called by h_psi:
     h_psi:calbec :     51.72s CPU     51.85s WALL (     137 calls)
     vloc_psi     :    163.01s CPU    164.55s WALL (     137 calls)
                                        0.00s GPU  (     137 calls)
     add_vuspsi   :     55.93s CPU     55.98s WALL (     137 calls)

     General routines
     calbec       :     78.95s CPU     79.10s WALL (     188 calls)
     fft          :      0.26s CPU      0.29s WALL (      46 calls)
     ffts         :      0.06s CPU      0.07s WALL (      12 calls)
     fftw         :    166.47s CPU    168.03s WALL (   46072 calls)
 
     Parallel routines
 
     PWSCF        :   8m54.80s CPU   9m 4.15s WALL

 
   This run was terminated on:  18:20:25   7Apr2026            

=------------------------------------------------------------------------------=
   JOB DONE.
=------------------------------------------------------------------------------=
