# total energy = -59029.964220211376 eV

CRYSTAL
PRIMVEC
6.931782212348458 0.0 0.0
-3.465891106174229 6.003096690449074 0.0
0.0 0.0 18.464125892992676
PRIMCOORD
48 1
Zn   1.732945553087  1.000516808253  3.081254136171  0.000046279857  0.000026739473 -0.313070119324
Zn  -0.000000000000  2.001032923328  0.003899820673  0.000000000000 -0.000012855516 -0.312968560749
O    1.732945553087  1.000516808253  5.414152371520 -0.000005656427 -0.000003342434  0.313114856519
O   -0.000000000000  2.001032923328  2.336798056021 -0.000000000000  0.000002571103  0.313099687010
Zn   1.732945553087  1.000516808253  9.235963460347 -0.000046022747 -0.000026739473 -0.313218471976
Zn  -0.000000000000  2.001032923328  6.158609144848 -0.000000000000  0.000074304881 -0.313121027166
O    1.732945553087  1.000516808253  11.568861695695 -0.000008741751 -0.000005142206  0.313104572106
O   -0.000000000000  2.001032923328  8.491507380197  0.000000000000  0.000001799772  0.313107657430
Zn   1.732945553087  1.000516808253  15.390672784523 -0.000010284413 -0.000005913537 -0.313107143209
Zn  -0.000000000000  2.001032923328  12.313318469024 -0.000000000000  0.000071219558 -0.313156508390
O    1.732945553087  1.000516808253  17.723571019871 -0.000009255971 -0.000005399317  0.313101486782
O   -0.000000000000  2.001032923328  14.646216704372 -0.000000000000  0.000005142206  0.313088631266
Zn   0.000000000000  4.002066539834  3.081254136171  0.000000000000 -0.000000000000 -0.312998128435
Zn  -1.732945553087  5.002582654909  0.003899820673 -0.000011312854  0.000006427758 -0.312968560749
O    0.000000000000  4.002066539834  5.414152371520  0.000000000000  0.000000000000  0.313101229672
O   -1.732945553087  5.002582654909  2.336798056021  0.000002313993 -0.000001285552  0.313099687010
Zn   0.000000000000  4.002066539834  9.235963460347  0.000000000000  0.000000000000 -0.313171420788
Zn  -1.732945553087  5.002582654909  6.158609144848  0.000064277579 -0.000037023886 -0.313121027166
O    0.000000000000  4.002066539834  11.568861695695  0.000000000000  0.000000000000  0.313132082910
O   -1.732945553087  5.002582654909  8.491507380197  0.000001542662 -0.000000771331  0.313107657430
Zn   0.000000000000  4.002066539834  15.390672784523  0.000000000000  0.000000000000 -0.313138767778
Zn  -1.732945553087  5.002582654909  12.313318469024  0.000061706476 -0.000035738334 -0.313156508390
O    0.000000000000  4.002066539834  17.723571019871  0.000000000000  0.000000000000  0.313091459480
O   -1.732945553087  5.002582654909  14.646216704372  0.000004370875 -0.000002571103  0.313088631266
Zn   5.198836659261  1.000516808253  3.081254136171 -0.000046279857  0.000026739473 -0.313070119324
Zn   3.465891106174  2.001032923328  0.003899820673  0.000000000000  0.000000000000 -0.312926394657
O    5.198836659261  1.000516808253  5.414152371520  0.000005656427 -0.000003342434  0.313114856519
O    3.465891106174  2.001032923328  2.336798056021  0.000000000000  0.000000000000  0.313098915679
Zn   5.198836659261  1.000516808253  9.235963460347  0.000046022747 -0.000026739473 -0.313218471976
Zn   3.465891106174  2.001032923328  6.158609144848  0.000000000000  0.000000000000 -0.313177334325
O    5.198836659261  1.000516808253  11.568861695695  0.000008741751 -0.000005142206  0.313104572106
O    3.465891106174  2.001032923328  8.491507380197  0.000000000000  0.000000000000  0.313101229672
Zn   5.198836659261  1.000516808253  15.390672784523  0.000010284413 -0.000005913537 -0.313107143209
Zn   3.465891106174  2.001032923328  12.313318469024  0.000000000000  0.000000000000 -0.313124369600
O    5.198836659261  1.000516808253  17.723571019871  0.000009255971 -0.000005399317  0.313101486782
O    3.465891106174  2.001032923328  14.646216704372  0.000000000000  0.000000000000  0.313087345715
Zn   3.465891106174  4.002066539834  3.081254136171  0.000000000000 -0.000053221835 -0.313070119324
Zn   1.732945553087  5.002582654909  0.003899820673  0.000011312854  0.000006427758 -0.312968560749
O    3.465891106174  4.002066539834  5.414152371520  0.000000000000  0.000006684868  0.313114856519
O    1.732945553087  5.002582654909  2.336798056021 -0.000002313993 -0.000001285552  0.313099687010
Zn   3.465891106174  4.002066539834  9.235963460347  0.000000000000  0.000053221835 -0.313218471976
Zn   1.732945553087  5.002582654909  6.158609144848 -0.000064277579 -0.000037023886 -0.313121027166
O    3.465891106174  4.002066539834  11.568861695695  0.000000000000  0.000010027302  0.313104572106
O    1.732945553087  5.002582654909  8.491507380197 -0.000001542662 -0.000000771331  0.313107657430
Zn   3.465891106174  4.002066539834  15.390672784523  0.000000000000  0.000011827075 -0.313107143209
Zn   1.732945553087  5.002582654909  12.313318469024 -0.000061706476 -0.000035738334 -0.313156508390
O    3.465891106174  4.002066539834  17.723571019871  0.000000000000  0.000010798633  0.313101486782
O    1.732945553087  5.002582654909  14.646216704372 -0.000004370875 -0.000002571103  0.313088631266