# total energy = -14758.025449794555 eV

CRYSTAL
PRIMVEC
3.5312667168486422 0.0 0.0
-5.296900075272964 9.174499306643252 0.0
0.0 0.0 5.358686649017664
PRIMCOORD
12 1
Zn   1.576982143483  0.916588301585  2.645009171348  0.028914111931  1.719120049165 -0.479856038734
Zn  -0.021528014413  1.907967419727 -0.048665799132 -0.228071505694  0.492018642239 -0.036272094958
O    1.650675089217  1.126558126823  4.530090451483  0.426414631086 -0.418819078127  1.538163237570
O   -0.131041423469  2.086275201328  1.971943378836  0.138329978063 -0.766685222084  0.070665741947
Zn  -0.089872503577  3.967301881018  2.653840163153  0.210273044060  0.180812315597  0.076364334993
Zn  -1.960260182903  5.025279983186 -0.033330567160  1.892863116620  0.454421914932  0.943320780595
O    0.159375601352  4.004377003405  4.862574044194 -2.028424016578 -0.586807759596 -1.635985999548
O   -1.655705378655  5.071078040617  1.989694350368 -0.387938843608  0.706760520704  0.294650736276
Zn  -1.741666651217  7.226333712245  2.776923523949 -0.154961673082 -0.616695805405 -2.672604400556
Zn  -3.557160789430  7.911341542539  0.077720355424  0.043752719606  0.706631708435 -0.096511242255
O   -1.742643046464  7.216932420865  4.562295250814 -0.410345750548 -0.336720154642  3.576109077595
O   -3.644909236077  8.259236289457  2.162397658563  0.469193931035 -1.534037131217 -1.578044390036