# total energy = -9835.333843405888 eV

CRYSTAL
PRIMVEC
2.9427380511605845 0.0 0.0
-2.9427380511605845 5.0969723842507415 0.0
0.0 0.0 4.845647840991372
PRIMCOORD
8 1
Zn   1.481150392589  0.768799144080  2.429705219155  0.046979968294  0.460365277000  1.061155466918
Zn  -0.001118829007  1.681797455321  0.032883920626  1.094117009446 -0.129107431023  1.916609054086
O    1.511176620294  0.897514800711  4.320376749978 -1.208408972723 -2.996006497933 -1.365598249584
O    0.015009141156  1.683416549797  1.904612163793 -0.036071806022  0.322822056504 -0.680043930644
Zn   0.020375518266  3.437162773374  2.483350745280  0.172497110863 -1.193258490234 -1.196696826492
Zn  -1.487463742804  4.136689275182  0.021488461797  1.698231121531  2.055717562186 -0.145127974821
O    0.062387223780  3.329990019194  4.212017778089 -1.590137059534  0.792292895349  1.264684250276
O   -1.438757602497  4.166613978424  1.822218146825 -0.177207371854  0.687174628152 -0.854981275518