# total energy = -14758.145857583078 eV

CRYSTAL
PRIMVEC
3.465873114149145 0.0 0.0
-5.198809671223717 9.004601756916154 0.0
0.0 0.0 5.147549407865451
PRIMCOORD
12 1
Zn   1.718532041825  1.000442643527  2.309914664467  1.127215334661 -0.194974723140  1.604997521586
Zn   0.076770129240  1.941135367502  0.002186619348 -0.750709929701  0.355876930077 -0.501076381566
O    1.525308229362  0.905008094392  4.493310403600  1.215445567854  0.446040889957  0.233258706322
O    0.082173078838  1.840116257018  2.046056704525 -1.764519817456  1.859164181705 -0.775825493822
Zn  -0.112006274843  4.161965655554  2.463797004624  0.479514853345 -1.018335286429  1.455722357365
Zn  -1.690164216973  4.918872486143  0.234662138003  0.386542991702  0.223234489317 -6.986787207146
O    0.099224134798  4.071199984091  4.600564619816 -0.727298749866 -0.474554424016 -0.398480880790
O   -1.818017503455  5.037611566097  1.902417752356 -0.292110743463  0.211389674163  5.715530960080
Zn  -1.771328726735  6.973256297412  2.560869871980 -0.393286738184  1.027881278246  0.766304441705
Zn  -3.523444732448  8.081762785114  0.154810500977 -0.192798284314 -0.487961698561 -1.556599847009
O   -1.936914280636  7.082022327480  4.514736777779  0.440834406056 -0.577499080601  0.874135736959
O   -3.642000121127  8.089458409776  2.096549970163  0.471171109366 -1.370262230718 -0.431180170795