# total energy = -19678.932138383967 eV

CRYSTAL
PRIMVEC
3.465891106174229 0.0 0.0
-3.465891106174229 6.00310015634018 0.0
0.0 0.0 11.414187986943633
PRIMCOORD
16 1
Zn   1.732945553087  1.000516461664  2.857163134222  0.000000000000  0.000152209307 -0.008960808738
Zn   0.000000000000  2.001033269917  0.003615964191  0.000000000000  0.000002828213 -0.009108132949
O    1.732945553087  1.000516461664  5.020395948838  0.000000000000  0.000127783827  0.008944867898
O    0.000000000000  2.001033269917  2.166849125397  0.000000000000 -0.000162750830  0.008924813293
Zn   1.732945553087  1.000516461664  8.564257127693  0.000000000000  0.000137039798 -0.008972635812
Zn   0.000000000000  2.001033269917  5.710709957663  0.000000000000 -0.000042166092 -0.008767976001
O    1.732945553087  1.000516461664  10.727490288899  0.000000000000  0.000128812268  0.008972635812
O    0.000000000000  2.001033269917  7.873943118869  0.000000000000 -0.000152209307  0.008981120453
Zn   0.000000000000  4.002066193245  2.857163134222  0.000000000000 -0.000011312854 -0.008958237635
Zn  -1.732945553087  5.002583001498  0.003615964191  0.000000000000 -0.000138839571 -0.009151070372
O    0.000000000000  4.002066193245  5.020395948838  0.000000000000  0.000142953336  0.008964408282
O   -1.732945553087  5.002583001498  2.166849125397  0.000000000000 -0.000123927172  0.008929184169
Zn   0.000000000000  4.002066193245  8.564257127693  0.000000000000  0.000006941979 -0.008952838318
Zn  -1.732945553087  5.002583001498  5.710709957663  0.000000000000 -0.000096673479 -0.008792144370
O    0.000000000000  4.002066193245  10.727490288899  0.000000000000  0.000161465279  0.008966208054
O   -1.732945553087  5.002583001498  7.873943118869  0.000000000000 -0.000132154702  0.008980606232