# total energy = -14750.444220968177 eV

CRYSTAL
PRIMVEC
9.61294373600222 0.0 0.0
-1.6021604936482823 2.775016532990441 0.0
0.0 0.0 4.655625554895764
PRIMCOORD
12 1
Zn   1.650111779592  0.866085856250  2.436908153319  4.537484658810 -1.348943928857 -6.546364434707
Zn   0.028833063442  1.849981221868 -0.093082134196 -4.825529459733  3.806981028853  3.302480452097
O    1.273722735375  0.924918994503  4.046602310973  4.870024971043 -3.711959997990  5.005178094039
O    0.207192582814  1.721082220606  1.901264354111 -3.774918343990  1.731741851694 -2.057107243445
Zn   4.860147661940  0.949596382368  2.560224918153 -0.510868170845  0.371485326038 -8.247570065485
Zn   3.146411652937  1.911714585246 -0.073582277827 -0.517418570369 -4.346534740558 -1.233995820053
O    4.758816660724  0.788105656664  4.175707029231 -0.563115043965  3.782915503263  4.979927804113
O    3.331699220859  1.906531285984  1.645531211902 -0.495483975080 -0.982559414381  4.778645393587
Zn   7.962271521790  0.919079131184  2.533772019580  1.254732281269 -0.734462871715 -22.164651172676
Zn   6.486300140564  1.869300354894 -0.016629431369 -1.470232120946  1.101804093677 -3.098598142054
O    7.900379544840  0.952170728700  3.979510692757  0.510136177775 -0.543168168529  20.070942990179
O    6.328842044757  1.691982878623  1.641673537581  0.985187596032  0.872701061395  5.211112144405