# total energy = -29520.579887624444 eV

CRYSTAL
PRIMVEC
9.416760811194894 0.0 0.0
-1.5694632741194197 2.7183834271716862 0.0
0.0 0.0 10.540067374840712
PRIMCOORD
24 1
Zn   1.569460449091  0.906127809057  2.638356968770  0.000191547186  0.000110557436  0.446448152698
Zn  -0.000000000000  1.812256559791  0.003339183384 -0.000232684836 -0.000134211585  0.446524000241
O    1.569460449091  0.906127809057  4.635925964564 -0.000082018191 -0.000047308298 -0.446447124257
O   -0.000000000000  1.812256559791  2.000908179178  0.000082532411  0.000047822519 -0.446438382506
Zn   1.569460449091  0.906127809057  7.908392539542  0.000287192223  0.000165836154  0.446443010492
Zn  -0.000000000000  1.812256559791  5.273374754156 -0.000137554019 -0.000079447088  0.446387217553
O    1.569460449091  0.906127809057  9.905962477013 -0.000087674618 -0.000050650732 -0.446435811403
O   -0.000000000000  1.812256559791  7.270943749950  0.000090759942  0.000052450504 -0.446438639616
Zn   4.708380405597  0.906127809057  2.638356968770  0.000251196779  0.000145010218  0.446489033238
Zn   3.138919956506  1.812256559791  0.003339183384 -0.000173806574 -0.000100273023  0.446398787517
O    4.708380405597  0.906127809057  4.635925964564 -0.000089474390 -0.000051679174 -0.446451238022
O    3.138919956506  1.812256559791  2.000908179178  0.000089731500  0.000051936284 -0.446434782961
Zn   4.708380405597  0.906127809057  7.908392539542  0.000144753108  0.000083560853  0.446454323345
Zn   3.138919956506  1.812256559791  5.273374754156 -0.000198746274 -0.000114928311  0.446409329040
O    4.708380405597  0.906127809057  9.905962477013 -0.000079961308 -0.000046279857 -0.446441467830
O    3.138919956506  1.812256559791  7.270943749950  0.000086131956  0.000049879401 -0.446436839844
Zn   7.847300362104  0.906127809057  2.638356968770  0.000193861178  0.000111842988  0.446376418920
Zn   6.277840854689  1.812256559791  0.003339183384 -0.000223171754 -0.000128812268  0.446490833010
O    7.847300362104  0.906127809057  4.635925964564 -0.000083560853 -0.000048336739 -0.446454323345
O    6.277840854689  1.812256559791  2.000908179178  0.000085874846  0.000049622291 -0.446444038933
Zn   7.847300362104  0.906127809057  7.908392539542  0.000192318516  0.000111071657  0.446502917195
Zn   6.277840854689  1.812256559791  5.273374754156 -0.000303647283 -0.000175349236  0.446367934279
O    7.847300362104  0.906127809057  9.905962477013 -0.000088445949 -0.000051164953 -0.446433754520
O    6.277840854689  1.812256559791  7.270943749950  0.000084846404  0.000048850960 -0.446435811403