# total energy = -14755.881424450881 eV

CRYSTAL
PRIMVEC
3.531285238050934 0.0 0.0
-1.765642619025467 3.0581812982830603 0.0
0.0 0.0 18.8125089453435
PRIMCOORD
12 1
Zn   1.793877010146  0.913898738379  3.182825073331 -0.047861599568  0.371755548980 -0.008502895265
Zn  -0.012645179309  1.899289758916 -0.203177086842  0.234612906357  0.424830831538  0.580608315654
O    1.758735071971  1.063599100961  5.521260167523 -0.027381734447 -0.102998392641  0.889081559635
O   -0.087796579231  2.065790917276  2.546588468192  0.085846563452 -0.338458477490  0.095491799851
Zn   1.811657031320  1.020353922551  9.401108683823 -0.053769223302  0.405601550995  0.018204695933
Zn  -0.055347952307  2.050768123616  6.327143953040  0.114706167996  0.110192082176 -0.807597644027
O    1.727135012890  0.975396423928  11.775306163006  0.118570021827  0.056605664309  0.704359624572
O    0.070250329140  2.185669929151  8.759774315314 -0.096165685990 -0.571146141800 -0.064162136500
Zn   1.657350460273  1.040578652494  15.832954537914  0.120866016950  0.035769958511 -1.472539428923
Zn   0.009991418453  1.985213697585  12.549157307001 -0.051389410216  0.055618874916 -0.683066262410
O    1.782576191127  1.152946973797  18.119672900409 -0.367985797525 -0.445341035677 -0.546640700459
O   -0.003826500684  2.051331010483  14.920986000046 -0.030048225536 -0.002430463818  1.294763329049