# total energy = -14758.937299050123 eV

CRYSTAL
PRIMVEC
3.4004969742975235 0.0 0.0
-1.7002484871487618 2.944915392166013 0.0
0.0 0.0 17.786370834499657
PRIMCOORD
12 1
Zn   1.654954207501  0.977047453090  2.969516627576  0.051809528472 -0.039556422136 -0.161980270492
Zn   0.038942151300  2.032237986600  0.038597000857 -0.166429564513 -0.191072816983 -0.302171213023
O    1.657176092224  1.031186085319  5.201280134342  0.062857558756 -0.173998892219  0.059781748044
O   -0.030644938683  1.931676449778  2.242828723920 -0.007451571182  0.161373490146  0.218508287486
Zn   1.685471967597  0.952848496472  8.887667090760  0.208660448157 -0.042343755074 -0.164993346287
Zn  -0.034217840854  1.974995720783  5.907764665325  0.016458916887  0.077122810426 -0.046581447304
O    1.716886778794  0.945732956553  11.168025739587  0.039846699683  0.120989429902 -0.248691495937
O    0.052703282456  1.933017605785  8.146716822694 -0.273082266077  0.084384634195  0.235526676421
Zn   1.666358454204  1.031074208968  14.871478090070  0.453105510113 -0.256244625694 -0.145722156762
Zn   0.029061667291  1.955712862641  11.826297004319 -0.007312474501 -0.099116283978  0.313994430910
O    1.676824843841  0.998232209191  17.079248710335  0.144344559688  0.132242634218  0.301066152884
O    0.083951469301  1.968477988233  14.146913116675 -0.522807088375  0.226219797197 -0.058737623051