# total energy = -14757.18275595811 eV

CRYSTAL
PRIMVEC
10.593856243330013 0.0 0.0
-1.7656462385070832 3.0581814510432914 0.0
0.0 0.0 6.042809758189143
PRIMCOORD
12 1
Zn   1.765643060350  1.019393817014  3.025231379970 -0.000292077319 -0.000168664367 -0.190607704421
Zn  -0.000000000000  2.038788693414  0.003828619646  0.000282821348  0.000163265051 -0.190592534912
O    1.765643060350  1.019393817014  5.315713147556 -0.000302618842 -0.000174577905  0.190594848905
O   -0.000000000000  2.038788693414  2.294310387232  0.000301333291  0.000174063684  0.190601533773
Zn   5.296928121665  1.019393817014  3.025231379970 -0.000267908949 -0.000154780410 -0.190565281219
Zn   3.531285061315  2.038788693414  0.003828619646  0.000292848650  0.000168921478 -0.190621331267
O    5.296928121665  1.019393817014  5.315713147556 -0.000301847511 -0.000174320794  0.190597420008
O    3.531285061315  2.038788693414  2.294310387232  0.000297733746  0.000171749691  0.190596905787
Zn   8.828213182980  1.019393817014  3.025231379970 -0.000298762187 -0.000172521022 -0.190577879624
Zn   7.062571182015  2.038788693414  0.003828619646  0.000293877091  0.000169692809 -0.190621074157
O    8.828213182980  1.019393817014  5.315713147556 -0.000304418614 -0.000175606346  0.190595877346
O    7.062571182015  2.038788693414  2.294310387232  0.000299019298  0.000172521022  0.190599476891