# total energy = -29504.937091630443 eV

CRYSTAL
PRIMVEC
3.0735263149139955 0.0 0.0
-3.0735263149139955 5.323504327273101 0.0
0.0 0.0 13.396788148605047
PRIMCOORD
24 1
Zn   1.536763157457  0.887250516310  2.235627103290  0.000000000000 -0.000420632477 -3.785705150193
Zn   0.000000000000  1.774501339973  0.002829488326  0.000000000000  0.000393893004 -3.785666069425
O    1.536763157457  0.887250516310  3.928279208086  0.000000000000  0.000114414091  3.785722890805
O    0.000000000000  1.774501339973  1.695481285770  0.000000000000 -0.000032395900  3.785696922663
Zn   1.536763157457  0.887250516310  6.701222640570  0.000000000000 -0.000403406086 -3.785889498290
Zn   0.000000000000  1.774501339973  4.468425025606  0.000000000000  0.000385408364 -3.785797195686
O    1.536763157457  0.887250516310  8.393874745367  0.000000000000  0.000040109209  3.785857102390
O    0.000000000000  1.774501339973  6.161076823050  0.000000000000 -0.000046022747  3.785853502846
Zn   1.536763157457  0.887250516310  11.166818485203  0.000000000000 -0.000409576734 -3.785785625722
Zn   0.000000000000  1.774501339973  8.934020562887  0.000000000000  0.000412662057 -3.785872271899
O    1.536763157457  0.887250516310  12.859470282648  0.000000000000  0.000075847543  3.785837819116
O    0.000000000000  1.774501339973  10.626672667684  0.000000000000 -0.000135240026  3.785832934020
Zn   0.000000000000  3.549002372594  2.235627103290  0.000000000000 -0.000390036350 -3.785662212770
Zn  -1.536763157457  4.436253196257  0.002829488326  0.000000000000  0.000406748520 -3.785650385696
O    0.000000000000  3.549002372594  3.928279208086  0.000000000000  0.000059392483  3.785767885110
O   -1.536763157457  4.436253196257  1.695481285770  0.000000000000 -0.000100530134  3.785653985240
Zn   0.000000000000  3.549002372594  6.701222640570  0.000000000000 -0.000405977189 -3.785887441407
Zn  -1.536763157457  4.436253196257  4.468425025606  0.000000000000  0.000421403808 -3.785898754261
O    0.000000000000  3.549002372594  8.393874745367  0.000000000000  0.000098473251  3.785730089894
O   -1.536763157457  4.436253196257  6.161076823050  0.000000000000 -0.000092559714  3.785776626861
Zn   0.000000000000  3.549002372594  11.166818485203  0.000000000000 -0.000421403808 -3.785780740626
Zn  -1.536763157457  4.436253196257  8.934020562887  0.000000000000  0.000399806542 -3.785832934020
O    0.000000000000  3.549002372594  12.859470282648  0.000000000000  0.000085874846  3.785870986347
O   -1.536763157457  4.436253196257  10.626672667684  0.000000000000 -0.000035995444  3.785826763373