# total energy = -29515.213447209426 eV

CRYSTAL
PRIMVEC
3.0735263149139955 0.0 0.0
-4.610289472370994 7.985254954146494 0.0
0.0 0.0 9.7250737011246
PRIMCOORD
24 1
Zn   1.536763157457  0.887250516310  2.434349635412  0.000000000000 -0.000363039766 -0.430211893345
Zn   0.000000000000  1.774501339973  0.003080902778  0.000000000000  0.000350184251 -0.430185925203
O    1.536763157457  0.887250516310  4.277459459197  0.000000000000  0.000034967003  0.430220120875
O    0.000000000000  1.774501339973  1.846190726564  0.000000000000 -0.000052707615  0.430199037829
Zn   1.536763157457  0.887250516310  7.296887100679  0.000000000000 -0.000382323040 -0.430198266498
Zn   0.000000000000  1.774501339973  4.865618368046  0.000000000000  0.000363811097 -0.430234519053
O    1.536763157457  0.887250516310  9.139996924465  0.000000000000  0.000034709893  0.430217035551
O    0.000000000000  1.774501339973  6.708728191831  0.000000000000 -0.000049879401  0.430199809160
Zn   0.000000000000  3.549002372594  2.434349635412  0.000000000000 -0.000372552848 -0.430199809160
Zn  -1.536763157457  4.436253196257  0.003080902778  0.000000000000  0.000362268435 -0.430197495167
O    0.000000000000  3.549002372594  4.277459459197  0.000000000000  0.000046536967  0.430198009388
O   -1.536763157457  4.436253196257  1.846190726564  0.000000000000 -0.000043965864  0.430203922925
Zn   0.000000000000  3.549002372594  7.296887100679  0.000000000000 -0.000352755354 -0.430206494028
Zn  -1.536763157457  4.436253196257  4.865618368046  0.000000000000  0.000382065930 -0.430217292661
O    0.000000000000  3.549002372594  9.139996924465  0.000000000000  0.000061192255  0.430208808021
O   -1.536763157457  4.436253196257  6.708728191831  0.000000000000 -0.000027510804  0.430204694256
Zn  -1.536763157457  6.210754228878  2.434349635412  0.000000000000 -0.000360725774 -0.430213436007
Zn  -3.073526314914  7.098005052541  0.003080902778  0.000000000000  0.000361239994 -0.430204694256
O   -1.536763157457  6.210754228878  4.277459459197  0.000000000000  0.000038823658  0.430205979807
O   -3.073526314914  7.098005052541  1.846190726564  0.000000000000 -0.000042423202  0.430203151594
Zn  -1.536763157457  6.210754228878  7.296887100679  0.000000000000 -0.000360211553 -0.430209065131
Zn  -3.073526314914  7.098005052541  4.865618368046  0.000000000000  0.000375381062 -0.430191581630
O   -1.536763157457  6.210754228878  9.139996924465  0.000000000000  0.000033167231  0.430204180035
O   -3.073526314914  7.098005052541  6.708728191831  0.000000000000 -0.000036252555  0.430205979807