# total energy = -9838.995943147043 eV

CRYSTAL
PRIMVEC
6.931782212348458 0.0 0.0
-1.7329455530871145 3.0015518111156427 0.0
0.0 0.0 5.259475890054968
PRIMCOORD
8 1
Zn   1.937384605876  0.785501935343  2.544126275636 -1.952521708822 -0.705246398052  1.189287421402
Zn   0.107303988647  2.063626223527  0.031651210760 -0.337143358223  0.161499474201 -1.062036069751
O    1.561053297320  1.010452824876  4.506578978704  0.300919600004 -0.596527815098  0.800721228622
O   -0.087124184271  2.022931809693  1.938361293990 -0.177585581129 -0.766033704543  0.125724116373
Zn   5.332457159078  1.046789920412  2.571700212098 -1.469942100509 -0.865790193208  0.709176843455
Zn   3.475612930727  2.007615343717 -0.045927216226 -0.816456894190  0.095608013714  0.223806302660
O    4.936210147047  0.896868641545  4.656018498707  1.081535316126  0.107433545594 -0.415139572393
O    3.204637780017  1.914388418386  2.123707445853  3.371194469634  2.569057077390 -1.571540527479