# total energy = -29515.502979054894 eV

CRYSTAL
PRIMVEC
6.016263836897371 0.0 0.0
-4.512197877673028 7.815355342155487 0.0
0.0 0.0 5.1475755014877596
PRIMCOORD
24 1
Zn   1.504065959224  0.868373083185  2.577049167370 -0.000053221835 -0.000064277579  1.065088997644
Zn  -0.000000000000  1.736745564743  0.003261416626 -0.000008484640 -0.000073790661  1.065167416291
O    1.504065959224  0.868373083185  4.528200537853  0.000008227530 -0.000004370875 -1.065109566470
O   -0.000000000000  1.736745564743  1.954412787109  0.000013883957 -0.000004113765 -1.065140933928
Zn  -0.000000000000  3.473491731112  2.577049167370  0.000008484640  0.000047565408  1.065082055666
Zn  -1.504065959224  4.341864212670  0.003261416626  0.000019540384  0.000070705337  1.065164073857
O   -0.000000000000  3.473491731112  4.528200537853 -0.000000771331  0.000016712171 -1.065105452705
O   -1.504065959224  4.341864212670  1.954412787109  0.000010541523 -0.000009255971 -1.065133734839
Zn  -1.504065959224  6.078610379039  2.577049167370  0.000057335600  0.000050907843  1.065080513004
Zn  -3.008131918449  6.946982860597  0.003261416626 -0.000027510804 -0.000008741751  1.065147875907
O   -1.504065959224  6.078610379039  4.528200537853  0.000004885096 -0.000012598405 -1.065100053388
O   -3.008131918449  6.946982860597  1.954412787109  0.000012598405  0.000025196811 -1.065124478868
Zn   4.512197877673  0.868373083185  2.577049167370  0.000041908982 -0.000132411813  1.065066629047
Zn   3.008131918449  1.736745564743  0.003261416626  0.000024682590 -0.000072505109  1.065124735978
O    4.512197877673  0.868373083185  4.528200537853 -0.000007713309  0.000007713309 -1.065104938484
O    3.008131918449  1.736745564743  1.954412787109 -0.000010798633 -0.000005913537 -1.065135020391
Zn   3.008131918449  3.473491731112  2.577049167370 -0.000034967003  0.000072762219  1.065106481146
Zn   1.504065959224  4.341864212670  0.003261416626 -0.000012084185  0.000092302603  1.065153532334
O    3.008131918449  3.473491731112  4.528200537853  0.000001028441 -0.000003856655 -1.065126792861
O    1.504065959224  4.341864212670  1.954412787109 -0.000003342434 -0.000018511943 -1.065120622213
Zn   1.504065959224  6.078610379039  2.577049167370 -0.000067105793  0.000043451643  1.065062001061
Zn  -0.000000000000  6.946982860597  0.003261416626  0.000032653010 -0.000003599544  1.065157646099
O    1.504065959224  6.078610379039  4.528200537853 -0.000006684868 -0.000017997722 -1.065102881601
O   -0.000000000000  6.946982860597  1.954412787109 -0.000003342434  0.000004370875 -1.065097482285