# total energy = -14754.17639600929 eV

CRYSTAL
PRIMVEC
3.0081163077210396 0.0 0.0
-4.5121744615815595 7.815314784298647 0.0
0.0 0.0 4.7590535750725325
PRIMCOORD
12 1
Zn   1.398059655467  0.950897150092  2.403168776845  0.032186869145 -1.351089257334 -1.017017338948
Zn   0.007929093776  1.727864714460 -0.011678109130  0.387385285097 -1.702751120888 -0.403431539927
O    1.524094314151  0.873826202172  4.172923014948 -0.169517973630 -0.620118715044  1.187459624165
O   -0.096602947918  1.695335245520  1.760449231928 -0.299538403386  1.127604856790  0.966522672633
Zn   0.015156694828  3.449563392112  2.346929635979 -1.477109564792 -0.240131779293 -0.125298855911
Zn  -1.527295852338  4.394411821932 -0.090682674213  0.170706851732 -1.579386505886  0.154681422838
O   -0.008235320016  3.389769861017  4.210570793786 -0.292935039137  2.588937361254 -0.772260659289
O   -1.594421967744  4.389662908717  1.760220013465  1.256408640530 -1.506378231849 -0.193316875822
Zn  -1.409566602779  6.007630004425  2.440813547567 -0.931227339766  2.048640600735 -1.059571153150
Zn  -2.990289909670  6.895218037893 -0.123590864996  1.297173481153  2.631959630452  2.443214947382
O   -1.455587473359  6.125894097063  4.268938477751 -1.250767383084 -1.204657733210 -0.763971936918
O   -3.013757127421  6.981695365508  1.828783406844  1.277234576137 -0.192628848616 -0.417010307053