# total energy = -14756.905168141418 eV

CRYSTAL
PRIMVEC
3.465873114149145 0.0 0.0
-5.198809671223717 9.004601756916154 0.0
0.0 0.0 5.707066099921233
PRIMCOORD
12 1
Zn   1.722914638378  0.824221711387  2.584162618830 -0.341873673819  4.346962829234  1.006779206160
Zn   0.180235452968  1.950595121580  0.019434536900 -0.545244591443  0.938940392139 -0.352567406087
O    1.669668083138  0.947342001545  5.006077319568  0.788718290624 -0.904233070565  0.307235000699
O    0.261214885105  2.208926053667  2.027650838765 -0.201936756280 -0.732020837932  0.339279173619
Zn   0.146137153509  4.312106239097  2.690864028285 -2.134801867214 -2.500158711757  1.571458252178
Zn  -1.813950647943  5.141507697853  0.201400846901 -0.042047049769 -0.987370719726 -1.668639781027
O    0.056307614374  3.976328985925  5.027685305498 -0.015454386882  0.888542142192  0.489671739273
O   -1.800770625665  5.177032550686  2.286723467698  2.357698770686  1.145012767854 -1.462294354156
Zn  -1.730026956595  7.096897854886  2.899777848335 -0.004796392947  0.083422270281 -0.326557355177
Zn  -3.372894829290  7.997807207733  0.106048785547 -0.072232572213  0.683023324988 -1.313848627815
O   -1.896110556463  6.998221674628  4.759149110027  0.047102095694 -0.060913290546  3.203432559463
O   -3.486645478071  8.082207110047  2.365386310246  0.164868133563 -2.901207096163 -1.793948664240