# total energy = -29516.787619643488 eV

CRYSTAL
PRIMVEC
3.465891106174229 0.0 0.0
-5.198836659261343 9.004648501564716 0.0
0.0 0.0 11.861804357414927
PRIMCOORD
24 1
Zn   1.732945553087  1.000516461664  2.969208461902  0.000000000000  0.000252996551 -0.117489130058
Zn  -0.000000000000  2.001033269917  0.003757719137  0.000000000000 -0.000199260495 -0.117657537315
O    1.732945553087  1.000516461664  5.217274160179  0.000000000000  0.000271765604  0.117566520263
O   -0.000000000000  2.001033269917  2.251823417414  0.000000000000 -0.000259167199  0.117561120947
Zn   1.732945553087  1.000516461664  8.900110294020  0.000000000000  0.000264566515 -0.117651366668
Zn  -0.000000000000  2.001033269917  5.934659551256  0.000000000000 -0.000211087570 -0.117567291594
O    1.732945553087  1.000516461664  11.148175992297  0.000000000000  0.000260195640  0.117614599892
O   -0.000000000000  2.001033269917  8.182725249533  0.000000000000 -0.000264309405  0.117590688633
Zn   0.000000000000  4.002066193245  2.969208461902  0.000000000000  0.000237569932 -0.117490672720
Zn  -1.732945553087  5.002583001498  0.003757719137  0.000000000000 -0.000268166060 -0.117597116391
O    0.000000000000  4.002066193245  5.217274160179  0.000000000000  0.000286420892  0.117572690911
O   -1.732945553087  5.002583001498  2.251823417414  0.000000000000 -0.000272536935  0.117580404220
Zn   0.000000000000  4.002066193245  8.900110294020  0.000000000000  0.000161208168 -0.117643653358
Zn  -1.732945553087  5.002583001498  5.934659551256  0.000000000000 -0.000301847511 -0.117590431523
O    0.000000000000  4.002066193245  11.148175992297  0.000000000000  0.000291820209  0.117602772818
O   -1.732945553087  5.002583001498  8.182725249533  0.000000000000 -0.000261481192  0.117589403081
Zn  -1.732945553087  7.003615924826  2.969208461902  0.000000000000  0.000210316239 -0.117515869531
Zn  -3.465891106174  8.004132733079  0.003757719137  0.000000000000 -0.000220857762 -0.117605086811
O   -1.732945553087  7.003615924826  5.217274160179  0.000000000000  0.000252996551  0.117555978740
O   -3.465891106174  8.004132733079  2.251823417414  0.000000000000 -0.000281535796  0.117587860420
Zn  -1.732945553087  7.003615924826  8.900110294020  0.000000000000  0.000261995412 -0.117629512291
Zn  -3.465891106174  8.004132733079  5.934659551256  0.000000000000 -0.000186662090 -0.117576290455
O   -1.732945553087  7.003615924826  11.148175992297  0.000000000000  0.000261481192  0.117588374640
O   -3.465891106174  8.004132733079  8.182725249533  0.000000000000 -0.000286678002  0.117604058369