# total energy = -4916.5994019026975 eV

CRYSTAL
PRIMVEC
2.9427380511605845 0.0 0.0
-1.4713690255802923 2.5484847207563455 0.0
0.0 0.0 4.560608347879856
PRIMCOORD
4 1
Zn   1.471369025580  0.849495201193  2.283193648432  0.000000000000  0.000000000000 -1.543986529120
Zn  -0.000000000000  1.698990696659  0.002889474492  0.000000000000  0.000000000000 -1.543986529120
O    1.471369025580  0.849495201193  4.011859798421  0.000000000000  0.000000000000  1.543986529120
O   -0.000000000000  1.698990696659  1.731555330207  0.000000000000 -0.000000000000  1.543986529120