# total energy = -29520.691018916154 eV

CRYSTAL
PRIMVEC
3.2697087105441125 0.0 0.0
-4.904563065816169 8.494951727855605 0.0
0.0 0.0 9.92354631824912
PRIMCOORD
24 1
Zn   1.634854355272  0.943883488987  2.484030077517  0.000000000000 -0.000383608592 -0.841282437874
Zn  -0.000000000000  1.887767304945  0.003143824925  0.000000000000  0.000503679109 -0.841273439013
O    1.634854355272  0.943883488987  4.364754429899  0.000000000000  0.000037538106  0.841351343439
O   -0.000000000000  1.887767304945  1.883868177308  0.000000000000 -0.000054507387  0.841302235369
Zn   1.634854355272  0.943883488987  7.445802582699  0.000000000000 -0.000692140971 -0.841476299053
Zn  -0.000000000000  1.887767304945  4.964916330108  0.000000000000  0.000436573317 -0.841078806504
O    1.634854355272  0.943883488987  9.326526935082  0.000000000000  0.000015426619  0.841381168236
O   -0.000000000000  1.887767304945  6.845640682491  0.000000000000 -0.000043708754  0.841326146628
Zn   0.000000000000  3.775534282920  2.484030077517  0.000000000000 -0.000481824732 -0.841522578910
Zn  -1.634854355272  4.719418098878  0.003143824925  0.000000000000  0.000462027238 -0.841455730227
O    0.000000000000  3.775534282920  4.364754429899  0.000000000000  0.000030339017  0.841316633546
O   -1.634854355272  4.719418098878  1.883868177308  0.000000000000 -0.000044480085  0.841309177347
Zn   0.000000000000  3.775534282920  7.445802582699  0.000000000000 -0.000212373121 -0.841375768919
Zn  -1.634854355272  4.719418098878  4.964916330108  0.000000000000  0.000529133031 -0.840836608586
O    0.000000000000  3.775534282920  9.326526935082  0.000000000000  0.000032653010  0.841335402599
O   -1.634854355272  4.719418098878  6.845640682491  0.000000000000 -0.000079189977  0.841329231952
Zn  -1.634854355272  6.607185076852  2.484030077517  0.000000000000 -0.000514477743 -0.841548289941
Zn  -3.269708710544  7.551068892810  0.003143824925  0.000000000000  0.000426803125 -0.841478613045
O   -1.634854355272  6.607185076852  4.364754429899  0.000000000000  0.000038052327  0.841297864493
O   -3.269708710544  7.551068892810  1.883868177308  0.000000000000 -0.000053478946  0.841328460621
Zn  -1.634854355272  6.607185076852  7.445802582699  0.000000000000 -0.000565899806 -0.841508694952
Zn  -3.269708710544  7.551068892810  4.964916330108  0.000000000000  0.000636090922 -0.841095775785
O   -1.634854355272  6.607185076852  9.326526935082  0.000000000000  0.000061192255  0.841307377575
O   -3.269708710544  7.551068892810  6.845640682491  0.000000000000 -0.000084075073  0.841349029446