# total energy = -9838.783480063244 eV

CRYSTAL
PRIMVEC
7.193359269032489 0.0 0.0
-1.7983398172581222 3.114818077161565 0.0
0.0 0.0 5.5740765506991234
PRIMCOORD
8 1
Zn   1.798339817258  1.038272212830  2.790570214751 -0.000992445820 -0.000573098895  0.018657210090
Zn  -0.000000000000  2.076543706324  0.003531939401 -0.000503936220 -0.000290791768  0.018589590077
O    1.798339817258  1.038272212830  4.903383557845 -0.000114928311 -0.000066334462 -0.018600131600
O   -0.000000000000  2.076543706324  2.116345282495  0.000083560853  0.000048336739 -0.018600902931
Zn   5.395019451774  1.038272212830  2.790570214751  0.001079349107  0.000623235406  0.019098668503
Zn   3.596679634516  2.076543706324  0.003531939401  0.000487481159  0.000281535796  0.018048887082
O    5.395019451774  1.038272212830  4.903383557845 -0.000136525578 -0.000078675757 -0.018622500197
O    3.596679634516  2.076543706324  2.116345282495  0.000097444810  0.000056307159 -0.018570821024