# total energy = -19679.87967917907 eV

CRYSTAL
PRIMVEC
6.670205684841636 0.0 0.0
-3.335102842420818 5.7765648782149785 0.0
0.0 0.0 4.84564429201574
PRIMCOORD
16 1
Zn   1.667551421210  0.962761480056  2.425893108705 -0.000179720111 -0.000103615457 -1.542059744411
Zn  -0.000000000000  1.925522293092  0.003070295677  0.000000000000  0.000214687114 -1.541812661397
O    1.667551421210  0.962761480056  4.262600279063  0.000027767914  0.000016197950  1.541923475944
O   -0.000000000000  1.925522293092  1.839777466034  0.000000000000 -0.000026739473  1.541871539660
Zn   0.000000000000  3.851045253205  2.425893108705  0.000000000000  0.000000000000 -1.541789007248
Zn  -1.667551421210  4.813806066241  0.003070295677  0.000185890759 -0.000107472112 -1.541812661397
O    0.000000000000  3.851045253205  4.262600279063  0.000000000000 -0.000000000000  1.541899050464
O   -1.667551421210  4.813806066241  1.839777466034 -0.000023139928  0.000013369736  1.541871539660
Zn   5.002654263631  0.962761480056  2.425893108705  0.000179720111 -0.000103615457 -1.542059744411
Zn   3.335102842421  1.925522293092  0.003070295677  0.000000000000  0.000000000000 -1.541787978807
O    5.002654263631  0.962761480056  4.262600279063 -0.000027767914  0.000016197950  1.541923475944
O    3.335102842421  1.925522293092  1.839777466034  0.000000000000  0.000000000000  1.541910106207
Zn   3.335102842421  3.851045253205  2.425893108705  0.000000000000  0.000207488025 -1.542059744411
Zn   1.667551421210  4.813806066241  0.003070295677 -0.000185890759 -0.000107472112 -1.541812661397
O    3.335102842421  3.851045253205  4.262600279063  0.000000000000 -0.000032138790  1.541923475944
O    1.667551421210  4.813806066241  1.839777466034  0.000023139928  0.000013369736  1.541871539660