# total energy = -9839.888439530352 eV

CRYSTAL
PRIMVEC
3.138920446790701 0.0 0.0
-1.5694602233953505 2.718383579931917 0.0
0.0 0.0 11.148152191776493
PRIMCOORD
8 1
Zn   1.607340715347  0.932178074657  2.778160239244 -0.817607719965  0.243822340770  0.981883728470
Zn  -0.106400614169  1.854602267918 -0.007766003077  1.534585804632  0.405172690988  0.865129419695
O    1.553281599629  0.950895143389  4.958421422921  0.643194108806 -1.042865924580 -1.145016881619
O   -0.067397016481  1.884346364180  2.086534274703  0.829862626073 -0.268942275767 -0.546135478688
Zn   1.532776287918  0.898527591899  8.349510810509  0.138870681058 -0.466204509389  0.865481403718
Zn   0.024560169144  1.710301072706  5.646597399999 -0.648484924891  1.030926492830  0.345834458239
O    1.624466037521  0.933320641700  10.463522567019 -1.606686479253 -0.439815477873 -0.970274426366
O   -0.027530215671  1.749787750251  7.689481846969 -0.073734096459  0.537906920131 -0.396901966339