# total energy = -9833.200540299857 eV

CRYSTAL
PRIMVEC
5.88547557314396 0.0 0.0
-1.47136889328599 2.5484874343537856 0.0
0.0 0.0 4.5606079378246696
PRIMCOORD
8 1
Zn   1.471368893286  0.849495419086  2.283193737419  0.000331672308  0.000191547186 -1.544801054602
Zn  -0.000000000000  1.698990249625  0.002889768506 -0.000438373089 -0.000253253661 -1.544923953333
O    1.471368893286  0.849495419086  4.011859143431 -0.000053221835 -0.000030853238  1.544847334459
O   -0.000000000000  1.698990249625  1.731555174519  0.000036766775  0.000021340156  1.544890528992
Zn   4.414106679858  0.849495419086  2.283193737419  0.000471540320  0.000272279825 -1.544876387924
Zn   2.942737786572  1.698990249625  0.002889768506 -0.000389779239 -0.000224971527 -1.544870731497
O    4.414106679858  0.849495419086  4.011859143431 -0.000030339017 -0.000017483501  1.544864303739
O    2.942737786572  1.698990249625  1.731555174519  0.000072247999  0.000041651871  1.544869960166