# total energy = -19679.791555656648 eV

CRYSTAL
PRIMVEC
3.138920446790701 0.0 0.0
-3.138920446790701 5.436770298784281 0.0
0.0 0.0 10.945459542845429
PRIMCOORD
16 1
Zn   1.500328011691  0.869434507738  2.800043850923  0.973104439615  0.082831687885  0.414950082090
Zn   0.000203402045  1.763517702177 -0.018153318620  0.850486472971  0.626368809718  0.514383897308
O    1.641408046740  0.864560078177  4.874247190543 -0.516191897051  0.567535284520 -0.826289564010
O    0.054914785433  1.794173340937  2.022764908582 -0.929583119294 -0.025555479872  0.049052791663
Zn   1.611182753974  0.971219653282  8.151094312902 -0.693868238122 -1.123803737877  1.026772618563
Zn   0.001564751843  1.924000346184  5.531783223464  0.367596275396 -2.247126165242  0.291375407959
O    1.649770130811  0.861902982018  10.263521856263 -0.853322656868  0.217848799525 -0.923008037180
O   -0.006795134983  1.787462329022  7.493253176914  0.758745655522  0.552626228619 -0.150747120780
Zn   0.057233192075  3.658633074626  2.721602542850 -1.081696524294 -1.251785797046  0.848075806647
Zn  -1.518336626078  4.523378663001  0.013905731471  0.315361486461 -0.417970871194  0.250433675439
O   -0.010616142843  3.609400362986  4.880483283795 -0.475591349921  0.877441918514 -1.809272439081
O   -1.571408237425  4.440491388007  2.082189067129  1.110807325617  1.249243747351 -0.670671231180
Zn   0.022515790257  3.658657558206  8.176439839942 -0.350059294954 -0.612610579592  1.224342870344
Zn  -1.622942405536  4.485595163691  5.447860104723  0.612038509139  0.797570084588  1.206727728366
O    0.090868608014  3.621596638382  10.252221428763 -0.462781085530 -0.412583381630 -0.232896180776
O   -1.568393304335  4.473480814119  7.593651233512  0.374953487092  1.119969451732 -1.213230048260