# total energy = -39360.15735273884 eV

CRYSTAL
PRIMVEC
6.931782212348458 0.0 0.0
-3.465891106174229 6.003096690449074 0.0
0.0 0.0 10.742765164182243
PRIMCOORD
32 1
Zn   1.732945553087  1.000516808253  2.689094796112 -0.000361754215 -0.000208773577 -0.129052152305
Zn  -0.000000000000  2.001032923328  0.003403505066  0.000000000000 -0.000181776994 -0.129749692593
O    1.732945553087  1.000516808253  4.725078458533  0.000006170648  0.000003599544  0.129625251200
O   -0.000000000000  2.001032923328  2.039387167487  0.000000000000 -0.000004370875  0.129593883741
Zn   1.732945553087  1.000516808253  8.060477378203 -0.000399035211 -0.000230370843 -0.129901387680
Zn  -0.000000000000  2.001032923328  5.374786087157  0.000000000000 -0.000118784966 -0.129457358164
O    1.732945553087  1.000516808253  10.096461040624  0.000004370875  0.000002571103  0.129573572026
O   -0.000000000000  2.001032923328  7.410769749578  0.000000000000 -0.000000514221  0.129615995229
Zn   0.000000000000  4.002066539834  2.689094796112  0.000000000000  0.000000000000 -0.129157824645
Zn  -1.732945553087  5.002582654909  0.003403505066 -0.000157351513  0.000090759942 -0.129749692593
O    0.000000000000  4.002066539834  4.725078458533  0.000000000000  0.000000000000  0.129620623214
O   -1.732945553087  5.002582654909  2.039387167487 -0.000003856655  0.000002313993  0.129593883741
Zn   0.000000000000  4.002066539834  8.060477378203  0.000000000000  0.000000000000 -0.130183437696
Zn  -1.732945553087  5.002582654909  5.374786087157 -0.000102844126  0.000059392483 -0.129457358164
O    0.000000000000  4.002066539834  10.096461040624  0.000000000000  0.000000000000  0.129579999784
O   -1.732945553087  5.002582654909  7.410769749578 -0.000000257110  0.000000257110  0.129615995229
Zn   5.198836659261  1.000516808253  2.689094796112  0.000361754215 -0.000208773577 -0.129052152305
Zn   3.465891106174  2.001032923328  0.003403505066  0.000000000000  0.000000000000 -0.129988548077
O    5.198836659261  1.000516808253  4.725078458533 -0.000006170648  0.000003599544  0.129625251200
O    3.465891106174  2.001032923328  2.039387167487  0.000000000000 -0.000000000000  0.129599025948
Zn   5.198836659261  1.000516808253  8.060477378203  0.000399035211 -0.000230370843 -0.129901387680
Zn   3.465891106174  2.001032923328  5.374786087157  0.000000000000  0.000000000000 -0.129834796108
O    5.198836659261  1.000516808253  10.096461040624 -0.000004370875  0.000002571103  0.129573572026
O    3.465891106174  2.001032923328  7.410769749578  0.000000000000 -0.000000000000  0.129620880325
Zn   3.465891106174  4.002066539834  2.689094796112  0.000000000000  0.000417547153 -0.129052152305
Zn   1.732945553087  5.002582654909  0.003403505066  0.000157351513  0.000090759942 -0.129749692593
O    3.465891106174  4.002066539834  4.725078458533 -0.000000000000 -0.000006941979  0.129625251200
O    1.732945553087  5.002582654909  2.039387167487  0.000003856655  0.000002313993  0.129593883741
Zn   3.465891106174  4.002066539834  8.060477378203 -0.000000000000  0.000460741687 -0.129901387680
Zn   1.732945553087  5.002582654909  5.374786087157  0.000102844126  0.000059392483 -0.129457358164
O    3.465891106174  4.002066539834  10.096461040624 -0.000000000000 -0.000005142206  0.129573572026
O    1.732945553087  5.002582654909  7.410769749578  0.000000257110  0.000000257110  0.129615995229