# total energy = -14759.531230088807 eV

CRYSTAL
PRIMVEC
9.61294373600222 0.0 0.0
-1.6021604936482823 2.775016532990441 0.0
0.0 0.0 5.690199398595531
PRIMCOORD
12 1
Zn   1.735608339886  0.980249176059  2.858638569256 -2.015271795466 -0.635220603682  1.005963909347
Zn  -0.089823346269  1.734789317080  0.055937719600  1.514859272737  0.919826297017  0.082730900641
O    1.668181229933  0.877493536582  4.938920929384 -0.224526725766  0.142553015005  0.369915410447
O   -0.079125101185  1.918910834927  2.180772228768  1.188041979031 -0.150002272194 -0.721196236513
Zn   4.773278373281  1.010382870788  2.769789014187  0.637943916150 -1.087353722580  0.931417858510
Zn   3.285385980528  1.792335282166  0.011015472227 -1.497996692654  0.320490580157  0.153313595956
O    4.836229696630  0.968862644204  5.067766098161 -0.801483817820 -1.657266763303 -1.247177865961
O    3.223184466790  1.778577237091  2.127391552202  0.092566655785  1.672272235573 -0.920773491422
Zn   7.999826409084  0.977253782791  2.719906487846  0.170709422835 -0.531870484128  1.013317007278
Zn   6.355703493439  1.743601502602 -0.036550334673  2.045555019831  1.029352463475  0.498942623052
O    8.054377942197  0.865206271898  5.013266474944 -1.136628400445 -0.447896455109 -0.330029887106
O    6.375748403717  1.833526746075  2.233548251173  0.026231165782  0.425115709769 -0.836424081341