# total energy = -9838.792867854621 eV

CRYSTAL
PRIMVEC
3.531285238050934 0.0 0.0
-3.531285238050934 6.116366127851358 0.0
0.0 0.0 5.70075857432943
PRIMCOORD
8 1
Zn   1.715434805511  0.940754515743  2.896976714652  0.058814241925  0.388391614875 -0.207387237872
Zn   0.006337950745  1.998869177601 -0.109387563434 -0.046159786386  0.696718563087  0.275778324852
O    1.751850831400  1.091107106709  5.093119729562  0.190314855771 -0.552079354976 -0.149913312025
O    0.044777049947  2.080365943967  2.310538293940 -0.207156352808 -0.826442544648 -0.244237316821
Zn  -0.009963521299  4.040903373437  2.790178289555 -0.066702900644 -0.082803919971  0.405797469056
Zn  -1.760561452696  5.157400774136 -0.003735393525 -0.018638955257 -0.560019692869 -0.033167745001
O    0.066530826399  4.092027202343  5.007959607890 -0.254149433728  0.188489115416  0.346763654921
O   -1.820446753406  5.008289783060  2.254677245888  0.343678074018  0.747746476198 -0.393633837110