# total energy = -9838.935687619181 eV

CRYSTAL
PRIMVEC
3.0735263149139955 0.0 0.0
-1.5367631574569978 2.6617506268733933 0.0
0.0 0.0 10.915899177732769
PRIMCOORD
8 1
Zn   1.599586650039  0.989159120981  2.680329478742 -2.464853351587 -1.495801741885  1.359390321001
Zn   0.072047452406  1.806480766575  0.035505375990 -1.234150857573  0.273340147724  0.060967540822
O    1.503455660135  0.823174561755  4.861036662368 -0.541131854826 -0.797635904829 -1.917157470391
O   -0.080785795072  1.791517303711  2.005047470913  2.432137092301  1.405935001530 -0.012205798038
Zn   1.551473361753  0.882245893412  8.159712610718 -0.394915274926 -0.346605017856  1.417240142130
Zn  -0.058574342452  1.654447865350  5.348707243055  0.593180753002  0.938192715340  2.085244368001
O    1.518431417104  0.921423825995  10.342603842143  1.249996309246 -0.313462212556 -1.442716174914
O   -0.008804730834  1.745603430855  7.588139064570  0.359736927253  0.336037012532 -1.550762671502