# total energy = -14757.05328147254 eV

CRYSTAL
PRIMVEC
3.465873114149145 0.0 0.0
-5.198809671223717 9.004601756916154 0.0
0.0 0.0 6.154676680867367
PRIMCOORD
12 1
Zn   1.799806766352  1.083937606370  3.094846891644 -0.288875010135 -0.582246879698  0.036535633032
Zn  -0.065060330337  1.995280277053  0.035464200053  0.085388649979  0.332931377024 -0.808481332184
O    1.656195541168  1.043470071890  5.279067161992  0.254688851171  0.096828516385  0.824926365114
O   -0.039512686438  2.055941374646  2.318274350418  0.072749621059 -0.333185402016 -0.163795983544
Zn  -0.122838514674  3.920548877438  3.092653687138  0.162738231704  0.961941481020  0.127944778174
Zn  -1.751545176412  5.075536189474  0.070853883834 -0.045532951435  0.067823130292 -0.647474738459
O    0.034231388987  4.073040362715  5.278554905945 -0.287053897766 -0.332995397493  0.828943713803
O   -1.830546981350  5.069975196063  2.347079915044  0.252782635288 -0.633148551644 -0.191126553039
Zn  -1.707088075389  6.972330562703  3.067167735780 -0.078986345997  0.199829480129 -0.075983040395
Zn  -3.379289711773  8.063937799688  0.057791008067 -0.233225281981 -0.381607244963 -0.493899404201
O   -1.752398127785  7.060036907968  5.384365932596  0.141591679533  0.003362488714  0.601486444654
O   -3.438453552181  7.956807315142  2.340961955823 -0.036266695642  0.600467259361 -0.039075882956