# total energy = -14760.624543899963 eV

CRYSTAL
PRIMVEC
3.4004969742975235 0.0 0.0
-1.7002484871487618 2.944915392166013 0.0
0.0 0.0 15.480731871016706
PRIMCOORD
12 1
Zn   1.700248487149  0.981638804105  2.583391216294  0.000000000000  0.000000000000 -0.439585364140
Zn  -0.000000000000  1.963277948260  0.003269577841  0.000000000000  0.000000000000 -0.439675352750
O    1.700248487149  0.981638804105  4.539344494071  0.000000000000  0.000000000000  0.439805450570
O   -0.000000000000  1.963277948260  1.959222855618  0.000000000000  0.000000000000  0.439810592777
Zn   1.700248487149  0.981638804105  7.743634493200  0.000000000000 -0.000000000000 -0.440082872602
Zn  -0.000000000000  1.963277948260  5.163512854747  0.000000000000  0.000000000000 -0.439827562058
O    1.700248487149  0.981638804105  9.699587770977  0.000000000000  0.000000000000  0.439805964791
O   -0.000000000000  1.963277948260  7.119466132524  0.000000000000  0.000000000000  0.439800565474
Zn   1.700248487149  0.981638804105  12.903878110156  0.000000000000  0.000000000000 -0.439708262871
Zn  -0.000000000000  1.963277948260  10.323756471703  0.000000000000  0.000000000000 -0.439974372048
O    1.700248487149  0.981638804105  14.859831387933  0.000000000000  0.000000000000  0.439809564335
O   -0.000000000000  1.963277948260  12.279709749480  0.000000000000  0.000000000000  0.439821648520