# total energy = -14760.454896976276 eV

CRYSTAL
PRIMVEC
3.2042976449967395 0.0 0.0
-4.8064464674951095 8.325008808322549 0.0
0.0 0.0 5.48325821607132
PRIMCOORD
12 1
Zn   1.495742108452  0.858718444164  2.786503694405  0.316766851449  0.626961706107 -0.207515278809
Zn   0.072548823410  1.843964989435  0.035340519156 -0.573932960516 -0.142156036677  0.199761860116
O    1.599637934864  0.936036223759  4.781047281782  0.481362190966 -0.141974516794 -0.120656729153
O   -0.044866896055  1.842350023422  2.009332061868 -0.135066219710 -0.191248937549  0.449296677890
Zn   0.038939586271  3.678528249150  2.750651769344 -0.062635158333  0.221140840013  0.087603655353
Zn  -1.622300970818  4.585198366712  0.009658073532  0.409970369487  0.069513887730  0.276422386194
O    0.026780878857  3.654305040673  4.834232214094 -0.372945455523  0.278667216364 -0.836668079031
O   -1.562419697287  4.669314704620  2.014751170046 -0.046226635068 -0.693170440724  0.433321385508
Zn  -1.663301881764  6.489642231188  2.716836175437  1.073727647156 -0.603379805022  0.661029594325
Zn  -3.178156343949  7.409413440101 -0.097023889682 -0.072056451647 -0.126100011656  0.745233737078
O   -1.582844851766  6.441514000990  4.890335620701  0.036818454380  0.137961538980 -0.753494691535
O   -3.181582378991  7.364111720855  2.150394216235 -1.055782375531  0.563784559228 -0.934334260826