# total energy = -14748.356093249242 eV

CRYSTAL
PRIMVEC
3.00813218303729 0.0 0.0
-1.504066091518645 2.605117673814869 0.0
0.0 0.0 13.111750299193083
PRIMCOORD
12 1
Zn   1.504066091519  0.868372858752  2.188060601936  0.000000000000  0.000000000000 -4.603629887178
Zn  -0.000000000000  1.736746018316  0.002769286488  0.000000000000  0.000000000000 -4.603460194369
O    1.504066091519  0.868372858752  3.844698856965  0.000000000000  0.000000000000  4.603638886039
O   -0.000000000000  1.736746018316  1.659407240704  0.000000000000  0.000000000000  4.603751757468
Zn   1.504066091519  0.868372858752  6.558643533645  0.000000000000  0.000000000000 -4.603412886071
Zn  -0.000000000000  1.736746018316  4.373352218197  0.000000000000  0.000000000000 -4.603865657338
O    1.504066091519  0.868372858752  8.215281788674  0.000000000000  0.000000000000  4.603758442336
O   -0.000000000000  1.736746018316  6.029990172413  0.000000000000  0.000000000000  4.603507502668
Zn   1.504066091519  0.868372858752  10.929226766167  0.000000000000  0.000000000000 -4.603822462805
Zn  -0.000000000000  1.736746018316  8.743935149906  0.000000000000  0.000000000000 -4.603619859876
O    1.504066091519  0.868372858752  12.585864720383  0.000000000000  0.000000000000  4.603502874682
O   -0.000000000000  1.736746018316  10.400573404935  0.000000000000  0.000000000000  4.603651227334