# total energy = -29520.602897570643 eV

CRYSTAL
PRIMVEC
6.277840893581402 0.0 0.0
-4.7083806701860516 8.155153878716197 0.0
0.0 0.0 5.5740760958882465
PRIMCOORD
24 1
Zn   1.569460223395  0.906128487761  2.790569961231 -0.000111328767 -0.000026996583  0.636777663757
Zn  -0.000000000000  1.812256347739  0.003531913287  0.000238084153  0.000127269606  0.636686646705
O    1.569460223395  0.906128487761  4.903383591807  0.000006170648  0.000005399317 -0.636651936812
O   -0.000000000000  1.812256347739  2.116345543862  0.000008741751  0.000000771331 -0.636617741140
Zn  -0.000000000000  3.624513323261  2.790569961231  0.000038309437  0.000029053466  0.636649365709
Zn  -1.569460223395  4.530641183239  0.003531913287  0.000146552880  0.000017740612  0.636841941336
O   -0.000000000000  3.624513323261  4.903383591807 -0.000008484640 -0.000019026163 -0.636656307687
O   -1.569460223395  4.530641183239  2.116345543862  0.000004885096 -0.000012598405 -0.636629311104
Zn  -1.569460223395  6.342898158762  2.790569961231  0.000154523300 -0.000009255971  0.636515668344
Zn  -3.138920446791  7.249026018739  0.003531913287 -0.000222657534  0.000069934006  0.636544978920
O   -1.569460223395  6.342898158762  4.903383591807  0.000004627986 -0.000003856655 -0.636658107460
O   -3.138920446791  7.249026018739  2.116345543862  0.000012341295 -0.000006170648 -0.636638052855
Zn   4.708380670186  0.906128487761  2.790569961231  0.000129583599 -0.000205174032  0.636612856044
Zn   3.138920446791  1.812256347739  0.003531913287 -0.000245026131 -0.000030081907  0.636550635347
O    4.708380670186  0.906128487761  4.903383591807 -0.000014398178 -0.000004370875 -0.636655279246
O    3.138920446791  1.812256347739  2.116345543862  0.000005399317 -0.000001028441 -0.636646794606
Zn   3.138920446791  3.624513323261  2.790569961231  0.000011055744  0.000131126261  0.636674562520
Zn   1.569460223395  4.530641183239  0.003531913287 -0.000222657534  0.000133954475  0.636502812829
O    3.138920446791  3.624513323261  4.903383591807  0.000008484640 -0.000021597267 -0.636660421452
O    1.569460223395  4.530641183239  2.116345543862  0.000004113765 -0.000015940840 -0.636632396428
Zn   1.569460223395  6.342898158762  2.790569961231 -0.000109271884  0.000043451643  0.636714157508
Zn  -0.000000000000  7.249026018739  0.003531913287  0.000167121705 -0.000197460723  0.636644480613
O    1.569460223395  6.342898158762  4.903383591807 -0.000001799772 -0.000006941979 -0.636637281524
O   -0.000000000000  7.249026018739  2.116345543862 -0.000004370875  0.000001542662 -0.636632396428