# total energy = -14759.027638667649 eV

CRYSTAL
PRIMVEC
10.20149092289257 0.0 0.0
-1.700251887645736 2.9449153921660125 0.0
0.0 0.0 5.928790278166552
PRIMCOORD
12 1
Zn   1.700248827198  0.981638464055  2.968151328041  0.000052193394  0.000030081907 -0.099586538746
Zn  -0.000000000000  1.963277948260  0.003756188958  0.000408548292  0.000235770160 -0.099201644603
O    1.700248827198  0.981638464055  5.215417360463 -0.000217001107 -0.000125212724  0.099415303276
O   -0.000000000000  1.963277948260  2.251022221380  0.000226257078  0.000130612041  0.099388306692
Zn   5.100745461446  0.981638464055  2.968151328041 -0.000259938530 -0.000150152425 -0.099275692374
Zn   3.400496634248  1.963277948260  0.003756188958  0.000033424341  0.000019283274 -0.099504777666
O    5.100745461446  0.981638464055  5.215417360463 -0.000231656395 -0.000133697364  0.099407589966
O    3.400496634248  1.963277948260  2.251022221380  0.000212373121  0.000122641621  0.099394477340
Zn   8.501242095694  0.981638464055  2.968151328041 -0.000236541491 -0.000136525578 -0.099365938095
Zn   6.800994288645  1.963277948260  0.003756188958  0.000027510804  0.000015940840 -0.099461068912
O    8.501242095694  0.981638464055  5.215417360463 -0.000239883925 -0.000138582460  0.099392420457
O    6.800994288645  1.963277948260  2.251022221380  0.000224714416  0.000129840710  0.099397562664