# total energy = -9839.749177518177 eV

CRYSTAL
PRIMVEC
6.147052100650782 0.0 0.0
-1.5367630251626956 2.661753471259097 0.0
0.0 0.0 5.457949119011528
PRIMCOORD
8 1
Zn   1.536763025163  0.887250747283  2.732432891018  0.000168664367  0.000097444810  0.961689512910
Zn  -0.000000000000  1.774500879861  0.003458331512 -0.000106700781 -0.000061449366  0.961780015741
O    1.536763025163  0.887250747283  4.801229422544 -0.000086646177 -0.000050136512 -0.961734250105
O   -0.000000000000  1.774500879861  2.072254863038  0.000055021608  0.000031881679 -0.961741192084
Zn   4.610289075488  0.887250747283  2.732432891018  0.000103101237  0.000059649593  0.961643233053
Zn   3.073526050325  1.774500879861  0.003458331512 -0.000122127400 -0.000070448227  0.961833237577
O    4.610289075488  0.887250747283  4.801229422544 -0.000071733778 -0.000041394761 -0.961712395728
O    3.073526050325  1.774500879861  2.072254863038  0.000060420924  0.000034709893 -0.961758161365