# total energy = -19676.973696855166 eV

CRYSTAL
PRIMVEC
3.00813218303729 0.0 0.0
-3.00813218303729 5.210238355761922 0.0
0.0 0.0 10.683646163689044
PRIMCOORD
16 1
Zn   1.446190831570  0.984907899522  2.732120713769  1.897788321835 -2.392641091089  1.926033689834
Zn  -0.010886129557  1.758477066020  0.068120958164  0.120105741745 -0.634918756171  0.071924811165
O    1.592870064134  0.920279984449  4.754451582026 -2.012412214530 -0.485259469138 -2.140356478484
O    0.024661269263  1.729438362804  2.061111708360 -1.782350932100 -0.511518402835 -2.876754105327
Zn   1.526154204512  0.745305057319  8.021005181391  0.127768657607  2.401383870278  1.641428253609
Zn  -0.012100211706  1.722269081372  5.422988203594  1.953646823566  1.546028242141  2.038538736414
O    1.505243173642  0.947835076872  9.899544924792 -0.098311785799 -0.624869085244  1.328031347074
O    0.022485487255  1.690437628238  7.459061122102 -0.094547433660  0.740249653600 -1.997862598851
Zn  -0.036849017616  3.354955083894  2.728136743506  0.069361421313  3.776987824925  0.547456254382
Zn  -1.481549620502  4.298586897667  0.029468264491 -0.087251928440  1.853538607988  1.001405600553
O    0.013109440054  3.513412357207  4.646045416853 -0.954289620902 -0.847491394898 -0.490624075884
O   -1.496391443880  4.438091133348  1.964845763052 -0.151615639428 -0.881831820052  0.394373286380
Zn   0.106566090716  3.444558016417  8.060045924115 -1.081528374147 -0.140266532964  0.778602285236
Zn  -1.564183914010  4.375107463326  5.346214954832  0.964360374874 -0.234443727769  1.148809258782
O    0.018086996377  3.515175122666  10.029622576651  0.058284594674 -0.580081753726 -1.316062090527
O   -1.501068186985  4.372942510593  7.322810181377  1.070991736282 -2.984865907936 -2.054943660135