# total energy = -14760.397519188315 eV

CRYSTAL
PRIMVEC
3.4004969742975235 0.0 0.0
-1.7002484871487618 2.944915392166013 0.0
0.0 0.0 15.810107408444141
PRIMCOORD
12 1
Zn   1.733737261451  1.048128721443  2.592942192146 -0.066428306827 -0.375348665648  0.545655196617
Zn  -0.037637040561  1.977486584817  0.001510160706 -0.164541089241 -0.050537603738 -0.541517006079
O    1.632081784752  1.016129024766  4.687922408369  0.590623276688 -0.372353587575 -1.028776279256
O    0.031719835776  1.915148674284  1.976760918763 -0.102791933057  0.394220562852  0.261663225607
Zn   1.714135436692  0.938396384331  7.934440118975 -0.039789364083  0.269379363304 -1.319443605405
Zn   0.000431863116  1.931941008443  5.209126441061 -0.467730459115  0.380811488535  0.761223941859
O    1.747565722447  0.953133118069  9.841600685817 -0.073712499193  0.072611552819  1.485914564678
O   -0.002180738710  1.988179447553  7.255816879852  0.024487957839 -0.307238857354  0.068875739926
Zn   1.691337484828  1.006303968858  13.152596579751 -0.018202124830  0.023812014818 -0.205541700023
Zn   0.035862661240  1.939735627607  10.548951323378  0.016121331042 -0.004216866295 -0.832437328779
O    1.601336871459  0.970848347106  15.148315949245  0.303488132062  0.061227993573  0.321330045340
O   -0.011034272632  1.998414603396  12.512631210381 -0.001524921285 -0.092367395290  0.483052948405