# total energy = -29520.153619527453 eV

CRYSTAL
PRIMVEC
6.800993948595047 0.0 0.0
-5.1007454614462855 8.834749576995012 0.0
0.0 0.0 5.59941474073912
PRIMCOORD
24 1
Zn   1.700248487149  0.981639144155  2.803254088714 -0.000053478946 -0.000163007940  0.027334169039
Zn  -0.000000000000  1.963277608210  0.003547398444  0.000001542662 -0.000013626847  0.027207156542
O    1.700248487149  0.981639144155  4.925671554824  0.000010284413  0.000009513082 -0.027298687815
O   -0.000000000000  1.963277608210  2.125964864554 -0.000010798633 -0.000007456199 -0.027315914206
Zn   0.000000000000  3.926555896520  2.803254088714  0.000107472112 -0.000011312854  0.027434184952
Zn  -1.700248487149  4.908194360575  0.003547398444  0.000060420924  0.000103101237  0.027136194095
O    0.000000000000  3.926555896520  4.925671554824 -0.000011827075  0.000015426619 -0.027295859601
O   -1.700248487149  4.908194360575  2.125964864554  0.000003085324 -0.000001285552 -0.027309229338
Zn  -1.700248487149  6.871472648884  2.803254088714 -0.000126755386  0.000163007940  0.027465552410
Zn  -3.400496974298  7.853111112940  0.003547398444 -0.000011055744 -0.000079447088  0.027267834577
O   -1.700248487149  6.871472648884  4.925671554824  0.000004370875 -0.000005142206 -0.027294059829
O   -3.400496974298  7.853111112940  2.125964864554  0.000009513082 -0.000010541523 -0.027310257779
Zn   5.100745461446  0.981639144155  2.803254088714  0.000035995444 -0.000046536967  0.027418244112
Zn   3.400496974298  1.963277608210  0.003547398444 -0.000015169509 -0.000070191116  0.027209213425
O    5.100745461446  0.981639144155  4.925671554824 -0.000007713309  0.000007713309 -0.027296630932
O    3.400496974298  1.963277608210  2.125964864554  0.000012341295 -0.000009770192 -0.027318742420
Zn   3.400496974298  3.926555896520  2.803254088714 -0.000118270745  0.000041908982  0.027391247529
Zn   1.700248487149  4.908194360575  0.003547398444 -0.000031367459  0.000092302603  0.027226439816
O    3.400496974298  3.926555896520  4.925671554824  0.000009770192  0.000014655288 -0.027307172455
O    1.700248487149  4.908194360575  2.125964864554 -0.000000514221 -0.000001285552 -0.027303572911
Zn   1.700248487149  6.871472648884  2.803254088714  0.000128298048  0.000055278718  0.027406674148
Zn   0.000000000000  7.853111112940  0.003547398444  0.000022368598 -0.000071219558  0.027158562693
O    1.700248487149  6.871472648884  4.925671554824 -0.000005399317 -0.000005399317 -0.027299202036
O    0.000000000000  7.853111112940  2.125964864554 -0.000013112626 -0.000006684868 -0.027305629793