# total energy = -44263.612072395874 eV

CRYSTAL
PRIMVEC
2.9427380511605845 0.0 0.0
-4.414107076740876 7.645457105007086 0.0
0.0 0.0 14.82197713060953
PRIMCOORD
36 1
Zn   1.471369025580  0.849495201193  2.473459908416  0.000000000000 -0.000525276376  1.054928255061
Zn  -0.000000000000  1.698990696659  0.003130190465  0.000000000000  0.000373324179  1.054851379077
O    1.471369025580  0.849495201193  4.346181325675  0.000000000000  0.000129069379 -1.054790958152
O   -0.000000000000  1.698990696659  1.875851607724  0.000000000000 -0.000074304881 -1.054862177710
Zn   1.471369025580  0.849495201193  7.414119050044  0.000000000000 -0.000554329842  1.054911800001
Zn  -0.000000000000  1.698990696659  4.943789332093  0.000000000000  0.000346070486  1.054824382494
O    1.471369025580  0.849495201193  9.286840467303  0.000000000000  0.000053478946 -1.054812555419
O   -0.000000000000  1.698990696659  6.816510749352  0.000000000000 -0.000097701920 -1.054875804557
Zn   1.471369025580  0.849495201193  12.354778191671  0.000000000000 -0.000432973772  1.054824896714
Zn  -0.000000000000  1.698990696659  9.884448473721  0.000000000000  0.000226771299  1.054629235764
O    1.471369025580  0.849495201193  14.227499608931  0.000000000000  0.000168664367 -1.054846751091
O   -0.000000000000  1.698990696659  11.757169890980  0.000000000000 -0.000116213863 -1.054815640743
Zn   0.000000000000  3.397981099044  2.473459908416  0.000000000000 -0.000415747381  1.054952423431
Zn  -1.471369025580  4.247476594511  0.003130190465  0.000000000000  0.000377437944  1.054742621413
O    0.000000000000  3.397981099044  4.346181325675  0.000000000000  0.000195403840 -1.054957565637
O   -1.471369025580  4.247476594511  1.875851607724  0.000000000000 -0.000152980638 -1.054775531534
Zn   0.000000000000  3.397981099044  7.414119050044  0.000000000000 -0.000417032933  1.054897144713
Zn  -1.471369025580  4.247476594511  4.943789332093  0.000000000000  0.000529904362  1.054740564531
O    0.000000000000  3.397981099044  9.286840467303  0.000000000000  0.000123412952 -1.054848807974
O   -1.471369025580  4.247476594511  6.816510749352  0.000000000000 -0.000173549463 -1.054840837554
Zn   0.000000000000  3.397981099044  12.354778191671  0.000000000000 -0.000312389034  1.054858321055
Zn  -1.471369025580  4.247476594511  9.884448473721  0.000000000000  0.000453285487  1.054721024146
O    0.000000000000  3.397981099044  14.227499608931  0.000000000000  0.000047822519 -1.054852921739
O   -1.471369025580  4.247476594511  11.757169890980  0.000000000000 -0.000122127400 -1.054835695347
Zn  -1.471369025580  5.946466996896  2.473459908416  0.000000000000 -0.000227285519  1.055006930818
Zn  -2.942738051161  6.795962492362  0.003130190465  0.000000000000  0.000381037489  1.054906400684
O   -1.471369025580  5.946466996896  4.346181325675  0.000000000000  0.000114414091 -1.054850864856
O   -2.942738051161  6.795962492362  1.875851607724  0.000000000000 -0.000079189977 -1.054790186822
Zn  -1.471369025580  5.946466996896  7.414119050044  0.000000000000 -0.000247083014  1.054951394990
Zn  -2.942738051161  6.795962492362  4.943789332093  0.000000000000  0.000354555126  1.054794300587
O   -1.471369025580  5.946466996896  9.286840467303  0.000000000000  0.000173549463 -1.054851121966
O   -2.942738051161  6.795962492362  6.816510749352  0.000000000000 -0.000139096681 -1.054756248260
Zn  -1.471369025580  5.946466996896  12.354778191671  0.000000000000 -0.000451228605  1.054864491703
Zn  -2.942738051161  6.795962492362  9.884448473721  0.000000000000  0.000516534625  1.054649804589
O   -1.471369025580  5.946466996896  14.227499608931  0.000000000000  0.000103101237 -1.054786844387
O   -2.942738051161  6.795962492362  11.757169890980  0.000000000000 -0.000129069379 -1.054905115133