# total energy = -29514.609267683296 eV

CRYSTAL
PRIMVEC
9.02439601993466 0.0 0.0
-1.50406901145445 2.605117521054638 0.0
0.0 0.0 10.100898172360626
PRIMCOORD
24 1
Zn   1.504066304136  0.868372507018  2.528425496358  0.000159665506  0.000092302603  0.814973110556
Zn  -0.000000000000  1.736745916476  0.003200050829 -0.000369210414 -0.000213144452  0.814818844366
O    1.504066304136  0.868372507018  4.442762502111 -0.000056564270 -0.000032653010 -0.814818330145
O   -0.000000000000  1.736745916476  1.917537056581  0.000044222974  0.000025453921 -0.814842755625
Zn   1.504066304136  0.868372507018  7.578876387418  0.000248111455  0.000143210446  0.814598757935
Zn  -0.000000000000  1.736745916476  5.053650941888 -0.000386179695 -0.000222914644  0.814855868252
O    1.504066304136  0.868372507018  9.493214295610 -0.000048336739 -0.000028025024 -0.814797247100
O   -0.000000000000  1.736745916476  6.967987947641  0.000049879401  0.000028796355 -0.814785934246
Zn   4.512198009967  0.868372507018  2.528425496358  0.000288477775  0.000166607485  0.814993422271
Zn   3.008131705832  1.736745916476  0.003200050829 -0.000416775822 -0.000240655256  0.814763308538
O    4.512198009967  0.868372507018  4.442762502111 -0.000073533550 -0.000042423202 -0.814833499654
O    3.008131705832  1.736745916476  1.917537056581  0.000064020469  0.000037023886 -0.814861267568
Zn   4.512198009967  0.868372507018  7.578876387418  0.000327815653  0.000189233193  0.814577417779
Zn   3.008131705832  1.736745916476  5.053650941888 -0.000391064791 -0.000225742858  0.814984166299
O    4.512198009967  0.868372507018  9.493214295610 -0.000074304881 -0.000042937423 -0.814811645277
O    3.008131705832  1.736745916476  6.967987947641  0.000062477807  0.000035995444 -0.814800589534
Zn   7.520329715799  0.868372507018  2.528425496358  0.000503421999  0.000290534657  0.814936086670
Zn   6.016264314103  1.736745916476  0.003200050829 -0.000174320794 -0.000100530134  0.814782848922
O    7.520329715799  0.868372507018  4.442762502111 -0.000047822519 -0.000027767914 -0.814807017292
O    6.016264314103  1.736745916476  1.917537056581  0.000058106931  0.000033681451 -0.814861781789
Zn   7.520329715799  0.868372507018  7.578876387418  0.000390550570  0.000225485747  0.814540651004
Zn   6.016264314103  1.736745916476  5.053650941888 -0.000155551741 -0.000089731500  0.814990336947
O    7.520329715799  0.868372507018  9.493214295610 -0.000057592711 -0.000033167231 -0.814791333562
O    6.016264314103  1.736745916476  6.967987947641  0.000054250277  0.000031367459 -0.814803417747