# total energy = -14753.434969337903 eV

CRYSTAL
PRIMVEC
9.02439601993466 0.0 0.0
-1.50406901145445 2.605117521054638 0.0
0.0 0.0 4.661957861918146
PRIMCOORD
12 1
Zn   1.531490541201  0.868414019240  2.298451397945 -1.052520931171 -0.015032211743 -0.209328163648
Zn   0.009628128114  1.689336251985 -0.036732901560  0.220084116613  0.527181306183 -0.415027729405
O    1.546027940749  0.867299506331  4.116128097928 -0.736354946531 -0.817460652864  0.172766819585
O    0.006300833301  1.746940776660  1.774750355435 -0.724577494280 -0.954938824450  0.885446019765
Zn   4.423715611871  0.904382554457  2.286740439230  3.888045340425 -2.088140201491  0.452763810503
Zn   3.003130385557  1.714585609609  0.004670124940 -0.023515823734  1.639314035480 -0.983773489293
O    4.486272725081  0.908362313101  4.099832746034  0.877877977610 -1.217148409478  0.309513255210
O    3.040754897444  1.693087693411  1.784651922748 -2.534669601049  2.997203089345  0.008638392401
Zn   7.450184890415  0.829028847690  2.345699525747  1.973133985756 -0.331931217894 -0.707718770852
Zn   6.012538140986  1.730337692862 -0.011423982922 -0.151497882903 -0.274596902949 -1.390618425777
O    7.520499374444  0.855776255054  4.136920306358 -0.091094956335  0.130975851691  0.320255324218
O    6.053110923052  1.697958159943  1.746612288645 -1.644909013069  0.404574395282  1.557082957293