# total energy = -14735.787196266983 eV

CRYSTAL
PRIMVEC
3.0081163077210396 0.0 0.0
-4.5121744615815595 7.815314784298647 0.0
0.0 0.0 4.370561370162976
PRIMCOORD
12 1
Zn   1.353939011959  1.056924225590  2.133157549759  5.736075617001 -4.737252432463 -1.204174622926
Zn  -0.080419282182  1.759069709789  0.064422420469  0.150406449611 -1.677215695621 -0.301759579407
O    1.437883806453  0.826413776988  3.870959877253  0.235752676388  2.438666665889  1.294018223353
O   -0.012823599820  1.853316701015  1.849840822621 -5.293587734502 -1.710934685140 -2.688308441555
Zn  -0.119865312949  3.487151309435  2.281838812066  3.122519428757  7.819627684901 -25.759201230586
Zn  -1.550481510403  4.453724656041 -0.048963409952 -2.307670759594 -1.049634867873 -12.487438220522
O   -0.148659904681  3.312642360510  3.656308518637  0.444404382795  0.137538849620  28.624913733387
O   -1.425468107205  4.203456899530  1.427490162987 -2.246333237027  0.348961176793  13.262106717921
Zn  -1.463213048199  6.076952646360  2.463529337864 -1.635649699254 -0.876257925508 -28.445895790686
Zn  -3.062879365915  6.977349239066 -0.068262581748  5.023777197198  0.123905317997 -9.081093171129
O   -1.415905305463  6.135690629443  3.865023660532 -3.715785028163 -0.326634745382  21.730596508547
O   -3.133179344838  7.026243161532  1.459023042994  0.486090963900 -0.490769343213  15.056235873603