# total energy = -29520.459896170098 eV

CRYSTAL
PRIMVEC
3.465891106174229 0.0 0.0
-3.465891106174229 6.00310015634018 0.0
0.0 0.0 15.442724923511975
PRIMCOORD
24 1
Zn   1.732945553087  1.000516461664  2.577049121842  0.000000000000 -0.000106700781 -0.517944103855
Zn   0.000000000000  2.001033269917  0.003261403531  0.000000000000  0.000128040937 -0.518000153904
O    1.732945553087  1.000516461664  4.528200247192  0.000000000000  0.000022111487  0.517918907044
O    0.000000000000  2.001033269917  1.954412875470  0.000000000000 -0.000024168370  0.517933305222
Zn   1.732945553087  1.000516461664  7.724623865287  0.000000000000 -0.000120841849 -0.517926363244
Zn   0.000000000000  2.001033269917  5.150836493565  0.000000000000  0.000133440254 -0.517898081109
O    1.732945553087  1.000516461664  9.675775337226  0.000000000000  0.000023397039  0.517910679514
O    0.000000000000  2.001033269917  7.101987965503  0.000000000000 -0.000025711032  0.517916078831
Zn   1.732945553087  1.000516461664  12.872198955321  0.000000000000 -0.000064020469 -0.518000411015
Zn   0.000000000000  2.001033269917  10.298411583598  0.000000000000  0.000118270745 -0.517787266563
O    1.732945553087  1.000516461664  14.823350427259  0.000000000000  0.000018511943  0.517964158460
O    0.000000000000  2.001033269917  12.249563055537  0.000000000000 -0.000017997722  0.517926620354
Zn   0.000000000000  4.002066193245  2.577049121842  0.000000000000 -0.000157094403 -0.517942046973
Zn  -1.732945553087  5.002583001498  0.003261403531  0.000000000000  0.000139868012 -0.517999125463
O    0.000000000000  4.002066193245  4.528200247192  0.000000000000  0.000021083046  0.517923277920
O   -1.732945553087  5.002583001498  1.954412875470  0.000000000000 -0.000020568825  0.517938704539
Zn   0.000000000000  4.002066193245  7.724623865287  0.000000000000 -0.000137039798 -0.517930219898
Zn  -1.732945553087  5.002583001498  5.150836493565  0.000000000000  0.000128812268 -0.517894738675
O    0.000000000000  4.002066193245  9.675775337226  0.000000000000  0.000027510804  0.517917621493
O   -1.732945553087  5.002583001498  7.101987965503  0.000000000000 -0.000026739473  0.517902966205
Zn   0.000000000000  4.002066193245  12.872198955321  0.000000000000 -0.000205945363 -0.517981127741
Zn  -1.732945553087  5.002583001498  10.298411583598  0.000000000000  0.000141153564 -0.517850772811
O    0.000000000000  4.002066193245  14.823350427259  0.000000000000  0.000026482363  0.517961073136
O   -1.732945553087  5.002583001498  12.249563055537  0.000000000000 -0.000021854377  0.517941532752