# total energy = -44273.77117180882 eV

CRYSTAL
PRIMVEC
9.416760811194894 0.0 0.0
-4.708380405597447 8.15515028151506 0.0
0.0 0.0 4.763298954648335
PRIMCOORD
36 1
Zn   1.569460449091  0.906127809057  2.384668490840 -0.000017740612 -0.000010284413 -1.391911947778
Zn   0.000000000000  1.812256559791  0.003018071840  0.000000000000 -0.000006941979 -1.391945372119
O    1.569460449091  0.906127809057  4.190163816368  0.000001028441  0.000000514221  1.391924031963
O    0.000000000000  1.812256559791  1.808513397368 -0.000000000000 -0.000001799772  1.391934059265
Zn   0.000000000000  3.624513119581  2.384668490840 -0.000000000000 -0.000012598405 -1.391908348233
Zn  -1.569460449091  4.530640928638  0.003018071840  0.000013112626  0.000007456199 -1.391966455165
O    0.000000000000  3.624513119581  4.190163816368  0.000000000000  0.000002571103  1.391929945500
O   -1.569460449091  4.530640928638  1.808513397368  0.000000771331  0.000000514221  1.391933030824
Zn  -1.569460449091  6.342897488429  2.384668490840 -0.000010798633  0.000006170648 -1.391908348233
Zn  -3.138919956506  7.249026239162  0.003018071840 -0.000005913537  0.000003342434 -1.391945372119
O   -1.569460449091  6.342897488429  4.190163816368  0.000002056883 -0.000001285552  1.391929945500
O   -3.138919956506  7.249026239162  1.808513397368 -0.000001542662  0.000000771331  1.391934059265
Zn   4.708380405597  0.906127809057  2.384668490840 -0.000000000000 -0.000013883957 -1.391905520020
Zn   3.138919956506  1.812256559791  0.003018071840  0.000003599544  0.000002056883 -1.391944086567
O    4.708380405597  0.906127809057  4.190163816368  0.000000000000 -0.000002571103  1.391924803294
O    3.138919956506  1.812256559791  1.808513397368  0.000001028441  0.000000514221  1.391935859037
Zn   3.138919956506  3.624513119581  2.384668490840 -0.000012084185  0.000006941979 -1.391905520020
Zn   1.569460449091  4.530640928638  0.003018071840 -0.000013112626  0.000007456199 -1.391966455165
O    3.138919956506  3.624513119581  4.190163816368 -0.000002056883  0.000001285552  1.391924803294
O    1.569460449091  4.530640928638  1.808513397368 -0.000000771331  0.000000514221  1.391933030824
Zn   1.569460449091  6.342897488429  2.384668490840  0.000010798633  0.000006170648 -1.391908348233
Zn  -0.000000000000  7.249026239162  0.003018071840 -0.000000000000 -0.000014912398 -1.391966455165
O    1.569460449091  6.342897488429  4.190163816368 -0.000002056883 -0.000001285552  1.391929945500
O   -0.000000000000  7.249026239162  1.808513397368  0.000000000000 -0.000000771331  1.391933030824
Zn   7.847300362104  0.906127809057  2.384668490840  0.000017740612 -0.000010284413 -1.391911947778
Zn   6.277840854689  1.812256559791  0.003018071840 -0.000003599544  0.000002056883 -1.391944086567
O    7.847300362104  0.906127809057  4.190163816368 -0.000001028441  0.000000514221  1.391924031963
O    6.277840854689  1.812256559791  1.808513397368 -0.000001028441  0.000000514221  1.391935859037
Zn   6.277840854689  3.624513119581  2.384668490840  0.000012084185  0.000006941979 -1.391905520020
Zn   4.708380405597  4.530640928638  0.003018071840  0.000000000000 -0.000004370875 -1.391944086567
O    6.277840854689  3.624513119581  4.190163816368  0.000002056883  0.000001285552  1.391924803294
O    4.708380405597  4.530640928638  1.808513397368  0.000000000000 -0.000001028441  1.391935859037
Zn   4.708380405597  6.342897488429  2.384668490840  0.000000000000  0.000020568825 -1.391911947778
Zn   3.138919956506  7.249026239162  0.003018071840  0.000005913537  0.000003342434 -1.391945372119
O    4.708380405597  6.342897488429  4.190163816368  0.000000000000 -0.000001285552  1.391924031963
O    3.138919956506  7.249026239162  1.808513397368  0.000001542662  0.000000771331  1.391934059265