# total energy = -19680.834765418807 eV

CRYSTAL
PRIMVEC
6.800993948595047 0.0 0.0
-3.4004969742975235 5.889830784332026 0.0
0.0 0.0 5.270035802814713
PRIMCOORD
16 1
Zn   1.700248487149  0.981639144155  2.638357189436  0.000109786105  0.000063249138 -0.223906061462
Zn  -0.000000000000  1.963277608210  0.003339288029  0.000000000000 -0.000157351513 -0.223935114928
O    1.700248487149  0.981639144155  4.635926089234 -0.000008484640 -0.000004885096  0.223916088765
O   -0.000000000000  1.963277608210  2.000908187827  0.000000000000  0.000029824797  0.223950541547
Zn   0.000000000000  3.926555896520  2.638357189436  0.000000000000  0.000000000000 -0.224045929474
Zn  -1.700248487149  4.908194360575  0.003339288029 -0.000136268468  0.000078675757 -0.223935114928
O    0.000000000000  3.926555896520  4.635926089234  0.000000000000  0.000000000000  0.223930744053
O   -1.700248487149  4.908194360575  2.000908187827  0.000025968142 -0.000014912398  0.223950541547
Zn   5.100745461446  0.981639144155  2.638357189436 -0.000109786105  0.000063249138 -0.223906061462
Zn   3.400496974298  1.963277608210  0.003339288029  0.000000000000  0.000000000000 -0.223893463057
O    5.100745461446  0.981639144155  4.635926089234  0.000008484640 -0.000004885096  0.223916088765
O    3.400496974298  1.963277608210  2.000908187827  0.000000000000  0.000000000000  0.223931772494
Zn   3.400496974298  3.926555896520  2.638357189436 -0.000000000000 -0.000126755386 -0.223906061462
Zn   1.700248487149  4.908194360575  0.003339288029  0.000136268468  0.000078675757 -0.223935114928
O    3.400496974298  3.926555896520  4.635926089234  0.000000000000  0.000009770192  0.223916088765
O    1.700248487149  4.908194360575  2.000908187827 -0.000025968142 -0.000014912398  0.223950541547