# total energy = -9840.15889007317 eV

CRYSTAL
PRIMVEC
3.2043145786674065 0.0 0.0
-1.6021572893337033 2.775016532990441 0.0
0.0 0.0 10.138906339573845
PRIMCOORD
8 1
Zn   1.615907964485  0.894974033903  2.544585299558  0.042187432001 -0.143183449500 -0.663024256158
Zn  -0.004221364026  1.824099973016  0.006863641828 -0.593858752906  0.426529559397 -0.054597889851
O    1.599754053400  0.852741808619  4.433100647254 -0.275475191789  0.680572035234  0.529113490209
O    0.018947752967  1.798589783792  1.927713727938 -0.100455571615  0.196977098282  0.206699467776
Zn   1.615537545720  0.944240690981  7.625533627464 -0.196616629619  0.573178598849 -0.422700158349
Zn  -0.043732805801  1.838467478724  5.035292292495  0.284700052821 -0.633354239897 -0.014681513272
O    1.544669322341  0.940100075683  9.554084963233  0.634281893918 -0.411397845962 -0.125303483896
O   -0.024867083288  1.937954396900  6.953775030995  0.205236767188 -0.689321499291  0.544494600650