# total energy = -9838.913435782139 eV

CRYSTAL
PRIMVEC
6.147052100650782 0.0 0.0
-1.5367630251626956 2.661753471259097 0.0
0.0 0.0 5.061009376664105
PRIMCOORD
8 1
Zn   1.566865139300  0.873577244590  2.477649875550 -0.477777558939 -0.140788724016  0.466430766467
Zn   0.043004161791  1.726012932891 -0.048958811161 -0.557718298429  1.748159116710  1.365374306499
O    1.532291659465  0.938952987796  4.444490171524  1.129809834862 -1.569430166004 -1.130805108895
O   -0.035103970431  1.736336906894  1.920456484938  0.474580649268  0.170562355734 -0.479127130988
Zn   4.588426469987  0.843972426968  2.564672462728  0.451994793548 -0.069731403058  0.471524636051
Zn   3.050327690403  1.772944446269 -0.014484298865  1.073533271757 -0.522612198755  0.493450489589
O    4.696089014004  0.862569718394  4.488830087737 -1.693299745667  0.279361928438 -0.778918788035
O    3.118550133437  1.746568060410  1.907030093740 -0.401122946399  0.104479348062 -0.407929427797