# total energy = -9839.457952172233 eV

CRYSTAL
PRIMVEC
3.2697087105441125 0.0 0.0
-1.6348543552720562 2.831649486048965 0.0
0.0 0.0 9.712404878265733
PRIMCOORD
8 1
Zn   1.736600496985  0.987659330117  2.504271209289 -0.871384913687 -0.162724604857 -3.325725538668
Zn  -0.036505316841  1.917699199394  0.013586620605  0.754250852975 -0.040253448203 -1.682885235202
O    1.695292305019  0.868145264300  4.268442871034 -0.655031981981  0.471427962572  2.696268834053
O   -0.035241901395  1.912907768250  1.816239484164  0.992197451691  0.293135328073  2.585381525582
Zn   1.518499155040  1.035279694748  7.259842150409  1.046421760252 -0.224485073894  0.641821396828
Zn  -0.033375878634  1.885105762055  4.843893293721  0.464753892986 -0.559521155966 -0.810181859815
O    1.691589032934  0.947526925403  9.219583918345 -0.797983517976  0.108357600070 -0.921097707531
O    0.015799559460  1.992799503912  6.702626239259 -0.933223287150  0.114063135096  0.816418327643