# total energy = -29511.02091759526 eV

CRYSTAL
PRIMVEC
3.138920446790701 0.0 0.0
-3.138920446790701 5.436770298784281 0.0
0.0 0.0 13.681825998017011
PRIMCOORD
24 1
Zn   1.569460223395  0.906128173869  2.283193604643  0.000000000000 -0.000354298016 -3.086237049386
Zn   0.000000000000  1.812256661631  0.002889690163  0.000000000000  0.000355840678 -3.086244248475
O    1.569460223395  0.906128173869  4.011859559208  0.000000000000  0.000002828213  3.086232164290
O    0.000000000000  1.812256661631  1.731555330836  0.000000000000  0.000000257110  3.086232164290
Zn   1.569460223395  0.906128173869  6.843801747496  0.000000000000 -0.000347356037 -3.086238849158
Zn   0.000000000000  1.812256661631  4.563497833016  0.000000000000  0.000325758771 -3.086245276916
O    1.569460223395  0.906128173869  8.572467702060  0.000000000000  0.000000771331  3.086245276916
O    0.000000000000  1.812256661631  6.292163473688  0.000000000000  0.000004113765  3.086245019806
Zn   1.569460223395  0.906128173869  11.404410204240  0.000000000000 -0.000313931696 -3.086231907180
Zn   0.000000000000  1.812256661631  9.124105975868  0.000000000000  0.000360725774 -3.086215195009
O    1.569460223395  0.906128173869  13.133075844912  0.000000000000 -0.000006427758  3.086235506724
O    0.000000000000  1.812256661631  10.852771930432  0.000000000000  0.000004627986  3.086238334938
Zn   0.000000000000  3.624513009369  2.283193604643  0.000000000000 -0.000333986301 -3.086225736532
Zn  -1.569460223395  4.530641497131  0.002889690163  0.000000000000  0.000353783795 -3.086239106268
O    0.000000000000  3.624513009369  4.011859559208  0.000000000000 -0.000003085324  3.086233964062
O   -1.569460223395  4.530641497131  1.731555330836  0.000000000000 -0.000000771331  3.086232421400
Zn   0.000000000000  3.624513009369  6.843801747496  0.000000000000 -0.000344527824 -3.086263788859
Zn  -1.569460223395  4.530641497131  4.563497833016  0.000000000000  0.000340928279 -3.086288471449
O    0.000000000000  3.624513009369  8.572467702060  0.000000000000 -0.000011312854  3.086256846880
O   -1.569460223395  4.530641497131  6.292163473688  0.000000000000 -0.000003342434  3.086244762695
Zn   0.000000000000  3.624513009369  11.404410204240  0.000000000000 -0.000368181973 -3.086206967479
Zn  -1.569460223395  4.530641497131  9.124105975868  0.000000000000  0.000344270713 -3.086230878738
O    0.000000000000  3.624513009369  13.133075844912  0.000000000000 -0.000003342434  3.086230621628
O   -1.569460223395  4.530641497131  10.852771930432  0.000000000000 -0.000003599544  3.086240391820