# total energy = -14752.216248734892 eV

CRYSTAL
PRIMVEC
3.073509910420537 0.0 0.0
-4.610264865630805 7.985212334025746 0.0
0.0 0.0 4.465573239577937
PRIMCOORD
12 1
Zn   1.496536233926  0.871332068478  2.218439782878  1.761745597145 -0.426072674365 -7.761498127748
Zn   0.052447602515  1.709510492904 -0.021972829701 -1.121065770120  0.413524662497 -2.279447245972
O    1.542762437681  0.921592561342  3.814981574919  1.355777149728 -0.936434594998  8.807583073486
O    0.064293217061  1.759183638023  1.710097840648 -2.138559534484  1.338289277356  2.049880900900
Zn  -0.050103743858  3.569933395920  2.236874387970 -0.919632435839 -1.313792577767 -1.259066646979
Zn  -1.503573956919  4.408351246768  0.063763651304  1.671376720342  0.779912519407 -3.133928441925
O    0.101126467179  3.551052824540  4.010988829787 -1.620110465968 -0.631164431335  1.324296562622
O   -1.617336545393  4.442383299953  1.791821547113  0.460448066521 -1.175589612200  2.061051315694
Zn  -1.436553307164  6.153127192384  2.157949726980 -1.071486673641  1.354586214744 -1.362951813100
Zn  -3.137783764369  7.051206173507 -0.033681673055 -1.209798653981  1.352120012592 -1.536873829335
O   -1.663014742330  6.213550245766  3.905183558472  1.166410516804 -0.878403768207  2.305994143223
O   -3.067926572317  7.088273317729  1.747096445599  1.664895226383  0.123024715164  0.784960109133