# total energy = -44271.54938639826 eV

CRYSTAL
PRIMVEC
3.531285238050934 0.0 0.0
-5.296927857076401 9.174547426134419 0.0
0.0 0.0 18.128417775172558
PRIMCOORD
36 1
Zn   1.765642619025  1.019394119223  3.025231228855  0.000000000000  0.000321130785 -0.190438011612
Zn   0.000000000000  2.038788591574  0.003828619455  0.000000000000 -0.000377695054 -0.190471435953
O    1.765642619025  1.019394119223  5.315713235157  0.000000000000  0.000336814514  0.190402787499
O    0.000000000000  2.038788591574  2.294310625757  0.000000000000 -0.000337328735  0.190404073050
Zn   1.765642619025  1.019394119223  9.068036800784  0.000000000000  0.000368953304 -0.190352393877
Zn   0.000000000000  2.038788591574  6.046634191384  0.000000000000 -0.000313674586 -0.190381447342
O    1.765642619025  1.019394119223  11.358518807086  0.000000000000  0.000336557404  0.190403815940
O    0.000000000000  2.038788591574  8.337116197686  0.000000000000 -0.000335786073  0.190404330161
Zn   1.765642619025  1.019394119223  15.110842019585  0.000000000000  0.000331415197 -0.190413586132
Zn   0.000000000000  2.038788591574  12.089439410185  0.000000000000 -0.000319073902 -0.190373734033
O    1.765642619025  1.019394119223  17.401324379015  0.000000000000  0.000338357176  0.190403558830
O    0.000000000000  2.038788591574  14.379921416486  0.000000000000 -0.000335528963  0.190407415484
Zn   0.000000000000  4.077576830020  3.025231228855  0.000000000000  0.000354040905 -0.190416157235
Zn  -1.765642619025  5.096971302371  0.003828619455  0.000000000000 -0.000292077319 -0.190456266444
O    0.000000000000  4.077576830020  5.315713235157  0.000000000000  0.000337071624  0.190404073050
O   -1.765642619025  5.096971302371  2.294310625757  0.000000000000 -0.000336814514  0.190405615712
Zn   0.000000000000  4.077576830020  9.068036800784  0.000000000000  0.000320102344 -0.190363192510
Zn  -1.765642619025  5.096971302371  6.046634191384  0.000000000000 -0.000364068208 -0.190378619129
O    0.000000000000  4.077576830020  11.358518807086  0.000000000000  0.000336557404  0.190405101492
O   -1.765642619025  5.096971302371  8.337116197686  0.000000000000 -0.000335014742  0.190405358602
Zn   0.000000000000  4.077576830020  15.110842019585  0.000000000000  0.000349155809 -0.190458323327
Zn  -1.765642619025  5.096971302371  12.089439410185  0.000000000000 -0.000370238855 -0.190336195927
O    0.000000000000  4.077576830020  17.401324379015  0.000000000000  0.000337842955  0.190402530388
O   -1.765642619025  5.096971302371  14.379921416486  0.000000000000 -0.000336814514  0.190410243698
Zn  -1.765642619025  7.135759540817  3.025231228855  0.000000000000  0.000337328735 -0.190468607740
Zn  -3.531285238051  8.155154013169  0.003828619455  0.000000000000 -0.000344784934 -0.190462179982
O   -1.765642619025  7.135759540817  5.315713235157  0.000000000000  0.000337071624  0.190402273278
O   -3.531285238051  8.155154013169  2.294310625757  0.000000000000 -0.000335786073  0.190408186815
Zn  -1.765642619025  7.135759540817  9.068036800784  0.000000000000  0.000321130785 -0.190384275556
Zn  -3.531285238051  8.155154013169  6.046634191384  0.000000000000 -0.000338614286 -0.190379390460
O   -1.765642619025  7.135759540817  11.358518807086  0.000000000000  0.000338614286  0.190399959285
O   -3.531285238051  8.155154013169  8.337116197686  0.000000000000 -0.000335528963  0.190404844381
Zn  -1.765642619025  7.135759540817  15.110842019585  0.000000000000  0.000331929418 -0.190410500808
Zn  -3.531285238051  8.155154013169  12.089439410185  0.000000000000 -0.000326015881 -0.190342109464
O   -1.765642619025  7.135759540817  17.401324379015  0.000000000000  0.000336300293  0.190405358602
O   -3.531285238051  8.155154013169  14.379921416486  0.000000000000 -0.000335528963  0.190406644153