# total energy = -44274.318968667285 eV

CRYSTAL
PRIMVEC
3.531285238050934 0.0 0.0
-5.296927857076401 9.174547426134419 0.0
0.0 0.0 17.444326605001617
PRIMCOORD
36 1
Zn   1.765642619025  1.019394119223  2.911071839680  0.000000000000  0.000149123983 -0.038120718131
Zn   0.000000000000  2.038788591574  0.003684189889  0.000000000000  0.000165321933 -0.038610256173
O    1.765642619025  1.019394119223  5.115120342852  0.000000000000  0.000217258217  0.038581202707
O    0.000000000000  2.038788591574  2.207733046190  0.000000000000 -0.000231142174  0.038569632743
Zn   1.765642619025  1.019394119223  8.725846786133  0.000000000000 -0.000084332184 -0.038529523534
Zn   0.000000000000  2.038788591574  5.818459136342  0.000000000000 -0.000332186528 -0.038295553146
O    1.765642619025  1.019394119223  10.929895642434  0.000000000000  0.000234227498  0.038550863690
O    0.000000000000  2.038788591574  8.022507992643  0.000000000000 -0.000238341263  0.038553434793
Zn   1.765642619025  1.019394119223  14.540621732586  0.000000000000  0.000242712138 -0.039233748690
Zn   0.000000000000  2.038788591574  11.633234082795  0.000000000000 -0.000390036350 -0.038549321028
O    1.765642619025  1.019394119223  16.744670588887  0.000000000000  0.000212630231  0.038572203846
O    0.000000000000  2.038788591574  13.837282939096  0.000000000000 -0.000238084153  0.038536208402
Zn   0.000000000000  4.077576830020  2.911071839680  0.000000000000  0.000022625708 -0.038299409801
Zn  -1.765642619025  5.096971302371  0.003684189889  0.000000000000 -0.000179463001 -0.038762722590
O    0.000000000000  4.077576830020  5.115120342852  0.000000000000  0.000230627954  0.038574774949
O   -1.765642619025  5.096971302371  2.207733046190  0.000000000000 -0.000219057989  0.038565776088
Zn   0.000000000000  4.077576830020  8.725846786133  0.000000000000  0.000204145591 -0.038646765838
Zn  -1.765642619025  5.096971302371  5.818459136342  0.000000000000 -0.000009770192 -0.038194251682
O    0.000000000000  4.077576830020  10.929895642434  0.000000000000  0.000223685975  0.038545464373
O   -1.765642619025  5.096971302371  8.022507992643  0.000000000000 -0.000239112594  0.038553691903
Zn   0.000000000000  4.077576830020  14.540621732586  0.000000000000  0.000160693948 -0.038963011527
Zn  -1.765642619025  5.096971302371  11.633234082795  0.000000000000  0.000209287797 -0.038562947875
O    0.000000000000  4.077576830020  16.744670588887  0.000000000000  0.000231913505  0.038568861412
O   -1.765642619025  5.096971302371  13.837282939096  0.000000000000 -0.000223171754  0.038550092359
Zn  -1.765642619025  7.135759540817  2.911071839680  0.000000000000  0.000022882818 -0.038023530432
Zn  -3.531285238051  8.155154013169  0.003684189889  0.000000000000 -0.000168150147 -0.038605371077
O   -1.765642619025  7.135759540817  5.115120342852  0.000000000000  0.000211344680  0.038574260729
O   -3.531285238051  8.155154013169  2.207733046190  0.000000000000 -0.000238084153  0.038570661184
Zn  -1.765642619025  7.135759540817  8.725846786133  0.000000000000  0.000196689392 -0.038351346085
Zn  -3.531285238051  8.155154013169  5.818459136342  0.000000000000  0.000139868012 -0.038270099225
O   -1.765642619025  7.135759540817  10.929895642434  0.000000000000  0.000217258217  0.038559605441
O   -3.531285238051  8.155154013169  8.022507992643  0.000000000000 -0.000224714416  0.038551120800
Zn  -1.765642619025  7.135759540817  14.540621732586  0.000000000000 -0.000170978360 -0.039166642897
Zn  -3.531285238051  8.155154013169  11.633234082795  0.000000000000 -0.000086646177 -0.038921359656
O   -1.765642619025  7.135759540817  16.744670588887  0.000000000000  0.000213658673  0.038569375633
O   -3.531285238051  8.155154013169  13.837282939096  0.000000000000 -0.000232427726  0.038560119661