# total energy = -9839.14210542194 eV

CRYSTAL
PRIMVEC
3.531285238050934 0.0 0.0
-3.531285238050934 6.116366127851358 0.0
0.0 0.0 5.472729361367529
PRIMCOORD
8 1
Zn   1.712854142259  1.018894442362  2.691190714276  0.191264878389 -0.569098258132  0.392875361678
Zn  -0.121331429494  2.065546552337  0.059752524385  0.190479920594 -0.408865823569 -0.797618678438
O    1.687414410275  0.947951628186  4.727108370952  0.229742465639  0.456605552847  0.617710876933
O    0.033225156548  2.047677189647  2.087454999082 -0.267110107654 -0.220444842387 -0.195946085914
Zn  -0.161618097132  3.902224858340  2.673036376867  0.119379662213  1.153605908840  0.475345809569
Zn  -1.790407522400  5.024643164997 -0.011145089340  0.292935553357  0.506737693617  0.026701934771
O    0.079645666645  4.055004854778  4.894336974070 -0.646355537253 -0.464063037566 -0.516296798060
O   -1.630838276963  5.172729377097  2.045867052834 -0.110336835284 -0.454476936540 -0.002772420539