# total energy = -9837.43885061835 eV

CRYSTAL
PRIMVEC
2.9427380511605845 0.0 0.0
-1.4713690255802923 2.5484847207563455 0.0
0.0 0.0 10.451393149645318
PRIMCOORD
8 1
Zn   1.471369025580  0.849495201193  2.616159456266  0.000000000000  0.000000000000  1.825555749622
Zn  -0.000000000000  1.698990696659  0.003310874581  0.000000000000  0.000000000000  1.823516864815
O    1.471369025580  0.849495201193  4.596922618253  0.000000000000  0.000000000000 -1.823542318737
O   -0.000000000000  1.698990696659  1.984074036567  0.000000000000  0.000000000000 -1.824985993162
Zn   1.471369025580  0.849495201193  7.841856619637  0.000000000000 -0.000000000000  1.823225301717
Zn  -0.000000000000  1.698990696659  5.229008037952  0.000000000000  0.000000000000  1.823611995632
O    1.471369025580  0.849495201193  9.822619781623  0.000000000000  0.000000000000 -1.823846994461
O   -0.000000000000  1.698990696659  7.209771199938  0.000000000000 -0.000000000000 -1.823534348317