# total energy = -14753.075975537067 eV

CRYSTAL
PRIMVEC
3.00813218303729 0.0 0.0
-1.504066091518645 2.605117673814869 0.0
0.0 0.0 14.277239080982149
PRIMCOORD
12 1
Zn   1.596855538463  0.856913680013  2.267322478453 -4.081024116181 -2.135547744241  3.295759845544
Zn  -0.033303633025  1.687290821161  0.038237270618  2.180129901727  1.589563189309 -3.602296791734
O    1.507273061239  0.917874080329  4.260407684000 -1.549541911721 -1.230671383665 -2.871533737469
O   -0.057932414460  1.667360742196  1.743740828081  4.062912237072  2.184263721390  2.743492800037
Zn   1.385657285211  0.842317921848  7.189023201724  3.998209140466 -1.559847407412 -1.065151989672
Zn  -0.053393744622  1.738118328218  4.709835567114  1.392014020573  1.119941426708  1.169316120486
O    1.373342593680  0.910289375843  8.949759375013  3.545331944314 -1.091291881292  1.223335255015
O    0.131964352364  1.754310502133  6.569162370262 -3.969893067130  1.544545229837 -1.279746543925
Zn   1.454057698855  0.781623440417  11.912707607782  1.372902753665  0.129061665387 -0.900713230337
Zn   0.045534096855  1.785409775894  9.533947368542 -3.336455266380  1.172353364651  0.603094155461
O    1.558475381566  0.910788424972  13.684550707530 -1.942267378084 -1.400102711119  1.125302948130
O    0.040372142029  1.682349362424  11.370244513324 -1.672318258320 -0.322267469552 -0.440858831536