# total energy = -14757.182755822052 eV

CRYSTAL
PRIMVEC
3.531285238050934 0.0 0.0
-5.296927857076401 9.174547426134419 0.0
0.0 0.0 6.042805925057519
PRIMCOORD
12 1
Zn   1.765642619025  1.019394119223  3.025231228855  0.000000000000  0.000081761081 -0.190663497359
Zn   0.000000000000  2.038788591574  0.003828619455  0.000000000000 -0.000356097788 -0.190713376761
O    1.765642619025  1.019394119223  5.315713235157  0.000000000000  0.000349670030  0.190646528078
O    0.000000000000  2.038788591574  2.294310625757  0.000000000000 -0.000354555126  0.190637786328
Zn   0.000000000000  4.077576830020  3.025231228855  0.000000000000  0.000665915719 -0.190521058244
Zn  -1.765642619025  5.096971302371  0.003828619455  0.000000000000 -0.000265852067 -0.190692807935
O    0.000000000000  4.077576830020  5.315713235157  0.000000000000  0.000341442500  0.190651927395
O   -1.765642619025  5.096971302371  2.294310625757  0.000000000000 -0.000354298016  0.190651927395
Zn  -1.765642619025  7.135759540817  3.025231228855  0.000000000000  0.000367924862 -0.190841160588
Zn  -3.531285238051  8.155154013169  0.003828619455  0.000000000000 -0.000490566483 -0.190460637320
O   -1.765642619025  7.135759540817  5.315713235157  0.000000000000  0.000358668891  0.190641900093
O   -3.531285238051  8.155154013169  2.294310625757  0.000000000000 -0.000344013603  0.190662468918