# total energy = -29521.93182972058 eV

CRYSTAL
PRIMVEC
9.809126131632336 0.0 0.0
-3.2697054408354016 5.663298972097929 0.0
0.0 0.0 5.278477144827861
PRIMCOORD
24 1
Zn   1.634854682243  0.943883162016  2.642585446250  0.000007456199  0.000010798633  0.001161367298
Zn   0.000000000000  1.887767304945  0.003343931098  0.000008227530  0.000002828213  0.001179622130
O    1.634854682243  0.943883162016  4.643355846057 -0.000003856655 -0.000002056883 -0.001166509504
O    0.000000000000  1.887767304945  2.004115311818  0.000005142206  0.000001285552 -0.001169851938
Zn   0.000000000000  3.775534609891  2.642585446250  0.000015940840 -0.000005399317  0.001168823497
Zn  -1.634854682243  4.719417771907  0.003343931098 -0.000011569964  0.000011312854  0.001165223953
O    0.000000000000  3.775534609891  4.643355846057 -0.000000771331 -0.000002828213 -0.001165223953
O   -1.634854682243  4.719417771907  2.004115311818  0.000005399317  0.000001799772 -0.001168566387
Zn   4.904563065816  0.943883162016  2.642585446250  0.000014655288  0.000003085324  0.001173965703
Zn   3.269708383573  1.887767304945  0.003343931098 -0.000003856655  0.000001799772  0.001180650572
O    4.904563065816  0.943883162016  4.643355846057 -0.000001542662 -0.000003599544 -0.001170623269
O    3.269708383573  1.887767304945  2.004115311818  0.000004113765  0.000004627986 -0.001167795056
Zn   3.269708383573  3.775534609891  2.642585446250 -0.000000257110 -0.000005913537  0.001178336579
Zn   1.634854682243  4.719417771907  0.003343931098 -0.000004370875 -0.000001799772  0.001153911099
O    3.269708383573  3.775534609891  4.643355846057 -0.000003085324 -0.000000514221 -0.001166766615
O    1.634854682243  4.719417771907  2.004115311818  0.000004113765  0.000002056883 -0.001169337718
Zn   8.174271449389  0.943883162016  2.642585446250  0.000014912398  0.000003599544  0.001153911099
Zn   6.539417748059  1.887767304945  0.003343931098 -0.000028539245  0.000009255971  0.001159567526
O    8.174271449389  0.943883162016  4.643355846057 -0.000004370875 -0.000004370875 -0.001169851938
O    6.539417748059  1.887767304945  2.004115311818  0.000000257110  0.000001285552 -0.001167023725
Zn   6.539417748059  3.775534609891  2.642585446250  0.000008998861 -0.000002313993  0.001177822358
Zn   4.904563065816  4.719417771907  0.003343931098 -0.000023139928 -0.000018254832  0.001165223953
O    6.539417748059  3.775534609891  4.643355846057 -0.000005913537 -0.000004627986 -0.001168823497
O    4.904563065816  4.719417771907  2.004115311818  0.000002571103 -0.000002313993 -0.001167795056