# total energy = -14751.56611244678 eV

CRYSTAL
PRIMVEC
3.00813218303729 0.0 0.0
-1.504066091518645 2.605117673814869 0.0
0.0 0.0 14.568609772363322
PRIMCOORD
12 1
Zn   1.745026503776  1.047790195490  2.349856601159 -4.709328709469 -2.805764661493  2.542205247305
Zn   0.026390343642  1.645962694725 -0.117842375018 -9.336325810619  5.367992117555  2.807993807933
O    1.503789644171  0.791730764552  4.225106350392 -0.604497206456  3.341150100753 -1.354812728933
O    0.068875698529  1.758620253112  1.698910934971  4.502678606874  3.075961892712 -0.119202256094
Zn   1.555969607458  0.948641557110  7.292650347297 -3.380572568415 -0.768997672267  0.887123407468
Zn  -0.108161002400  1.847034672609  4.944088446230  0.609797535623 -3.252992372669 -1.885567097179
O    1.551919458286  0.943412821750  9.137612116019 -3.681749278735 -0.135826494915 -1.427274900658
O   -0.149661193997  1.855448719138  6.704600814485  3.360037424576  0.643234475125  0.647308130974
Zn   1.234824724542  0.849649341605  12.398753483960  2.627372011081 -2.168495402812 -5.426714828208
Zn  -0.146558004837  1.878771971206  9.585708599829  3.527193582842  0.093079847976  3.431401992362
O    1.381275339060  1.017029637412  14.082266391912  9.935975973395 -5.076480955350  0.466974040565
O    0.030608948215  1.707149005767  11.504538062437 -2.850581303587  1.687139125383 -0.569435329756