# total energy = -14756.697222283397 eV

CRYSTAL
PRIMVEC
10.397673847699894 0.0 0.0
-1.7329491071745982 3.001548497984767 0.0
0.0 0.0 5.930905946444953
PRIMCOORD
12 1
Zn   1.663917910732  0.843898084362  2.887366442626  0.405349839996  3.686931851377  1.736288847634
Zn   0.017309007654  1.995044311621  0.202979229785  0.452249589871  0.236190535257 -1.441464819005
O    1.887505330084  1.175192927567  5.094133387971 -1.080355436885 -0.647572954600  1.686504834233
O    0.179376510151  2.157526681304  2.517664671763 -0.376898783744 -3.632136500804 -1.941065901577
Zn   5.104138029747  1.053296837981  2.964304030262  0.262541514446 -0.495849328839  0.449002029468
Zn   3.459894597470  2.143821507406  0.095686673118 -0.231296183279 -0.872508742878 -0.594950443308
O    5.153235845656  0.894427659959  5.164263618539  0.718074660165  1.192542695114  0.762151595879
O    3.512820836889  2.071243664414  2.495518666234 -0.233130151164  0.194374113442 -1.205849696636
Zn   8.660414904715  0.969774403497  3.000703167101 -0.184270963569 -0.092326771860  0.227473981319
Zn   6.950193033037  1.719192984674  0.022663809686 -0.338271301180  0.372689887869 -0.114104529857
O    8.613631611005  1.056943302199  5.140489337286  0.662405134517 -0.143069806741  0.237260885503
O    7.047216847012  1.983239832502  2.167735117488 -0.056397662063  0.200735279773  0.198753216346