# total energy = -14751.546628687764 eV

CRYSTAL
PRIMVEC
9.220578415564779 0.0 0.0
-1.536766142786935 2.6617504741131626 0.0
0.0 0.0 4.465599891285347
PRIMCOORD
12 1
Zn   1.508898788642  0.860459767451  2.219383081990  0.271039010395  1.839438164031 -4.190304485176
Zn  -0.038550316298  1.799988760990  0.097502084398  0.562556857469 -0.180876850286 -7.313019317773
O    1.574675628885  0.921552553859  3.877825821665 -0.938916737990  0.082933246460  5.801598124183
O   -0.006729178128  1.833888217534  1.726690694933  0.189934589613 -1.624173580294  5.387036792892
Zn   4.558184641214  0.884486750687  2.254187077278  0.769644304712  0.567336281135 -3.658782128416
Zn   3.131590579625  1.756762689377  0.009570038338 -1.493921237033  0.725431614750 -3.057312653042
O    4.559259760657  0.883947346849  3.947301035910  2.234229768895 -0.532628188230  3.367566643073
O    3.077843828041  1.816157045241  1.708676450882 -0.793122847450 -0.346800164586  3.345725635939
Zn   7.670364981217  0.909360183020  2.213666323373  0.112726418562 -0.129774889404 -3.606480747909
Zn   6.146505804096  1.798268201057  0.026725846538 -0.554514189670 -0.423950228706 -4.963338275186
O    7.661298386461  0.891990457401  3.900005000985  0.392783573295  0.261630572596  4.162299515323
O    6.153333642412  1.798792851969  1.694221350100 -0.752439510798 -0.238565720357  4.725011410312