# total energy = -9839.93908059601 eV

CRYSTAL
PRIMVEC
6.670205684841636 0.0 0.0
-1.667551421210409 2.888285774210331 0.0
0.0 0.0 4.84564429201574
PRIMCOORD
8 1
Zn   1.667551421210  0.962761480056  2.425893108705  0.000049622291  0.000028796355 -1.542259262016
Zn  -0.000000000000  1.925522293092  0.003070295677 -0.000193346958 -0.000111585877 -1.541855855930
O    1.667551421210  0.962761480056  4.262600279063  0.000004627986  0.000002828213  1.542097025407
O   -0.000000000000  1.925522293092  1.839777466034  0.000019540384  0.000011312854  1.542088797877
Zn   5.002654263631  0.962761480056  2.425893108705  0.000184605207  0.000106443671 -1.542016035657
Zn   3.335102842421  1.925522293092  0.003070295677 -0.000077390205 -0.000044737195 -1.542235350757
O    5.002654263631  0.962761480056  4.262600279063 -0.000007713309 -0.000004627986  1.542087769436
O    3.335102842421  1.925522293092  1.839777466034  0.000020054605  0.000011569964  1.542092911642