# total energy = -9839.691012640935 eV

CRYSTAL
PRIMVEC
3.138920446790701 0.0 0.0
-3.138920446790701 5.436770298784281 0.0
0.0 0.0 5.1686907980261205
PRIMCOORD
8 1
Zn   1.622605599372  0.929364032477  2.722867213898 -0.536725241118 -0.632813279792 -1.066772813105
Zn   0.038779478768  1.735973989149  0.001960569711 -0.473454506083  0.249614779082  1.265893954313
O    1.567098185759  0.829009920764  4.599595732046  0.411018608246  0.628080135983  0.077888227837
O    0.001728289598  1.825185247167  2.055409681229  0.725781284780 -1.368181694040 -1.179464521774
Zn  -0.006076636093  3.557738126921  2.615907871890  1.121626013499  1.353133027237  0.720989262708
Zn  -1.565274472980  4.532351894882  0.047248913917 -0.235601238412 -1.456958800876  0.419803039307
O   -0.022943311222  3.528340567476  4.621414681963  0.350393538364  0.695311141216 -0.538502130512
O   -1.443175489872  4.535214276438  1.976149114919 -1.363038459277  0.531814691190  0.300164981226