# total energy = -59040.79042955735 eV

CRYSTAL
PRIMVEC
6.931782212348458 0.0 0.0
-3.465891106174229 6.003096690449074 0.0
0.0 0.0 15.778434601947115
PRIMCOORD
48 1
Zn   1.732945553087  1.000516808253  2.633071439093 -0.000028539245 -0.000016455060 -0.284000455651
Zn  -0.000000000000  2.001032923328  0.003332107709 -0.000000000000 -0.000012341295 -0.284078617187
O    1.732945553087  1.000516808253  4.626639526157 -0.000004885096 -0.000002828213  0.284022824249
O   -0.000000000000  2.001032923328  1.996900194773 -0.000000000000 -0.000006427758  0.284016139380
Zn   1.732945553087  1.000516808253  7.892550795039  0.000029824797  0.000017226391 -0.284047249729
Zn  -0.000000000000  2.001032923328  5.262811463656 -0.000000000000 -0.000005142206 -0.283967031310
O    1.732945553087  1.000516808253  9.886118188925  0.000002571103  0.000001542662  0.284013825388
O   -0.000000000000  2.001032923328  7.256378857541  0.000000000000  0.000002056883  0.284008683181
Zn   1.732945553087  1.000516808253  13.152029457807 -0.000009513082 -0.000005399317 -0.283971402185
Zn  -0.000000000000  2.001032923328  10.522290126423 -0.000000000000 -0.000003856655 -0.284005854968
O    1.732945553087  1.000516808253  15.145597544871  0.000000514221  0.000000257110  0.283989399908
O   -0.000000000000  2.001032923328  12.515857520309  0.000000000000 -0.000001542662  0.284021795807
Zn   0.000000000000  4.002066539834  2.633071439093  0.000000000000  0.000000000000 -0.284022310028
Zn  -1.732945553087  5.002582654909  0.003332107709 -0.000010798633  0.000006170648 -0.284078617187
O    0.000000000000  4.002066539834  4.626639526157  0.000000000000  0.000000000000  0.284023852690
O   -1.732945553087  5.002582654909  1.996900194773 -0.000005399317  0.000003085324  0.284016139380
Zn   0.000000000000  4.002066539834  7.892550795039  0.000000000000 -0.000000000000 -0.284044421515
Zn  -1.732945553087  5.002582654909  5.262811463656 -0.000004627986  0.000002571103 -0.283967031310
O    0.000000000000  4.002066539834  9.886118188925  0.000000000000  0.000000000000  0.284017682042
O   -1.732945553087  5.002582654909  7.256378857541  0.000001799772 -0.000001028441  0.284008683181
Zn   0.000000000000  4.002066539834  13.152029457807  0.000000000000  0.000000000000 -0.283962146214
Zn  -1.732945553087  5.002582654909  10.522290126423 -0.000003342434  0.000001799772 -0.284005854968
O    0.000000000000  4.002066539834  15.145597544871  0.000000000000  0.000000000000  0.283993256562
O   -1.732945553087  5.002582654909  12.515857520309 -0.000001285552  0.000000771331  0.284021795807
Zn   5.198836659261  1.000516808253  2.633071439093  0.000028539245 -0.000016455060 -0.284000455651
Zn   3.465891106174  2.001032923328  0.003332107709  0.000000000000  0.000000000000 -0.284115383963
O    5.198836659261  1.000516808253  4.626639526157  0.000004885096 -0.000002828213  0.284022824249
O    3.465891106174  2.001032923328  1.996900194773  0.000000000000 -0.000000000000  0.284012282726
Zn   5.198836659261  1.000516808253  7.892550795039 -0.000029824797  0.000017226391 -0.284047249729
Zn   3.465891106174  2.001032923328  5.262811463656  0.000000000000  0.000000000000 -0.283916123468
O    5.198836659261  1.000516808253  9.886118188925 -0.000002571103  0.000001542662  0.284013825388
O    3.465891106174  2.001032923328  7.256378857541  0.000000000000 -0.000000000000  0.284010740064
Zn   5.198836659261  1.000516808253  13.152029457807  0.000009513082 -0.000005399317 -0.283971402185
Zn   3.465891106174  2.001032923328  10.522290126423  0.000000000000  0.000000000000 -0.284023338469
O    5.198836659261  1.000516808253  15.145597544871 -0.000000514221  0.000000257110  0.283989399908
O    3.465891106174  2.001032923328  12.515857520309  0.000000000000  0.000000000000  0.284019996035
Zn   3.465891106174  4.002066539834  2.633071439093 -0.000000000000  0.000033167231 -0.284000455651
Zn   1.732945553087  5.002582654909  0.003332107709  0.000010798633  0.000006170648 -0.284078617187
O    3.465891106174  4.002066539834  4.626639526157  0.000000000000  0.000005656427  0.284022824249
O    1.732945553087  5.002582654909  1.996900194773  0.000005399317  0.000003085324  0.284016139380
Zn   3.465891106174  4.002066539834  7.892550795039  0.000000000000 -0.000034452782 -0.284047249729
Zn   1.732945553087  5.002582654909  5.262811463656  0.000004627986  0.000002571103 -0.283967031310
O    3.465891106174  4.002066539834  9.886118188925  0.000000000000 -0.000003085324  0.284013825388
O    1.732945553087  5.002582654909  7.256378857541 -0.000001799772 -0.000001028441  0.284008683181
Zn   3.465891106174  4.002066539834  13.152029457807  0.000000000000  0.000011055744 -0.283971402185
Zn   1.732945553087  5.002582654909  10.522290126423  0.000003342434  0.000001799772 -0.284005854968
O    3.465891106174  4.002066539834  15.145597544871  0.000000000000 -0.000000514221  0.283989399908
O    1.732945553087  5.002582654909  12.515857520309  0.000001285552  0.000000771331  0.284021795807