# total energy = -9839.978552749162 eV

CRYSTAL
PRIMVEC
3.2697087105441125 0.0 0.0
-1.6348543552720562 2.831649486048965 0.0
0.0 0.0 11.612658219863944
PRIMCOORD
8 1
Zn   1.642797131672  0.970934116120  2.833394202617  0.109539279083  0.244587243961  1.051856301004
Zn  -0.044335615261  1.849601956992  0.030766324112  0.063584409620  0.267482403392 -0.028501964094
O    1.647206987810  0.968201620551  5.060720103210 -0.255787740662 -0.233157147747  0.037350672734
O    0.026203445606  1.947220418429  2.248056507760 -0.168350949905 -0.325188242743 -1.009876357028
Zn   1.685778760555  0.980779209048  8.756481340894 -0.393650806391 -0.161027676771 -0.383017495047
Zn  -0.030122845438  1.855931459114  5.829149387935  0.254245078766  0.265803215917 -0.233278760927
O    1.594209587204  0.956475137231  10.881431026906  0.042940765228 -0.187798517107  0.274480174866
O   -0.020424235460  1.901714574421  7.974090073004  0.347479964262  0.129299235319  0.290987685602