# total energy = -44272.82067313628 eV

CRYSTAL
PRIMVEC
9.220578415564779 0.0 0.0
-1.536766142786935 2.6617504741131626 0.0
0.0 0.0 14.587609714490986
PRIMCOORD
36 1
Zn   1.536763376613  0.887250158038  2.434349803055  0.000284364010  0.000164293492 -0.430246346127
Zn  -0.000000000000  1.774501238133  0.003080595249 -0.000374095510 -0.000215972666 -0.430224491750
O    1.536763376613  0.887250158038  4.277459521063 -0.000038823658 -0.000022368598  0.430225263081
O   -0.000000000000  1.774501238133  1.846190313256  0.000038052327  0.000021854377  0.430213950227
Zn   1.536763376613  0.887250158038  7.296886374552  0.000305189945  0.000176120567 -0.430237090156
Zn  -0.000000000000  1.774501238133  4.865618088803 -0.000221886203 -0.000128040937 -0.430174355239
O    1.536763376613  0.887250158038  9.139996092560 -0.000041908982 -0.000024168370  0.430220892206
O   -0.000000000000  1.774501238133  6.708727806811  0.000037795216  0.000021854377  0.430211379124
Zn   1.536763376613  0.887250158038  12.159423868107  0.000227285519  0.000131383372 -0.430194409843
Zn  -0.000000000000  1.774501238133  9.728155582358 -0.000353526685 -0.000204145591 -0.430177440562
O    1.536763376613  0.887250158038  14.002533586115 -0.000035738334 -0.000020568825  0.430212150455
O   -0.000000000000  1.774501238133  11.571265300366  0.000041394761  0.000023911259  0.430219606654
Zn   4.610289207782  0.887250158038  2.434349803055  0.000292077319  0.000168664367 -0.430216778441
Zn   3.073525831169  1.774501238133  0.003080595249 -0.000209287797 -0.000120841849 -0.430255344988
O    4.610289207782  0.887250158038  4.277459521063 -0.000034967003 -0.000020311715  0.430219606654
O    3.073525831169  1.774501238133  1.846190313256  0.000037538106  0.000021597267  0.430215749999
Zn   4.610289207782  0.887250158038  7.296886374552  0.000301590401  0.000174063684 -0.430211893345
Zn   3.073525831169  1.774501238133  4.865618088803 -0.000295162643 -0.000170464140 -0.430208808021
O    4.610289207782  0.887250158038  9.139996092560 -0.000033424341 -0.000019283274  0.430219606654
O    3.073525831169  1.774501238133  6.708727806811  0.000044222974  0.000025453921  0.430213178896
Zn   4.610289207782  0.887250158038  12.159423868107  0.000408291182  0.000235770160 -0.430187210754
Zn   3.073525831169  1.774501238133  9.728155582358 -0.000238084153 -0.000137554019 -0.430219092434
O    4.610289207782  0.887250158038  14.002533586115 -0.000041394761 -0.000023911259  0.430214721558
O    3.073525831169  1.774501238133  11.571265300366  0.000041651871  0.000023911259  0.430215749999
Zn   7.683815038951  0.887250158038  2.434349803055  0.000308789490  0.000178434559 -0.430346104930
Zn   6.147052584396  1.774501238133  0.003080595249 -0.000306218387 -0.000176634787 -0.430299567962
O    7.683815038951  0.887250158038  4.277459521063 -0.000039337878 -0.000022625708  0.430227834184
O    6.147052584396  1.774501238133  1.846190313256  0.000040109209  0.000023139928  0.430217292661
Zn   7.683815038951  0.887250158038  7.296886374552  0.000283592679  0.000163779271 -0.430171269915
Zn   6.147052584396  1.774501238133  4.865618088803 -0.000368696193 -0.000212887342 -0.430178211893
O    7.683815038951  0.887250158038  9.139996092560 -0.000041908982 -0.000024168370  0.430208036690
O    6.147052584396  1.774501238133  6.708727806811  0.000035481224  0.000020311715  0.430221663537
Zn   7.683815038951  0.887250158038  12.159423868107  0.000255053434  0.000147324211 -0.430203922925
Zn   6.147052584396  1.774501238133  9.728155582358 -0.000305447056 -0.000176377677 -0.430157128847
O    7.683815038951  0.887250158038  14.002533586115 -0.000034709893 -0.000020054605  0.430214978668
O    6.147052584396  1.774501238133  11.571265300366  0.000032653010  0.000018769053  0.430217806882