# total energy = -14756.295818044186 eV

CRYSTAL
PRIMVEC
3.138920446790701 0.0 0.0
-1.5694602233953505 2.718383579931917 0.0
0.0 0.0 13.985864971413605
PRIMCOORD
12 1
Zn   1.538955880601  0.951802291399  2.293382540414 -0.845636343968 -1.084382041546 -0.475241937001
Zn  -0.006620611006  1.849593492561  0.043023613104  0.654538587284  0.304962145505 -2.498482866716
O    1.552237908580  0.829379057809  4.096432434482 -0.009518995234  1.818933359210  1.166688967276
O   -0.069802999004  1.750320738943  1.804814909035  0.838508474674  1.111621851099  1.537393706394
Zn   1.553606164003  0.884962433297  7.030678631864 -0.205283304155  0.321108930468 -5.033143468904
Zn  -0.015505953115  1.862835970142  4.695305497065 -0.021542759168 -1.870250264316 -1.742154048166
O    1.618749435603  0.927239297226  8.704868935966 -0.733743477050 -0.426481993989  5.280938678279
O   -0.010586009207  1.825614023700  6.474767659544  0.003130060989 -0.609142675648  1.438416519097
Zn   1.610248611249  0.904283430323  11.660135855796 -0.308450618274 -0.294201564554 -2.604255479668
Zn  -0.017667099843  1.790093372140  9.301251579067  0.861824266581  0.561269506116 -1.701099701328
O    1.608671303725  0.946936650814  13.410058265734 -0.617891882596 -0.115256126963  2.775230497460
O    0.019489870946  1.794214774687  11.078337264875  0.384065990916  0.281819131729  1.855709133277