# total energy = -14760.518868218605 eV

CRYSTAL
PRIMVEC
9.809126131632336 0.0 0.0
-1.6348576249807667 2.8316494860489647 0.0
0.0 0.0 5.172911329399233
PRIMCOORD
12 1
Zn   1.588408470010  0.952494593847  2.575280127298  0.373571776253 -0.038999264081 -0.628746051701
Zn   0.059511968241  1.887669213684 -0.105326472751 -0.839121168557  0.139653839081  0.939485980230
O    1.598850284777  0.936489042738  4.531749570756  0.446059144790 -0.404649985715  0.023567760018
O   -0.052954567422  1.859336533765  1.976715479794  0.179974393077  0.398538473501 -0.342391236885
Zn   4.872613761093  0.953649127993  2.601571528068  0.014576869373  0.303062871599 -0.229187364466
Zn   3.233682406030  1.881907332994  0.018110589577  0.222973008125 -0.168675680234 -0.480849770106
O    4.796836299901  0.869191571087  4.553668063098  0.748203875450  0.797225042544 -0.036539746797
O    3.260983165879  1.954641022348  1.917897997684 -0.355450898283 -0.652169829942  0.945025164881
Zn   8.167450183077  0.900443446942  2.671102537740 -0.329543177278  0.255630903370 -1.018681356914
Zn   6.577315306869  1.927566853312  0.006858540991 -0.501521953744 -1.289169122791  0.035183232769
O    8.182401253127  0.874188339938  4.590601384808 -0.100829667125  1.088584509663 -0.010868567283
O    6.514839020711  1.908759815780  1.931760254733  0.141108055029 -0.429031756994  0.804001956256