# total energy = -39360.616982672735 eV

CRYSTAL
PRIMVEC
6.931782212348458 0.0 0.0
-3.465891106174229 6.003096690449074 0.0
0.0 0.0 10.295152259602053
PRIMCOORD
32 1
Zn   1.732945553087  1.000516808253  2.577048775253  0.000045251416  0.000025968142 -0.518134365489
Zn  -0.000000000000  2.001032923328  0.003261403531 -0.000000000000  0.000030081907 -0.518185787553
O    1.732945553087  1.000516808253  4.528200593781  0.000004885096  0.000002828213  0.518080115213
O   -0.000000000000  2.001032923328  1.954412528881  0.000000000000  0.000006170648  0.518071630572
Zn   1.732945553087  1.000516808253  7.724624211876  0.000026225252  0.000015169509 -0.518081657874
Zn  -0.000000000000  2.001032923328  5.150836146975  0.000000000000  0.000044480085 -0.518072144793
O    1.732945553087  1.000516808253  9.675775337226  0.000003342434  0.000002056883  0.518149020777
O   -0.000000000000  2.001032923328  7.101987965503 -0.000000000000  0.000003085324  0.518167275610
Zn   0.000000000000  4.002066539834  2.577048775253  0.000000000000  0.000000000000 -0.518114825105
Zn  -1.732945553087  5.002582654909  0.003261403531  0.000025968142 -0.000015169509 -0.518185787553
O    0.000000000000  4.002066539834  4.528200593781  0.000000000000  0.000000000000  0.518075744337
O   -1.732945553087  5.002582654909  1.954412528881  0.000005399317 -0.000003085324  0.518071630572
Zn   0.000000000000  4.002066539834  7.724624211876  0.000000000000  0.000000000000 -0.518067773917
Zn  -1.732945553087  5.002582654909  5.150836146975  0.000038566547 -0.000022111487 -0.518072144793
O    0.000000000000  4.002066539834  9.675775337226  0.000000000000  0.000000000000  0.518152877432
O   -1.732945553087  5.002582654909  7.101987965503  0.000002828213 -0.000001542662  0.518167275610
Zn   5.198836659261  1.000516808253  2.577048775253 -0.000045251416  0.000025968142 -0.518134365489
Zn   3.465891106174  2.001032923328  0.003261403531  0.000000000000  0.000000000000 -0.518177045802
O    5.198836659261  1.000516808253  4.528200593781 -0.000004885096  0.000002828213  0.518080115213
O    3.465891106174  2.001032923328  1.954412528881  0.000000000000  0.000000000000  0.518063917263
Zn   5.198836659261  1.000516808253  7.724624211876 -0.000026225252  0.000015169509 -0.518081657874
Zn   3.465891106174  2.001032923328  5.150836146975  0.000000000000  0.000000000000 -0.518074201675
O    5.198836659261  1.000516808253  9.675775337226 -0.000003342434  0.000002056883  0.518149020777
O    3.465891106174  2.001032923328  7.101987965503  0.000000000000 -0.000000000000  0.518159305190
Zn   3.465891106174  4.002066539834  2.577048775253  0.000000000000 -0.000052193394 -0.518134365489
Zn   1.732945553087  5.002582654909  0.003261403531 -0.000025968142 -0.000015169509 -0.518185787553
O    3.465891106174  4.002066539834  4.528200593781 -0.000000000000 -0.000005656427  0.518080115213
O    1.732945553087  5.002582654909  1.954412528881 -0.000005399317 -0.000003085324  0.518071630572
Zn   3.465891106174  4.002066539834  7.724624211876  0.000000000000 -0.000030339017 -0.518081657874
Zn   1.732945553087  5.002582654909  5.150836146975 -0.000038566547 -0.000022111487 -0.518072144793
O    3.465891106174  4.002066539834  9.675775337226  0.000000000000 -0.000004113765  0.518149020777
O    1.732945553087  5.002582654909  7.101987965503 -0.000002828213 -0.000001542662  0.518167275610