# total energy = -44277.08273273427 eV

CRYSTAL
PRIMVEC
10.20149092289257 0.0 0.0
-1.700251887645736 2.9449153921660125 0.0
0.0 0.0 17.786370834499653
PRIMCOORD
36 1
Zn   1.700248827198  0.981638464055  2.968151328041 -0.000420632477 -0.000242712138 -0.099266693513
Zn  -0.000000000000  1.963277948260  0.003756188958 -0.000015426619 -0.000008998861 -0.099172848247
O    1.700248827198  0.981638464055  5.215417360463 -0.000236798601 -0.000136782688  0.099106256676
O   -0.000000000000  1.963277948260  2.251022221380  0.000242969249  0.000140382233  0.099159992732
Zn   1.700248827198  0.981638464055  8.896941606208 -0.000062220697 -0.000035995444 -0.099120911964
Zn  -0.000000000000  1.963277948260  5.932546467124  0.000221629093  0.000127783827 -0.098646800541
O    1.700248827198  0.981638464055  11.144207638630 -0.000242197918 -0.000139868012  0.099146880106
O   -0.000000000000  1.963277948260  8.179812499547  0.000212630231  0.000122641621  0.099122197515
Zn   1.700248827198  0.981638464055  14.825731884374 -0.000041908982 -0.000024168370 -0.099144051892
Zn  -0.000000000000  1.963277948260  11.861336745291  0.000472825871  0.000273051156 -0.099384707148
O    1.700248827198  0.981638464055  17.072997916796 -0.000199517605 -0.000115185422  0.099134024590
O   -0.000000000000  1.963277948260  14.108602777713  0.000209287797  0.000120841849  0.099106513786
Zn   5.100745461446  0.981638464055  2.968151328041  0.000066334462  0.000038309437 -0.098955590030
Zn   3.400496634248  1.963277948260  0.003756188958 -0.000203888481 -0.000117756525 -0.099188531977
O    5.100745461446  0.981638464055  5.215417360463 -0.000213401562 -0.000123155841  0.099124511508
O    3.400496634248  1.963277948260  2.251022221380  0.000227285519  0.000131126261  0.099080545644
Zn   5.100745461446  0.981638464055  8.896941606208 -0.000377952165 -0.000218286658 -0.099001098556
Zn   3.400496634248  1.963277948260  5.932546467124  0.000161979499  0.000093588155 -0.098686652640
O    5.100745461446  0.981638464055  11.144207638630 -0.000209802018 -0.000121098959  0.099135053031
O    3.400496634248  1.963277948260  8.179812499547  0.000249139896  0.000143724667  0.099111655992
Zn   5.100745461446  0.981638464055  14.825731884374 -0.000505221771 -0.000291820209 -0.099403476201
Zn   3.400496634248  1.963277948260  11.861336745291 -0.000020311715 -0.000011827075 -0.099418645710
O    5.100745461446  0.981638464055  17.072997916796 -0.000225742858 -0.000130354930  0.099072832334
O    3.400496634248  1.963277948260  14.108602777713  0.000244511911  0.000141153564  0.099157421628
Zn   8.501242095694  0.981638464055  2.968151328041 -0.000043451643 -0.000024939701 -0.099408618407
Zn   6.800994288645  1.963277948260  0.003756188958  0.000623749627  0.000360211553 -0.098843232822
O    8.501242095694  0.981638464055  5.215417360463 -0.000223943085 -0.000129326489  0.099126568391
O    6.800994288645  1.963277948260  2.251022221380  0.000214172893  0.000123670062  0.099137109913
Zn   8.501242095694  0.981638464055  8.896941606208  0.000008484640  0.000004885096 -0.099190845970
Zn   6.800994288645  1.963277948260  5.932546467124  0.000020311715  0.000011827075 -0.098898768650
O    8.501242095694  0.981638464055  11.144207638630 -0.000235255939 -0.000135754247  0.099113969985
O    6.800994288645  1.963277948260  8.179812499547  0.000229085292  0.000132154702  0.099092629829
Zn   8.501242095694  0.981638464055  14.825731884374  0.000155808852  0.000089988611 -0.098874857391
Zn   6.800994288645  1.963277948260  11.861336745291 -0.000039337878 -0.000022625708 -0.099502977893
O    8.501242095694  0.981638464055  17.072997916796 -0.000268937391 -0.000155294631  0.099098286256
O    6.800994288645  1.963277948260  14.108602777713  0.000225742858  0.000130354930  0.099082602526