# total energy = -9840.228448220778 eV

CRYSTAL
PRIMVEC
3.2697087105441125 0.0 0.0
-3.2697087105441125 5.66330224180664 0.0
0.0 0.0 4.96177315912456
PRIMCOORD
8 1
Zn   1.658183399951  0.899901656209  2.440734556597 -0.144502682532  0.892839226906 -0.248492749663
Zn  -0.046975578074  1.821863710117 -0.045452874727  0.437989480408  0.578333917797 -0.176489519852
O    1.623130814690  0.965177139994  4.386591506494 -0.393539477624 -0.737587019166  0.042391063372
O   -0.002466341280  1.911014606906  1.872543214218  0.103800062607 -0.346283629961  0.633970276215
Zn   0.036982367341  3.766103135115  2.461491648404 -0.608548750818 -0.140349065375 -0.578851995084
Zn  -1.661472399943  4.682622758874 -0.047559221078  0.291046049644  0.199221671342  0.085588938915
O    0.003685942629  3.751527754596  4.366191139907 -0.344626039753  0.011012806171  0.760173646217
O   -1.672869623595  4.738764638347  1.944397351928  0.658381358069 -0.457187907713 -0.518289660120