# total energy = -9840.521534417205 eV

CRYSTAL
PRIMVEC
6.408629157334813 0.0 0.0
-1.6021572893337033 2.775019737305019 0.0
0.0 0.0 5.276371783704371
PRIMCOORD
8 1
Zn   1.602157289334  0.925006151860  2.641527991958  0.000190261634  0.000109786105  0.189272016328
Zn   0.000000000000  1.850011662857  0.003342740968 -0.000183062545 -0.000105672340  0.189289499830
O    1.602157289334  0.925006151860  4.641498372781 -0.000038566547 -0.000022368598 -0.189292842264
O    0.000000000000  1.850011662857  2.003313121792  0.000066077351  0.000038309437 -0.189289242720
Zn   4.806471868001  0.925006151860  2.641527991958  0.000159665506  0.000092302603  0.189272016328
Zn   3.204314578667  1.850011662857  0.003342740968 -0.000174577905 -0.000100787244  0.189310582876
O    4.806471868001  0.925006151860  4.641498372781 -0.000058621152 -0.000033938562 -0.189282300741
O    3.204314578667  1.850011662857  2.003313121792  0.000038566547  0.000022368598 -0.189279986748