# total energy = -9840.124844006017 eV

CRYSTAL
PRIMVEC
3.2043145786674065 0.0 0.0
-1.6021572893337033 2.775016532990441 0.0
0.0 0.0 10.345824953491293
PRIMCOORD
8 1
Zn   1.643847344591  0.914664226557  2.574969892118 -0.185556772260  0.441747147678 -0.297374048745
Zn  -0.077515573973  1.753710474235 -0.016313165520  1.653138085847  0.809053145527 -0.052931815002
O    1.659088666884  0.891504722508  4.510982794815 -0.272981221723  0.274733171417  0.234608535482
O    0.014164031732  1.894274141858  1.900743973423  0.255397447203 -0.494103549792  0.434893357981
Zn   1.643246856039  0.855691059757  7.780294972122 -0.637247918525 -0.530393128252 -0.794434881393
Zn   0.023067860652  1.852040314416  5.163460069170  0.231105664535 -0.310142918375  0.621855752339
O    1.701309677067  0.868334323790  9.647239194506 -1.710312221065 -0.822024875196  0.997132169988
O   -0.006169266858  1.721365802447  7.186079827161  0.666456935988  0.631131264104 -1.143748813540