# total energy = -14759.474002235569 eV

CRYSTAL
PRIMVEC
3.531285238050934 0.0 0.0
-1.765642619025467 3.0581812982830603 0.0
0.0 0.0 16.076144264659735
PRIMCOORD
12 1
Zn   1.765642619025  1.019394119223  2.682752355071  0.000000000000  0.000000000000 -0.151157983065
Zn  -0.000000000000  2.038788591574  0.003395330756  0.000000000000 -0.000000000000 -0.151054881829
O    1.765642619025  1.019394119223  4.713934558243  0.000000000000 -0.000000000000  0.150510065069
O   -0.000000000000  2.038788591574  2.034577533928  0.000000000000  0.000000000000  0.150542975189
Zn   1.765642619025  1.019394119223  8.041466403701  0.000000000000  0.000000000000 -0.150144454199
Zn  -0.000000000000  2.038788591574  5.362109379386  0.000000000000  0.000000000000 -0.150352199335
O    1.765642619025  1.019394119223  10.072648606872  0.000000000000  0.000000000000  0.150624222049
O   -0.000000000000  2.038788591574  7.393291582557  0.000000000000  0.000000000000  0.150711382446
Zn   1.765642619025  1.019394119223  13.400180805459  0.000000000000 -0.000000000000 -0.149974504280
Zn  -0.000000000000  2.038788591574  10.720823781144  0.000000000000  0.000000000000 -0.150760233406
O    1.765642619025  1.019394119223  15.431363008630  0.000000000000  0.000000000000  0.150538604314
O   -0.000000000000  2.038788591574  12.752005984315  0.000000000000 -0.000000000000  0.150517007047