# total energy = -19678.51194740533 eV

CRYSTAL
PRIMVEC
3.2697087105441125 0.0 0.0
-3.2697087105441125 5.66330224180664 0.0
0.0 0.0 9.712404878265733
PRIMCOORD
16 1
Zn   1.623814183811  0.905619068860  2.419755124597  0.406778087802 -0.144042969287 -2.747086430925
Zn   0.072792871081  1.858711038489 -0.085040218998 -1.521305028362  0.867860188363  0.445589404242
O    1.696553758640  0.945177639695  4.190363534910 -0.357779803526 -0.093555759171  3.794339428829
O    0.115653193772  1.990085972653  1.821740115128 -0.542843952421 -2.419916896086  0.087620110413
Zn   1.719774248990  0.948992081877  7.332418893744 -0.288309881660 -0.022751434764 -1.517967993569
Zn  -0.004527565651  1.955995662666  4.893142627232  0.318895724867 -1.319753937556 -0.891411750430
O    1.568229135732  0.927073589535  9.158189578799  1.723327659488 -0.463885374338  0.669566685262
O    0.015624957015  2.012474322136  6.843255429986  0.346946717466 -3.464165302836 -0.850649480911
Zn   0.011031997189  3.703510774298  2.402429265111  0.282342865443  1.655179284647 -0.853283061880
Zn  -1.564245649610  4.726607861361 -0.055941773300  0.832631961288 -0.440001368631 -0.207413463124
O   -0.145566123910  3.739944484518  4.263432369406  0.900321137105  0.668903083536  1.401274877050
O   -1.583250831490  4.651502652280  1.826246100702 -0.275447938096  0.818269007698  1.080495047787
Zn  -0.001061020477  3.736437394955  7.171970363667 -0.020112454479  2.724100768663  1.727417770397
Zn  -1.672248051969  4.655030014037  4.968810226211 -0.654821151522  0.738253191995 -4.006553912887
O    0.159448653153  3.756202784110  9.197997301438 -1.258008123807  0.109190894605 -1.048482499436
O   -1.639410040418  4.717937901744  6.719012057491  0.107384694634  0.786316880272  2.916544754962