# total energy = -14751.692414765277 eV

CRYSTAL
PRIMVEC
3.0081163077210396 0.0 0.0
-4.5121744615815595 7.815314784298647 0.0
0.0 0.0 4.661930523845144
PRIMCOORD
12 1
Zn   1.445038009468  0.882187562261  2.316336491506  1.510143355319 -0.885175796823  0.219936535292
Zn   0.001985356763  1.776926189004  0.053410007478  1.829268936808 -1.426632639088 -3.419582888240
O    1.616617353921  0.916325470990  4.126452430980 -1.985658600586 -0.698225743760 -0.573820346198
O    0.029056899474  1.715954378751  1.712504370158 -1.429543642088  1.407954860173  5.109049890424
Zn   0.067971095278  3.532723369062  2.440810840262  0.437622069766 -0.371351114453 -5.199552978812
Zn  -1.521411375217  4.327152446973  0.059484296739  0.067691489810  0.918465155004 -9.039546200925
O    0.053821216978  3.391028456880  4.085823007258 -0.671136343742  2.426473723368  3.323857118000
O   -1.395872454100  4.319019402912  1.631252140570  0.415267870440 -0.895180987665  9.031892283924
Zn  -1.490420557768  6.020796830316  2.298165964950  1.921456097766 -0.277233312131 -0.662813939919
Zn  -3.086045170412  7.011754268524  0.031912805097  0.994927191917 -0.111520571180 -1.419042485446
O   -1.487181418128  6.123890089979  4.058853740501 -1.251434327244 -1.176873621119  1.727744300499
O   -2.895786626935  6.907434599842  1.791049295068 -1.838603841055  1.089299790563  0.901878968510