# total energy = -14757.320533181126 eV

CRYSTAL
PRIMVEC
3.465873114149145 0.0 0.0
-5.198809671223717 9.004601756916154 0.0
0.0 0.0 5.035646762628918
PRIMCOORD
12 1
Zn   1.686381909643  1.019916344793  2.533209085243  0.110796548529  0.519023967183 -0.143601253764
Zn  -0.138266848841  2.066017707551  0.055963106587  0.407118244750 -0.558724113986 -3.457873299179
O    2.108468414628  0.881166006652  4.449584601805 -1.839822801064 -1.559606495046 -1.244598792380
O    0.069952756825  2.046773793672  1.736371930505  0.892525552320 -0.258592299991  5.990282643439
Zn   0.015128189556  4.257384608259  2.654901089090  0.206518719224 -1.172093426121 -1.475559189586
Zn  -1.857934310698  5.069318413108 -0.176104132216  0.255437813522 -1.264606345850  1.137632673340
O   -0.068924085685  3.840992186214  4.507590840592  0.236020328228  2.528531349362 -0.068400600062
O   -1.675838377043  5.005685329319  1.985905436867 -0.673312782568  0.636474787804 -0.382095754564
Zn  -2.041618307415  6.965262607661  2.597742602866  0.541452728500  0.063041135522 -1.385427111384
Zn  -3.583521830422  7.895782647459  0.199659938836 -0.438923819296  0.476944521515 -7.305728440539
O   -1.694464325746  6.934511301869  4.400064553337  0.170334041773  0.084973416819  1.391314423403
O   -3.412759301849  8.018297102997  1.819877290968  0.131855168972  0.504633502789  6.944054701275