# total energy = -9838.086913671126 eV

CRYSTAL
PRIMVEC
7.193359269032489 0.0 0.0
-1.7983398172581222 3.114818077161565 0.0
0.0 0.0 5.806328541418375
PRIMCOORD
8 1
Zn   1.741934529222  1.051277806388  3.009124610750 -0.029148082319 -0.015976835044 -0.491721422713
Zn  -0.048046604566  2.084197440586 -0.074387247537  0.192502350340  0.049820780177  0.425439411657
O    1.760365354341  1.013043663202  5.127030852207  0.061630628328  0.087907302636  0.165120358783
O    0.010968434213  2.118155131687  2.283329047223 -0.309916918407 -0.164041781007  0.085117655706
Zn   5.345699622618  1.009276500952  3.043934714925  0.047917649617  0.019522900524 -0.555374995008
Zn   3.585268808708  2.079495141632  0.014055824012 -0.189232164229 -0.051516679822  0.272568045445
O    5.404393118238  1.013065962615  5.118396663076 -0.188425866278  0.050930725412  0.336091519919
O    3.477057666552  2.114827483690  2.334516272445  0.414672145838  0.023353587124 -0.237240316678