# total energy = -14759.129279853174 eV

CRYSTAL
PRIMVEC
3.5312667168486422 0.0 0.0
-5.296900075272964 9.174499306643252 0.0
0.0 0.0 5.472700657504556
PRIMCOORD
12 1
Zn   1.784265381002  1.015746977248  2.785160556693 -0.019289958578  0.071708324279 -0.454252479234
Zn  -0.018894748822  1.998288394177 -0.030129827008  0.175199854506  0.393038112508  0.283998655879
O    1.821857127710  1.037620349545  4.809969117040 -0.280517125088 -0.115903273628  0.187011245319
O    0.008446789987  2.046130701910  2.087004407905  0.006476351753 -0.179228258939 -0.071969291249
Zn  -0.014417455752  4.097386331207  2.720891502446 -0.007168749834 -0.005591892265 -0.028458255341
Zn  -1.715492902312  5.079421011362 -0.032420912854 -0.214524363137  0.228720709242  0.095461460834
O   -0.034595820025  4.102375304825  4.782584849904  0.220993001581 -0.249459484452  0.298714364823
O   -1.795537890616  5.099032960454  2.135237979990  0.108615224607 -0.016378441358 -0.455971261697
Zn  -1.749424491067  7.139147443259  2.694646421953 -0.087495669020 -0.146828245342  0.277575525961
Zn  -3.525379035852  8.195323540022  0.021230328628  0.040185313970 -0.416754996509 -0.139870840187
O   -1.730716193128  7.156268789936  4.805516189710 -0.070667284609  0.080055667802  0.187261413656
O   -3.544556639138  8.117061841410  2.105535083128  0.128193146739  0.356621778662 -0.179500538764