# total energy = -9839.93121664213 eV

CRYSTAL
PRIMVEC
3.2043145786674065 0.0 0.0
-3.2043145786674065 5.55003627029546 0.0
0.0 0.0 5.0694531697869225
PRIMCOORD
8 1
Zn   1.615886495577  0.939384872669  2.488534788085  0.285100887804  0.355965376025  0.792917673418
Zn  -0.034013158390  1.812085715935  0.013588857265  0.194711185066  0.831174917127  0.106376050864
O    1.582513559241  0.938572258491  4.515063168999 -0.105646886008  0.252119547782 -0.533749189208
O    0.031705411030  1.819189681356  1.988092307112 -0.418478921178  1.225926412781 -0.365149356517
Zn  -0.016750874891  3.748008577392  2.631839746829 -0.291117012091 -0.357008215468 -2.551947671403
Zn  -1.629230863640  4.660439076256  0.002136957393  0.056273477781 -0.421578643150  0.326818579258
O   -0.020491271299  3.757750334574  4.416182186710 -0.126651256173 -0.659224422796  2.673517656399
O   -1.662510233991  4.695993509958  1.967027463503  0.405808267689 -1.227374972302 -0.448783742810