# total energy = -19667.389476430497 eV

CRYSTAL
PRIMVEC
6.016263836897371 0.0 0.0
-3.0081319184486857 5.210234889349047 0.0
0.0 0.0 4.4677076065991725
PRIMCOORD
16 1
Zn   1.504065959224  0.868373083185  2.236683853808  0.000033167231  0.000019283274 -3.252828079177
Zn  -0.000000000000  1.736745564743  0.002830652135  0.000000000000 -0.000009770192 -3.252763287377
O    1.504065959224  0.868373083185  3.930136383981 -0.000007970420 -0.000004627986  3.252808795903
O   -0.000000000000  1.736745564743  1.696282580681 -0.000000000000  0.000008998861  3.252777428445
Zn   0.000000000000  3.473491731112  2.236683853808  0.000000000000  0.000000000000 -3.252836820928
Zn  -1.504065959224  4.341864212670  0.002830652135 -0.000008484640  0.000004885096 -3.252763287377
O    0.000000000000  3.473491731112  3.930136383981  0.000000000000  0.000000000000  3.252813423889
O   -1.504065959224  4.341864212670  1.696282580681  0.000007713309 -0.000004627986  3.252777428445
Zn   4.512197877673  0.868373083185  2.236683853808 -0.000033167231  0.000019283274 -3.252828079177
Zn   3.008131918449  1.736745564743  0.002830652135  0.000000000000  0.000000000000 -3.252744775435
O    4.512197877673  0.868373083185  3.930136383981  0.000007970420 -0.000004627986  3.252808795903
O    3.008131918449  1.736745564743  1.696282580681  0.000000000000  0.000000000000  3.252782570651
Zn   3.008131918449  3.473491731112  2.236683853808 -0.000000000000 -0.000038309437 -3.252828079177
Zn   1.504065959224  4.341864212670  0.002830652135  0.000008484640  0.000004885096 -3.252763287377
O    3.008131918449  3.473491731112  3.930136383981 -0.000000000000  0.000009255971  3.252808795903
O    1.504065959224  4.341864212670  1.696282580681 -0.000007713309 -0.000004627986  3.252777428445