# total energy = -9840.275866914359 eV

CRYSTAL
PRIMVEC
6.408629157334813 0.0 0.0
-1.6021572893337033 2.775019737305019 0.0
0.0 0.0 5.586748102423253
PRIMCOORD
8 1
Zn   1.660425827358  0.938739844144  2.757454966511 -0.969014328706 -0.105882399057  0.801862284205
Zn  -0.030178234702  1.839571365096  0.020374954680  0.072475798572 -0.066949983658  0.170313730058
O    1.580528165928  0.908928823893  4.959750896735  0.086359755643  0.103446793032 -0.704694639313
O   -0.028374205594  1.884916261562  2.121385705387  0.116198950492 -0.499578456864 -0.192308746272
Zn   4.810102356419  0.852393179193  2.746625024098  0.132589218924  0.692457216707  0.685323433876
Zn   3.243066918319  1.771334204418  0.017518628664 -0.369628218224  0.150243184561 -0.081562334255
O    4.801005307330  0.858681966985  4.916546482407  0.232508201309 -0.076482605739 -0.671599913642
O    3.176889491052  1.842601364962  2.044395639005  0.698510879100 -0.197253491872 -0.007333814657