# total energy = -9839.801655080131 eV

CRYSTAL
PRIMVEC
3.531285238050934 0.0 0.0
-1.765642619025467 3.0581812982830603 0.0
0.0 0.0 10.261367552564115
PRIMCOORD
8 1
Zn   1.765642619025  1.019394119223  2.568592612767  0.000000000000  0.000000000000 -0.576221242330
Zn  -0.000000000000  2.038788591574  0.003250901190  0.000000000000  0.000000000000 -0.576428987465
O    1.765642619025  1.019394119223  4.513341665938  0.000000000000  0.000000000000  0.576159021633
O   -0.000000000000  2.038788591574  1.947999601233  0.000000000000  0.000000000000  0.576126625733
Zn   1.765642619025  1.019394119223  7.699276389049  0.000000000000  0.000000000000 -0.576109913563
Zn  -0.000000000000  2.038788591574  5.133934677472  0.000000000000  0.000000000000 -0.575949990946
O    1.765642619025  1.019394119223  9.644025442220  0.000000000000 -0.000000000000  0.576197331070
O   -0.000000000000  2.038788591574  7.078683377515  0.000000000000  0.000000000000  0.576226898757