# total energy = -44282.685116800174 eV

CRYSTAL
PRIMVEC
3.335102842420818 0.0 0.0
-5.002654263631227 8.664850652425308 0.0
0.0 0.0 15.829111802137481
PRIMCOORD
36 1
Zn   1.667551421210  0.962761146546  2.641528185105  0.000000000000  0.000120584738 -0.132051601253
Zn   0.000000000000  1.925522626603  0.003343107089  0.000000000000 -0.000024425480 -0.132056486349
O    1.667551421210  0.962761146546  4.641498311397  0.000000000000  0.000092045493  0.132106879971
O    0.000000000000  1.925522626603  2.003313233381  0.000000000000 -0.000051164953  0.132138761650
Zn   1.667551421210  0.962761146546  7.917898341137  0.000000000000  0.000044222974 -0.132211523870
Zn   0.000000000000  1.925522626603  5.279713263121  0.000000000000 -0.000085360625 -0.132088110918
O    1.667551421210  0.962761146546  9.917868467430  0.000000000000  0.000058878262  0.132099423772
O    0.000000000000  1.925522626603  7.279683389414  0.000000000000 -0.000062477807  0.132101480655
Zn   1.667551421210  0.962761146546  13.194268163659  0.000000000000  0.000098216141 -0.132079369167
Zn   0.000000000000  1.925522626603  10.556083419153  0.000000000000 -0.000060678035 -0.132185298618
O    1.667551421210  0.962761146546  15.194238623462  0.000000000000  0.000084589294  0.132199953906
O    0.000000000000  1.925522626603  12.556053545446  0.000000000000 -0.000029310576  0.132130277010
Zn   0.000000000000  3.851044919695  2.641528185105  0.000000000000  0.000079447088 -0.131971897055
Zn  -1.667551421210  4.813806399751  0.003343107089  0.000000000000 -0.000098987472 -0.132121278149
O    0.000000000000  3.851044919695  4.641498311397  0.000000000000  0.000037023886  0.132116393053
O   -1.667551421210  4.813806399751  2.003313233381  0.000000000000 -0.000115442532  0.132179127970
Zn   0.000000000000  3.851044919695  7.917898341137  0.000000000000  0.000111328767 -0.132235692240
Zn  -1.667551421210  4.813806399751  5.279713263121  0.000000000000 -0.000056307159 -0.132196354361
O    0.000000000000  3.851044919695  9.917868467430  0.000000000000  0.000061963586  0.132136447658
O   -1.667551421210  4.813806399751  7.279683389414  0.000000000000 -0.000034195672  0.132076540954
Zn   0.000000000000  3.851044919695  13.194268163659  0.000000000000  0.000091788383 -0.132105337309
Zn  -1.667551421210  4.813806399751  10.556083419153  0.000000000000 -0.000094873707 -0.132204581891
O    0.000000000000  3.851044919695  15.194238623462  0.000000000000  0.000021597267  0.132167558006
O   -1.667551421210  4.813806399751  12.556053545446  0.000000000000 -0.000070191116  0.132106365751
Zn  -1.667551421210  6.739328692843  2.641528185105  0.000000000000  0.000048593850 -0.132021519346
Zn  -3.335102842421  7.702090172900  0.003343107089  0.000000000000 -0.000076875985 -0.132044916385
O   -1.667551421210  6.739328692843  4.641498311397  0.000000000000  0.000039080768  0.132158044924
O   -3.335102842421  7.702090172900  2.003313233381  0.000000000000 -0.000019283274  0.132145703629
Zn  -1.667551421210  6.739328692843  7.917898341137  0.000000000000  0.000065820241 -0.132230292923
Zn  -3.335102842421  7.702090172900  5.279713263121  0.000000000000 -0.000112871429 -0.132109965295
O   -1.667551421210  6.739328692843  9.917868467430  0.000000000000  0.000057335600  0.132107394192
O   -3.335102842421  7.702090172900  7.279683389414  0.000000000000 -0.000087931728  0.132088882249
Zn  -1.667551421210  6.739328692843  13.194268163659  0.000000000000  0.000066591572 -0.132126420355
Zn  -3.335102842421  7.702090172900  10.556083419153  0.000000000000 -0.000076104654 -0.132275801449
O   -1.667551421210  6.739328692843  15.194238623462  0.000000000000  0.000063249138  0.132159073365
O   -3.335102842421  7.702090172900  12.556053545446  0.000000000000 -0.000085874846  0.132098138221