# total energy = -14759.027195394203 eV

CRYSTAL
PRIMVEC
10.397673847699894 0.0 0.0
-1.7329491071745982 3.001548497984767 0.0
0.0 0.0 5.371386321352527
PRIMCOORD
12 1
Zn   1.712345076678  0.890323698092  2.556275393829  0.511005467754 -0.055123423337 -0.022531605444
Zn   0.157742070176  1.941378797591 -0.160135614696 -2.303882496196  0.508804346338  1.022907222070
O    1.716736014344  1.157299570642  4.711136111558  1.610920571939 -1.447409980845 -0.902746458717
O    0.058576335388  1.798864120765  1.992503120133  0.031020616751  1.118015156219 -0.106664528639
Zn   5.174970103300  0.908976085207  2.701002695650  0.488570278679  0.458356474100 -0.467780338517
Zn   3.441032177342  1.830545832979 -0.149356346218  0.667174273770  0.793203580089  0.837482347402
O    5.235362912310  1.100129000758  4.817245412942 -1.203504336332 -1.145297388974 -1.083601968847
O    3.512456918304  1.976840064248  2.078036464739 -0.463100673653 -0.467550481894 -0.092222642182
Zn   8.683885573892  1.089447470414  2.758428008543 -0.541677442917 -0.430997108250 -1.247343445004
Zn   6.731977051995  2.099589802857 -0.066575265879  1.605797648890  0.935399725976  0.724241708207
O    8.800552673300  1.076642735071  4.681521456905 -0.393573159076 -0.170261022444  0.374094738636
O    6.932816440503  2.008890893884  1.923889910179 -0.008750492499 -0.097140134088  0.964164971034