# total energy = -9840.28134456593 eV

CRYSTAL
PRIMVEC
6.800993948595047 0.0 0.0
-1.7002484871487618 2.944918792662987 0.0
0.0 0.0 5.270035802814713
PRIMCOORD
8 1
Zn   1.618306031460  0.981854055564  2.586885226935  0.418905210083 -0.305481508343  0.273473073757
Zn  -0.027678685172  2.006259209866 -0.032733863974  0.068713760427 -0.094698357416 -0.136057379979
O    1.651516645109  0.989071270342  4.624068556285  0.290888441020  0.167379072910  0.255371993281
O   -0.036171766415  1.844116713137  1.982462532040 -0.022552174269  0.690653844950  0.094990434735
Zn   5.071531111841  1.020653726040  2.611907443871  0.014607465501 -0.496338352660  0.442026112371
Zn   3.364076291504  2.015609896446  0.059429805520  0.084665398660 -0.156288362314 -0.320658473194
O    5.113604100705  1.015111596072  4.689687266299 -0.499666645702 -0.177898998605 -0.011781051795
O    3.379183339362  1.894176109195  2.120988577282 -0.355561455719  0.372672147257 -0.597365223397