# total energy = -14758.353184926342 eV

CRYSTAL
PRIMVEC
9.61294373600222 0.0 0.0
-1.6021604936482823 2.775016532990441 0.0
0.0 0.0 5.3798262841912265
PRIMCOORD
12 1
Zn   1.689172053875  0.946173213103  2.742734345336 -1.875954256679 -0.262006724989  1.002939006478
Zn  -0.069012284375  1.813451074377 -0.042392120581  0.050869790267 -4.494461618281  1.586521317159
O    1.588550487907  0.666489421576  4.887589732423  0.572164812872  5.628883240883 -2.221813140398
O   -0.115245737273  1.972561635212  2.042649607991  1.734148918473 -0.216035143355  0.156939879855
Zn   4.788220733024  0.935761433743  2.702522440394  0.867918038184  0.416631840667  0.166537293735
Zn   3.280637186322  1.784068150553  0.188371400273 -1.425929699484  0.184451197901 -2.801695119409
O    4.742822644936  0.963120832910  4.773860917671 -1.314342279622 -1.909430019839 -1.500337424972
O    3.119264699826  1.819969611524  1.949408860224  1.107579562708  1.123184102015  2.895476364327
Zn   8.230741814449  0.792577598090  2.667923533300 -1.169444675644  1.594702310308  0.909981543013
Zn   6.353135876167  1.594452835361 -0.138936837111  1.567620623599  1.588082748108  1.305915231901
O    7.955909675626  0.750339284608  5.014358505353  1.101495047077 -0.440764986270 -1.158388417830
O    6.523070611649  1.875318057673  2.165489570816 -1.216125881751 -3.213236690038 -0.342076276748