# total energy = -19677.726808639014 eV

CRYSTAL
PRIMVEC
3.00813218303729 0.0 0.0
-3.00813218303729 5.210238355761922 0.0
0.0 0.0 10.683646163689044
PRIMCOORD
16 1
Zn   1.504066091519  0.868372858752  2.674296291255  0.000000000000 -0.000116213863  1.353681957762
Zn   0.000000000000  1.736746018316  0.003384449519  0.000000000000  0.000297733746  1.353467784869
O    1.504066091519  0.868372858752  4.699076380735  0.000000000000  0.000112871429 -1.353620765507
O    0.000000000000  1.736746018316  2.028164538999  0.000000000000 -0.000088703059 -1.353615366190
Zn   1.504066091519  0.868372858752  8.016119974726  0.000000000000 -0.000178948780  1.353586055614
Zn   0.000000000000  1.736746018316  5.345208132990  0.000000000000  0.000281792906  1.353952437815
O    1.504066091519  0.868372858752  10.040900064206  0.000000000000  0.000124698503 -1.353737236480
O    0.000000000000  1.736746018316  7.369988222470  0.000000000000 -0.000086389066 -1.353673987342
Zn   0.000000000000  3.473491735819  2.674296291255  0.000000000000 -0.000390807681  1.353785573220
Zn  -1.504066091519  4.341864895384  0.003384449519  0.000000000000  0.000241683697  1.353435388969
O    0.000000000000  3.473491735819  4.699076380735  0.000000000000  0.000082275301 -1.353615366190
O   -1.504066091519  4.341864895384  2.028164538999  0.000000000000 -0.000116470973 -1.353650076083
Zn   0.000000000000  3.473491735819  8.016119974726  0.000000000000 -0.000285135341  1.353578085195
Zn  -1.504066091519  4.341864895384  5.345208132990  0.000000000000  0.000165579044  1.353898187538
O    0.000000000000  3.473491735819  10.040900064206  0.000000000000  0.000050136512 -1.353737750701
O   -1.504066091519  4.341864895384  7.369988222470  0.000000000000 -0.000094616596 -1.353734408267