# total energy = -14755.605329994938 eV

CRYSTAL
PRIMVEC
9.220578415564779 0.0 0.0
-1.536766142786935 2.6617504741131626 0.0
0.0 0.0 4.664063621101962
PRIMCOORD
12 1
Zn   1.536763376613  0.887250158038  2.334987927991  0.000545073870  0.000314703027 -1.739833627563
Zn  -0.000000000000  1.774501238133  0.002955195382 -0.000324730329 -0.000187433420 -1.740071197495
O    1.536763376613  0.887250158038  4.102868790822 -0.000053993166 -0.000031110348  1.739957554735
O   -0.000000000000  1.774501238133  1.770836058213  0.000052707615  0.000030339017  1.739957040515
Zn   4.610289207782  0.887250158038  2.334987927991  0.000679542566  0.000392350342 -1.740242175855
Zn   3.073525831169  1.774501238133  0.002955195382 -0.000307761048 -0.000177663228 -1.739782719720
O    4.610289207782  0.887250158038  4.102868790822 -0.000045765636 -0.000026482363  1.739936214579
O    3.073525831169  1.774501238133  1.770836058213  0.000052450504  0.000030339017  1.739939299903
Zn   7.683815038951  0.887250158038  2.334987927991 -0.000136268468 -0.000078675757 -1.740063741296
Zn   6.147052584396  1.774501238133  0.002955195382 -0.000428860007 -0.000247597234 -1.739650307908
O    7.683815038951  0.887250158038  4.102868790822 -0.000043965864 -0.000025453921  1.739934929028
O    6.147052584396  1.774501238133  1.770836058213  0.000011569964  0.000006684868  1.739918731078