# total energy = -14759.41094869716 eV

CRYSTAL
PRIMVEC
3.0735263149139955 0.0 0.0
-1.5367631574569978 2.6617506268733933 0.0
0.0 0.0 15.778439101821382
PRIMCOORD
12 1
Zn   1.536763157457  0.887250516310  2.633071860182  0.000000000000 -0.000000000000  0.790514977513
Zn  -0.000000000000  1.774501339973  0.003332317231  0.000000000000 -0.000000000000  0.790569484900
O    1.536763157457  0.887250516310  4.626639710308  0.000000000000 -0.000000000000 -0.790454042368
O   -0.000000000000  1.774501339973  1.996900167358  0.000000000000  0.000000000000 -0.790474868304
Zn   1.536763157457  0.887250516310  7.892551253436  0.000000000000  0.000000000000  0.790514720403
Zn  -0.000000000000  1.774501339973  5.262811710485  0.000000000000  0.000000000000  0.790351712463
O    1.536763157457  0.887250516310  9.886119103563  0.000000000000  0.000000000000 -0.790453785258
O   -0.000000000000  1.774501339973  7.256379560612  0.000000000000  0.000000000000 -0.790478724959
Zn   1.536763157457  0.887250516310  13.152030339338  0.000000000000  0.000000000000  0.790457899023
Zn  -0.000000000000  1.774501339973  10.522290796387  0.000000000000  0.000000000000  0.790417532704
O    1.536763157457  0.887250516310  15.145598496817  0.000000000000 -0.000000000000 -0.790497236902
O   -0.000000000000  1.774501339973  12.515858646514  0.000000000000  0.000000000000 -0.790467412105