# total energy = -9828.372986919894 eV

CRYSTAL
PRIMVEC
5.88547557314396 0.0 0.0
-1.47136889328599 2.5484874343537856 0.0
0.0 0.0 4.37058358799457
PRIMCOORD
8 1
Zn   1.474017357294  0.913281614800  2.249118010945 -0.270357925167  0.122369855189 -6.688246906008
Zn   0.075823758904  1.698279284176  0.041299559192 -2.577057579097  1.037497461179 -3.330014652961
O    1.436394454693  0.879596683905  3.839701920346  2.727927084388 -1.375594184454  7.016319669388
O    0.006591732642  1.765572634784  1.695153508099 -1.073238880445 -0.300159839020  3.413169528514
Zn   4.418536088774  0.894008447941  2.261010791436  1.058080684647 -1.375294908046 -10.824958545559
Zn   3.033059826003  1.754776906940  0.036398135135 -1.890468648245  0.903761273135 -6.879828287195
O    4.370368179589  0.867995823003  3.802103736742  2.011191454750 -0.426515675440  9.774410936064
O    2.939504894840  1.616015637900  1.607592345259  0.013924066280  1.413936017457  7.519148771978