# total energy = -19679.878431265006 eV

CRYSTAL
PRIMVEC
3.2043145786674065 0.0 0.0
-3.2043145786674065 5.55003627029546 0.0
0.0 0.0 10.138906339573845
PRIMCOORD
16 1
Zn   1.611541124577  0.936698054894  2.622126828478 -0.076748200695  0.091822321420 -1.685559953821
Zn   0.006676189425  1.839838925364  0.030066083692 -0.390720263008  0.677121871902 -0.828779677422
O    1.648549676235  0.825581076956  4.481998808156  0.102823300516  1.691594590051  0.393997905318
O   -0.010709460185  1.912712408806  1.914793611125  0.122694842629 -0.512450170620  1.020865509050
Zn   1.497885688629  0.874540440266  7.609828640851  0.509279229092  0.594112006567 -0.210055014512
Zn   0.088787391366  1.843355981045  5.053548874807 -0.333643315489  0.158459401823  0.591256796507
O    1.570966811656  0.942720243714  9.542702276555  0.361837261425  0.294989607673 -0.049924909855
O   -0.031932596934  1.900846511490  7.028951455325 -0.479746252629 -0.691321303330 -0.595748513729
Zn   0.119599759923  3.735542191523  2.572650288795 -0.678287610075  0.119010708909 -0.938451368318
Zn  -1.588414624969  4.655225976868 -0.027452324290 -0.537117591460 -0.375458708863 -0.494044157309
O   -0.025083694953  3.707986047441  4.450423492298  1.045709821787 -0.699816485286  0.424491188811
O   -1.584193260943  4.646112265343  1.852951621482  0.625033121626  0.321187092004  1.129064729165
Zn  -0.083597363043  3.749879256243  7.621123849741 -0.046482716943 -0.546401844975 -1.517583870757
Zn  -1.510800678539  4.636245860324  5.063490581219 -1.006898762457 -1.080115810071  0.841281666543
O   -0.054496418902  3.759356016609  9.419835077056  0.646234952515 -0.617497475371  2.552445179865
O   -1.689584128730  4.590569958162  7.004278233069  0.136031926057  0.574764455279 -0.633255766646