# total energy = -29520.04042329988 eV

CRYSTAL
PRIMVEC
3.2043145786674065 0.0 0.0
-3.2043145786674065 5.55003627029546 0.0
0.0 0.0 14.897986394956465
PRIMCOORD
24 1
Zn   1.602157289334  0.925005831428  2.486144048978  0.000000000000 -0.000371524407 -0.619549215693
Zn  -0.000000000000  1.850011983288  0.003146316485  0.000000000000  0.000246568793 -0.619483909673
O    1.602157289334  0.925005831428  4.368469301771  0.000000000000  0.000036252555  0.619175891514
O   -0.000000000000  1.850011983288  1.885471248847  0.000000000000 -0.000035481224  0.619196974560
Zn   1.602157289334  0.925005831428  7.452139834394  0.000000000000 -0.000109271884 -0.619005170264
Zn  -0.000000000000  1.850011983288  4.969141781470  0.000000000000  0.000304675725 -0.619226542247
O    1.602157289334  0.925005831428  9.334464766757  0.000000000000  0.000025196811  0.619179233948
O   -0.000000000000  1.850011983288  6.851467034264  0.000000000000 -0.000037795216  0.619174091742
Zn   1.602157289334  0.925005831428  12.418135299380  0.000000000000 -0.000192318516 -0.619063020086
Zn  -0.000000000000  1.850011983288  9.935137566887  0.000000000000  0.000299533518 -0.618792797143
O    1.602157289334  0.925005831428  14.300460231742  0.000000000000  0.000034709893  0.619198517222
O   -0.000000000000  1.850011983288  11.817462499249  0.000000000000 -0.000038052327  0.619195946119
Zn   0.000000000000  3.700023646145  2.486144048978  0.000000000000 -0.000242712138 -0.619457170200
Zn  -1.602157289334  4.625029798004  0.003146316485  0.000000000000  0.000242712138 -0.619515277132
O    0.000000000000  3.700023646145  4.368469301771  0.000000000000  0.000042166092  0.619199031443
O   -1.602157289334  4.625029798004  1.885471248847  0.000000000000 -0.000039594989  0.619186690148
Zn   0.000000000000  3.700023646145  7.452139834394  0.000000000000 -0.000433230883 -0.618894612829
Zn  -1.602157289334  4.625029798004  4.969141781470  0.000000000000  0.000329101205 -0.619352012081
O    0.000000000000  3.700023646145  9.334464766757  0.000000000000  0.000046794078  0.619170235087
O   -1.602157289334  4.625029798004  6.851467034264  0.000000000000 -0.000040880540  0.619189261251
Zn   0.000000000000  3.700023646145  12.418135299380  0.000000000000 -0.000329615425 -0.619003627603
Zn  -1.602157289334  4.625029798004  9.935137566887  0.000000000000  0.000255053434 -0.618887156629
O    0.000000000000  3.700023646145  14.300460231742  0.000000000000  0.000039337878  0.619185404596
O   -1.602157289334  4.625029798004  11.817462499249  0.000000000000 -0.000031367459  0.619179491059