# total energy = -9836.503594130378 eV

CRYSTAL
PRIMVEC
2.9427380511605845 0.0 0.0
-2.9427380511605845 5.0969723842507415 0.0
0.0 0.0 5.130684391364837
PRIMCOORD
8 1
Zn   1.446174479481  0.856445654196  2.535831241410  0.122807199837 -1.542202954857  2.770961180660
Zn  -0.005271620945  1.628633949689  0.099225007252 -0.881670611883  2.279761691889 -0.430118048079
O    1.420083869646  0.794058136142  4.563750309297  0.705468798475  3.654691503286 -3.238774943518
O   -0.019300241782  1.621168811801  1.945868468449 -0.148592279221  1.373679483930 -1.050775666345
Zn  -0.069775261931  3.337573749425  2.631930766578  1.247983392581 -0.267943402188  0.575713449455
Zn  -1.431457552214  4.300384964754  0.003546293625 -0.657983608410 -3.301069944903  3.120449176491
O   -0.003847041454  3.482421201779  4.464714520102  0.918436358648 -2.646752215380  0.375813006879
O   -1.478629348900  4.193314617858  2.000388870597 -1.306449250028  0.449836095334 -2.123268669763