# total energy = -9834.154082973842 eV

CRYSTAL
PRIMVEC
3.0735263149139955 0.0 0.0
-3.0735263149139955 5.323504327273101 0.0
0.0 0.0 4.465597074043787
PRIMCOORD
8 1
Zn   1.564266607686  0.896789512581  2.260950808656 -1.370822988318 -0.029183306432 -6.719360596693
Zn  -0.015183834701  1.682299853463 -0.011872724802  0.735024657756  0.103622399378 -1.451473609391
O    1.562586310850  0.777797019242  3.872426165834 -0.769598024855  0.353483490144  7.538592482525
O   -0.037950980879  1.764035060813  1.772716235890  1.435401129310 -0.163569726466  0.171273522868
Zn  -0.029309454292  3.484501041997  2.230143317638  0.174187096971  2.254369219957 -1.834861343294
Zn  -1.515581336153  4.357386818369  0.026679745177 -0.568828806520 -0.339951002875 -7.185544537257
O   -0.011287832744  3.525233871543  3.999903128566  0.821392898039 -1.413574006132  0.915496559294
O   -1.555352459315  4.504601659743  1.623827859437 -0.456755962382 -0.765197324684  8.565877264838