# total energy = -19676.999626991023 eV

CRYSTAL
PRIMVEC
3.465891106174229 0.0 0.0
-3.465891106174229 6.00310015634018 0.0
0.0 0.0 12.085610809705022
PRIMCOORD
16 1
Zn   1.771248502058  1.152977545533  3.063149360800 -0.203954300931 -0.524412228078  0.058455315923
Zn  -0.013427555324  1.970563928024 -0.014041018049  0.008562801968 -0.079525506330 -0.323109505838
O    1.693578228958  0.981765297601  5.297724424535  0.244422436248  0.244621182523  0.373628083412
O   -0.005817498222  1.997502566647  2.300167746098  0.136366169468 -0.216639609708  0.071018497300
Zn   1.718943006429  0.999495410144  9.077818315064  0.151413550720  0.117834943433  0.079590298130
Zn   0.070684076398  1.928046108879  6.111400588680 -0.239796507440  0.199283377818 -0.378811170275
O    1.705776432706  0.953823976682  11.283030695936  0.097703719901  0.220829222309  0.579983023365
O    0.047459140095  1.988646868282  8.418734411229 -0.177211228509  0.280999464041 -0.172975336051
Zn   0.010314838521  3.994127916255  3.035258988480 -0.010664678803  0.287372714558 -0.222158739754
Zn  -1.714752050903  4.932354689781 -0.061097075009 -0.060104678601  0.203496644568  0.045899076525
O   -0.018731408483  4.056198213487  5.391205746273 -0.045994978673 -0.497778941761  0.423671264013
O   -1.721329965634  4.837327234021  2.360505790954 -0.006461182244  0.463665545017 -0.059243359042
Zn   0.134632193430  4.043893953471  9.065580253568 -0.425772369516 -0.298066703936 -0.031265385772
Zn  -1.780463959920  4.910555621080  6.128964338450  0.147072500142  0.238399112872 -0.481555795034
O    0.007941049702  4.024485656454  11.358242612475  0.062162846682 -0.354045019074  0.054123007097
O   -1.751768461096  5.060480365838  8.372538588442  0.322255899588 -0.286033941141 -0.017249273999