# total energy = -14758.260251791824 eV

CRYSTAL
PRIMVEC
9.809126131632336 0.0 0.0
-1.6348576249807667 2.8316494860489647 0.0
0.0 0.0 5.278477144827861
PRIMCOORD
12 1
Zn   1.817397614990  0.764375172895  2.558937142250 -0.832224955658  1.125558001564  0.314239971262
Zn  -0.048291308859  1.935233666296 -0.091245472189 -0.762771488852  0.727772861289  1.140912372533
O    1.420278086288  0.990363706191  4.585731153684  2.724667696910 -0.351912289002 -0.194580058805
O   -0.064856961070  1.802595643657  2.116784896391  2.317802448711  0.318937633848 -1.751541402918
Zn   4.772641109384  1.010291926840  2.456329759263  4.083734316023 -2.332206797062  2.017952427622
Zn   3.178033271660  1.766981649411 -0.112754923971  0.952533043222  0.643587744700 -0.099431758336
O    5.112587165515  0.932026871261  4.692704578713 -4.734077377169 -2.448377979640 -2.062889140234
O    3.394507933521  1.884388060993  2.007532811362 -4.858104822566  1.626101650554 -1.431700026309
Zn   8.275702718154  0.870577600609  2.626121808951 -2.207166079909 -1.341100264443  0.177134095414
Zn   6.484834865700  1.772684675344  0.047879325561  3.490417294554  2.164478825453 -1.403895345392
O    8.333098857888  0.919946932430  4.580169379167 -1.782228290479 -0.989811210847  0.218050116902
O    6.455999958523  1.656285661015  1.837086492961  1.607418215212  0.856971823585  3.075748748260