# total energy = -14759.4565133431 eV

CRYSTAL
PRIMVEC
9.61294373600222 0.0 0.0
-1.6021604936482823 2.775016532990441 0.0
0.0 0.0 4.862534555869475
PRIMCOORD
12 1
Zn   1.602157609765  0.925005510997  2.434349187696  0.000286420892  0.000165321933 -1.095025894413
Zn  -0.000000000000  1.850011983288  0.003080948467 -0.000365096649 -0.000210830459 -1.094976015012
O    1.602157609765  0.925005510997  4.277459077382 -0.000024168370 -0.000013883957  1.094985270983
O   -0.000000000000  1.850011983288  1.846190838153  0.000042166092  0.000024425480  1.094990670300
Zn   4.806471868001  0.925005510997  2.434349187696  0.000270222942  0.000156065962 -1.095047234569
Zn   3.204314258236  1.850011983288  0.003080948467 -0.000290534657 -0.000167893036 -1.094910708992
O    4.806471868001  0.925005510997  4.277459077382 -0.000051936284 -0.000030081907  1.094972158357
O    3.204314258236  1.850011983288  1.846190838153  0.000012598405  0.000007199089  1.094985785204
Zn   8.010786126237  0.925005510997  2.434349187696  0.000340671169  0.000196689392 -1.094937448464
Zn   6.408629477766  1.850011983288  0.003080948467 -0.000227542630 -0.000131383372 -1.094994784065
O    8.010786126237  0.925005510997  4.277459077382 -0.000026225252 -0.000015169509  1.094972929688
O    6.408629477766  1.850011983288  1.846190838153  0.000033424341  0.000019283274  1.094985270983