# total energy = -4920.050518315109 eV

CRYSTAL
PRIMVEC
3.2697087105441125 0.0 0.0
-1.6348543552720562 2.831649486048965 0.0
0.0 0.0 5.806329109931972
PRIMCOORD
4 1
Zn   1.634854355272  0.943883488987  2.906843631207 -0.000000000000 -0.000000000000  0.143207360760
Zn  -0.000000000000  1.887767304945  0.003678749270  0.000000000000  0.000000000000  0.143207360760
O    1.634854355272  0.943883488987  5.107691430663  0.000000000000  0.000000000000 -0.143207360760
O   -0.000000000000  1.887767304945  2.204526548726 -0.000000000000 -0.000000000000 -0.143207360760