# total energy = -9838.957737275641 eV

CRYSTAL
PRIMVEC
3.138920446790701 0.0 0.0
-3.138920446790701 5.436770298784281 0.0
0.0 0.0 4.965995010174611
PRIMCOORD
8 1
Zn   1.691400691020  0.902535365526  2.442960260896 -2.022850636255 -0.428209003982  0.823351050207
Zn  -0.030281479442  1.846813664614  0.070166172099  0.344166069398 -0.863020600882 -1.368538820269
O    1.557064312659  0.910277198916  4.372471295817 -0.377126069263 -0.176639929387  0.273228304736
O   -0.015593528996  1.786152143627  1.890326635415  2.072364426714  0.927402052482  0.704161906738
Zn   0.021359725856  3.632824242928  2.475768571298 -0.234805481984 -0.584389122852 -1.065186699565
Zn  -1.471078923184  4.502423543990 -0.082086850280 -2.125831031174  1.050194597031  1.207204153781
O   -0.079663917587  3.560850052652  4.302281581814  2.039998094569 -0.009534164743  1.170299567445
O   -1.578847478884  4.519277663437  1.993978496949  0.304084885106  0.084196429443 -1.744519720185