# total energy = -19673.336328724465 eV

CRYSTAL
PRIMVEC
6.016263836897371 0.0 0.0
-3.0081319184486857 5.210234889349047 0.0
0.0 0.0 4.759081280483949
PRIMCOORD
16 1
Zn   1.504065959224  0.868373083185  2.382554788424  0.000011827075  0.000006684868 -0.537953971318
Zn  -0.000000000000  1.736745564743  0.003015351435  0.000000000000  0.000005913537 -0.537959370635
O    1.504065959224  0.868373083185  4.186449678730 -0.000012084185 -0.000006941979  0.537969397937
O   -0.000000000000  1.736745564743  1.806910241741  0.000000000000 -0.000001285552  0.537958599304
Zn   0.000000000000  3.473491731112  2.382554788424  0.000000000000 -0.000000000000 -0.537992537866
Zn  -1.504065959224  4.341864212670  0.003015351435  0.000005142206 -0.000003085324 -0.537959370635
O    0.000000000000  3.473491731112  4.186449678730  0.000000000000  0.000000000000  0.537962713069
O   -1.504065959224  4.341864212670  1.806910241741 -0.000001028441  0.000000514221  0.537958599304
Zn   4.512197877673  0.868373083185  2.382554788424 -0.000011827075  0.000006684868 -0.537953971318
Zn   3.008131918449  1.736745564743  0.003015351435  0.000000000000 -0.000000000000 -0.537991509425
O    4.512197877673  0.868373083185  4.186449678730  0.000012084185 -0.000006941979  0.537969397937
O    3.008131918449  1.736745564743  1.806910241741  0.000000000000  0.000000000000  0.537977625467
Zn   3.008131918449  3.473491731112  2.382554788424  0.000000000000 -0.000013626847 -0.537953971318
Zn   1.504065959224  4.341864212670  0.003015351435 -0.000005142206 -0.000003085324 -0.537959370635
O    3.008131918449  3.473491731112  4.186449678730  0.000000000000  0.000013883957  0.537969397937
O    1.504065959224  4.341864212670  1.806910241741  0.000001028441  0.000000514221  0.537958599304