# total energy = -14760.701217688393 eV

CRYSTAL
PRIMVEC
3.335102842420818 0.0 0.0
-1.667551421210409 2.8882824391074893 0.0
0.0 0.0 15.183025674195191
PRIMCOORD
12 1
Zn   1.667551421210  0.962761146546  2.533710646905  0.000000000000  0.000000000000 -0.624415799757
Zn  -0.000000000000  1.925522626603  0.003206701383  0.000000000000  0.000000000000 -0.624179258266
O    1.667551421210  0.962761146546  4.452049461985  0.000000000000  0.000000000000  0.624283130834
O   -0.000000000000  1.925522626603  1.921545516463  0.000000000000  0.000000000000  0.624277474407
Zn   1.667551421210  0.962761146546  7.594718537950  0.000000000000  0.000000000000 -0.624434311700
Zn  -0.000000000000  1.925522626603  5.064214592427  0.000000000000  0.000000000000 -0.624342009096
O    1.667551421210  0.962761146546  9.513057353030  0.000000000000 -0.000000000000  0.624292643916
O   -0.000000000000  1.925522626603  6.982553407507  0.000000000000  0.000000000000  0.624283130834
Zn   1.667551421210  0.962761146546  12.655726762505  0.000000000000  0.000000000000 -0.624167174081
Zn  -0.000000000000  1.925522626603  10.125222816982  0.000000000000  0.000000000000 -0.624131949968
O    1.667551421210  0.962761146546  14.574065577584  0.000000000000  0.000000000000  0.624256391361
O   -0.000000000000  1.925522626603  12.043561632062  0.000000000000  0.000000000000  0.624277988628