# total energy = -9839.84536935197 eV

CRYSTAL
PRIMVEC
6.408629157334813 0.0 0.0
-1.6021572893337033 2.775019737305019 0.0
0.0 0.0 4.965995464985488
PRIMCOORD
8 1
Zn   1.616908671928  0.930116392750  2.525105630371 -0.324260331613  0.715395570671  0.511070516664
Zn   0.026814345257  1.932721430761  0.094125459023 -0.869769232460 -0.291955448832 -1.216718263919
O    1.577478299312  1.000127461979  4.490000942954 -0.086629978585 -0.309219121009 -0.635690087119
O    0.049798893730  1.942800922700  1.949371049312 -0.573671222214 -1.219687373850  0.896418459616
Zn   4.778943601456  0.934761367163  2.468011153208  0.518334654426  0.381564821761 -0.595517114445
Zn   3.196493487644  1.868013502159  0.005463997220  0.366146173213  0.586173468446 -0.329171909982
O    4.778824400953  0.978060629202  4.336977618524  0.641042095460 -0.005819434895  1.339143397826
O    3.178166730843  1.873290367408  1.925783448835  0.328807841774  0.143547774818  0.030465258468