# total energy = -9839.77065287838 eV

CRYSTAL
PRIMVEC
3.335102842420818 0.0 0.0
-1.667551421210409 2.8882824391074893 0.0
0.0 0.0 11.629550302961185
PRIMCOORD
8 1
Zn   1.684559111666  0.955237488044  2.934361554020 -0.026055045216  0.334939151483 -0.508766294011
Zn   0.056684741951  1.921050253691  0.030630918546  0.104282401560 -0.288795048826  0.017954784706
O    1.713553161736  0.918844845827  5.054300999228 -0.491958992646  0.059514610426  0.095520853317
O   -0.010210417352  2.013370236003  2.123661086471  0.107442030235 -0.491320073510  0.663345386943
Zn   1.639972455276  0.920911942569  8.712941501372 -0.060708630734  0.031574432372  0.288464404960
Zn  -0.097545087935  1.927471660704  5.800358502424  0.464696043164 -0.019017935863  0.131893221299
O    1.771902453516  0.891038092368  10.972814524622 -0.286030598707  0.408171882826 -0.572734826443
O   -0.065690186646  1.898627356750  7.988695237256  0.188332792344 -0.035067018906 -0.115677530771