# total energy = -14757.394575764796 eV

CRYSTAL
PRIMVEC
10.790038638960128 0.0 0.0
-1.7983433698395679 3.114814404101815 0.0
0.0 0.0 5.690202406526096
PRIMCOORD
12 1
Zn   1.778519910852  1.064754538869  2.853447298150  0.244351473801 -0.068462563648  0.333390318938
Zn  -0.024271112914  2.181881767285  0.128639919658  0.253071113062  0.054578349467 -0.358643437078
O    1.808222729217  1.071133609713  5.067267579806 -0.035383778816 -0.068883453235 -0.004618215498
O    0.087559005547  2.081027276126  2.270067674077 -0.596964645525 -0.002018058871 -0.519882715639
Zn   5.271513300207  0.952313704221  2.846263290424  0.484115328231  0.223576188927  0.045109747854
Zn   3.703003148397  2.100878789214 -0.052295001268 -0.262218069669 -0.065279023713  0.191761872630
O    5.427797298857  1.094646182911  4.999761861069 -0.270728678243 -0.349996302926  0.089795520798
O    3.606266135983  2.029633243085  2.151969622170 -0.201399138609  0.041565996367  0.109954769354
Zn   8.934987142050  1.044897630762  2.789857284435 -0.287289410815 -0.232406899845  0.567285887513
Zn   7.280762002295  1.993080908192 -0.011500023181 -0.838326183459  0.266122032709  0.089449193202
O    8.852251283774  1.111874637606  4.983112831449  1.063008460966 -0.286609868250  0.191625089942
O    7.119462793685  1.956515625252  2.303356022282  0.447764043296  0.487813860129 -0.735227774905