# total energy = -19679.384180695586 eV

CRYSTAL
PRIMVEC
3.335102842420818 0.0 0.0
-3.335102842420818 5.77656821331782 0.0
0.0 0.0 11.629550302961185
PRIMCOORD
16 1
Zn   1.613781559144  1.072205214402  2.873837441676  0.045164769462 -1.053935809241  0.562052407028
Zn   0.109690198446  1.947534972383  0.045364068863 -0.408323835022 -0.212865744488 -0.386819899512
O    1.752343742897  0.976560134557  5.027465427717 -0.270264851233 -0.045958469008  0.542735966088
O   -0.056033396366  1.817173806520  2.164899966628  0.135890515383  0.873298842880 -0.341598565781
Zn   1.702986555401  0.968264733257  8.771555600317  0.083328425016  0.025023261517  0.095204864739
Zn   0.023563502113  1.941993031990  5.881307785105  0.159822600719 -0.246478547446 -0.137339846235
O    1.631128096048  0.918411282458  10.856345062629  0.417525813237  0.197936376872  0.563703312368
O    0.058904586403  1.880808235774  8.080795769801 -0.283874985817  0.446120079935 -0.450849109979
Zn  -0.007206156712  3.825939933048  2.910617956353 -0.590137595300  0.089436080576  0.219142835746
Zn  -1.699276253489  4.794899368227  0.021667496147  0.506096974709  0.310044702234  0.159518953436
O    0.051703098835  3.810489735621  5.100305741347 -0.052214991441  0.271389451755  0.230120160693
O   -1.777584801739  4.774477199482  2.286234676648  0.804315630842  0.161793351292 -0.483358652571
Zn   0.062694263763  3.941115708650  8.722552934253 -0.797155108538 -0.814141101573  0.309538966242
Zn  -1.604556998192  4.830523602749  5.795837437010 -0.097853100995 -0.003130575209 -0.279252399443
O    0.065183584524  3.867950556003  10.967378306989 -0.676435901578 -0.355447812959 -0.102545621374
O   -1.709388952327  4.794059255821  8.062921286117  1.024115383445  0.356916941305 -0.500253371444