# total energy = -9840.46615258425 eV

CRYSTAL
PRIMVEC
3.2697087105441125 0.0 0.0
-3.2697087105441125 5.66330224180664 0.0
0.0 0.0 5.172911329399235
PRIMCOORD
8 1
Zn   1.578550625218  0.921839766802  2.556772922054  0.234930180487 -0.293103446394  0.218083798354
Zn  -0.035934752671  1.868393953864 -0.002795600948  0.240315870279  0.349608837680  0.109803074268
O    1.625759660494  0.962901749702  4.550983632246 -0.159643909049 -0.181538395130  0.344713457261
O   -0.024466576339  1.901120141377  2.028588427574 -0.226274561695 -0.639507146873 -0.578243157856
Zn  -0.065737493625  3.688826512479  2.693390180194  0.205948448543  0.820897446460 -0.262223983206
Zn  -1.620147205492  4.706983396652  0.106763836700  0.299723779924  0.325066115343 -0.378657161196
O    0.054235639294  3.842084626131  4.619289155093 -0.494490500818 -0.611294688994  0.342866376749
O   -1.665348966590  4.662811920768  2.047427181281 -0.100509307671  0.229871277907  0.203657595626