# total energy = -9840.29525420902 eV

CRYSTAL
PRIMVEC
3.2043145786674065 0.0 0.0
-3.2043145786674065 5.55003627029546 0.0
0.0 0.0 5.690202602910109
PRIMCOORD
8 1
Zn   1.602157289334  0.925005831428  2.848706796219  0.000000000000 -0.000040366320  0.366511012752
Zn  -0.000000000000  1.850011983288  0.003605174332  0.000000000000  0.000296448194  0.366882022938
O    1.602157289334  0.925005831428  5.005537668181  0.000000000000  0.000143210446 -0.366715672563
O   -0.000000000000  1.850011983288  2.160436046294  0.000000000000 -0.000190518744 -0.366718500777
Zn   0.000000000000  3.700023646145  2.848706796219  0.000000000000 -0.000166350375  0.367047601981
Zn  -1.602157289334  4.625029798004  0.003605174332  0.000000000000 -0.000015426619  0.366349547473
O    0.000000000000  3.700023646145  5.005537668181  0.000000000000  0.000148609763 -0.366601001362
O   -1.602157289334  4.625029798004  2.160436046294  0.000000000000 -0.000175349236 -0.366755010442