# total energy = -14755.472210680555 eV

CRYSTAL
PRIMVEC
3.2043145786674065 0.0 0.0
-1.6021572893337033 2.775016532990441 0.0
0.0 0.0 14.58761328055216
PRIMCOORD
12 1
Zn   1.712143464658  0.915104499380  2.342974953171 -2.321307890761 -0.452390229214 -1.543248365403
Zn   0.128170980989  1.770816707613  0.034741178662 -0.480104407300  0.466307867736 -1.911497958112
O    1.718149952335  0.856517132055  4.101297717811 -0.324367546614  1.558078745547  3.724958467132
O   -0.113948310301  1.893605080973  1.866321944493  2.297218453912  0.637371588587 -0.747729506917
Zn   1.711462547810  1.024405271816  7.502075231926 -6.454045119046 -3.275289236394 -0.234484608309
Zn   0.060359353287  1.988478427019  4.892343653532  0.167698661033 -1.509078661499 -1.029420854819
O    1.709841485064  0.672707714448  9.217050028945  0.072021227533  1.420886480633  1.807867588314
O   -0.297319377674  1.698096710839  6.694546942875  6.939335184312  3.790119220100 -2.773676265599
Zn   1.626347300951  0.902151378127  12.101624640832  1.159623832899  1.624605525625 -3.772498678805
Zn   0.186035454945  1.722939120905  9.642223801328 -0.557392025438 -1.786071061264  2.713366670075
O    1.632969337459  0.980945473617  13.782505210303  0.799004760152 -0.205445026544  6.940122456100
O    0.221693067577  1.985657668895  11.694737571318 -1.297685130682 -2.269095213314 -3.173758686548