# total energy = -19678.703302210495 eV

CRYSTAL
PRIMVEC
6.800993948595047 0.0 0.0
-1.7002484871487618 2.944918792662987 0.0
0.0 0.0 11.857580556333104
PRIMCOORD
16 1
Zn   1.700248487149  0.981639144155  2.968151668091 -0.000252482330 -0.000145781549 -0.099588081408
Zn  -0.000000000000  1.963277608210  0.003756188958 -0.000010541523 -0.000006170648 -0.099113198654
O    1.700248487149  0.981639144155  5.215417020414 -0.000150666645 -0.000086903287  0.099109084889
O   -0.000000000000  1.963277608210  2.251021541281  0.000193346958  0.000111585877  0.099348711704
Zn   1.700248487149  0.981639144155  8.896941946257 -0.000050393622 -0.000029053466 -0.099030409132
Zn  -0.000000000000  1.963277608210  5.932546467124  0.000139353791  0.000080475529 -0.099054577502
O    1.700248487149  0.981639144155  11.144207298580 -0.000168150147 -0.000096930589  0.099150736760
O   -0.000000000000  1.963277608210  8.179812499547  0.000165321933  0.000095387927  0.099076174769
Zn   5.100745461446  0.981639144155  2.968151668091  0.000044737195  0.000025711032 -0.099599908483
Zn   3.400496974298  1.963277608210  0.003756188958  0.000246825903  0.000142439115 -0.099314773142
O    5.100745461446  0.981639144155  5.215417020414 -0.000191547186 -0.000110557436  0.099072061004
O    3.400496974298  1.963277608210  2.251021541281  0.000123155841  0.000070962447  0.099385478479
Zn   5.100745461446  0.981639144155  8.896941946257 -0.000180234332 -0.000104129678 -0.098885656024
Zn   3.400496974298  1.963277608210  5.932546467124  0.000098730361  0.000057078490 -0.098906996181
O    5.100745461446  0.981639144155  11.144207298580 -0.000183319655 -0.000105929450  0.099241239592
O    3.400496974298  1.963277608210  8.179812499547  0.000175606346  0.000101301465  0.099109599110