# total energy = -9838.735537006296 eV

CRYSTAL
PRIMVEC
3.138920446790701 0.0 0.0
-3.138920446790701 5.436770298784281 0.0
0.0 0.0 4.86464868570908
PRIMCOORD
8 1
Zn   1.584544619494  0.950872543162  2.418610713315  0.456196747444 -0.711384392629 -0.063367665623
Zn   0.023807456021  1.812942201856  0.084487496638  0.628182208778 -1.034017473051 -3.221078040459
O    1.657850967609  0.933045358377  4.274529130576 -0.739376249856 -0.716132963057  0.495402213999
O    0.053627200265  1.800689112000  1.811018043622 -0.405263450929  0.191767786167  3.442382916853
Zn  -0.031723185603  3.610511854717  2.451720360079  0.453713576011  0.046069797775  0.372780390700
Zn  -1.559343482795  4.544071368262  0.053273130039 -0.012995126708  0.084307501100 -2.037188650144
O    0.014275496300  3.539976859465  4.370409966760  0.053522911619  1.757811295087 -0.794956815335
O   -1.561952239579  4.512281951438  1.856121191522 -0.433980873469  0.381578448608  1.806025135788