# total energy = -19680.939701222636 eV

CRYSTAL
PRIMVEC
6.670205684841636 0.0 0.0
-3.335102842420818 5.7765648782149785 0.0
0.0 0.0 5.061005222962222
PRIMCOORD
16 1
Zn   1.667551421210  0.962761480056  2.533710313395  0.000024682590  0.000014141067 -0.625201271773
Zn  -0.000000000000  1.925522293092  0.003206367873  0.000000000000 -0.000132668923 -0.625015381014
O    1.667551421210  0.962761480056  4.452049461985 -0.000019797494 -0.000011312854  0.625158848571
O   -0.000000000000  1.925522293092  1.921545516463  0.000000000000 -0.000032910120  0.625111797383
Zn   0.000000000000  3.851045253205  2.533710313395 -0.000000000000 -0.000000000000 -0.625361708610
Zn  -1.667551421210  4.813806066241  0.003206367873 -0.000114928311  0.000066334462 -0.625015381014
O    0.000000000000  3.851045253205  4.452049461985  0.000000000000  0.000000000000  0.625166818990
O   -1.667551421210  4.813806066241  1.921545516463 -0.000028539245  0.000016455060  0.625111797383
Zn   5.002654263631  0.962761480056  2.533710313395 -0.000024682590  0.000014141067 -0.625201271773
Zn   3.335102842421  1.925522293092  0.003206367873  0.000000000000  0.000000000000 -0.625102027191
O    5.002654263631  0.962761480056  4.452049461985  0.000019797494 -0.000011312854  0.625158848571
O    3.335102842421  1.925522293092  1.921545516463  0.000000000000  0.000000000000  0.625134423091
Zn   3.335102842421  3.851045253205  2.533710313395  0.000000000000 -0.000028539245 -0.625201271773
Zn   1.667551421210  4.813806066241  0.003206367873  0.000114928311  0.000066334462 -0.625015381014
O    3.335102842421  3.851045253205  4.452049461985  0.000000000000  0.000022625708  0.625158848571
O    1.667551421210  4.813806066241  1.921545516463  0.000028539245  0.000016455060  0.625111797383