# total energy = -14760.830015562904 eV

CRYSTAL
PRIMVEC
3.2697087105441125 0.0 0.0
-1.6348543552720562 2.831649486048965 0.0
0.0 0.0 16.468862293851164
PRIMCOORD
12 1
Zn   1.634854355272  0.943883488987  2.748288589445  0.000000000000 -0.000000000000  0.191613262867
Zn  -0.000000000000  1.887767304945  0.003477989155  0.000000000000 -0.000000000000  0.192163736054
O    1.634854355272  0.943883488987  4.829090014505  0.000000000000  0.000000000000 -0.191349724793
O   -0.000000000000  1.887767304945  2.084279414216  0.000000000000 -0.000000000000 -0.191281847670
Zn   1.634854355272  0.943883488987  8.237909463052  0.000000000000  0.000000000000  0.190854787434
Zn  -0.000000000000  1.887767304945  5.493098862763  0.000000000000  0.000000000000  0.191198286817
O    1.634854355272  0.943883488987  10.318710888112  0.000000000000  0.000000000000 -0.191281076339
O   -0.000000000000  1.887767304945  7.573900287823  0.000000000000  0.000000000000 -0.191245852225
Zn   1.634854355272  0.943883488987  13.727530336659  0.000000000000  0.000000000000  0.191262050175
Zn  -0.000000000000  1.887767304945  10.982719736370  0.000000000000 -0.000000000000  0.190591763581
O    1.634854355272  0.943883488987  15.808331761720  0.000000000000  0.000000000000 -0.191234539371
O   -0.000000000000  1.887767304945  13.063521161431  0.000000000000  0.000000000000 -0.191291103641