# total energy = -29520.462266689796 eV

CRYSTAL
PRIMVEC
6.931782212348458 0.0 0.0
-5.198836659261343 9.004648501564716 0.0
0.0 0.0 5.147576129801027
PRIMCOORD
24 1
Zn   1.732945553087  1.000516808253  2.577048775253  0.000026996583 -0.000066334462 -0.518046690871
Zn  -0.000000000000  2.001032923328  0.003261403531  0.000009770192 -0.000083560853 -0.518088599853
O    1.732945553087  1.000516808253  4.528200593781 -0.000002828213 -0.000001799772  0.518064174373
O   -0.000000000000  2.001032923328  1.954412528881 -0.000002313993  0.000000771331  0.518068031028
Zn   0.000000000000  4.002066539834  2.577048775253 -0.000072762219 -0.000019026163 -0.518064945704
Zn  -1.732945553087  5.002582654909  0.003261403531  0.000005913537 -0.000028025024 -0.518035378018
O    0.000000000000  4.002066539834  4.528200593781  0.000000257110  0.000000514221  0.518069316579
O   -1.732945553087  5.002582654909  1.954412528881 -0.000002056883 -0.000000514221  0.518061860380
Zn  -1.732945553087  7.003616271415  2.577048775253 -0.000009513082  0.000055021608 -0.518097598714
Zn  -3.465891106174  8.004132386490  0.003261403531 -0.000010798633  0.000108757664 -0.518051575967
O   -1.732945553087  7.003616271415  4.528200593781 -0.000001542662  0.000003342434  0.518071887682
O   -3.465891106174  8.004132386490  1.954412528881  0.000001028441  0.000003342434  0.518064431483
Zn   5.198836659261  1.000516808253  2.577048775253 -0.000024168370 -0.000047051188 -0.518074973006
Zn   3.465891106174  2.001032923328  0.003261403531 -0.000007199089 -0.000083046632 -0.518070087910
O    5.198836659261  1.000516808253  4.528200593781 -0.000001542662 -0.000002056883  0.518068288138
O    3.465891106174  2.001032923328  1.954412528881  0.000002056883  0.000001542662  0.518066745476
Zn   3.465891106174  4.002066539834  2.577048775253  0.000067105793 -0.000037795216 -0.518072916124
Zn   1.732945553087  5.002582654909  0.003261403531  0.000007456199 -0.000009770192 -0.518085514529
O    3.465891106174  4.002066539834  4.528200593781 -0.000001542662  0.000000771331  0.518069316579
O    1.732945553087  5.002582654909  1.954412528881  0.000000771331  0.000002313993  0.518070859241
Zn   1.732945553087  7.003616271415  2.577048775253  0.000004885096  0.000120327628 -0.518071373462
Zn   0.000000000000  8.004132386490  0.003261403531  0.000008741751  0.000079189977 -0.518050804637
O    1.732945553087  7.003616271415  4.528200593781  0.000000000000  0.000002571103  0.518070345021
O    0.000000000000  8.004132386490  1.954412528881  0.000001285552  0.000000514221  0.518064688594