# total energy = -9836.765889557508 eV

CRYSTAL
PRIMVEC
6.147052100650782 0.0 0.0
-1.5367630251626956 2.661753471259097 0.0
0.0 0.0 4.664063487264579
PRIMCOORD
8 1
Zn   1.533196505534  0.888520728247  2.279565424543  0.530980625324  1.140673002828 -0.115377997252
Zn  -0.010400197449  1.771912970926 -0.001392922006 -0.174763024079 -0.765580676166 -0.938182688037
O    1.535028327060  0.853216363917  4.121183507470 -0.631117123037  0.281231891767  0.088402497105
O    0.035367064261  1.830322874692  1.808786062952 -0.608594516454 -1.257152974896  0.525032378161
Zn   4.598032468305  0.873597529862  2.335093590284  0.636631625097  0.055588535899 -3.840079096958
Zn   2.992790668035  1.784210148654 -0.013216776722  1.137539342295  0.381159101682 -2.544834200287
O    4.619504121292  0.898162994172  4.024783592312 -0.524777067617  0.143724923826  4.492112401322
O    3.123863030567  1.779381639228  1.720630574071 -0.365899861530  0.020356195059  2.332926448837