# total energy = -9839.223590999381 eV

CRYSTAL
PRIMVEC
3.2043145786674065 0.0 0.0
-1.6021572893337033 2.775016532990441 0.0
0.0 0.0 9.725075520368108
PRIMCOORD
8 1
Zn   1.630367113590  0.957549491152  2.336141431901 -0.734258469014 -0.489897739241  0.488310340149
Zn  -0.038784382797  1.904906057630 -0.059521745456  0.498043251166 -0.951279116210 -0.657400225103
O    1.661761065243  0.894733069446  4.277062062806 -1.627640712907 -0.752604318511 -0.470621150400
O   -0.025605998230  1.837775667206  1.795498261087  0.762488924614  0.401737954275  0.980547526157
Zn   1.561352906626  0.913091228530  7.213021063276  0.410444995130 -0.076358164346  0.289637342222
Zn  -0.074724615975  1.778387862100  4.870497598029  1.362510611798  0.641112029466 -3.706939404847
O    1.627572951277  0.899671238643  9.171362911682 -0.509303140351  1.002112396812 -0.992634796339
O    0.008190548495  1.834448947811  6.604182387873 -0.162285460437  0.225177214865  4.069100111050