# total energy = -44261.065659801745 eV

CRYSTAL
PRIMVEC
8.828213624304544 0.0 0.0
-1.4713718801219655 2.5484845679961143 0.0
0.0 0.0 14.53694265160658
PRIMCOORD
36 1
Zn   1.471369231658  0.849494855999  2.425893345145  0.000389522129  0.000224971527  0.611982459090
Zn  -0.000000000000  1.698990594819  0.003070452699 -0.000390807681 -0.000225742858  0.611971146236
O    1.471369231658  0.849494855999  4.262600541217 -0.000054507387 -0.000031367459 -0.612009969894
O   -0.000000000000  1.698990594819  1.839777648771  0.000063506248  0.000036766775 -0.612008427232
Zn   1.471369231658  0.849494855999  7.271539130038  0.000407776961  0.000235513050  0.612025910733
Zn  -0.000000000000  1.698990594819  4.848716237591 -0.000375381062 -0.000216743996  0.611997885709
O    1.471369231658  0.849494855999  9.108247208932 -0.000058364042 -0.000033681451 -0.611993000613
O   -0.000000000000  1.698990594819  6.685423433664  0.000067877123  0.000039080768 -0.612001999474
Zn   1.471369231658  0.849494855999  12.117185797752  0.000362782656  0.000209544908  0.611948263418
Zn  -0.000000000000  1.698990594819  9.694362022484 -0.000371524407 -0.000214430004  0.612098672953
O    1.471369231658  0.849494855999  13.953892993824 -0.000061192255 -0.000035481224 -0.612014597879
O   -0.000000000000  1.698990594819  11.531070101378  0.000062220697  0.000035995444 -0.612013826548
Zn   4.414106812152  0.849494855999  2.425893345145  0.000377180834  0.000217772438  0.612012026776
Zn   2.942737580494  1.698990594819  0.003070452699 -0.000411119395 -0.000237312822  0.611992486392
O    4.414106812152  0.849494855999  4.262600541217 -0.000059135373 -0.000034195672 -0.612002770805
O    2.942737580494  1.698990594819  1.839777648771  0.000058878262  0.000033938562 -0.612001999474
Zn   4.414106812152  0.849494855999  7.271539130038  0.000381551709  0.000220343541  0.612034652484
Zn   2.942737580494  1.698990594819  4.848716237591 -0.000370753076 -0.000214172893  0.612015626320
O    4.414106812152  0.849494855999  9.108247208932 -0.000061192255 -0.000035481224 -0.611997885709
O    2.942737580494  1.698990594819  6.685423433664  0.000062220697  0.000035995444 -0.612005341908
Zn   4.414106812152  0.849494855999  12.117185797752  0.000370238855  0.000213658673  0.611936436343
Zn   2.942737580494  1.698990594819  9.694362022484 -0.000384894143 -0.000222143313  0.612073476142
O    4.414106812152  0.849494855999  13.953892993824 -0.000063763358 -0.000036766775 -0.612014340769
O    2.942737580494  1.698990594819  11.531070101378  0.000055021608  0.000031881679 -0.612019482975
Zn   7.356844392647  0.849494855999  2.425893345145  0.000393378784  0.000227028409  0.611990172399
Zn   5.885476043810  1.698990594819  0.003070452699 -0.000352498243 -0.000203374260  0.611983487531
O    7.356844392647  0.849494855999  4.262600541217 -0.000064277579 -0.000037023886 -0.612011512555
O    5.885476043810  1.698990594819  1.839777648771  0.000061449366  0.000035481224 -0.612009198563
Zn   7.356844392647  0.849494855999  7.271539130038  0.000363039766  0.000209544908  0.612029767388
Zn   5.885476043810  1.698990594819  4.848716237591 -0.000411633616 -0.000237569932  0.612009969894
O    7.356844392647  0.849494855999  9.108247208932 -0.000064020469 -0.000037023886 -0.611996600157
O    5.885476043810  1.698990594819  6.685423433664  0.000054250277  0.000031367459 -0.612004313467
Zn   7.356844392647  0.849494855999  12.117185797752  0.000415747381  0.000240141035  0.611969860684
Zn   5.885476043810  1.698990594819  9.694362022484 -0.000401863424 -0.000231913505  0.612068848156
O    7.356844392647  0.849494855999  13.953892993824 -0.000051164953 -0.000029567686 -0.612016911872
O    5.885476043810  1.698990594819  11.531070101378  0.000061192255  0.000035224113 -0.612018968755