# total energy = -29521.6163489634 eV

CRYSTAL
PRIMVEC
3.2043145786674065 0.0 0.0
-4.806471868001109 8.325052803285901 0.0
0.0 0.0 10.75965577269703
PRIMCOORD
24 1
Zn   1.602157289334  0.925005831428  2.693322853239  0.000000000000 -0.000243483469  0.307051938154
Zn   0.000000000000  1.850011983288  0.003408429417  0.000000000000  0.000168664367  0.306600195329
O    1.602157289334  0.925005831428  4.732508276739  0.000000000000  0.000086389066 -0.306785314756
O    0.000000000000  1.850011983288  2.042593852918  0.000000000000 -0.000116728084 -0.306830566172
Zn   1.602157289334  0.925005831428  8.073151380450  0.000000000000 -0.000169435698  0.306786600308
Zn   0.000000000000  1.850011983288  5.383236956629  0.000000000000  0.000070705337  0.306877360249
O    1.602157289334  0.925005831428  10.112336803950  0.000000000000  0.000109014774 -0.306931096305
O    0.000000000000  1.850011983288  7.422422380129  0.000000000000 -0.000132411813 -0.306817453546
Zn   0.000000000000  3.700023646145  2.693322853239  0.000000000000 -0.000089217280  0.306913612804
Zn  -1.602157289334  4.625029798004  0.003408429417  0.000000000000  0.000296191084  0.306779658329
O    0.000000000000  3.700023646145  4.732508276739  0.000000000000  0.000081503970 -0.306836736819
O   -1.602157289334  4.625029798004  2.042593852918  0.000000000000 -0.000034195672 -0.306862190741
Zn   0.000000000000  3.700023646145  8.073151380450  0.000000000000 -0.000142953336  0.306875560477
Zn  -1.602157289334  4.625029798004  5.383236956629  0.000000000000  0.000198746274  0.306872218043
O    0.000000000000  3.700023646145  10.112336803950  0.000000000000  0.000072247999 -0.306889701545
O   -1.602157289334  4.625029798004  7.422422380129  0.000000000000 -0.000070962447 -0.306787371639
Zn  -1.602157289334  6.475041460861  2.693322853239  0.000000000000 -0.000220343541  0.306845735681
Zn  -3.204314578667  7.400047612721  0.003408429417  0.000000000000  0.000043451643  0.306813596891
O   -1.602157289334  6.475041460861  4.732508276739  0.000000000000  0.000145267329 -0.306781200991
O   -3.204314578667  7.400047612721  2.042593852918  0.000000000000 -0.000134211585 -0.306869389830
Zn  -1.602157289334  6.475041460861  8.073151380450  0.000000000000 -0.000140125122  0.306775544564
Zn  -3.204314578667  7.400047612721  5.383236956629  0.000000000000  0.000227285519  0.306827995069
O   -1.602157289334  6.475041460861  10.112336803950  0.000000000000  0.000076361764 -0.306849078115
O   -3.204314578667  7.400047612721  7.422422380129  0.000000000000 -0.000081761081 -0.306780429660