# total energy = -14757.469824084883 eV

CRYSTAL
PRIMVEC
3.465891106174229 0.0 0.0
-1.7329455530871145 3.001548345224537 0.0
0.0 0.0 18.464129358883785
PRIMCOORD
12 1
Zn   1.714010350207  1.033960231304  3.081529327925 -0.044736937896 -0.067051542233 -0.477002371336
Zn   0.003831889207  2.016413854879 -0.012649809359  0.051594327138  0.025035602812 -0.214779673681
O    1.705933090984  1.032344779459  5.382805812588  0.112201142186 -0.167664722471  0.443635622950
O   -0.036254953916  1.992495047177  2.342425276821  0.080983321823  0.095936857809  0.443126287414
Zn   1.698442607125  1.058522308395  9.229165114942  0.116302823060 -0.093105044787 -0.639564739583
Zn   0.001223112971  1.905842917275  6.126198557347 -0.098871257847  0.218183557156 -0.422653621381
O    1.751269372776  1.016283146895  11.620223082587 -0.007059220840 -0.088746767818  0.172571415744
O    0.005998764327  2.010808122604  8.445579817381 -0.093421804696  0.013386448609  0.681644699473
Zn   1.757495846149  1.009575954426  15.323449400395 -0.042783156604  0.050646104292  0.198859145796
Zn   0.027029791559  1.958244418088  12.306651827482 -0.039101593987  0.150905243625 -0.195882322556
O    1.767387152776  1.031397204831  17.763648158499 -0.100433203017 -0.061009964024  0.195677662744
O    0.006897469890  2.023939690827  14.717951985542  0.065325560681 -0.076516030080 -0.185632105583