# total energy = -9836.447099351823 eV

CRYSTAL
PRIMVEC
3.00813218303729 0.0 0.0
-1.504066091518645 2.605117673814869 0.0
0.0 0.0 9.71240751761961
PRIMCOORD
8 1
Zn   1.481863368689  0.950039135323  2.449135190849 -0.274545480886 -2.076146005244 -1.324494537565
Zn  -0.060648757822  1.743611779211 -0.050623856508  0.171609051831 -0.533084559041  1.627040617429
O    1.521449485778  0.994621459155  4.218485451457 -2.487557735163 -2.383255793219  1.087595406277
O   -0.026762750406  1.673628185599  1.875945831020  0.195777421547  2.025949072675 -2.032240562110
Zn   1.464422819918  0.917836779490  7.346809962373  0.510768412043 -0.685622967394 -3.133806057414
Zn  -0.061315660727  1.707335209149  4.789496923585  2.500110632127  2.323304095256  2.353291642757
O    1.454520048771  0.841939498820  9.072585924244 -0.149492422438  0.385764461665  2.892324448962
O   -0.015304474108  1.726537320127  6.720438329615 -0.466669879061  0.943091438193 -1.469710701225