# total energy = -14757.109701555846 eV

CRYSTAL
PRIMVEC
3.138920446790701 0.0 0.0
-1.5694602233953505 2.718383579931917 0.0
0.0 0.0 16.11415034087155
PRIMCOORD
12 1
Zn   1.374047672657  0.916973144013  2.496414506645  7.917036756379 -4.347063616478  4.049879829368
Zn  -0.055668754124  1.979164675792 -0.037008499852  0.489678424141 -2.075497830137  1.383944870412
O    1.515280259239  0.878153487063  4.736642568213 -3.309251966493 -1.959038684005 -1.766778274473
O    0.031867575944  1.641037654128  2.077302081885 -7.929420731866  4.544395526997 -3.497168240124
Zn   1.481282297988  1.130131267606  7.950445728966  4.421332245285 -2.845304114348  2.847169706802
Zn  -0.315886828623  1.704724466641  5.466566501125  3.429953947061  1.987010486628  0.636763008468
O    1.320256306852  0.857787229529  10.110101469369  1.938932657284 -0.252149115469 -1.094601148171
O    0.085100213909  1.883434821682  7.451078014007 -4.688749599767  2.662871489539 -1.940208952893
Zn   1.550952834549  1.072703148571  13.566015842025 -1.152359438027  0.091948048364 -1.521463665427
Zn  -0.008750996314  1.825519542195  10.815408418678 -1.774503668141  0.494351918358  0.461018080092
O    1.624194520902  0.921971874825  15.449514069900 -0.532288802613  1.911502843208  0.618319457051
O   -0.187024099737  2.034459270599  12.832103282900  1.189639919645 -0.213026952656 -0.176874671105