# total energy = -19675.62361220809 eV

CRYSTAL
PRIMVEC
6.016263836897371 0.0 0.0
-3.0081319184486857 5.210234889349047 0.0
0.0 0.0 4.953328390985854
PRIMCOORD
16 1
Zn   1.504065959224  0.868373083185  2.479801677084 -0.000061963586 -0.000035738334  0.475397488742
Zn  -0.000000000000  1.736745564743  0.003138083217  0.000000000000 -0.000059649593  0.475331411391
O    1.504065959224  0.868373083185  4.357324807478 -0.000024168370 -0.000013883957 -0.475279732218
O   -0.000000000000  1.736745564743  1.880661213612  0.000000000000 -0.000016455060 -0.475421400002
Zn   0.000000000000  3.473491731112  2.479801677084  0.000000000000  0.000000000000  0.475341181583
Zn  -1.504065959224  4.341864212670  0.003138083217 -0.000051679174  0.000029824797  0.475331411391
O    0.000000000000  3.473491731112  4.357324807478  0.000000000000  0.000000000000 -0.475305186139
O   -1.504065959224  4.341864212670  1.880661213612 -0.000014141067  0.000008227530 -0.475421400002
Zn   4.512197877673  0.868373083185  2.479801677084  0.000061963586 -0.000035738334  0.475397488742
Zn   3.008131918449  1.736745564743  0.003138083217  0.000000000000  0.000000000000  0.475330125840
O    4.512197877673  0.868373083185  4.357324807478  0.000024168370 -0.000013883957 -0.475279732218
O    3.008131918449  1.736745564743  1.880661213612  0.000000000000  0.000000000000 -0.475448910806
Zn   3.008131918449  3.473491731112  2.479801677084 -0.000000000000  0.000071733778  0.475397488742
Zn   1.504065959224  4.341864212670  0.003138083217  0.000051679174  0.000029824797  0.475331411391
O    3.008131918449  3.473491731112  4.357324807478  0.000000000000  0.000027767914 -0.475279732218
O    1.504065959224  4.341864212670  1.880661213612  0.000014141067  0.000008227530 -0.475421400002