# total energy = -14753.089357143253 eV

CRYSTAL
PRIMVEC
2.942722175844334 0.0 0.0
-4.414083263766501 7.645415859728944 0.0
0.0 0.0 4.84562169996537
PRIMCOORD
12 1
Zn   1.544971517518  0.811442397739  2.462473448013 -0.194491355746  0.875005541158  1.116470694550
Zn   0.049674327417  1.685217536607  0.007427430772 -0.481425697214  0.914086823430  1.726031945793
O    1.506207332567  0.910989686320  4.318901797805  0.503217339168 -2.948557303313 -1.053946607874
O    0.054941505840  1.659449589875  1.873627089549  0.243897674093 -0.416713858858 -1.126178408757
Zn   0.033661504697  3.349112402601  2.430804754773 -2.297390203604  0.374644183382 -0.733826266572
Zn  -1.465157241031  4.224120836333 -0.021506885022  0.530968026919 -0.475333211163  1.383026986583
O    0.024761830021  3.363441988236  4.197223767101 -0.650879393265  0.484007341899  1.270975482601
O   -1.545539757170  4.247413953715  1.858738092428  2.419417587852  1.191045798854 -1.448945443653
Zn  -1.497246743542  6.015798704456  2.440426279200 -0.200018970432 -2.159264885352 -0.523675607022
Zn  -2.986495462482  6.742815580060  0.077187896945  0.396442253093  0.800379786123 -0.623732914757
O   -1.490153017465  5.905544026966  4.194585028126 -0.383377192379  1.033217088636  1.736444656486
O   -2.977573128845  6.785202256008  1.894783790632  0.113639417295  0.327482952315 -1.722644260268