# total energy = -9836.808396324188 eV

CRYSTAL
PRIMVEC
2.9427380511605845 0.0 0.0
-1.4713690255802923 2.5484847207563455 0.0
0.0 0.0 10.07134441581403
PRIMCOORD
8 1
Zn   1.471369025580  0.849495201193  2.521026326275  0.000000000000  0.000000000000  1.394490764249
Zn  -0.000000000000  1.698990696659  0.003190516595  0.000000000000 -0.000000000000  1.394641688004
O    1.471369025580  0.849495201193  4.429761560352  0.000000000000  0.000000000000 -1.394799553738
O   -0.000000000000  1.698990696659  1.911925750672  0.000000000000  0.000000000000 -1.394932479772
Zn   1.471369025580  0.849495201193  7.556698239908  0.000000000000  0.000000000000  1.395311974598
Zn  -0.000000000000  1.698990696659  5.038862430228  0.000000000000  0.000000000000  1.395012955301
O    1.471369025580  0.849495201193  9.465433473985  0.000000000000  0.000000000000 -1.394904454747
O   -0.000000000000  1.698990696659  6.947597664305  0.000000000000  0.000000000000 -1.394820893894