# total energy = -29513.686673332522 eV

CRYSTAL
PRIMVEC
3.59667936992764 0.0 0.0
-5.39501905489146 9.344446350704123 0.0
0.0 0.0 11.844911798868367
PRIMCOORD
24 1
Zn   1.798339684964  1.038271776782  2.964980545138  0.000000000000  0.000332186528 -0.062368792045
Zn  -0.000000000000  2.076543913232  0.003752415587  0.000000000000 -0.000075590433 -0.062407101482
O    1.798339684964  1.038271776782  5.209844736867  0.000000000000  0.000256596095  0.062477549709
O   -0.000000000000  2.076543913232  2.248616966983  0.000000000000 -0.000338614286  0.062438983162
Zn   1.798339684964  1.038271776782  8.887436444572  0.000000000000  0.000591353727 -0.062533342648
Zn  -0.000000000000  2.076543913232  5.926208315021  0.000000000000 -0.000013369736 -0.062530771544
O    1.798339684964  1.038271776782  11.132300995969  0.000000000000  0.000270994273  0.062457237994
O   -0.000000000000  2.076543913232  8.171072866418  0.000000000000 -0.000348384478  0.062468807958
Zn   0.000000000000  4.153087466795  2.964980545138  0.000000000000  0.000429374228 -0.062316341541
Zn  -1.798339684964  5.191359603245  0.003752415587  0.000000000000 -0.000252739441 -0.062422528101
O    0.000000000000  4.153087466795  5.209844736867  0.000000000000  0.000297990856  0.062468293738
O   -1.798339684964  5.191359603245  2.248616966983  0.000000000000 -0.000317531240  0.062459037766
Zn   0.000000000000  4.153087466795  8.887436444572  0.000000000000  0.000254796323 -0.062504803402
Zn  -1.798339684964  5.191359603245  5.926208315021  0.000000000000 -0.000476168305 -0.062682466631
O    0.000000000000  4.153087466795  11.132300995969  0.000000000000  0.000276136480  0.062461094649
O   -1.798339684964  5.191359603245  8.171072866418  0.000000000000 -0.000265852067  0.062471121951
Zn  -1.798339684964  7.267903156808  2.964980545138  0.000000000000  0.000157608624 -0.062497090093
Zn  -3.596679369928  8.306175293258  0.003752415587  0.000000000000 -0.000576698439 -0.062213497414
O   -1.798339684964  7.267903156808  5.209844736867  0.000000000000  0.000349670030  0.062501718079
O   -3.596679369928  8.306175293258  2.248616966983  0.000000000000 -0.000267908949  0.062467522407
Zn  -1.798339684964  7.267903156808  8.887436444572  0.000000000000  0.000084075073 -0.062382933113
Zn  -3.596679369928  8.306175293258  5.926208315021  0.000000000000 -0.000431688221 -0.062693008154
O   -1.798339684964  7.267903156808  11.132300995969  0.000000000000  0.000353269574  0.062421756770
O   -3.596679369928  8.306175293258  8.171072866418  0.000000000000 -0.000290020437  0.062459551987