# total energy = -14756.00861617346 eV

CRYSTAL
PRIMVEC
3.0081163077210396 0.0 0.0
-4.5121744615815595 7.815314784298647 0.0
0.0 0.0 5.050425736871008
PRIMCOORD
12 1
Zn   1.513409785838  0.898922916527  2.537559381009  1.909251585280 -0.153357561820  2.109599399806
Zn   0.005189000631  1.813039226901  0.062306210647 -0.417892195437 -2.241485422016  1.045422886674
O    1.481517736744  0.909144495741  4.531681193402  0.560398416365 -0.919898802127 -1.055593399449
O    0.093726887916  1.743244009894  1.992168642475 -2.215619352883  0.805400379266 -1.138987130485
Zn   0.094819736571  3.506982316193  2.513902651930 -3.958805441858 -1.414002609029  2.719561743142
Zn  -1.533158671021  4.218044458752  0.078600875874 -0.607752223058  2.511436084443  0.251660605868
O   -0.056473172315  3.474265742419  4.521564898259  0.583979031898  1.171806233898 -2.768599365296
O   -1.550783224468  4.286615673233  1.943286150851  4.034236209293  3.323087329714 -0.895761542759
Zn  -1.478450962168  6.176965594924  2.607119664132  0.548556172314 -1.112305507429 -1.565816223401
Zn  -3.035222443770  6.861138787431 -0.016974800324 -0.301830798964  1.810311421869  1.589826213162
O   -1.542330718455  6.134399245112  4.393852913922  0.315558690073 -2.464368441531  0.926636892181
O   -2.955428548968  7.018288197956  1.913809919963 -0.450080093024 -1.316623362347 -1.217950336554