# total energy = -14747.903718550566 eV

CRYSTAL
PRIMVEC
2.9427380511605845 0.0 0.0
-1.4713690255802923 2.5484847207563455 0.0
0.0 0.0 13.966864536751084
PRIMCOORD
12 1
Zn   1.312939954299  0.881186135813  2.263294853730  4.339598932670 -2.746378349115  0.433161977112
Zn   0.058085823570  1.792403207712  0.113154752091  0.317195454346 -7.024623304157 -4.898969164881
O    1.417599021636  0.885069372945  4.040943761402  0.511518659945  2.168000722563  0.983980977318
O   -0.038870626918  1.632293833003  1.746104815679 -4.850478159259  1.889460261586  4.924811836976
Zn   1.458025768435  0.833760969381  6.994801242562 -1.210308503738  1.228608587599 -0.951752970523
Zn  -0.039179025866  1.816081360893  4.584033719862 -0.243674759449 -2.238748739811  1.287232567890
O    1.599592362136  0.750108637622  8.784544509350 -3.089725779266  1.657617204664 -0.638514443942
O   -0.057377212248  1.724407419481  6.457835121986  0.985687161376 -1.184178125200 -1.345901285376
Zn   1.458946845445  0.885858909565  11.410233728522  5.695395879893 -2.473016347014  5.049256058195
Zn  -0.023820581703  1.682822410984  9.157124868281  3.121792835003 -1.696873836172  2.292290163373
O    1.527604749738  0.732882731892  13.543596691984 -0.011752255440  8.052079579051 -5.433484542831
O    0.146790542289  1.714337958417  11.037412065070 -5.565249466082  2.368052346006 -1.702111430422