# total energy = -44265.89070252337 eV

CRYSTAL
PRIMVEC
10.790038638960128 0.0 0.0
-1.7983433698395679 3.114814404101815 0.0
0.0 0.0 18.812507897297454
PRIMCOORD
36 1
Zn   1.798340132828  1.038271468034  3.139390875110 -0.000496480020 -0.000286678002 -0.365437577182
Zn  -0.000000000000  2.076544015072  0.003972892227  0.000482081843  0.000278193362 -0.365352473667
O    1.798340132828  1.038271468034  5.516306906809 -0.000425260463 -0.000245540352  0.365318535105
O   -0.000000000000  2.076544015072  2.380888923926  0.000408034072  0.000235513050  0.365351188116
Zn   1.798340132828  1.038271468034  9.410226840876 -0.000494423138 -0.000285392451 -0.365120560162
Zn  -0.000000000000  2.076544015072  6.274808857993  0.000463312790  0.000267394729 -0.365224175619
O    1.798340132828  1.038271468034  11.787142872575 -0.000392350342 -0.000226514189  0.365095106241
O   -0.000000000000  2.076544015072  8.651724889692  0.000416775822  0.000240655256  0.365214405427
Zn   1.798340132828  1.038271468034  15.681062806641 -0.000432459552 -0.000249654117 -0.365186894624
Zn  -0.000000000000  2.076544015072  12.545644823759  0.000411890726  0.000237827042 -0.364876819582
O    1.798340132828  1.038271468034  18.057978838341 -0.000423460691 -0.000244511911  0.365262485056
O   -0.000000000000  2.076544015072  14.922560855458  0.000423460691  0.000244511911  0.365066309885
Zn   5.395019319480  1.038271468034  3.139390875110 -0.000481824732 -0.000278193362 -0.365220576075
Zn   3.596679186652  2.076544015072  0.003972892227  0.000425517573  0.000245797462 -0.365500569209
O    5.395019319480  1.038271468034  5.516306906809 -0.000400063652 -0.000230885064  0.365311850237
O    3.596679186652  2.076544015072  2.380888923926  0.000415490271  0.000239883925  0.365306965141
Zn   5.395019319480  1.038271468034  9.410226840876 -0.000426031794 -0.000246054573 -0.365068366768
Zn   3.596679186652  2.076544015072  6.274808857993  0.000575155777  0.000332186528 -0.365333447504
O    5.395019319480  1.038271468034  11.787142872575 -0.000418575595 -0.000241683697  0.365104619322
O    3.596679186652  2.076544015072  8.651724889692  0.000383351481  0.000221371982  0.365229832046
Zn   5.395019319480  1.038271468034  15.681062806641 -0.000582097756 -0.000336043183 -0.365091249586
Zn   3.596679186652  2.076544015072  12.545644823759  0.000504707551  0.000291305988 -0.364971950399
O    5.395019319480  1.038271468034  18.057978838341 -0.000416775822 -0.000240655256  0.365271741028
O    3.596679186652  2.076544015072  14.922560855458  0.000413947609  0.000238855484  0.365033913985
Zn   8.991698506132  1.038271468034  3.139390875110 -0.000404434527 -0.000233456167 -0.365388469111
Zn   7.193359452308  2.076544015072  0.003972892227  0.000452514156  0.000261224081 -0.365482828597
O    8.991698506132  1.038271468034  5.516306906809 -0.000390293460 -0.000225228637  0.365292824074
O    7.193359452308  2.076544015072  2.380888923926  0.000404691638  0.000233713277  0.365313907120
Zn   8.991698506132  1.038271468034  9.410226840876 -0.000482596063 -0.000278450472 -0.365111818411
Zn   7.193359452308  2.076544015072  6.274808857993  0.000352498243  0.000203631370 -0.365258371291
O    8.991698506132  1.038271468034  11.787142872575 -0.000395178556 -0.000228056850  0.365066309885
O    7.193359452308  2.076544015072  8.651724889692  0.000422432249  0.000243997690  0.365213376986
Zn   8.991698506132  1.038271468034  15.681062806641 -0.000360468663 -0.000208259356 -0.365124931037
Zn   7.193359452308  2.076544015072  12.545644823759  0.000471283209  0.000272022714 -0.365070166540
O    8.991698506132  1.038271468034  18.057978838341 -0.000406491410 -0.000234741719  0.365288196088
O    7.193359452308  2.076544015072  14.922560855458  0.000402120534  0.000232170615  0.365079165401