# total energy = -19671.584357244283 eV

CRYSTAL
PRIMVEC
2.9427380511605845 0.0 0.0
-2.9427380511605845 5.0969723842507415 0.0
0.0 0.0 9.691292739244693
PRIMCOORD
16 1
Zn   1.471369025580  0.849495201193  2.425893490557  0.000000000000 -0.000323187667  0.611968318022
Zn   0.000000000000  1.698990696659  0.003070158609  0.000000000000  0.000299790629  0.612057021081
O    1.471369025580  0.849495201193  4.262600796724  0.000000000000  0.000097959030 -0.611972174677
O    0.000000000000  1.698990696659  1.839777759050  0.000000000000 -0.000074819102 -0.612008684342
Zn   1.471369025580  0.849495201193  7.271539860179  0.000000000000 -0.000355326457  0.612004570577
Zn   0.000000000000  1.698990696659  4.848716528231  0.000000000000  0.000305961276  0.612045965338
O    1.471369025580  0.849495201193  9.108247460621  0.000000000000  0.000019026163 -0.612058049523
O    0.000000000000  1.698990696659  6.685424128673  0.000000000000 -0.000038309437 -0.612007141680
Zn   0.000000000000  3.397981099044  2.425893490557  0.000000000000 -0.000426031794  0.611967032471
Zn  -1.471369025580  4.247476594511  0.003070158609  0.000000000000  0.000481310512  0.612000199702
O    0.000000000000  3.397981099044  4.262600796724  0.000000000000  0.000018254832 -0.611976802663
O   -1.471369025580  4.247476594511  1.839777759050  0.000000000000 -0.000045251416 -0.612040308911
Zn   0.000000000000  3.397981099044  7.271539860179  0.000000000000 -0.000405720079  0.611973203118
Zn  -1.471369025580  4.247476594511  4.848716528231  0.000000000000  0.000371010186  0.612060620626
O    0.000000000000  3.397981099044  9.108247460621  0.000000000000  0.000124441393 -0.612065248611
O   -1.471369025580  4.247476594511  6.685424128673  0.000000000000 -0.000048850960 -0.611948006307