# total energy = -9839.270007497695 eV

CRYSTAL
PRIMVEC
6.539417421088225 0.0 0.0
-1.6348543552720562 2.8316527557576756 0.0
0.0 0.0 4.961769889415848
PRIMCOORD
8 1
Zn   1.546315220983  0.985232552312  2.581208763132  0.893050571585 -1.248154628052 -2.936267430202
Zn  -0.038842831598  1.771826376807 -0.019138912966  1.895554033188  1.772243668463  0.431576634903
O    1.670765566040  1.069586459451  4.328500553659  0.547862488681 -0.654000969613  3.331196589085
O    0.067936699704  1.824119482157  1.891941742056 -2.160169656555  0.698908114539  0.046658066178
Zn   4.830735004957  0.863668706104  2.528325148389  0.321952252305  0.086794529188 -2.083696306787
Zn   3.413860358466  1.995024540690 -0.110888901209 -1.274807197642 -2.019739344320  1.269441562455
O    4.972746955499  0.931494235712  4.391218144319 -1.039410361931  0.785735296737  0.020766543123
O    3.214219137959  1.787651113024  1.881919430916  0.815967613259  0.578213590169 -0.079675658755