# total energy = -9840.0891940999 eV

CRYSTAL
PRIMVEC
6.931782212348458 0.0 0.0
-1.7329455530871145 3.0015518111156427 0.0
0.0 0.0 5.035669437764874
PRIMCOORD
8 1
Zn   1.732945553087  1.000516808253  2.521026111413  0.000213915783  0.000123670062 -0.849199121618
Zn  -0.000000000000  2.001032923328  0.003190699352 -0.000247340124 -0.000142696225 -0.849435920219
O    1.732945553087  1.000516808253  4.429760968227  0.000021083046  0.000012341295  0.849344646057
O   -0.000000000000  2.001032923328  1.911925556166  0.000008227530  0.000004885096  0.849338732520
Zn   5.198836659261  1.000516808253  2.521026111413  0.000095130817  0.000055021608 -0.849307879282
Zn   3.465891106174  2.001032923328  0.003190699352 -0.000142182005 -0.000082018191 -0.849429235351
O    5.198836659261  1.000516808253  4.429760968227  0.000030853238  0.000017997722  0.849339503851
O    3.465891106174  2.001032923328  1.911925556166  0.000019797494  0.000011312854  0.849349274043