# total energy = -9839.894712570675 eV

CRYSTAL
PRIMVEC
3.4004969742975235 0.0 0.0
-3.4004969742975235 5.889834184829 0.0
0.0 0.0 5.59941474073912
PRIMCOORD
8 1
Zn   1.748853490651  1.007599558206  2.779608392953 -0.090031548068 -0.297783368368  0.230703544000
Zn   0.028034037106  1.996619821093  0.067370306005  0.050941266935 -0.438245305172 -0.761200801930
O    1.756292757882  0.971182275909  4.938167021006 -0.138681447865 -0.015525349329 -0.387686618388
O    0.036604309630  1.887345190873  2.023618406870 -0.029496723908  0.473381229643  0.998280681771
Zn  -0.102236961681  3.916019456645  2.811785935622  0.370817096326 -0.010469274962 -0.035298418191
Zn  -1.709090799431  4.916857806716  0.008048636288  0.048167046624  0.012247449909 -0.215594970494
O    0.006731963860  3.858314723239  4.905048220774 -0.034825078099  0.486133387103 -0.245387114154
O   -1.696661642940  4.911658786892  2.054740095228 -0.176890869055 -0.209739025933  0.416183440276