# total energy = -9839.846500937369 eV

CRYSTAL
PRIMVEC
3.465891106174229 0.0 0.0
-3.465891106174229 6.00310015634018 0.0
0.0 0.0 5.259479355946074
PRIMCOORD
8 1
Zn   1.650311430745  1.090493420904  2.670221632682  0.307071992759 -0.500184722989 -0.391022624740
Zn   0.099091906260  2.014589756390 -0.023108828950 -0.507023343178  0.305285333172  0.050702411451
O    1.735739061319  1.039085937661  4.686887111255  0.288783221752  0.064143881668 -0.384643974907
O   -0.044400491194  1.959699399174  1.956169042493  0.096929817850  0.468883598883  0.856001232142
Zn   0.118186193542  3.989591757976  2.729432916340 -0.222999233377  0.331693390852 -0.640328614333
Zn  -1.712265967213  5.071522348313  0.075561971540 -0.025582219344 -0.122319718678 -0.985419766648
O    0.001587724716  4.077490915497  4.722162257756  0.204859072133 -0.374113764800 -0.413016869623
O   -1.678455852883  5.033763197656  1.949805319833 -0.142038794373 -0.173388255219  1.907728206657