# total energy = -29510.002789790127 eV

CRYSTAL
PRIMVEC
9.02439601993466 0.0 0.0
-1.50406901145445 2.605117521054638 0.0
0.0 0.0 9.518156823769363
PRIMCOORD
24 1
Zn   1.504066304136  0.868372507018  2.382555159092  0.000392607453  0.000226771299 -0.537596330869
Zn  -0.000000000000  1.736745916476  0.003015050710 -0.000372038627 -0.000214944224 -0.537604301288
O    1.504066304136  0.868372507018  4.186449801473 -0.000038309437 -0.000022111487  0.537612785929
O   -0.000000000000  1.736745916476  1.806909693091  0.000051679174  0.000029824797  0.537609700605
Zn   1.504066304136  0.868372507018  7.141633570977  0.000455856590  0.000263280964 -0.537614585701
Zn  -0.000000000000  1.736745916476  4.762094365035 -0.000374866841 -0.000216486886 -0.537622299011
O    1.504066304136  0.868372507018  8.945528213358 -0.000039080768 -0.000022625708  0.537610986157
O   -0.000000000000  1.736745916476  6.565989007416  0.000046794078  0.000026996583  0.537606101061
Zn   4.512198009967  0.868372507018  2.382555159092  0.000419346926  0.000241940807 -0.537622556121
Zn   3.008131705832  1.736745916476  0.003015050710 -0.000373581289 -0.000215715555 -0.537657266014
O    4.512198009967  0.868372507018  4.186449801473 -0.000031624569 -0.000018254832  0.537610471936
O    3.008131705832  1.736745916476  1.806909693091  0.000045251416  0.000026225252  0.537616642584
Zn   4.512198009967  0.868372507018  7.141633570977  0.000380780378  0.000219829320 -0.537587074897
Zn   3.008131705832  1.736745916476  4.762094365035 -0.000394150115 -0.000227542630 -0.537573705161
O    4.512198009967  0.868372507018  8.945528213358 -0.000035995444 -0.000020825936  0.537610729046
O    3.008131705832  1.736745916476  6.565989007416  0.000040623430  0.000023397039  0.537608929274
Zn   7.520329715799  0.868372507018  2.382555159092  0.000353783795  0.000204145591 -0.537600701744
Zn   6.016264314103  1.736745916476  0.003015050710 -0.000433745103 -0.000250425448 -0.537606101061
O    7.520329715799  0.868372507018  4.186449801473 -0.000046794078 -0.000026996583  0.537606615281
O    6.016264314103  1.736745916476  1.806909693091  0.000039080768  0.000022625708  0.537611757488
Zn   7.520329715799  0.868372507018  7.141633570977  0.000337071624  0.000194632509 -0.537612271708
Zn   6.016264314103  1.736745916476  4.762094365035 -0.000427574456 -0.000246825903 -0.537628726768
O    7.520329715799  0.868372507018  8.945528213358 -0.000040880540 -0.000023654149  0.537605329730
O    6.016264314103  1.736745916476  6.565989007416  0.000046022747  0.000026482363  0.537616128363