# total energy = -9839.449650115073 eV

CRYSTAL
PRIMVEC
3.0735263149139955 0.0 0.0
-1.5367631574569978 2.6617506268733933 0.0
0.0 0.0 10.518959401214255
PRIMCOORD
8 1
Zn   1.588156205674  0.935889684949  2.633071552829 -0.635147584352 -0.334039265376  0.755911785617
Zn  -0.012555969702  1.727989051545 -0.023133203162 -0.189081497584 -1.071471761242  0.971974696886
O    1.525957560992  0.907342772536  4.668191941970  0.662985175390 -0.478614453018 -1.544582253723
O    0.001775268799  1.799910489372  1.943563113746  0.599906244651  0.247912451679 -0.080333346943
Zn   1.509936805075  0.854029077725  7.935434936698  0.080341574474  0.177036136384  0.273528095365
Zn   0.028817690081  1.765184252302  5.241330220365 -0.662932724885  0.461995356404  1.346231415022
O    1.505662452029  0.776534107279  9.916307893733  0.215221132094  1.180172346474 -1.132386851560
O   -0.020484438184  1.754738873121  7.255301060228 -0.071292834008 -0.182990554195 -0.590343540664