# total energy = -14756.860283371903 eV

CRYSTAL
PRIMVEC
9.416760811194894 0.0 0.0
-1.5694632741194197 2.7183834271716862 0.0
0.0 0.0 4.6619557747982565
PRIMCOORD
12 1
Zn   1.569460449091  0.906127809057  2.333930983590  0.000298762187  0.000172521022 -2.143882232249
Zn  -0.000000000000  1.812256559791  0.002954037866 -0.000377695054 -0.000218029548 -2.143897658868
O    1.569460449091  0.906127809057  4.101011575064  0.000020825936  0.000012084185  2.143890973999
O   -0.000000000000  1.812256559791  1.770034629341  0.000046794078  0.000026996583  2.143885831793
Zn   4.708380405597  0.906127809057  2.333930983590  0.000345813375  0.000199517605 -2.143872719167
Zn   3.138919956506  1.812256559791  0.002954037866 -0.000302361732 -0.000174577905 -2.143911028604
O    4.708380405597  0.906127809057  4.101011575064 -0.000001799772 -0.000001028441  2.143892516661
O    3.138919956506  1.812256559791  1.770034629341  0.000047308298  0.000027253694  2.143889431338
Zn   7.847300362104  0.906127809057  2.333930983590  0.000294905533  0.000170207029 -2.143842123039
Zn   6.277840854689  1.812256559791  0.002954037866 -0.000269965832 -0.000155808852 -2.143935454084
O    7.847300362104  0.906127809057  4.101011575064 -0.000070191116 -0.000040623430  2.143858835210
O    6.277840854689  1.812256559791  1.770034629341 -0.000031624569 -0.000018254832  2.143923884120