# total energy = -19680.499264430175 eV

CRYSTAL
PRIMVEC
3.2697087105441125 0.0 0.0
-3.2697087105441125 5.66330224180664 0.0
0.0 0.0 10.134684488523794
PRIMCOORD
16 1
Zn   1.709793790122  0.981184652928  2.500526738874 -0.430352275577 -0.323542222500  0.276344481768
Zn  -0.006898758408  1.815022171611 -0.001574037773 -0.213927352983  0.688067058059 -0.539863529636
O    1.652154057089  0.869652273044  4.485701282073 -0.505794612977  0.824813750795 -0.461904596462
O    0.026902182358  1.893497469460  1.885790439059  0.250096860925  0.208014844154  0.989659515760
Zn   1.544109802457  0.963293787776  7.681388365003  0.413871504313 -0.123892976702 -2.384331285672
Zn  -0.059906622082  1.896516064542  5.018050731509  0.460962287154 -0.145887992916 -0.418553483170
O    1.607334197968  0.946455114888  9.497024587910  0.306926982540 -0.201085206913  1.670637785294
O   -0.008496338084  1.892015637473  6.929025447969 -0.329153912259 -0.105385404816  1.009721576618
Zn   0.062590398992  3.833273415097  2.529062467703 -1.342662723834 -0.666540239731 -0.144023943124
Zn  -1.664463856442  4.711036527569 -0.006256914588  0.167374187814 -0.066678732274 -0.144201863463
O   -0.033023404035  3.803621734685  4.458878553637 -0.133388317787 -0.497666327443  0.233248679020
O   -1.707603412256  4.721498941501  1.941070750286  1.484133304408  0.739302716306 -0.042603179383
Zn   0.039682819766  3.740371508476  7.586560926921 -0.151688144537  0.254694507598  0.223732511999
Zn  -1.687977966634  4.705518240178  5.075565561669  0.172938055055 -0.127189388065 -0.069806736380
O   -0.018965618405  3.779805176437  9.638185433274 -0.123144014351 -0.419682711679 -0.812749363432
O   -1.605905989203  4.725767219252  7.012991894626 -0.026191827904 -0.037341159653  0.614693173153