# total energy = -9836.358201529474 eV

CRYSTAL
PRIMVEC
5.88547557314396 0.0 0.0
-1.47136889328599 2.5484874343537856 0.0
0.0 0.0 4.940656637484868
PRIMCOORD
8 1
Zn   1.471368893286  0.849495419086  2.473459391747  0.001229758642  0.000709881583  1.054376753433
Zn  -0.000000000000  1.698990249625  0.003130484457  0.000789071560  0.000455599480  1.054460828507
O    1.471368893286  0.849495419086  4.346180640626  0.000151695087  0.000087674618 -1.054251026489
O   -0.000000000000  1.698990249625  1.875851733336  0.000112357208  0.000064791800 -1.054505308591
Zn   4.414106679858  0.849495419086  2.473459391747 -0.000557929386 -0.000322159226  1.053705438398
Zn   2.942737786572  1.698990249625  0.003130484457 -0.001492782495 -0.000861833780  1.055343231112
O    4.414106679858  0.849495419086  4.346180640626 -0.000132411813 -0.000076618874 -1.054429975269
O    2.942737786572  1.698990249625  1.875851733336 -0.000099758803 -0.000057592711 -1.054699941101