# total energy = -9840.2844674804 eV

CRYSTAL
PRIMVEC
3.2043145786674065 0.0 0.0
-3.2043145786674065 5.55003627029546 0.0
0.0 0.0 5.379829488505805
PRIMCOORD
8 1
Zn   1.588054780442  0.844538442866  2.744649884591  0.232587134176  1.479908467693 -0.482959617360
Zn  -0.031716305700  1.845806961266 -0.050279861348  0.537063341183  0.314050223849  0.780625486314
O    1.637507287766  0.893304586007  4.685441381619 -0.492742150668  0.705566757506  0.289124921362
O    0.039579052813  1.881762575154  2.040527390446 -0.325131164253 -0.584726194477 -0.408059011397
Zn   0.013119745611  3.700737247001  2.663773625489 -0.318006123173 -0.062516630477  0.348420473798
Zn  -1.589301258813  4.650011916185 -0.051418995181 -0.013974459902 -0.386729910902  0.967573482495
O    0.015214406051  3.743226137883  4.757317361933 -0.032386129640 -0.582443569090 -0.508250787827
O   -1.624792887949  4.660971312907  2.079343175526  0.412589295167 -0.883109401212 -0.986474690275