# total energy = -9838.921393207123 eV

CRYSTAL
PRIMVEC
3.531285238050934 0.0 0.0
-1.765642619025467 3.0581812982830603 0.0
0.0 0.0 11.401520679944097
PRIMCOORD
8 1
Zn   1.795744000652  1.054033202380  2.864998454922 -0.257521435524 -0.130874036005  0.244356101787
Zn   0.067340903233  2.038529748366  0.009889011181 -0.107022169089 -0.182077812573 -0.071843050084
O    1.706493238160  1.054908607990  5.095583507273  0.140507702440  0.007209373264 -0.630445036670
O   -0.044789056317  1.997694672131  2.202308992065  0.289394887194  0.166038242611 -0.180839055070
Zn   1.791847227391  0.993867164494  8.579890645288 -0.009018915669  0.096058985209 -0.489136949816
Zn  -0.032904162720  2.086623734537  5.675647251873 -0.016604698436 -0.020152049468  0.428560473784
O    1.782029195044  0.928216687505  10.696545135747  0.013406503214  0.262288003675  0.318502346083
O    0.019537541837  2.100191991808  7.830679397171 -0.053141874130 -0.198490706713  0.380845169986