# total energy = -19680.574279004475 eV

CRYSTAL
PRIMVEC
6.539417421088225 0.0 0.0
-1.6348543552720562 2.8316527557576756 0.0
0.0 0.0 11.401520049589267
PRIMCOORD
16 1
Zn   1.634854355272  0.943883815958  2.853992059610 -0.000084589294 -0.000048850960  0.193248227367
Zn  -0.000000000000  1.887766977974  0.003611720242 -0.000171235471 -0.000098987472  0.193558559519
O    1.634854355272  0.943883815958  5.014824182953 -0.000123927172 -0.000071476668 -0.193244627823
O   -0.000000000000  1.887766977974  2.164443843585  0.000115442532  0.000066591572 -0.193244113602
Zn   1.634854355272  0.943883815958  8.554752084404  0.000176377677  0.000101815685  0.193076734786
Zn  -0.000000000000  1.887766977974  5.704371745036 -0.000194889620 -0.000112614318  0.193039196680
O    1.634854355272  0.943883815958  10.715584207748 -0.000120070518 -0.000069419785 -0.193258254670
O   -0.000000000000  1.887766977974  7.865204522321  0.000117756525  0.000067877123 -0.193250541360
Zn   4.904563065816  0.943883815958  2.853992059610  0.000241940807  0.000139610902  0.193398894013
Zn   3.269708710544  1.887766977974  0.003611720242  0.000022111487  0.000012855516  0.193367012333
O    4.904563065816  0.943883815958  5.014824182953 -0.000119299187 -0.000068905565 -0.193242570940
O    3.269708710544  1.887766977974  2.164443843585  0.000114928311  0.000066334462 -0.193255683566
Zn   4.904563065816  0.943883815958  8.554752084404 -0.000025968142 -0.000014912398  0.193137412821
Zn   3.269708710544  1.887766977974  5.704371745036  0.000058106931  0.000033424341  0.193148982785
O    4.904563065816  0.943883815958  10.715584207748 -0.000119813407 -0.000069162675 -0.193241799609
O    3.269708710544  1.887766977974  7.865204522321  0.000113385649  0.000065563131 -0.193237685844