# total energy = -9821.019341454876 eV

CRYSTAL
PRIMVEC
5.88547557314396 0.0 0.0
-1.47136889328599 2.5484874343537856 0.0
0.0 0.0 4.6556230554775055
PRIMCOORD
8 1
Zn   1.413926063145  0.797191197668  2.203440246475  17.070066051527 -9.068768073904  5.182104701429
Zn   0.329112851312  1.543107543595 -0.169731818601 -43.783593669789  18.026216379786  13.168604694806
O    1.455479874881  1.044440026495  4.121308978475  38.018990120552 -20.655503348502 -15.289129997497
O    0.177781972090  1.436519815322  1.779486487586 -16.096164312821  9.878739103260 -5.768278169875
Zn   4.370296376787  0.893665913263  2.479805111510  2.701505656972 -1.780397407918 -8.210616113968
Zn   2.873618761441  1.654893323893  0.174386052685  1.311807429016  2.245532595502 -7.644308016987
O    4.295727989822  0.946232038344  4.034311644195  2.736528967124 -0.023615582536  10.358927585633
O    3.116727746751  1.758498293145  1.713711589676 -1.959140242580  1.377796077202  8.202695316459