# total energy = -14760.499280376043 eV

CRYSTAL
PRIMVEC
9.61294373600222 0.0 0.0
-1.6021604936482823 2.775016532990441 0.0
0.0 0.0 5.276371783704371
PRIMCOORD
12 1
Zn   1.622155416619  0.862938578471  2.660126474635 -0.215095919370  0.898941740259  0.128453342379
Zn  -0.030294230890  1.801459888361 -0.029539614806  0.405315387213  0.398200630545  0.681010408323
O    1.553471894920  0.878972968623  4.642203962852  0.798097932067  0.358877921686  0.011861527324
O   -0.030460534816  1.872305361106  2.026580611242  0.601106178497 -0.698164551504 -0.716643841256
Zn   4.798428717977  0.988714334313  2.605331734046  0.056232083020 -0.832742775834  0.429858366660
Zn   3.254060280775  1.876521598229 -0.033081984573 -0.863560789656 -0.626989988242  0.446538912639
O    4.815399408849  0.914296691675  4.651239168669  0.054928276607  0.134035464453 -0.564534035800
O    3.202933839515  1.816841559633  1.997832141705 -0.367662095637  0.700031686620 -0.287085779445
Zn   8.072666567654  0.891642828467  2.633938893310 -0.601523725650  0.535024456376  0.456059450535
Zn   6.393854383244  1.848091317130  0.026449053395  0.452422110893 -0.374973798807  0.147397744692
O    8.036921797667  0.870488584481  4.645033052193 -0.862624650995  0.245325150568 -0.264714096618
O    6.390833035028  1.879735205320  2.030470969572  0.542365470123 -0.737565936120 -0.468202256546