# total energy = -9840.477593610596 eV

CRYSTAL
PRIMVEC
3.2697087105441125 0.0 0.0
-1.6348543552720562 2.831649486048965 0.0
0.0 0.0 10.34582265879847
PRIMCOORD
8 1
Zn   1.695609139794  0.993345680535  2.575471732228 -0.570164494613 -0.728395839585  0.214670401797
Zn   0.016838345918  1.895392919600 -0.008462660085  0.085999286980  0.273831485538  0.017733155614
O    1.643375870113  0.934124389399  4.578660735568 -0.460061629716 -0.314302706179 -0.105349923592
O    0.014039148290  1.808792068634  1.963990100464  0.545670623236  0.778944241957  0.112003681464
Zn   1.630407224455  0.983571213316  7.762048482212  0.137849953103 -0.525381791080  0.195658379471
Zn  -0.047447397040  1.842664616021  5.190539636941  0.487238447241  0.306136882539 -0.154206025863
O    1.660746851580  0.988128860287  9.765608270520 -0.098490220358 -0.351466202603 -0.295434151409
O    0.009391257358  1.843066790193  7.168435481580 -0.128041965873  0.560633672304  0.014924482520