# total energy = -29519.610045603637 eV

CRYSTAL
PRIMVEC
3.138920446790701 0.0 0.0
-4.7083806701860516 8.155153878716197 0.0
0.0 0.0 10.134685808200732
PRIMCOORD
24 1
Zn   1.569460223395  0.906128173869  2.536881782937  0.000000000000 -0.000389007908  0.011358105325
Zn   0.000000000000  1.812256661631  0.003210487833  0.000000000000  0.000307246828  0.011315167903
O    1.569460223395  0.906128173869  4.457621732453  0.000000000000  0.000091788383 -0.011302826607
O    0.000000000000  1.812256661631  1.923950437349  0.000000000000 -0.000054507387 -0.011325966536
Zn   1.569460223395  0.906128173869  7.604224373145  0.000000000000 -0.000400577873  0.011253975647
Zn   0.000000000000  1.812256661631  5.070553078041  0.000000000000  0.000389007908  0.011248319220
O    1.569460223395  0.906128173869  9.524964008770  0.000000000000  0.000104386788 -0.011307711703
O    0.000000000000  1.812256661631  6.991292713665  0.000000000000 -0.000068648454 -0.011265545611
Zn   0.000000000000  3.624513009369  2.536881782937  0.000000000000 -0.000407776961  0.011425725338
Zn  -1.569460223395  4.530641497131  0.003210487833  0.000000000000  0.000342985162  0.011288685540
O    0.000000000000  3.624513009369  4.457621732453  0.000000000000  0.000085360625 -0.011283800444
O   -1.569460223395  4.530641497131  1.923950437349  0.000000000000 -0.000098473251 -0.011312596799
Zn   0.000000000000  3.624513009369  7.604224373145  0.000000000000 -0.000329101205  0.011143161101
Zn  -1.569460223395  4.530641497131  5.070553078041  0.000000000000  0.000322673447  0.011299227063
O    0.000000000000  3.624513009369  9.524964008770  0.000000000000  0.000074561992 -0.011265031391
O   -1.569460223395  4.530641497131  6.991292713665  0.000000000000 -0.000111585877 -0.011298198622
Zn  -1.569460223395  6.342897844870  2.536881782937  0.000000000000 -0.000312389034  0.011279686679
Zn  -3.138920446791  7.249026332631  0.003210487833  0.000000000000  0.000449428833  0.011357591105
O   -1.569460223395  6.342897844870  4.457621732453  0.000000000000  0.000062734917 -0.011319795888
O   -3.138920446791  7.249026332631  1.923950437349  0.000000000000 -0.000098987472 -0.011316196344
Zn  -1.569460223395  6.342897844870  7.604224373145  0.000000000000 -0.000312646144  0.011120792504
Zn  -3.138920446791  7.249026332631  5.070553078041  0.000000000000  0.000341956720  0.011428810662
O   -1.569460223395  6.342897844870  9.524964008770  0.000000000000  0.000090502831 -0.011284828885
O   -3.138920446791  7.249026332631  6.991292713665  0.000000000000 -0.000079447088 -0.011236492146