# total energy = -9830.441735235469 eV

CRYSTAL
PRIMVEC
2.9427380511605845 0.0 0.0
-2.9427380511605845 5.0969723842507415 0.0
0.0 0.0 4.370583980964211
PRIMCOORD
8 1
Zn   1.471369025580  0.849495201193  2.188060812714  0.000000000000 -0.000540960105 -3.954259217248
Zn   0.000000000000  1.698990696659  0.002769116506  0.000000000000  0.000584154638 -3.954231706444
O    1.471369025580  0.849495201193  3.844698740520  0.000000000000  0.000053221835  3.954258445917
O    0.000000000000  1.698990696659  1.659407338585  0.000000000000 -0.000052707615  3.954264616565
Zn   0.000000000000  3.397981099044  2.188060812714  0.000000000000 -0.000538131892 -3.954269758771
Zn  -1.471369025580  4.247476594511  0.002769116506  0.000000000000  0.000496222910 -3.954261531241
O    0.000000000000  3.397981099044  3.844698740520  0.000000000000  0.000036766775  3.954268987440
O   -1.471369025580  4.247476594511  1.659407338585  0.000000000000 -0.000038823658  3.954230163782