# total energy = -14759.861388666443 eV

CRYSTAL
PRIMVEC
3.2042976449967395 0.0 0.0
-4.8064464674951095 8.325008808322549 0.0
0.0 0.0 5.58671537413533
PRIMCOORD
12 1
Zn   1.649481746021  0.948639367256  2.741910445369 -1.231101529224 -0.648345056879  0.861027224601
Zn   0.063735082308  1.900612485782 -0.009333798610  0.438855170842 -0.297601848485  0.179054966586
O    1.732680052654  0.951050601234  4.919449228244 -0.728105562038 -0.628279653588 -0.365401324627
O   -0.072665780274  1.835767114340  2.102659473787  1.483138544595  0.588042917555 -0.622881365390
Zn  -0.015120119297  3.737266549710  2.771781869305  0.876258439729 -0.674219096432  0.548757232581
Zn  -1.552639540015  4.633451564518 -0.031872187385  0.531842459104 -0.215941555200  0.611386220267
O    0.119537925795  3.751761830967  4.850088040131 -0.635866721906 -0.213266065250  0.111729344756
O   -1.552284824266  4.604800016695  2.206595994779 -0.972167786734  0.804927810505 -1.080204770240
Zn  -1.663100972301  6.530402819811  2.834605969792 -0.315619882329 -0.645005193873  0.418574051995
Zn  -3.255814419954  7.276524487738  0.036509767367  2.760974501761  2.272082835187  1.060254552370
O   -1.468948412404  6.491276743417  4.969878144151 -2.939488251132 -1.096190089925 -1.551312630468
O   -3.302646511755  7.325722953349  2.108089156147  0.731280360222  0.753794996385 -0.170983245322