# total energy = -9838.351162467447 eV

CRYSTAL
PRIMVEC
3.465891106174229 0.0 0.0
-3.465891106174229 6.00310015634018 0.0
0.0 0.0 5.483285808236169
PRIMCOORD
8 1
Zn   1.639744275351  1.200852245972  2.541381289880  1.761001519890 -1.131512419375  0.660746515867
Zn   0.089833124759  1.969325565132 -0.111111616616 -1.446023899131  0.386781075855  0.647317644056
O    1.683696280236  1.172999651865  4.900464679124  1.641404599460 -1.716219073468 -0.823344622449
O    0.147390485181  2.144838983927  2.100789587502 -2.104980155867 -0.245136174486 -0.335344614451
Zn   0.236857958429  4.043660698999  2.774198019278 -2.308732110979 -1.250316925810  1.208058788472
Zn  -1.785279815612  4.961485504528 -0.141926507852  0.366891793130  0.085020210896  0.730951001907
O    0.048954325518  3.879577095894  4.967714057435 -0.626669114568  1.357871313253 -1.519376958102
O   -1.947645029907  4.867339424877  1.906682009512  2.717107368065  2.513512250245 -0.569007498190