# total energy = -29517.055442382964 eV

CRYSTAL
PRIMVEC
3.59667936992764 0.0 0.0
-3.59667936992764 6.229632099362539 0.0
0.0 0.0 16.37385046148125
PRIMCOORD
24 1
Zn   1.798339684964  1.038271776782  2.732432924460  0.000000000000 -0.000242969249 -0.038717471175
Zn   0.000000000000  2.076543913232  0.003458207214  0.000000000000  0.000118013635 -0.039324508631
O    1.798339684964  1.038271776782  4.801229590329  0.000000000000  0.000102844126  0.038394540618
O    0.000000000000  2.076543913232  2.072254873083  0.000000000000 -0.000099758803  0.038500212958
Zn   1.798339684964  1.038271776782  8.190382358951  0.000000000000  0.000020311715 -0.038768893238
Zn   0.000000000000  2.076543913232  5.461407641705  0.000000000000  0.000271508494 -0.037898060597
O    1.798339684964  1.038271776782  10.259179024820  0.000000000000  0.000086646177  0.038427964959
O    0.000000000000  2.076543913232  7.530204307574  0.000000000000 -0.000114414091  0.038475016147
Zn   1.798339684964  1.038271776782  13.648332153110  0.000000000000  0.000005142206 -0.038560119661
Zn   0.000000000000  2.076543913232  10.919357435865  0.000000000000  0.000175349236 -0.037562017414
O    1.798339684964  1.038271776782  15.717128818979  0.000000000000  0.000114156980  0.038530037754
O    0.000000000000  2.076543913232  12.988154101733  0.000000000000 -0.000104901009  0.038371657800
Zn   0.000000000000  4.153087466795  2.732432924460  0.000000000000  0.000339642728 -0.038609999063
Zn  -1.798339684964  5.191359603245  0.003458207214  0.000000000000 -0.000194375399 -0.039069455198
O    0.000000000000  4.153087466795  4.801229590329  0.000000000000  0.000094102376  0.038381685102
O   -1.798339684964  5.191359603245  2.072254873083  0.000000000000 -0.000094616596  0.038471416602
Zn   0.000000000000  4.153087466795  8.190382358951  0.000000000000  0.000024939701 -0.038681218620
Zn  -1.798339684964  5.191359603245  5.461407641705  0.000000000000 -0.000308275269 -0.038065439413
O    0.000000000000  4.153087466795  10.259179024820  0.000000000000  0.000101044354  0.038442363137
O   -1.798339684964  5.191359603245  7.530204307574  0.000000000000 -0.000073790661  0.038456247094
Zn   0.000000000000  4.153087466795  13.648332153110  0.000000000000  0.000042423202 -0.038394540618
Zn  -1.798339684964  5.191359603245  10.919357435865  0.000000000000 -0.000259167199 -0.037653805797
O    0.000000000000  4.153087466795  15.717128818979  0.000000000000  0.000082275301  0.038486843221
O   -1.798339684964  5.191359603245  12.988154101733  0.000000000000 -0.000086389066  0.038367544035