# total energy = -9839.564726513212 eV

CRYSTAL
PRIMVEC
3.465891106174229 0.0 0.0
-3.465891106174229 6.00310015634018 0.0
0.0 0.0 5.595189034381216
PRIMCOORD
8 1
Zn   1.772622727881  0.950244750936  2.791522969151 -0.049425858731  0.249968305767 -0.051664518254
Zn  -0.021272253253  1.932881026973  0.016140308292  0.204436639884  0.571323290807 -0.041226353640
O    1.787981131140  1.012130316172  4.894106848479 -0.332595848061 -0.206810539433  0.070324042337
O    0.030970163157  2.075972767415  2.111874893616 -0.042821723151 -0.824394146759 -0.113800368353
Zn   0.083882882908  3.958593867689  2.796881236801 -0.325815077694  0.226538356879  0.221902914990
Zn  -1.692186673679  5.035192877738 -0.003405238012 -0.208491012459 -0.338363089562 -0.039830244623
O   -0.088440876302  3.990178533340  4.884445677020  0.411016037143  0.022903386961  0.121645832539
O   -1.789967086744  5.004736359642  2.113144796118  0.343696843071  0.298834435340 -0.167351304996