# total energy = -29519.74800038093 eV

CRYSTAL
PRIMVEC
3.335102842420818 0.0 0.0
-3.335102842420818 5.77656821331782 0.0
0.0 0.0 17.44432545444178
PRIMCOORD
24 1
Zn   1.667551421210  0.962761146546  2.911071863850  0.000000000000 -0.000078418646  0.033345922450
Zn   0.000000000000  1.925522626603  0.003684288110  0.000000000000 -0.000121870290  0.033003708620
O    1.667551421210  0.962761146546  5.115120601683  0.000000000000  0.000170464140 -0.033044589160
O    0.000000000000  1.925522626603  2.207733025943  0.000000000000 -0.000142953336 -0.033121979365
Zn   1.667551421210  0.962761146546  8.725847015331  0.000000000000  0.000067620013  0.032978768919
Zn   0.000000000000  1.925522626603  5.818459439591  0.000000000000 -0.000053221835  0.033337180700
O    1.667551421210  0.962761146546  10.929895753164  0.000000000000  0.000150923756 -0.032608272953
O    0.000000000000  1.925522626603  8.022508177424  0.000000000000 -0.000142696225 -0.032775651769
Zn   1.667551421210  0.962761146546  14.540622166812  0.000000000000  0.000001028441  0.032263230909
Zn   0.000000000000  1.925522626603  11.633234591071  0.000000000000 -0.000014655288  0.032402841811
O    1.667551421210  0.962761146546  16.744671238155  0.000000000000  0.000180748552 -0.033061558441
O    0.000000000000  1.925522626603  13.837283328904  0.000000000000 -0.000150152425 -0.032675121636
Zn   0.000000000000  3.851044919695  2.911071863850  0.000000000000  0.000193861178  0.033378832571
Zn  -1.667551421210  4.813806399751  0.003684288110  0.000000000000  0.000013883957  0.033042018057
O    0.000000000000  3.851044919695  5.115120601683  0.000000000000  0.000158122844 -0.033055387793
O   -1.667551421210  4.813806399751  2.207733025943  0.000000000000 -0.000203888481 -0.033117094269
Zn   0.000000000000  3.851044919695  8.725847015331  0.000000000000  0.000036252555  0.032977997588
Zn  -1.667551421210  4.813806399751  5.818459439591  0.000000000000 -0.000055535828  0.033254134067
O    0.000000000000  3.851044919695  10.929895753164  0.000000000000  0.000172263912 -0.032621642690
O   -1.667551421210  4.813806399751  8.022508177424  0.000000000000 -0.000166864595 -0.032846871327
Zn   0.000000000000  3.851044919695  14.540622166812  0.000000000000  0.000112614318  0.032165271879
Zn  -1.667551421210  4.813806399751  11.633234591071  0.000000000000 -0.000103358347  0.032478689354
O    0.000000000000  3.851044919695  16.744671238155  0.000000000000  0.000157608624 -0.033061815551
O   -1.667551421210  4.813806399751  13.837283328904  0.000000000000 -0.000181519883 -0.032637840640