# total energy = -14744.5062593136 eV

CRYSTAL
PRIMVEC
3.00813218303729 0.0 0.0
-1.504066091518645 2.605117673814869 0.0
0.0 0.0 13.111750299193083
PRIMCOORD
12 1
Zn   1.518138735497  0.852718538871  2.433475757143  3.589141485299 -1.872872532430 -6.526567968806
Zn   0.058427252204  1.721635568734 -0.147177078440 -3.001627443665  2.615220977541  1.009220725722
O    1.450104411540  0.845126614867  4.082942023422  3.206540766075 -1.958380481596  2.900430623009
O    0.212971547174  1.599918719465  1.618824529422 -3.369924858893  1.932221820923  1.495012927435
Zn   1.424386686254  1.001735691768  6.651275655276  2.699466257944 -1.624390067180 -8.199144622994
Zn   0.038966441859  1.670212150692  4.411991676088 -3.217125226459  2.375804479147 -9.410688284691
O    1.554437565737  0.842018311883  8.219751572284  2.874640144308 -1.043294270367  7.516428287723
O    0.028197328644  1.605845341492  5.967288063563 -3.676920489888  2.211232022448  10.246819774491
Zn   1.531816712534  0.776026509678  10.884176376967  0.482770127057  5.483587373025 -3.861506670705
Zn   0.114666088246  1.720399828034  8.577891367227 -2.167638711238 -0.414857779486 -0.716643069925
O    1.491308903744  0.978610976424  12.514671556820  2.812363654866 -1.452692569400  4.572873322721
O    0.173966300409  1.892460175892  10.285577324589 -0.231685705408 -6.251578715515  0.973764956017