# total energy = -19662.66236244529 eV

CRYSTAL
PRIMVEC
3.0735263149139955 0.0 0.0
-3.0735263149139955 5.323504327273101 0.0
0.0 0.0 8.931191074561259
PRIMCOORD
16 1
Zn   1.271191427985  0.731206355892  2.303808059591 -0.179718054091  1.370345020240 -13.566728706477
Zn  -0.161897076580  1.810774175484  0.129589704721 -1.545108815650  0.376444212705 -9.366646573089
O    1.423204658642  0.761915801420  3.804389050564  1.281086088672  4.913292266372  14.426757828832
O   -0.058148659057  1.756863601863  1.701101843342 -1.243930819778  0.482300386510  8.665843298410
Zn   1.460087281774  0.826580950970  6.693087631120  1.746038213712  0.392429275279 -2.736613042198
Zn   0.102660081855  2.051301583131  4.530145429594  0.317623543022 -4.699091090902 -5.959990420214
O    1.314415043257  0.928626020209  8.382402193691  0.794246162421 -0.329589457135  3.889725042120
O    0.031911194317  1.768819619228  6.107780954692 -2.188009304475 -1.959585300537  6.383801295128
Zn   0.062489400272  3.550575096010  2.315091896751  2.456588283365 -1.558315287038 -11.088298130427
Zn  -1.405575219052  4.381531826394  0.053680673853 -4.053812845874  2.713222688298 -3.230746673897
O   -0.022614084567  3.570887724072  3.866775180351  2.780072141823  1.634956529842  8.088751994771
O   -1.389368822146  4.392260584702  1.738573046763 -1.504671019350 -0.453049717175  2.313609750786
Zn   0.124729537559  3.431047809091  6.790802716487  0.790612165213  1.011365025758 -9.271928161069
Zn  -1.368018571600  4.473995177347  4.325656654752 -2.588731415891 -0.060754653481  0.356986103980
O   -0.038284765836  3.654370538485  8.339867048314  2.929265287852 -0.804884358861  7.825260200596
O   -1.504986890945  4.512384443078  6.044463239078  0.208450903250 -3.029085796986  3.270215935636