# total energy = -39359.057442616126 eV

CRYSTAL
PRIMVEC
7.062571005279078 0.0 0.0
-3.531285502639539 6.116363054846814 0.0
0.0 0.0 10.489401082750538
PRIMCOORD
32 1
Zn   1.765642751320  1.019394548732  2.625672504089  0.000050393622  0.000029053466 -0.321509765451
Zn  -0.000000000000  2.038788391206  0.003322939658  0.000000000000 -0.000000257110 -0.321412063530
O    1.765642751320  1.019394548732  4.613638634341  0.000005142206  0.000003085324  0.321570700596
O   -0.000000000000  2.038788391206  1.991288363653  0.000000000000  0.000006170648  0.321559130631
Zn   1.765642751320  1.019394548732  7.870372339207 -0.000011055744 -0.000006427758 -0.321624693762
Zn  -0.000000000000  2.038788391206  5.248022068519  0.000000000000  0.000022625708 -0.321727537888
O    1.765642751320  1.019394548732  9.858337763202 -0.000001542662 -0.000000771331  0.321576357022
O   -0.000000000000  2.038788391206  7.235988198771 -0.000000000000 -0.000002056883  0.321591526531
Zn  -0.000000000000  4.077577488669  2.625672504089  0.000000000000 -0.000000000000 -0.321523649408
Zn  -1.765642751320  5.096971331144  0.003322939658 -0.000000257110  0.000000257110 -0.321412063530
O   -0.000000000000  4.077577488669  4.613638634341  0.000000000000  0.000000000000  0.321573528809
O   -1.765642751320  5.096971331144  1.991288363653  0.000005142206 -0.000003085324  0.321559130631
Zn  -0.000000000000  4.077577488669  7.870372339207  0.000000000000 -0.000000000000 -0.321693599327
Zn  -1.765642751320  5.096971331144  5.248022068519  0.000019540384 -0.000011312854 -0.321727537888
O   -0.000000000000  4.077577488669  9.858337763202  0.000000000000  0.000000000000  0.321579699457
O   -1.765642751320  5.096971331144  7.235988198771 -0.000001799772  0.000001028441  0.321591526531
Zn   5.296928253959  1.019394548732  2.625672504089 -0.000050393622  0.000029053466 -0.321509765451
Zn   3.531285502640  2.038788391206  0.003322939658  0.000000000000  0.000000000000 -0.321337501539
O    5.296928253959  1.019394548732  4.613638634341 -0.000005142206  0.000003085324  0.321570700596
O    3.531285502640  2.038788391206  1.991288363653  0.000000000000  0.000000000000  0.321566329720
Zn   5.296928253959  1.019394548732  7.870372339207  0.000011055744 -0.000006427758 -0.321624693762
Zn   3.531285502640  2.038788391206  5.248022068519  0.000000000000  0.000000000000 -0.321825239808
O    5.296928253959  1.019394548732  9.858337763202  0.000001542662 -0.000000771331  0.321576357022
O    3.531285502640  2.038788391206  7.235988198771  0.000000000000  0.000000000000  0.321588184097
Zn   3.531285502640  4.077577488669  2.625672504089  0.000000000000 -0.000058364042 -0.321509765451
Zn   1.765642751320  5.096971331144  0.003322939658  0.000000257110  0.000000257110 -0.321412063530
O    3.531285502640  4.077577488669  4.613638634341  0.000000000000 -0.000006170648  0.321570700596
O    1.765642751320  5.096971331144  1.991288363653 -0.000005142206 -0.000003085324  0.321559130631
Zn   3.531285502640  4.077577488669  7.870372339207 -0.000000000000  0.000012598405 -0.321624693762
Zn   1.765642751320  5.096971331144  5.248022068519 -0.000019540384 -0.000011312854 -0.321727537888
O    3.531285502640  4.077577488669  9.858337763202  0.000000000000  0.000001799772  0.321576357022
O    1.765642751320  5.096971331144  7.235988198771  0.000001799772  0.000001028441  0.321591526531