# total energy = -14754.973874593963 eV

CRYSTAL
PRIMVEC
9.416760811194894 0.0 0.0
-1.5694632741194197 2.7183834271716862 0.0
0.0 0.0 4.6619557747982565
PRIMCOORD
12 1
Zn   1.631594120276  0.987517814424  2.452573694726 -1.642008037372 -1.412703944822 -5.908077790505
Zn   0.028444267706  1.806377676016  0.001678066777 -1.141859052717 -0.334750175400 -1.486347795561
O    1.570727945096  0.887703916530  4.099060422224 -0.755816654800 -0.921396469718  5.574918613741
O   -0.000598905988  1.709521582693  1.784087261500  0.558625383625  1.044746429432  1.590940786383
Zn   4.666213092361  1.042251794963  2.377404401550  1.022486589593 -1.153314859962 -1.620404600170
Zn   3.025710716358  1.872656605310 -0.006987236522  1.359176662328  0.040919878143 -0.532394732063
O    4.692902075852  0.924087455276  4.151255644049 -0.414845181081  0.653760057247  1.665890500417
O    3.102838695782  1.731555861315  1.809223421133  0.644495087005  2.059680660599  0.026809149773
Zn   7.862992452319  0.840008964698  2.255487482680 -0.051595098468 -0.699510009789 -1.230076173283
Zn   6.296034036576  1.873708457492  0.080663031433 -1.043097838085  1.940388930115 -8.648623849208
O    7.717022301309  1.004616768705  4.019638519867  1.753597257006 -0.764929415735  1.774669761406
O    6.278865398265  1.691673054251  1.664627175525 -0.289158859924 -0.452891337220  8.792696386182