# total energy = -29517.055442382964 eV

CRYSTAL
PRIMVEC
7.193359269032489 0.0 0.0
-1.7983398172581222 3.114818077161565 0.0
0.0 0.0 16.373848069338855
PRIMCOORD
24 1
Zn   1.798339817258  1.038272212830  2.732432765802 -0.000104643899 -0.000060420924 -0.038387084419
Zn  -0.000000000000  2.076543706324  0.003457847801  0.000059906704  0.000034709893 -0.038127145889
O    1.798339817258  1.038272212830  4.801229943529 -0.000087931728 -0.000050650732  0.038473730595
O   -0.000000000000  2.076543706324  2.072255025528  0.000077647315  0.000044994305  0.038523095776
Zn   1.798339817258  1.038272212830  8.190383321142  0.000073790661  0.000042680312 -0.038922388097
Zn  -0.000000000000  2.076543706324  5.461408403140  0.000213915783  0.000123412952 -0.038698445011
O    1.798339817258  1.038272212830  10.259179779533 -0.000090759942 -0.000052450504  0.038551635021
O   -0.000000000000  2.076543706324  7.530204861531  0.000086646177  0.000050136512  0.038542636160
Zn   1.798339817258  1.038272212830  13.648333157145  0.000071219558  0.000041137651 -0.038256215268
Zn  -0.000000000000  2.076543706324  10.919358239144 -0.000275108038 -0.000158894175 -0.038787662291
O    1.798339817258  1.038272212830  15.717130334873 -0.000084332184 -0.000048850960  0.038522838666
O   -0.000000000000  2.076543706324  12.988154697535  0.000088188838  0.000050907843  0.038483757897
Zn   5.395019451774  1.038272212830  2.732432765802  0.000053478946  0.000030853238 -0.038441591806
Zn   3.596679634516  2.076543706324  0.003457847801  0.000005399317  0.000003085324 -0.038324606612
O    5.395019451774  1.038272212830  4.801229943529 -0.000077390205 -0.000044737195  0.038472187933
O    3.596679634516  2.076543706324  2.072255025528  0.000086903287  0.000050136512  0.038539550836
Zn   5.395019451774  1.038272212830  8.190383321142 -0.000155037521 -0.000089474390 -0.038452647549
Zn   3.596679634516  2.076543706324  5.461408403140 -0.000130354930 -0.000075076212 -0.038635452984
O    5.395019451774  1.038272212830  10.259179779533 -0.000075076212 -0.000043194533  0.038531837527
O    3.596679634516  2.076543706324  7.530204861531  0.000085617735  0.000049365181  0.038530551975
Zn   5.395019451774  1.038272212830  13.648333157145 -0.000131383372 -0.000075847543 -0.038337462128
Zn   3.596679634516  2.076543706324  10.919358239144  0.000306475497  0.000176891897 -0.038812601992
O    5.395019451774  1.038272212830  15.717130334873 -0.000077647315 -0.000044737195  0.038523352886
O    3.596679634516  2.076543706324  12.988154697535  0.000080218419  0.000046279857  0.038488128773