# total energy = -14760.137072230491 eV

CRYSTAL
PRIMVEC
10.005308527262454 0.0 0.0
-1.6675547563132513 2.888282439107489 0.0
0.0 0.0 5.5994108854312685
PRIMCOORD
12 1
Zn   1.680553653152  1.000344753988  2.849482853170 -0.369762429809  0.043609252050 -0.534065692008
Zn  -0.035113630276  1.875537105731 -0.096387140228 -0.173770321148  0.320747176253  0.622308523606
O    1.656571929143  1.019186751006  4.885587151208 -0.395834187196 -0.524144319129  0.125889181196
O   -0.036731488665  1.998770489800  2.176018532484 -0.079138812415 -0.481532912216 -0.225935433188
Zn   5.017941374530  0.978186997723  2.798173629980 -0.290396074765 -0.049812295536 -0.080523865688
Zn   3.277219798019  1.856824177193 -0.024677092952  0.624410143330  0.598265880835  0.395787136008
O    5.016802770420  1.018694489827  4.935108425764 -0.671058696427 -0.557066523778 -0.500087792400
O    3.279159827342  1.935176748800  2.078054555631  0.438485446207  0.131980381696  0.140641399805
Zn   8.278094117263  0.982710397708  2.821048766866  0.323575903951  0.026133720973 -0.251016801636
Zn   6.655676309309  1.862874387259 -0.020975128797 -0.554926337507  0.696871286614  0.577906600452
O    8.233666545278  0.994328561970  4.991899557495  1.214057429258 -0.448164364058 -0.842780105466
O    6.651086874287  1.918374834191  2.054296950533 -0.065642320590  0.243112973408  0.571877106428