# total energy = -9837.808588698046 eV

CRYSTAL
PRIMVEC
3.00813218303729 0.0 0.0
-1.504066091518645 2.605117673814869 0.0
0.0 0.0 9.906654645207059
PRIMCOORD
8 1
Zn   1.504066091519  0.868372858752  2.479802196015  0.000000000000 -0.000000000000  0.476920610255
Zn  -0.000000000000  1.736746018316  0.003138384307  0.000000000000  0.000000000000  0.476104285001
O    1.504066091519  0.868372858752  4.357325190739  0.000000000000  0.000000000000 -0.476431072213
O   -0.000000000000  1.736746018316  1.880661679844  0.000000000000 -0.000000000000 -0.476379907260
Zn   1.504066091519  0.868372858752  7.433129518618  0.000000000000 -0.000000000000  0.475976244064
Zn  -0.000000000000  1.736746018316  4.956465706910  0.000000000000  0.000000000000  0.476623904950
O    1.504066091519  0.868372858752  9.310652814155  0.000000000000 -0.000000000000 -0.476416674036
O   -0.000000000000  1.736746018316  6.833989002447  0.000000000000  0.000000000000 -0.476397647872