# total energy = -29515.334674740887 eV

CRYSTAL
PRIMVEC
3.2043145786674065 0.0 0.0
-4.806471868001109 8.325052803285901 0.0
0.0 0.0 9.311241496847789
PRIMCOORD
24 1
Zn   1.602157289334  0.925005831428  2.330760105997  0.000000000000 -0.000345299155 -2.489148219579
Zn   0.000000000000  1.850011983288  0.002949892001  0.000000000000  0.000353526685 -2.489137935166
O    1.602157289334  0.925005831428  4.095439910330  0.000000000000  0.000025196811  2.489148990910
O    0.000000000000  1.850011983288  1.767629375902  0.000000000000 -0.000023654149  2.489147962468
Zn   1.602157289334  0.925005831428  6.986380854421  0.000000000000 -0.000364839539 -2.489153618895
Zn   0.000000000000  1.850011983288  4.658570640425  0.000000000000  0.000339385617 -2.489159532433
O    1.602157289334  0.925005831428  8.751060658753  0.000000000000  0.000026482363  2.489148990910
O    0.000000000000  1.850011983288  6.423250124326  0.000000000000 -0.000023139928  2.489146934027
Zn   0.000000000000  3.700023646145  2.330760105997  0.000000000000 -0.000337071624 -2.489153361785
Zn  -1.602157289334  4.625029798004  0.002949892001  0.000000000000  0.000369981745 -2.489146934027
O    0.000000000000  3.700023646145  4.095439910330  0.000000000000  0.000019797494  2.489149762241
O   -1.602157289334  4.625029798004  1.767629375902  0.000000000000 -0.000024682590  2.489146676917
Zn   0.000000000000  3.700023646145  6.986380854421  0.000000000000 -0.000340414059 -2.489133307180
Zn  -1.602157289334  4.625029798004  4.658570640425  0.000000000000  0.000355069347 -2.489167502852
O    0.000000000000  3.700023646145  8.751060658753  0.000000000000  0.000026482363  2.489146676917
O   -1.602157289334  4.625029798004  6.423250124326  0.000000000000 -0.000024939701  2.489150533571
Zn  -1.602157289334  6.475041460861  2.330760105997  0.000000000000 -0.000346070486 -2.489176758824
Zn  -3.204314578667  7.400047612721  0.002949892001  0.000000000000  0.000318816792 -2.489133821401
O   -1.602157289334  6.475041460861  4.095439910330  0.000000000000  0.000025453921  2.489149762241
O   -3.204314578667  7.400047612721  1.767629375902  0.000000000000 -0.000026739473  2.489149505130
Zn  -1.602157289334  6.475041460861  6.986380854421  0.000000000000 -0.000344527824 -2.489142563152
Zn  -3.204314578667  7.400047612721  4.658570640425  0.000000000000  0.000349155809 -2.489122508547
O   -1.602157289334  6.475041460861  8.751060658753  0.000000000000  0.000016969281  2.489146676917
O   -3.204314578667  7.400047612721  6.423250124326  0.000000000000 -0.000024939701  2.489143591593