# total energy = -14759.962297457572 eV

CRYSTAL
PRIMVEC
9.61294373600222 0.0 0.0
-1.6021604936482823 2.775016532990441 0.0
0.0 0.0 5.0694531697869225
PRIMCOORD
12 1
Zn   1.571330821793  0.909798795301  2.572456427763  0.302339363170  0.200583327576  0.210585433094
Zn  -0.053926691770  1.831595505679  0.091513301778  0.859284787989  0.706401594702 -2.133354079024
O    1.608184925488  0.967765807323  4.543474224211 -0.390729004759 -0.494814974037 -0.550272897895
O   -0.025617533762  1.839116672858  1.881904846721  0.333985786430  0.230312993430  2.484796113258
Zn   4.794556624240  0.926244619444  2.557284318664 -0.199145566688  0.451329392050 -0.332340794628
Zn   3.210557865192  1.851323188814  0.023919887898  0.151187550752  0.209674748354 -0.061043645476
O    4.800421481214  0.935553794158  4.444203276838  0.490018066869  0.216545764443  0.990098660180
O    3.186340937333  1.901492180877  1.972900972126 -0.155826849296 -0.789180060752 -0.116896747890
Zn   8.011492677602  0.970549715829  2.578086728909 -0.152280012485 -0.536260385666 -0.379220747009
Zn   6.398816584801  1.896922187425  0.113705743687 -0.019169373840 -0.426805695877 -1.941151519312
O    8.079740732950  0.926708924627  4.453399018816 -1.203736506948 -0.215941298089  0.489686394561
O    6.411402812034  1.827806083258  1.933500399635 -0.015927726974  0.448154079645  1.339113830140