# total energy = -14757.923040703776 eV

CRYSTAL
PRIMVEC
10.005308527262454 0.0 0.0
-1.6675547563132513 2.888282439107489 0.0
0.0 0.0 5.3840466193819445
PRIMCOORD
12 1
Zn   1.694233911501  0.888378347852  2.560825700035 -0.695241721431  0.187351659377  0.511600678136
Zn   0.066606339397  1.947670377558  0.056912195965 -0.814497199361 -0.283698351030 -6.153942615627
O    1.617607255614  1.202445983053  4.623725214840  0.551251973979 -0.884927685368 -1.035011718643
O   -0.077929347057  2.016464877930  1.699803866758 -0.235743420417  0.101482470217  7.127005917591
Zn   5.097087367104  0.991310960918  2.736739034561 -0.183273889763 -0.033627715357 -0.331135975686
Zn   3.226763027116  1.972369482189  0.005465900048  0.375976014819 -0.184826321852 -0.000388236577
O    5.203985083940  0.946218035917  4.780538415388 -5.946479015991 -3.018268394655 -3.134851467960
O    3.289791468183  1.893173463072  2.015867561011  1.108853544325  0.583943036454  0.135688940896
Zn   8.181744997207  0.989276881695  2.763416188687  0.804803112001 -0.000974448098 -1.142965655517
Zn   6.471268467843  1.778636693175  0.048638806344  5.497900447214  3.753258085408  1.191104162896
O    8.181451841667  0.988472454889  4.601411375762  0.745842831417 -0.058367127085  1.291980881208
O    6.808739520220  2.052197836804  1.869406853197 -1.209392676792 -0.161345208011  1.540915089284