# total energy = -14751.868007648452 eV

CRYSTAL
PRIMVEC
3.00813218303729 0.0 0.0
-1.504066091518645 2.605117673814869 0.0
0.0 0.0 13.985865381468791
PRIMCOORD
12 1
Zn   1.481389888683  0.908706195875  2.305795586634  1.467809627547 -0.571392967703  0.663944453979
Zn   0.037888026472  1.786643711716  0.008084656055 -0.972414355527  0.145887992916 -1.684067685546
O    1.427817761822  0.860203072556  4.125588313380  1.100345763964 -0.381364018604 -0.488756426548
O    0.042732322539  1.751553248174  1.745271365736 -1.481050551718  0.548528404400  1.948402801558
Zn   1.494384718901  0.921334936406  7.048979607942 -1.188262322571 -0.121680799542 -5.268985105462
Zn  -0.011036836980  1.711505081982  4.743548907742 -0.320347626822 -0.243631564916 -8.891666117280
O    1.486425802771  0.919267146343  8.705619968664  1.141665448649 -0.432225838451  5.114133218485
O   -0.119070294575  1.806903782782  6.318393642208  0.579771935795  0.702079827398  9.654623239779
Zn   1.375413091062  0.887616782766  11.592425156363  2.021875159716  0.764928901514  2.402488673307
Zn   0.067073225725  1.769166764545  9.397413663392 -1.107419640092  0.279185293651 -4.232414269862
O    1.499565324146  0.916711136427  13.483147835106  1.015369261822 -0.047773410730 -2.079843251590
O   -0.005902256156  1.816775870980  11.084611533268 -2.257342700763 -0.642541819934  2.862140983400