# total energy = -14759.806357588226 eV

CRYSTAL
PRIMVEC
9.809126131632336 0.0 0.0
-1.6348576249807667 2.8316494860489647 0.0
0.0 0.0 5.067345513970607
PRIMCOORD
12 1
Zn   1.669114036170  1.013295481262  2.566802099582 -0.572227033569 -0.610352893906 -1.564660255419
Zn   0.043461295151  1.942741571437 -0.032528043165 -1.009781740432  0.180842397504 -1.126733252819
O    1.551562449521  0.984516486104  4.440977879360  1.520940703044 -0.016017201364  0.068449708132
O    0.008788977014  1.852017944759  1.770026402162  0.157705554376  0.399553287919  3.060824779960
Zn   4.898250893150  0.919674238723  2.592116511390  0.512138552917  0.250559402384 -1.359929995555
Zn   3.242393890947  1.950424079024 -0.000254056367  0.151674517691 -0.088874037425 -1.230312714774
O    4.991031493579  1.027261715048  4.461933115515 -1.277869124397 -0.539511545613  0.607439576914
O    3.317275778923  1.882442911281  1.843828305351 -0.066449132762 -0.031970639369  1.638314904791
Zn   8.098104565890  0.981786606302  2.612215410834  1.871035993442 -0.925332314437 -1.397038470371
Zn   6.600899388827  1.880726314208 -0.048823944408  0.415943042131  0.521470886062  0.804007612683
O    8.205884301086  0.944976879580  4.451902303132  0.360932490223 -0.157856478132  1.134070667020
O    6.637270647610  1.823631314646  1.952140676097 -2.064043822664  1.017489136378 -0.634432303453