# total energy = -9837.229365956571 eV

CRYSTAL
PRIMVEC
3.138920446790701 0.0 0.0
-1.5694602233953505 2.718383579931917 0.0
0.0 0.0 10.134685808200732
PRIMCOORD
8 1
Zn   1.545557971977  0.917377123075  2.419490866608  1.901218687673  0.077852232393  2.892055254461
Zn   0.153598991467  2.012430640795  0.082083083576 -0.096025303757 -1.400826219548 -1.277291140406
O    1.448364125371  0.892077738165  4.501410928254  2.100807769657 -0.179738108696 -2.482002095452
O    0.122077324556  1.867072257177  1.963282993900 -2.000449385742 -0.172475513596 -1.088667813406
Zn   1.550395362278  0.824781167139  7.707865248458 -0.419533844806  0.677511136920 -11.261082947733
Zn   0.063624975780  1.846746177824  5.059731963693 -1.882129532252  0.184604949870  0.560627244546
O    1.569550310412  0.867273361011  9.271190765732  0.134825564454  1.787800128140  12.007030937270
O   -0.100869836342  1.844912420499  6.928583360979  0.261285787663 -0.974728348372  0.649330817831