# total energy = -9838.987332376733 eV

CRYSTAL
PRIMVEC
3.4004969742975235 0.0 0.0
-1.7002484871487618 2.944915392166013 0.0
0.0 0.0 12.077164247951394
PRIMCOORD
8 1
Zn   1.713848094698  0.996785977827  3.052427204754  0.018886552492 -0.094834368773 -0.718246152746
Zn   0.002238207108  2.014843764477  0.007776596531 -0.048305629084 -0.304300086441  0.084686224595
O    1.696735433725  0.958236923978  5.297423745495 -0.000198232054  0.024935329789  0.052335833289
O    0.026124318005  1.932486448158  2.208608842769 -0.062845217461  0.121626806376  0.834896074732
Zn   1.709601214027  1.011203064849  9.103028385285  0.031092864750 -0.013545085674 -0.279801329968
Zn  -0.011615417565  1.936224614481  6.012578863663  0.050105144187  0.048839390100  0.062215297186
O    1.673748074178  0.966418859747  11.407321772115  0.108180451063  0.292537032367 -0.283199042796
O    0.031945968825  1.999803366360  8.332884170596 -0.096915933892 -0.075259274855  0.247113352817