# total energy = -4920.320087753315 eV

CRYSTAL
PRIMVEC
3.2697087105441125 0.0 0.0
-1.6348543552720562 2.831649486048965 0.0
0.0 0.0 5.278480414536572
PRIMCOORD
4 1
Zn   1.634854355272  0.943883488987  2.642585119279  0.000000000000  0.000000000000  0.001702584513
Zn  -0.000000000000  1.887767304945  0.003344258069  0.000000000000  0.000000000000  0.001702584513
O    1.634854355272  0.943883488987  4.643355846057  0.000000000000  0.000000000000 -0.001702584513
O   -0.000000000000  1.887767304945  2.004114984847  0.000000000000 -0.000000000000 -0.001702584513