# total energy = -39362.16035522169 eV

CRYSTAL
PRIMVEC
6.408629157334813 0.0 0.0
-3.2043145786674065 5.550033065980882 0.0
0.0 0.0 10.75965897701161
PRIMCOORD
32 1
Zn   1.602157289334  0.925006151860  2.693322532807 -0.000182548324 -0.000105415230  0.306585025820
Zn  -0.000000000000  1.850011662857  0.003408749849 -0.000000000000 -0.000132154702  0.306749319312
O    1.602157289334  0.925006151860  4.732507956308 -0.000009770192 -0.000005656427 -0.306739034899
O   -0.000000000000  1.850011662857  2.042594173349  0.000000000000  0.000019283274 -0.306816939325
Zn   1.602157289334  0.925006151860  8.073151380450 -0.000075847543 -0.000043708754  0.307006686738
Zn  -0.000000000000  1.850011662857  5.383236956629  0.000000000000 -0.000228313961  0.306922097444
O    1.602157289334  0.925006151860  10.112336803950  0.000002828213  0.000001542662 -0.306860390969
O   -0.000000000000  1.850011662857  7.422422380129  0.000000000000 -0.000009770192 -0.306717437633
Zn  -0.000000000000  3.700023966576  2.693322532807  0.000000000000  0.000000000000  0.306384479773
Zn  -1.602157289334  4.625029477573  0.003408749849 -0.000114414091  0.000066077351  0.306749319312
O   -0.000000000000  3.700023966576  4.732507956308  0.000000000000  0.000000000000 -0.306757032621
O   -1.602157289334  4.625029477573  2.042594173349  0.000016712171 -0.000009513082 -0.306816939325
Zn  -0.000000000000  3.700023966576  8.073151380450  0.000000000000  0.000000000000  0.306940095167
Zn  -1.602157289334  4.625029477573  5.383236956629 -0.000197717833  0.000114156980  0.306922097444
O   -0.000000000000  3.700023966576  10.112336803950  0.000000000000 -0.000000000000 -0.306874789146
O   -1.602157289334  4.625029477573  7.422422380129 -0.000008484640  0.000004885096 -0.306717437633
Zn   4.806471868001  0.925006151860  2.693322532807  0.000182548324 -0.000105415230  0.306585025820
Zn   3.204314578667  1.850011662857  0.003408749849  0.000000000000 -0.000000000000  0.306498379643
O    4.806471868001  0.925006151860  4.732507956308  0.000009770192 -0.000005656427 -0.306739034899
O    3.204314578667  1.850011662857  2.042594173349  0.000000000000  0.000000000000 -0.306810511567
Zn   4.806471868001  0.925006151860  8.073151380450  0.000075847543 -0.000043708754  0.307006686738
Zn   3.204314578667  1.850011662857  5.383236956629  0.000000000000 -0.000000000000  0.306958864220
O    4.806471868001  0.925006151860  10.112336803950 -0.000002828213  0.000001542662 -0.306860390969
O    3.204314578667  1.850011662857  7.422422380129 -0.000000000000 -0.000000000000 -0.306727207825
Zn   3.204314578667  3.700023966576  2.693322532807 -0.000000000000  0.000210573349  0.306585025820
Zn   1.602157289334  4.625029477573  0.003408749849  0.000114414091  0.000066077351  0.306749319312
O    3.204314578667  3.700023966576  4.732507956308  0.000000000000  0.000011312854 -0.306739034899
O    1.602157289334  4.625029477573  2.042594173349 -0.000016712171 -0.000009513082 -0.306816939325
Zn   3.204314578667  3.700023966576  8.073151380450  0.000000000000  0.000087417507  0.307006686738
Zn   1.602157289334  4.625029477573  5.383236956629  0.000197717833  0.000114156980  0.306922097444
O    3.204314578667  3.700023966576  10.112336803950  0.000000000000 -0.000003342434 -0.306860390969
O    1.602157289334  4.625029477573  7.422422380129  0.000008484640  0.000004885096 -0.306717437633