# total energy = -9837.464380066578 eV

CRYSTAL
PRIMVEC
3.0735263149139955 0.0 0.0
-3.0735263149139955 5.323504327273101 0.0
0.0 0.0 5.160244756477499
PRIMCOORD
8 1
Zn   1.561040941819  0.919664846885  2.655571916923  0.233473650546  1.323744803883  0.325190813847
Zn   0.001631735121  1.735713745232  0.037364859410 -2.865826145561  2.573291941407 -0.571315320388
O    1.386939506947  0.816639937457  4.722472568160  3.205592800339  3.841527399369 -3.707536672112
O    0.051672739112  1.899263764264  1.862017235617 -0.449653804119 -0.823286515517  2.569387207036
Zn   0.085698826886  3.736725983446  2.475624942353 -4.087909787557 -3.231802111745  2.647519689673
Zn  -1.707193572498  4.532663262351  0.015033846617  1.730021012348 -4.729610599647  1.836527932363
O   -0.061957372867  3.621358099690  4.604980570367 -1.773168494270 -1.661291053971 -1.204278752604
O   -1.556917191562  4.457876683293  2.056820714335  4.007470768274  2.707426393331 -1.895495412036