# total energy = -9837.01521495063 eV

CRYSTAL
PRIMVEC
6.277840893581402 0.0 0.0
-1.5694602233953505 2.7183867188523636 0.0
0.0 0.0 4.560606573392039
PRIMCOORD
8 1
Zn   1.546413013907  0.830351809255  2.278071514258  0.668093957371  1.007253060473 -2.771785476334
Zn   0.062812309277  1.836758760746 -0.053435726118 -1.499112037205  0.450265469561 -1.866110274006
O    1.520197378119  0.932195966504  4.022070781313  1.798990340429 -0.188100621728  2.144963638238
O    0.018368962455  1.815682165514  1.705652331525  0.047936418670 -0.612821667162  2.369389319650
Zn   4.736581987048  0.839799332016  2.221622424511 -0.279406408523  2.425699821316 -1.052171261141
Zn   3.173846586818  1.793328657445 -0.014432756214 -0.455026638396  0.180514838961 -2.516653881198
O    4.726720126788  0.933015224740  4.011512080714  0.250664046283 -0.251296023440  1.736873259383
O    3.165294284169  1.882497226145  1.743603135295 -0.532139678629 -3.011514877982  1.955494932518