# total energy = -9837.18078928255 eV

CRYSTAL
PRIMVEC
3.138920446790701 0.0 0.0
-3.138920446790701 5.436770298784281 0.0
0.0 0.0 4.661956036778017
PRIMCOORD
8 1
Zn   1.522146647717  0.899848135731  2.285629720802  0.985002733715  0.341024952665 -2.614611111871
Zn  -0.047709079655  1.790545690576  0.032676161851  0.028198831032 -0.192541945329 -3.913455038747
O    1.550061067250  0.907604094263  4.011946821196 -0.148187330473  0.174488430261  3.343091797860
O    0.030580932453  1.782692739403  1.731918817824 -0.941600455470  1.097463814431  3.847129576047
Zn  -0.025426511187  3.698072354472  2.384035190701  0.831279561025 -0.978668821077 -3.057714002246
Zn  -1.600479035251  4.606783859869  0.031920309808 -0.253256489600 -0.912484254830 -3.205029471637
O   -0.045275474632  3.562681612732  4.104270318838  0.194009016793  0.886384215309  3.183550990048
O   -1.539701374208  4.532727309768  1.763909753341 -0.695445867022 -0.415666391430  2.417037003435