# total energy = -29519.53458312996 eV

CRYSTAL
PRIMVEC
6.800993948595047 0.0 0.0
-5.1007454614462855 8.834749576995012 0.0
0.0 0.0 5.70920318605129
PRIMCOORD
24 1
Zn   1.700248487149  0.981639144155  2.858219721806 -0.000049879401  0.000159151286  0.015892502861
Zn  -0.000000000000  1.963277608210  0.003617448681 -0.000097701920  0.000102329906  0.016256571068
O    1.700248487149  0.981639144155  5.022253149987  0.000004627986  0.000011569964 -0.016063738331
O   -0.000000000000  1.963277608210  2.167650876862 -0.000008998861  0.000010798633 -0.016067080765
Zn   0.000000000000  3.926555896520  2.858219721806  0.000120584738  0.000114928311  0.015754948841
Zn  -1.700248487149  4.908194360575  0.003617448681 -0.000047308298 -0.000081761081  0.016276368563
O    0.000000000000  3.926555896520  5.022253149987 -0.000001542662  0.000002571103 -0.016042655285
O   -1.700248487149  4.908194360575  2.167650876862  0.000001542662 -0.000010798633 -0.016065280993
Zn  -1.700248487149  6.871472648884  2.858219721806  0.000084075073 -0.000177406118  0.015825397068
Zn  -3.400496974298  7.853111112940  0.003617448681 -0.000000257110 -0.000099244582  0.016270969246
O   -1.700248487149  6.871472648884  5.022253149987  0.000000514221  0.000012084185 -0.016050625705
O   -3.400496974298  7.853111112940  2.167650876862 -0.000005656427 -0.000029310576 -0.016075565406
Zn   5.100745461446  0.981639144155  2.858219721806  0.000047051188  0.000070705337  0.015880418676
Zn   3.400496974298  1.963277608210  0.003617448681  0.000090502831  0.000123412952  0.016274825901
O    5.100745461446  0.981639144155  5.022253149987  0.000005399317  0.000032653010 -0.016041112623
O    3.400496974298  1.963277608210  2.167650876862  0.000005142206  0.000010541523 -0.016068366317
Zn   3.400496974298  3.926555896520  2.858219721806 -0.000117242304  0.000183319655  0.015811513111
Zn   1.700248487149  4.908194360575  0.003617448681  0.000033681451 -0.000092045493  0.016408009044
O    3.400496974298  3.926555896520  5.022253149987  0.000009513082  0.000013883957 -0.016045997719
O    1.700248487149  4.908194360575  2.167650876862  0.000000514221 -0.000004885096 -0.016050625705
Zn   1.700248487149  6.871472648884  2.858219721806 -0.000060420924 -0.000301333291  0.015747749753
Zn   0.000000000000  7.853111112940  0.003617448681 -0.000011312854 -0.000024939701  0.016303108035
O    1.700248487149  6.871472648884  5.022253149987  0.000003856655  0.000017226391 -0.016051397036
O    0.000000000000  7.853111112940  2.167650876862 -0.000006941979 -0.000043708754 -0.016079422060