# total energy = -29521.250127682957 eV

CRYSTAL
PRIMVEC
9.61294373600222 0.0 0.0
-1.6021604936482823 2.775016532990441 0.0
0.0 0.0 11.17348979621735
PRIMCOORD
24 1
Zn   1.602157609765  0.925005510997  2.796911934938 -0.000019797494 -0.000011312854  0.387107348846
Zn  -0.000000000000  1.850011983288  0.003539485884 -0.000142953336 -0.000082532411  0.387470902833
O    1.602157609765  0.925005510997  4.914528084654 -0.000111328767 -0.000064277579 -0.387076752718
O   -0.000000000000  1.850011983288  2.121155635600  0.000121870290  0.000070448227 -0.387107605956
Zn   1.602157609765  0.925005510997  8.383656833047  0.000038823658  0.000022368598  0.386950768663
Zn  -0.000000000000  1.850011983288  5.590284383992 -0.000204659812 -0.000118013635  0.386878263554
O    1.602157609765  0.925005510997  10.501272982763 -0.000116213863 -0.000067105793 -0.387131517215
O   -0.000000000000  1.850011983288  7.707900533709  0.000123155841  0.000071219558 -0.387096807323
Zn   4.806471868001  0.925005510997  2.796911934938  0.000119299187  0.000068905565  0.387165198667
Zn   3.204314258236  1.850011983288  0.003539485884  0.000008998861  0.000005142206  0.387347746991
O    4.806471868001  0.925005510997  4.914528084654 -0.000125984055 -0.000072762219 -0.387085237359
O    3.204314258236  1.850011983288  2.121155635600  0.000116470973  0.000067105793 -0.387105549074
Zn   4.806471868001  0.925005510997  8.383656833047  0.000177406118  0.000102329906  0.387044099708
Zn   3.204314258236  1.850011983288  5.590284383992 -0.000013626847 -0.000007970420  0.386903717475
O    4.806471868001  0.925005510997  10.501272982763 -0.000125469834 -0.000072505109 -0.387121747023
O    3.204314258236  1.850011983288  7.707900533709  0.000110814546  0.000064020469 -0.387102720860
Zn   8.010786126237  0.925005510997  2.796911934938  0.000125212724  0.000072247999  0.387216877840
Zn   6.408629477766  1.850011983288  0.003539485884 -0.000106957892 -0.000061706476  0.387309180444
O    8.010786126237  0.925005510997  4.914528084654 -0.000115442532 -0.000066591572 -0.387078038270
O    6.408629477766  1.850011983288  2.121155635600  0.000109528995  0.000063249138 -0.387110434170
Zn   8.010786126237  0.925005510997  8.383656833047  0.000019540384  0.000011312854  0.386954882428
Zn   6.408629477766  1.850011983288  5.590284383992  0.000006941979  0.000004113765  0.386893690173
O    8.010786126237  0.925005510997  10.501272982763 -0.000112614318 -0.000065048910 -0.387129460333
O    6.408629477766  1.850011983288  7.707900533709  0.000116985194  0.000067620013 -0.387096550212