# total energy = -14758.168615551858 eV

CRYSTAL
PRIMVEC
3.2043145786674065 0.0 0.0
-1.6021572893337033 2.775016532990441 0.0
0.0 0.0 15.829112146798531
PRIMCOORD
12 1
Zn   1.397893450045  1.048583107038  2.820078488479  2.151710727154 -1.328379474442 -2.670657818353
Zn   0.018450763775  2.083481547804 -0.029424579913 -0.277215057298 -5.286410500027  2.765730271279
O    1.684362698124  0.933594355793  4.556357170974 -3.340669047351 -2.550351787671  1.502368853579
O    0.072604321018  1.827149519201  1.999822982353 -2.689780398115  1.581270867393 -1.148646250842
Zn   1.728007064842  0.845454235972  7.850462091471  0.247080699807 -0.230621782920  0.800020603011
Zn  -0.224873349796  1.682094363833  5.334560854727  3.701673271352  2.194641207969  0.254399602066
O    1.837979141182  1.068323927862  9.889505243404 -1.736493507446 -1.169847053289 -0.926573900154
O    0.160889596289  1.732181005012  7.149438810386  0.021650231280  0.527430188969  1.359231169715
Zn   1.696020955855  1.081397210912  13.172528362361  0.728370128554 -1.213467361082  1.547879179306
Zn   0.094331176018  1.886406908704  10.590881639955  1.611620426219  0.954437459333  0.470585926286
O    1.822745829675  0.856448880155  15.235467049402  0.222358514470  5.343392830950 -2.787191526476
O    0.135551478758  1.845577532343  12.602219647178 -0.640305731514  1.177905919038 -1.167146109418