# total energy = -14746.52660170659 eV

CRYSTAL
PRIMVEC
2.942722175844334 0.0 0.0
-4.414083263766501 7.645415859728944 0.0
0.0 0.0 4.46557207367725
PRIMCOORD
12 1
Zn   1.534579882698  0.819569902117  2.256113584071 -1.062142513422  1.385564922514 -1.513107580153
Zn  -0.029210931679  1.716797359637  0.005255113262 -0.901953787612 -0.076580307659 -4.622589459000
O    1.418886760355  0.937715489121  3.983799310031  0.546009237523 -2.457613382195  0.476771743382
O   -0.017123700341  1.727516519435  1.631713550551  1.354955682268 -1.491679235076  6.347748772380
Zn   0.004865791118  3.383888904730  2.221443314212  0.141193158543  0.264743664304  0.264599168306
Zn  -1.473374204163  4.203331386977  0.089882211867  0.604851504472  1.373829636355 -9.377215092634
O    0.022156049534  3.387925142467  3.969146907773 -0.586673548011  1.313187854303 -0.211674809504
O   -1.462448465268  4.171666519276  1.652158995684  0.007708424388  2.302442678426  9.458275804662
Zn  -1.502048971861  5.987973500651  2.221217313149  0.411059488786 -2.068474090521 -4.398928680779
Zn  -2.906441059866  6.784945356362 -0.069684249668 -1.778922880255  1.262769035531 -0.898170152200
O   -1.507039534399  5.929486014589  3.876009456636  1.897474133029 -1.347940684403  4.317056785704
O   -2.964305571643  6.810630906874  1.685215770974 -0.633559156819 -0.460249834468  0.157233756946