# total energy = -19673.920255769983 eV

CRYSTAL
PRIMVEC
3.138920446790701 0.0 0.0
-3.138920446790701 5.436770298784281 0.0
0.0 0.0 9.121216285704524
PRIMCOORD
16 1
Zn   1.607872448471  0.892079307626  2.282764828110 -0.864125403911 -0.313245468559 -3.564339338654
Zn   0.033227042390  1.779722692876 -0.039352959533  0.153537024821  1.206409168684 -1.725000162095
O    1.575280723580  0.900931691070  4.003356223718  0.554905768681 -0.763024485403  3.492393187333
O   -0.042457351855  1.818895164484  1.716852313571  0.974931208411  0.090889268082  2.577900129603
Zn   1.623571445193  0.867534519192  6.892602857574 -0.070505047999  0.671935185494 -2.196571849333
Zn   0.052253294786  1.779099303275  4.565468761164 -0.636472988032 -0.078212701056 -3.222892210850
O    1.599027284544  0.930042667077  8.661810794737 -0.104306055709 -0.472477229772  1.106203251186
O    0.042281886202  1.807010897780  6.298101997281  0.068523498793 -0.864441906710  3.200942188941
Zn   0.040842377285  3.649846922403  2.267185110365  0.091004967725 -0.299762089361 -3.139690284109
Zn  -1.521784730189  4.529645517673 -0.080710433664 -0.644228206497 -0.414824869366 -1.475421378456
O   -0.004508117546  3.579336096839  3.993256119396 -0.396177429468  0.449385380949  3.618356930521
O   -1.532240788090  4.484231616649  1.696939002257 -0.142969533717  0.696679225208  1.962632057784
Zn   0.000719754458  3.603669322035  6.726376930826  0.167713830542 -0.085376565794 -0.505825209105
Zn  -1.603660645015  4.502736808251  4.639722121577  0.155632731007  0.101952724985 -6.059521680242
O    0.003060761328  3.619338812905  8.537542189817  0.712787443624 -0.228681114254  1.146202931508
O   -1.555262258430  4.532583547211  6.307644001548 -0.020252065381  0.302795219760  4.784631693078