# total energy = -14759.570529993898 eV

CRYSTAL
PRIMVEC
3.138920446790701 0.0 0.0
-1.5694602233953505 2.718383579931917 0.0
0.0 0.0 16.418189314268147
PRIMCOORD
12 1
Zn   1.612829745533  0.816398366193  2.686084716319  0.269407645439  2.789990172267  1.506366918995
Zn  -0.017666785951  1.721493207452 -0.028914479588  0.758425553178  0.435771389710  0.963607812979
O    1.583569984696  0.934712752918  4.798600149452  0.429737267701 -0.247576408496 -0.350760434786
O    0.100916920148  1.873070734151  2.171859549208 -0.364097518214 -2.863802944483 -1.927959446102
Zn   1.643533723667  0.888899895105  8.236095336925 -0.596820406637 -0.026131921200  0.631570922745
Zn   0.048596452465  1.819900246811  5.436494387677 -0.394772321590  0.211388388611  1.055385397203
O    1.590192165162  0.921451441814  10.256128443043 -0.294137544085  0.074078881393  0.838766356321
O    0.030179464528  1.797191412946  7.728126352158  0.584689941922  0.066753037156 -1.904275986442
Zn   1.505679557161  0.940521325205  13.639636709968  0.510190942272  0.167449264026  1.033531534553
Zn  -0.017271595866  1.839964226307  11.001648416087  0.284300503390 -0.075585033625 -0.395652410202
O    1.611353511246  0.843527741723  15.769468311638 -0.752875827004 -0.268349122267 -0.672656894152
O   -0.021198699237  1.866046457975  13.074638562955 -0.434047722151 -0.263986217313 -0.777923771112