# total energy = -9837.784222944649 eV

CRYSTAL
PRIMVEC
3.00813218303729 0.0 0.0
-1.504066091518645 2.605117673814869 0.0
0.0 0.0 10.10090177279451
PRIMCOORD
8 1
Zn   1.551174043131  0.870005973714  2.506866060453  0.270431201607  1.088339997753  1.944778060321
Zn  -0.016738751533  1.724230082742  0.037764993866  1.520710332201 -0.273409567509  0.197257348527
O    1.537787854917  0.868751582593  4.509147426896 -1.215681080904 -0.323378957449 -2.278293334873
O    0.070229658824  1.795549888670  1.913744215153 -0.224456020429 -1.121458891794 -0.352996523205
Zn   1.515329140038  0.929665958487  7.516137422143  0.313958178356 -0.489346494723  1.768559277632
Zn  -0.029539557224  1.724932481607  5.077770742884  1.155259385283  0.326239052605 -0.781631301871
O    1.601749468712  0.818709498849  9.508026594334 -1.608156378930  0.305732448012 -1.843760445556
O    0.031090550178  1.766989478471  6.886356673182 -0.212065360074  0.487282413105  1.346086919024