# total energy = -29518.825684810785 eV

CRYSTAL
PRIMVEC
6.800993948595047 0.0 0.0
-1.7002484871487618 2.944918792662987 0.0
0.0 0.0 17.456995297072226
PRIMCOORD
24 1
Zn   1.700248487149  0.981639144155  2.913186034998 -0.000076361764 -0.000044222974 -0.028280592112
Zn  -0.000000000000  1.963277608210  0.003686818820  0.000070191116  0.000040623430 -0.028236626248
O    1.700248487149  0.981639144155  5.118835425250 -0.000150666645 -0.000086903287  0.028423802558
O   -0.000000000000  1.963277608210  2.209336209071  0.000150923756  0.000087160397  0.028422774117
Zn   1.700248487149  0.981639144155  8.732183787256 -0.000089988611 -0.000051936284 -0.028568298556
Zn  -0.000000000000  1.963277608210  5.822684571078  0.000030853238  0.000017997722 -0.028456969789
O    1.700248487149  0.981639144155  10.937833177508 -0.000149638204 -0.000086389066  0.028420974345
O   -0.000000000000  1.963277608210  8.028333961329  0.000150152425  0.000086646177  0.028426887882
Zn   1.700248487149  0.981639144155  14.551181539514 -0.000054250277 -0.000031367459 -0.028447199597
Zn  -0.000000000000  1.963277608210  11.641683003435  0.000057078490  0.000032910120 -0.028542330414
O    1.700248487149  0.981639144155  16.756830929766 -0.000148609763 -0.000085874846  0.028418917462
O   -0.000000000000  1.963277608210  13.847332393687  0.000150152425  0.000086646177  0.028417374800
Zn   5.100745461446  0.981639144155  2.913186034998 -0.000051422063 -0.000029567686 -0.028259251956
Zn   3.400496974298  1.963277608210  0.003686818820  0.000053221835  0.000030596128 -0.028238426020
O    5.100745461446  0.981639144155  5.118835425250 -0.000148609763 -0.000085874846  0.028428430544
O    3.400496974298  1.963277608210  2.209336209071  0.000148866873  0.000086131956  0.028419945904
Zn   5.100745461446  0.981639144155  8.732183787256 -0.000038566547 -0.000022111487 -0.028558014143
Zn   3.400496974298  1.963277608210  5.822684571078  0.000098987472  0.000057078490 -0.028485766145
O    5.100745461446  0.981639144155  10.937833177508 -0.000149123983 -0.000086131956  0.028420717235
O    3.400496974298  1.963277608210  8.028333961329  0.000148352652  0.000085617735  0.028422517007
Zn   5.100745461446  0.981639144155  14.551181539514 -0.000076104654 -0.000043965864 -0.028461083554
Zn   3.400496974298  1.963277608210  11.641683003435  0.000075333323  0.000043451643 -0.028526132464
O    5.100745461446  0.981639144155  16.756830929766 -0.000148866873 -0.000086131956  0.028419688793
O    3.400496974298  1.963277608210  13.847332393687  0.000148609763  0.000085617735  0.028418917462