# total energy = -9839.8893587309 eV

CRYSTAL
PRIMVEC
6.931782212348458 0.0 0.0
-1.7329455530871145 3.0015518111156427 0.0
0.0 0.0 5.483289274127275
PRIMCOORD
8 1
Zn   1.732945553087  1.000516808253  2.745117459952  0.000196175171  0.000113128539 -0.039972940849
Zn  -0.000000000000  2.001032923328  0.003474209245  0.000020825936  0.000012084185 -0.039609386862
O    1.732945553087  1.000516808253  4.823518084087 -0.000083046632 -0.000047822519  0.039767509706
O   -0.000000000000  2.001032923328  2.081874833379  0.000074304881  0.000042937423  0.039763653051
Zn   5.198836659261  1.000516808253  2.745117459952 -0.000142439115 -0.000082275301 -0.040011507396
Zn   3.465891106174  2.001032923328  0.003474209245 -0.000062734917 -0.000036252555 -0.039473375504
O    5.198836659261  1.000516808253  4.823518084087 -0.000062477807 -0.000035995444  0.039768538147
O    3.465891106174  2.001032923328  2.081874833379  0.000059135373  0.000034195672  0.039767509706