# total energy = -14757.29781875056 eV

CRYSTAL
PRIMVEC
3.5966608487253477 0.0 0.0
-5.394991273088022 9.344398231212956 0.0
0.0 0.0 5.457922047958169
PRIMCOORD
12 1
Zn   1.891617736128  1.190830669051  2.706814584803 -1.272596820254 -1.006196079963  0.166853025203
Zn   0.081578382373  2.077790972309  0.105262753727  0.041105768901 -0.440003939734 -1.166014824027
O    1.907771778664  1.301419358164  4.625327071760 -0.314509165763  0.088224833876  1.565021495414
O   -0.127858415844  1.888502308501  2.016554224698  1.759804671368  1.677379989113 -0.337941685754
Zn   0.144486498279  4.232491861208  2.832689442188 -0.451137844864 -0.048009952220 -0.612947136996
Zn  -1.797018002819  5.135634260956 -0.104581186497  0.985655279697  0.890873875649  0.381869240375
O    0.193156872550  4.342952868860  4.750798743464 -1.343849802163 -0.841506123849  0.810980701567
O   -1.831095645028  5.237503924839  2.239826657867  0.600088278755 -0.469306545353 -1.019886947186
Zn  -1.665466175950  7.147418594037  2.738925572860  0.065460029376  1.043023018983  0.098025622017
Zn  -3.490856078208  8.230959790972  0.163081234867  0.066738896088 -0.150538090093 -0.546283317120
O   -1.787000942689  7.170658058445  4.730817853785  0.062950375580  0.464781403789  0.940608523870
O   -3.605106168064  8.513778181487  2.096850037812 -0.199710180943 -1.208722390198 -0.280284697363