# total energy = -14760.313507033881 eV

CRYSTAL
PRIMVEC
3.3350853795729423 0.0 0.0
-5.002628069359414 8.664805282619351 0.0
0.0 0.0 5.060982058245801
PRIMCOORD
12 1
Zn   1.579084886230  0.958912086048  2.476902877244 -0.371051323824  0.654312073096 -0.149341498682
Zn   0.078391181847  1.887949477792 -0.038509563861 -0.755260268076  0.772805476049  0.074305395582
O    1.670984164390  1.052735041455  4.399609280828  0.486105619189 -0.827423163394  0.989423231380
O   -0.172894494671  1.993965171838  1.979312807731  0.780004822011 -1.147224173683 -0.787412684439
Zn  -0.064062321022  3.807979808867  2.450449313522  0.481988254586  1.017865288771  0.492020442011
Zn  -1.610022138736  4.785924893668 -0.012779713666 -0.371695385166  0.215862879443 -0.768204229831
O    0.016287556468  3.902582173727  4.459916962729  0.366154657853 -0.486738881897 -0.045536550979
O   -1.659450105113  4.814059673930  1.898178184651 -0.484978190452  0.422605027532  0.772924518125
Zn  -1.583251741903  6.727531893115  2.547749095437 -0.429942698844 -0.260874925377 -0.921279998745
Zn  -3.291410101968  7.700245896498  0.084913608324  0.019635257732  0.037185350801 -1.366781214148
O   -1.631760225240  6.757080082561  4.413823081207 -0.070513789750  0.274580447889  1.600208841948
O   -3.346708152121  7.774549597704  1.980565132291  0.349552273410 -0.672955656339  0.109673747779