# total energy = -19680.32659799528 eV

CRYSTAL
PRIMVEC
3.2697087105441125 0.0 0.0
-3.2697087105441125 5.66330224180664 0.0
0.0 0.0 9.92354631824912
PRIMCOORD
16 1
Zn   1.685776144788  0.921489907970  2.454924438459  0.206132282419  0.521657291041 -0.525871072012
Zn  -0.052136813273  1.900188274395 -0.077991053989  1.033108845193  0.016041112623  0.667262462609
O    1.654402962740  0.980532673011  4.366792439339 -0.035345726489 -0.567440667924  0.708439451068
O    0.077342670752  1.895256245776  1.935648592332 -0.339535255494  0.124150601239 -0.368934534591
Zn   1.615173651572  0.896833688526  7.446871777448  0.495472405115  0.819920684369 -1.029718074344
Zn   0.011967787822  1.892806906981  4.914486631753  0.074076053180  0.115858536433  0.158445260756
O    1.690179461509  0.970664692123  9.321248644311 -0.981144536311 -0.556129099566  0.794781466099
O    0.097200592664  1.961313189942  6.880399647909 -0.710078015113 -0.541391793355 -0.042097186280
Zn   0.041900336213  3.816293490793  2.428038277674 -0.339055230534 -0.365920173245 -0.508346175754
Zn  -1.668599384019  4.724340972312 -0.006884371690  0.171536803832  0.105819664140 -1.459356611684
O   -0.018553308136  3.779818582243  4.338807002485  0.311904638261  0.298481422876  0.667590021152
O   -1.640141147286  4.757045252777  1.829795042536  0.427683213386 -0.277795869502  1.579473666283
Zn  -0.043508051986  3.819607667542  7.435658965367  0.117893564585 -0.399130598559 -0.136964722284
Zn  -1.609374823174  4.717744661960  4.940219893246 -0.335790186629  0.171639390848 -0.243789687760
O   -0.009355290563  3.763592652767  9.377417989337 -0.113692382020  0.465102791685  0.066006131687
O   -1.665180576591  4.718407758886  6.900756200399  0.016834297949  0.069136964007 -0.326920909164