# total energy = -29511.21085931326 eV

CRYSTAL
PRIMVEC
9.220578415564779 0.0 0.0
-1.536766142786935 2.6617504741131626 0.0
0.0 0.0 9.328136462782343
PRIMCOORD
24 1
Zn   1.536763376613  0.887250158038  2.334987927991  0.000358668891  0.000206973804 -1.739548492222
Zn  -0.000000000000  1.774501238133  0.002955195382 -0.000273308266 -0.000157865734 -1.739949327205
O    1.536763376613  0.887250158038  4.102868790822 -0.000031110348 -0.000017997722  1.739819486496
O   -0.000000000000  1.774501238133  1.770836058213  0.000065048910  0.000037538106  1.739807916531
Zn   1.536763376613  0.887250158038  6.999054315267  0.000480796291  0.000277679141 -1.739906132672
Zn  -0.000000000000  1.774501238133  4.667021582658 -0.000238341263 -0.000137554019 -1.739650822128
O    1.536763376613  0.887250158038  8.766935178097  0.000005656427  0.000003342434  1.739726412561
O   -0.000000000000  1.774501238133  6.434902445489  0.000092559714  0.000053478946  1.739731297657
Zn   4.610289207782  0.887250158038  2.334987927991  0.000422946470  0.000244254800 -1.739636166840
Zn   3.073525831169  1.774501238133  0.002955195382 -0.000331929418 -0.000191547186 -1.740047286236
O    4.610289207782  0.887250158038  4.102868790822 -0.000029824797 -0.000017226391  1.739837998438
O    3.073525831169  1.774501238133  1.770836058213  0.000046536967  0.000026996583  1.739808944973
Zn   4.610289207782  0.887250158038  6.999054315267  0.000351212692  0.000202860039 -1.739931586593
Zn   3.073525831169  1.774501238133  4.667021582658 -0.000358154670 -0.000206716694 -1.739546178230
O    4.610289207782  0.887250158038  8.766935178097 -0.000058364042 -0.000033681451  1.739726412561
O    3.073525831169  1.774501238133  6.434902445489  0.000052450504  0.000030339017  1.739732583209
Zn   7.683815038951  0.887250158038  2.334987927991  0.000245797462  0.000141924895 -1.739628453531
Zn   6.147052584396  1.774501238133  0.002955195382 -0.000431174000 -0.000248882786 -1.739913331761
O    7.683815038951  0.887250158038  4.102868790822 -0.000072247999 -0.000041908982  1.739793261243
O    6.147052584396  1.774501238133  1.770836058213  0.000021597267  0.000012598405  1.739806630980
Zn   7.683815038951  0.887250158038  6.999054315267  0.000210830459  0.000121613180 -1.739916674195
Zn   6.147052584396  1.774501238133  4.667021582658 -0.000438373089 -0.000253253661 -1.739594257859
O    7.683815038951  0.887250158038  8.766935178097 -0.000079447088 -0.000045765636  1.739741582070
O    6.147052584396  1.774501238133  6.434902445489 -0.000011569964 -0.000006684868  1.739736182753