# total energy = -29518.825684674728 eV

CRYSTAL
PRIMVEC
3.4004969742975235 0.0 0.0
-3.4004969742975235 5.889834184829 0.0
0.0 0.0 17.456995297072226
PRIMCOORD
24 1
Zn   1.700248487149  0.981638804105  2.913185694949  0.000000000000 -0.000030339017 -0.028430487427
Zn   0.000000000000  1.963277948260  0.003686818820  0.000000000000 -0.000136011357 -0.028455427127
O    1.700248487149  0.981638804105  5.118835085200  0.000000000000  0.000164293492  0.028256423743
O    0.000000000000  1.963277948260  2.209336209071  0.000000000000 -0.000166093264  0.028259509066
Zn   1.700248487149  0.981638804105  8.732183787256  0.000000000000  0.000090245721 -0.028621263281
Zn   0.000000000000  1.963277948260  5.822684911127  0.000000000000 -0.000155294631 -0.028283677436
O    1.700248487149  0.981638804105  10.937833177508  0.000000000000  0.000175349236  0.028242282675
O    0.000000000000  1.963277948260  8.028334301379  0.000000000000 -0.000165064823  0.028248196212
Zn   1.700248487149  0.981638804105  14.551181539514  0.000000000000  0.000236798601 -0.027796710497
Zn   0.000000000000  1.963277948260  11.641682663385  0.000000000000 -0.000030853238 -0.027866387393
O    1.700248487149  0.981638804105  16.756831269816  0.000000000000  0.000172521022  0.028261308839
O    0.000000000000  1.963277948260  13.847332053637  0.000000000000 -0.000171492581  0.028259766177
Zn   0.000000000000  3.926555556470  2.913185694949  0.000000000000  0.000137554019 -0.028498107440
Zn  -1.700248487149  4.908194700625  0.003686818820  0.000000000000  0.000015426619 -0.028319415770
O    0.000000000000  3.926555556470  5.118835085200  0.000000000000  0.000160179727  0.028264651273
O   -1.700248487149  4.908194700625  2.209336209071  0.000000000000 -0.000170464140  0.028254109750
Zn   0.000000000000  3.926555556470  8.732183787256  0.000000000000  0.000052450504 -0.028506334970
Zn  -1.700248487149  4.908194700625  5.822684911127  0.000000000000 -0.000005399317 -0.028329185962
O    0.000000000000  3.926555556470  10.937833177508  0.000000000000  0.000168150147  0.028253081308
O   -1.700248487149  4.908194700625  8.028334301379  0.000000000000 -0.000163007940  0.028248967543
Zn   0.000000000000  3.926555556470  14.551181539514  0.000000000000 -0.000077390205 -0.027849161002
Zn  -1.700248487149  4.908194700625  11.641682663385  0.000000000000 -0.000104386788 -0.028103443104
O    0.000000000000  3.926555556470  16.756831269816  0.000000000000  0.000159665506  0.028262337280
O   -1.700248487149  4.908194700625  13.847332053637  0.000000000000 -0.000156323072  0.028249224654