# total energy = -29519.818308066107 eV

CRYSTAL
PRIMVEC
10.005308527262454 0.0 0.0
-1.6675547563132513 2.888282439107489 0.0
0.0 0.0 9.691291919134322
PRIMCOORD
24 1
Zn   1.667551754721  0.962760813036  2.425893108705  0.000336557404  0.000194375399 -1.541884909396
Zn  -0.000000000000  1.925522626603  0.003070629187 -0.000112871429 -0.000065048910 -1.541894679588
O    1.667551754721  0.962760813036  4.262600612573  0.000001028441  0.000000514221  1.541918590848
O   -0.000000000000  1.925522626603  1.839777132524  0.000008741751  0.000005142206  1.541913448641
Zn   1.667551754721  0.962760813036  7.271539068272  0.000322159226  0.000185890759 -1.541916533965
Zn  -0.000000000000  1.925522626603  4.848716588754 -0.000203888481 -0.000117756525 -1.541970784242
O    1.667551754721  0.962760813036  9.108246572140 -0.000013626847 -0.000007970420  1.541940959445
O   -0.000000000000  1.925522626603  6.685423092091  0.000005142206  0.000003085324  1.541920647730
Zn   5.002654263631  0.962760813036  2.425893108705  0.000158637065  0.000091531273 -1.541912934421
Zn   3.335102508911  1.925522626603  0.003070629187 -0.000272022714 -0.000157094403 -1.541928361040
O    5.002654263631  0.962760813036  4.262600612573 -0.000006170648 -0.000003599544  1.541909849097
O    3.335102508911  1.925522626603  1.839777132524  0.000013112626  0.000007456199  1.541914734193
Zn   5.002654263631  0.962760813036  7.271539068272  0.000215715555  0.000124441393 -1.541892108485
Zn   3.335102508911  1.925522626603  4.848716588754 -0.000267137618 -0.000154266190 -1.541976183558
O    5.002654263631  0.962760813036  9.108246572140 -0.000006684868 -0.000003856655  1.541937874121
O    3.335102508911  1.925522626603  6.685423092091  0.000008741751  0.000005142206  1.541914991303
Zn   8.337756772542  0.962760813036  2.425893108705  0.000227542630  0.000131383372 -1.541858684144
Zn   6.670206018352  1.925522626603  0.003070629187 -0.000321902116 -0.000185890759 -1.541949701196
O    8.337756772542  0.962760813036  4.262600612573 -0.000013883957 -0.000007970420  1.541915762634
O    6.670206018352  1.925522626603  1.839777132524  0.000002828213  0.000001542662  1.541925789936
Zn   8.337756772542  0.962760813036  7.271539068272  0.000192575627  0.000111071657 -1.541973869566
Zn   6.670206018352  1.925522626603  4.848716588754 -0.000278450472 -0.000160693948 -1.541908049325
O    8.337756772542  0.962760813036  9.108246572140 -0.000004627986 -0.000002828213  1.541936074349
O    6.670206018352  1.925522626603  6.685423092091  0.000008484640  0.000004885096  1.541918076627