# total energy = -44228.877851524114 eV

CRYSTAL
PRIMVEC
8.828213624304544 0.0 0.0
-4.414106812152272 7.645453703988343 0.0
0.0 0.0 4.275574483959685
PRIMCOORD
36 1
Zn   1.471369231658  0.849494855999  2.140493972277  0.000015169509  0.000008741751 -5.561173496241
Zn   0.000000000000  1.698990594819  0.002709378761  0.000000000000 -0.000006684868 -5.561170153806
O    1.471369231658  0.849494855999  3.761118280396  0.000001542662  0.000001028441  5.561147270988
O    0.000000000000  1.698990594819  1.623332804058  0.000000000000  0.000001799772  5.561167068483
Zn   0.000000000000  3.397981189638  2.140493972277  0.000000000000  0.000000771331 -5.561150356312
Zn  -1.471369231658  4.247476045636  0.002709378761 -0.000022368598 -0.000012855516 -5.561169896696
O    0.000000000000  3.397981189638  3.761118280396 -0.000000000000 -0.000013369736  5.561161412056
O   -1.471369231658  4.247476045636  1.623332804058 -0.000014655288 -0.000008484640  5.561161412056
Zn  -1.471369231658  5.946466640455  2.140493972277  0.000000771331 -0.000000257110 -5.561150356312
Zn  -2.942737580494  6.795962379275  0.002709378761 -0.000005656427  0.000003342434 -5.561170153806
O   -1.471369231658  5.946466640455  3.761118280396 -0.000011569964  0.000006684868  5.561161412056
O   -2.942737580494  6.795962379275  1.623332804058  0.000001542662 -0.000000771331  5.561167068483
Zn   4.414106812152  0.849494855999  2.140493972277 -0.000000000000 -0.000029824797 -5.561155241408
Zn   2.942737580494  1.698990594819  0.002709378761 -0.000037280996 -0.000021597267 -5.561135186803
O    4.414106812152  0.849494855999  3.761118280396  0.000000000000 -0.000007970420  5.561161412056
O    2.942737580494  1.698990594819  1.623332804058  0.000002056883  0.000001028441  5.561155755629
Zn   2.942737580494  3.397981189638  2.140493972277 -0.000025968142  0.000014912398 -5.561155241408
Zn   1.471369231658  4.247476045636  0.002709378761  0.000022368598 -0.000012855516 -5.561169896696
O    2.942737580494  3.397981189638  3.761118280396 -0.000006941979  0.000003856655  5.561161412056
O    1.471369231658  4.247476045636  1.623332804058  0.000014655288 -0.000008484640  5.561161412056
Zn   1.471369231658  5.946466640455  2.140493972277 -0.000000771331 -0.000000257110 -5.561150356312
Zn  -0.000000000000  6.795962379275  0.002709378761  0.000000000000  0.000025711032 -5.561169896696
O    1.471369231658  5.946466640455  3.761118280396  0.000011569964  0.000006684868  5.561161412056
O   -0.000000000000  6.795962379275  1.623332804058  0.000000000000  0.000016969281  5.561161412056
Zn   7.356844392647  0.849494855999  2.140493972277 -0.000015169509  0.000008741751 -5.561173496241
Zn   5.885476043810  1.698990594819  0.002709378761  0.000037280996 -0.000021597267 -5.561135186803
O    7.356844392647  0.849494855999  3.761118280396 -0.000001542662  0.000001028441  5.561147270988
O    5.885476043810  1.698990594819  1.623332804058 -0.000002056883  0.000001028441  5.561155755629
Zn   5.885476043810  3.397981189638  2.140493972277  0.000025968142  0.000014912398 -5.561155241408
Zn   4.414106812152  4.247476045636  0.002709378761  0.000000000000  0.000042937423 -5.561135186803
O    5.885476043810  3.397981189638  3.761118280396  0.000006941979  0.000003856655  5.561161412056
O    4.414106812152  4.247476045636  1.623332804058  0.000000000000 -0.000002313993  5.561155755629
Zn   4.414106812152  5.946466640455  2.140493972277  0.000000000000 -0.000017740612 -5.561173496241
Zn   2.942737580494  6.795962379275  0.002709378761  0.000005656427  0.000003342434 -5.561170153806
O    4.414106812152  5.946466640455  3.761118280396  0.000000000000 -0.000001799772  5.561147270988
O    2.942737580494  6.795962379275  1.623332804058 -0.000001542662 -0.000000771331  5.561167068483