# total energy = -44281.512512826026 eV

CRYSTAL
PRIMVEC
10.20149092289257 0.0 0.0
-1.700251887645736 2.9449153921660125 0.0
0.0 0.0 15.151356333589272
PRIMCOORD
36 1
Zn   1.700248827198  0.981638464055  2.528425243152  0.000333472080  0.000192575627 -0.748797543170
Zn  -0.000000000000  1.963277948260  0.003200207703  0.000233713277  0.000134982916 -0.748436046065
O    1.700248827198  0.981638464055  4.442762558858 -0.000025453921 -0.000014655288  0.748969292861
O   -0.000000000000  1.963277948260  1.917537523409 -0.000002828213 -0.000001799772  0.748938696733
Zn   1.700248827198  0.981638464055  7.578876334199 -0.000113385649 -0.000065563131 -0.749157240502
Zn  -0.000000000000  1.963277948260  5.053651298750 -0.000154266190 -0.000088960169 -0.749169581797
O    1.700248827198  0.981638464055  9.493213649905 -0.000017226391 -0.000010027302  0.748945895822
O   -0.000000000000  1.963277948260  6.967988614456  0.000029824797  0.000017226391  0.749022000476
Zn   1.700248827198  0.981638464055  12.629327425246  0.000747162579  0.000431431110 -0.749003231423
Zn  -0.000000000000  1.963277948260  10.104102389797 -0.000256338985 -0.000148095542 -0.749227688729
O    1.700248827198  0.981638464055  14.543664740953 -0.000056821380 -0.000032910120  0.748943838940
O   -0.000000000000  1.963277948260  12.018439705503 -0.000010027302 -0.000005913537  0.748998346327
Zn   5.100745461446  0.981638464055  2.528425243152  0.000010541523  0.000006170648 -0.749054139265
Zn   3.400496634248  1.963277948260  0.003200207703 -0.000234998829 -0.000135754247 -0.748791629633
O    5.100745461446  0.981638464055  4.442762558858  0.000000514221  0.000000257110  0.748996032334
O    3.400496634248  1.963277948260  1.917537523409  0.000029824797  0.000017226391  0.748944867381
Zn   5.100745461446  0.981638464055  7.578876334199  0.000549444746  0.000317274130 -0.749041283750
Zn   3.400496634248  1.963277948260  5.053651298750 -0.000426288904 -0.000246054573 -0.749438519188
O    5.100745461446  0.981638464055  9.493213649905 -0.000038052327 -0.000022111487  0.748917356577
O    3.400496634248  1.963277948260  6.967988614456  0.000021083046  0.000012084185  0.749019429373
Zn   5.100745461446  0.981638464055  12.629327425246  0.000150152425  0.000086646177 -0.749116617072
Zn   3.400496634248  1.963277948260  10.104102389797  0.000009513082  0.000005399317 -0.748431160969
O    5.100745461446  0.981638464055  14.543664740953 -0.000003856655 -0.000002056883  0.748942810499
O    3.400496634248  1.963277948260  12.018439705503  0.000002571103  0.000001542662  0.748951552249
Zn   8.501242095694  0.981638464055  2.528425243152  0.000149123983  0.000086131956 -0.748846651240
Zn   6.800994288645  1.963277948260  0.003200207703 -0.000530932803 -0.000306475497 -0.748643019870
O    8.501242095694  0.981638464055  4.442762558858 -0.000036766775 -0.000021340156  0.748968264420
O    6.800994288645  1.963277948260  1.917537523409  0.000020311715  0.000011827075  0.748957208676
Zn   8.501242095694  0.981638464055  7.578876334199  0.000157351513  0.000091017052 -0.748967750199
Zn   6.800994288645  1.963277948260  5.053651298750  0.000008484640  0.000004885096 -0.748998346327
O    8.501242095694  0.981638464055  9.493213649905 -0.000003856655 -0.000002313993  0.748954894683
O    6.800994288645  1.963277948260  6.967988614456 -0.000014141067 -0.000008227530  0.748984205259
Zn   8.501242095694  0.981638464055  12.629327425246 -0.000329101205 -0.000190004524 -0.749357529438
Zn   6.800994288645  1.963277948260  10.104102389797 -0.000265852067 -0.000153494859 -0.748901415738
O    8.501242095694  0.981638464055  14.543664740953  0.000011312854  0.000006427758  0.748939982285
O    6.800994288645  1.963277948260  12.018439705503  0.000055535828  0.000032138790  0.748984976590