# total energy = -19673.604774196465 eV

CRYSTAL
PRIMVEC
3.00813218303729 0.0 0.0
-3.00813218303729 5.210238355761922 0.0
0.0 0.0 9.71240751761961
PRIMCOORD
16 1
Zn   1.523420714798  0.799197249444  2.536122853252 -0.155385647994  1.372980143870 -3.468068751655
Zn   0.005287093125  1.748868791014 -0.019239111003  0.355714436357 -1.524603496608  1.844770374877
O    1.548198699589  0.884349048776  4.232153802470 -1.013514982222 -0.614978051383  3.863828633969
O    0.013542310275  1.726069555572  1.880075394881  0.054196283537 -0.553727432103 -0.573723672719
Zn   1.562771595950  0.855999207830  7.270268941416 -1.082685884791  0.740065562614  0.175723588220
Zn  -0.018709980552  1.765447209101  4.878429945071  1.004806141594 -1.942747917265  0.420209530716
O    1.515808034682  0.922739433322  9.117703996418 -0.384823695018 -1.560222788473 -0.145824229557
O   -0.013378066258  1.780630455482  6.693390709091  1.236883426013 -0.040030276449  0.425314198933
Zn   0.052582752186  3.446189627313  2.446990994228 -0.387542122390  0.494188396197 -0.478752007037
Zn  -1.372387812525  4.345843751822  0.020437250052 -2.294231603370  1.161340301370 -0.837542511216
O   -0.005543085174  3.417890924614  4.303424275030  0.177914168113  1.961216665493 -0.882963876773
O   -1.490952440080  4.383842477559  1.804214512610  0.226994727690 -1.521131478899  0.889117297969
Zn  -0.027877564193  3.523127420905  7.336528768198  0.369482950896 -0.698521420623 -0.312455625668
Zn  -1.503820627933  4.309644791571  4.830425269254 -0.156994644352  0.917590465708  1.071797005792
O   -0.030327687856  3.403516264164  9.141265492555  2.436703628626  1.792871629126 -0.201715127188
O   -1.521603201333  4.340253739787  6.756127110648 -0.387516925579  0.015710211646 -1.789714828664