# total energy = -14753.705168855704 eV

CRYSTAL
PRIMVEC
8.828213624304544 0.0 0.0
-1.4713718801219655 2.5484845679961143 0.0
0.0 0.0 5.225693318848212
PRIMCOORD
12 1
Zn   1.234691004140  0.934266011683  2.560130747409  8.511923950550 -6.276847517384  6.176000880978
Zn   0.029691048061  1.680411619246 -0.031716240267  0.639332826078  2.789540229214  1.357176086958
O    1.453476208284  0.950644996421  4.435255680711  1.245911083433 -1.836264394289 -0.579908204263
O    0.182098679607  1.775552394654  1.829064611538 -9.623768459182  5.855134148428 -5.284024773404
Zn   4.461108221488  0.766995199680  2.678978807684 -1.052635602372  2.461067916403 -1.089798584576
Zn   2.899821868424  1.607919625892  0.148879877382  1.257400829240  0.952395489203  0.550724897831
O    4.386772897129  0.843853627493  4.383370503598  0.624030391393  0.378547375091  6.009987320957
O    2.921367123774  1.701340665286  2.164999327655  0.041723090770 -3.690297425415 -4.035944707344
Zn   7.399963153630  0.875074604975  2.687977405831  0.998935798856 -0.718792255057  0.216126674627
Zn   5.898010341514  1.724355818204  0.130217916601 -0.899795346508 -1.519019060542 -0.965233521508
O    7.471846000245  0.833988098768  4.579334775523 -2.924462981368 -0.550454931999 -1.660161825463
O    5.894982264241  1.579859148887  1.960525540617  1.181404676220  2.154990683457 -0.694943730574