# total energy = -9838.917973552512 eV

CRYSTAL
PRIMVEC
3.138920446790701 0.0 0.0
-1.5694602233953505 2.718383579931917 0.0
0.0 0.0 10.540071106062857
PRIMCOORD
8 1
Zn   1.623832289483  0.946080981100  2.587543017272 -1.768692203666 -1.531201204430  1.063155013846
Zn  -0.145813840975  1.843485153372 -0.138607821305  0.074769736813 -2.494768651089  1.439795401723
O    1.550032816966  1.077339961855  4.703170376136  1.236165059790 -1.437592737644 -1.217619949798
O   -0.017649521888  1.735722561621  2.138202474718  1.665648045388  1.652968393038 -1.886797884262
Zn   1.598180717699  0.801302983873  7.906628596773  0.475252221414  1.702256697750 -0.730376360350
Zn   0.031370057053  1.894375528899  5.097364794822 -1.177883036220  1.220955184819  1.954904093012
O    1.416281847268  0.792988611393  9.837490309162  0.081519139721  2.511021879723  0.746600278408
O    0.089762452449  1.814345927080  7.361744651983 -0.586778963241 -1.623639305057 -1.369660849689