# total energy = -4919.6024092729685 eV

CRYSTAL
PRIMVEC
3.465891106174229 0.0 0.0
-1.7329455530871145 3.001548345224537 0.0
0.0 0.0 5.818998952562417
PRIMCOORD
4 1
Zn   1.732945553087  1.000516461664  2.913185798062  0.000000000000  0.000000000000 -0.051046939274
Zn  -0.000000000000  2.001033269917  0.003686668370  0.000000000000 -0.000000000000 -0.051046939274
O    1.732945553087  1.000516461664  5.118835227803  0.000000000000  0.000000000000  0.051046939274
O   -0.000000000000  2.001033269917  2.209336098111  0.000000000000  0.000000000000  0.051046939274