# total energy = -59041.592348631704 eV

CRYSTAL
PRIMVEC
6.670205684841636 0.0 0.0
-3.335102842420818 5.7765648782149785 0.0
0.0 0.0 14.85998427777547
PRIMCOORD
48 1
Zn   1.667551421210  0.962761480056  2.479801711050  0.000021597267  0.000012598405 -1.020127602442
Zn  -0.000000000000  1.925522293092  0.003138331775  0.000000000000  0.000030339017 -1.020143800392
O    1.667551421210  0.962761480056  4.357325204034 -0.000000514221 -0.000000257110  1.020140200848
O   -0.000000000000  1.925522293092  1.880661157738  0.000000000000  0.000002056883  1.020140715068
Zn   1.667551421210  0.962761480056  7.433129136621 -0.000007970420 -0.000004627986 -1.020135829972
Zn  -0.000000000000  1.925522293092  4.956465090325  0.000000000000  0.000002828213 -1.020183395381
O    1.667551421210  0.962761480056  9.310651962585  0.000000514221  0.000000257110  1.020140715068
O   -0.000000000000  1.925522293092  6.833988583310 -0.000000000000 -0.000000000000  1.020142000620
Zn   1.667551421210  0.962761480056  12.386455895172  0.000002313993  0.000001285552 -1.020128630884
Zn  -0.000000000000  1.925522293092  9.909792515897  0.000000000000 -0.000000257110 -1.020121174684
O    1.667551421210  0.962761480056  14.263979388156  0.000001028441  0.000000514221  1.020137629745
O   -0.000000000000  1.925522293092  11.787315341860 -0.000000000000 -0.000002571103  1.020141743510
Zn   0.000000000000  3.851045253205  2.479801711050  0.000000000000 -0.000000000000 -1.020138143965
Zn  -1.667551421210  4.813806066241  0.003138331775  0.000026225252 -0.000015169509 -1.020143800392
O    0.000000000000  3.851045253205  4.357325204034  0.000000000000 -0.000000000000  1.020140715068
O   -1.667551421210  4.813806066241  1.880661157738  0.000001799772 -0.000001028441  1.020140715068
Zn   0.000000000000  3.851045253205  7.433129136621  0.000000000000  0.000000000000 -1.020145343054
Zn  -1.667551421210  4.813806066241  4.956465090325  0.000002571103 -0.000001542662 -1.020183395381
O    0.000000000000  3.851045253205  9.310651962585  0.000000000000 -0.000000000000  1.020140457958
O   -1.667551421210  4.813806066241  6.833988583310 -0.000000000000  0.000000000000  1.020142000620
Zn   0.000000000000  3.851045253205  12.386455895172  0.000000000000 -0.000000000000 -1.020104719624
Zn  -1.667551421210  4.813806066241  9.909792515897 -0.000000257110  0.000000257110 -1.020121174684
O    0.000000000000  3.851045253205  14.263979388156  0.000000000000 -0.000000000000  1.020138401076
O   -1.667551421210  4.813806066241  11.787315341860 -0.000002313993  0.000001285552  1.020141743510
Zn   5.002654263631  0.962761480056  2.479801711050 -0.000021597267  0.000012598405 -1.020127602442
Zn   3.335102842421  1.925522293092  0.003138331775  0.000000000000 -0.000000000000 -1.020131973318
O    5.002654263631  0.962761480056  4.357325204034  0.000000514221 -0.000000257110  1.020140200848
O    3.335102842421  1.925522293092  1.880661157738  0.000000000000  0.000000000000  1.020137886855
Zn   5.002654263631  0.962761480056  7.433129136621  0.000007970420 -0.000004627986 -1.020135829972
Zn   3.335102842421  1.925522293092  4.956465090325  0.000000000000 -0.000000000000 -1.020187252036
O    5.002654263631  0.962761480056  9.310651962585 -0.000000514221  0.000000257110  1.020140715068
O    3.335102842421  1.925522293092  6.833988583310  0.000000000000  0.000000000000  1.020141743510
Zn   5.002654263631  0.962761480056  12.386455895172 -0.000002313993  0.000001285552 -1.020128630884
Zn   3.335102842421  1.925522293092  9.909792515897  0.000000000000  0.000000000000 -1.020138658186
O    5.002654263631  0.962761480056  14.263979388156 -0.000001028441  0.000000514221  1.020137629745
O    3.335102842421  1.925522293092  11.787315341860  0.000000000000 -0.000000000000  1.020138401076
Zn   3.335102842421  3.851045253205  2.479801711050  0.000000000000 -0.000024939701 -1.020127602442
Zn   1.667551421210  4.813806066241  0.003138331775 -0.000026225252 -0.000015169509 -1.020143800392
O    3.335102842421  3.851045253205  4.357325204034  0.000000000000  0.000000514221  1.020140200848
O    1.667551421210  4.813806066241  1.880661157738 -0.000001799772 -0.000001028441  1.020140715068
Zn   3.335102842421  3.851045253205  7.433129136621  0.000000000000  0.000009255971 -1.020135829972
Zn   1.667551421210  4.813806066241  4.956465090325 -0.000002571103 -0.000001542662 -1.020183395381
O    3.335102842421  3.851045253205  9.310651962585 -0.000000000000 -0.000000514221  1.020140715068
O    1.667551421210  4.813806066241  6.833988583310  0.000000000000  0.000000000000  1.020142000620
Zn   3.335102842421  3.851045253205  12.386455895172 -0.000000000000 -0.000002828213 -1.020128630884
Zn   1.667551421210  4.813806066241  9.909792515897  0.000000257110  0.000000257110 -1.020121174684
O    3.335102842421  3.851045253205  14.263979388156 -0.000000000000 -0.000001285552  1.020137629745
O    1.667551421210  4.813806066241  11.787315341860  0.000002313993  0.000001285552  1.020141743510