# total energy = -44263.61626335716 eV

CRYSTAL
PRIMVEC
8.828213624304544 0.0 0.0
-4.414106812152272 7.645453703988343 0.0
0.0 0.0 4.940656785560292
PRIMCOORD
36 1
Zn   1.471369231658  0.849494855999  2.473459760153  0.000062220697  0.000035995444  1.054564186854
Zn   0.000000000000  1.698990594819  0.003130484551  0.000000000000  0.000200803157  1.054418148194
O    1.471369231658  0.849494855999  4.346180770884 -0.000006427758 -0.000003599544 -1.054484225545
O    0.000000000000  1.698990594819  1.875851495283  0.000000000000  0.000002056883 -1.054464942272
Zn   0.000000000000  3.397981189638  2.473459760153  0.000000000000  0.000057078490  1.054638491735
Zn  -1.471369231658  4.247476045636  0.003130484551 -0.000049365181 -0.000028539245  1.054231743215
O    0.000000000000  3.397981189638  4.346180770884  0.000000000000 -0.000006170648 -1.054468541816
O   -1.471369231658  4.247476045636  1.875851495283  0.000007713309  0.000004370875 -1.054465456492
Zn  -1.471369231658  5.946466640455  2.473459760153  0.000049622291 -0.000028539245  1.054638491735
Zn  -2.942737580494  6.795962379275  0.003130484551  0.000173806574 -0.000100273023  1.054418148194
O   -1.471369231658  5.946466640455  4.346180770884 -0.000005399317  0.000003085324 -1.054468541816
O   -2.942737580494  6.795962379275  1.875851495283  0.000001799772 -0.000001028441 -1.054464942272
Zn   4.414106812152  0.849494855999  2.473459760153  0.000000000000  0.000078161536  1.054750591833
Zn   2.942737580494  1.698990594819  0.003130484551  0.000280507355  0.000161979499  1.054210403059
O    4.414106812152  0.849494855999  4.346180770884 -0.000000000000  0.000014912398 -1.054467256264
O    2.942737580494  1.698990594819  1.875851495283 -0.000002828213 -0.000001542662 -1.054463142499
Zn   2.942737580494  3.397981189638  2.473459760153  0.000067620013 -0.000039080768  1.054750591833
Zn   1.471369231658  4.247476045636  0.003130484551  0.000049365181 -0.000028539245  1.054231743215
O    2.942737580494  3.397981189638  4.346180770884  0.000012855516 -0.000007456199 -1.054467256264
O    1.471369231658  4.247476045636  1.875851495283 -0.000007713309  0.000004370875 -1.054465456492
Zn   1.471369231658  5.946466640455  2.473459760153 -0.000049622291 -0.000028539245  1.054638491735
Zn  -0.000000000000  6.795962379275  0.003130484551  0.000000000000  0.000057078490  1.054231743215
O    1.471369231658  5.946466640455  4.346180770884  0.000005399317  0.000003085324 -1.054468541816
O   -0.000000000000  6.795962379275  1.875851495283  0.000000000000 -0.000008998861 -1.054465456492
Zn   7.356844392647  0.849494855999  2.473459760153 -0.000062220697  0.000035995444  1.054564186854
Zn   5.885476043810  1.698990594819  0.003130484551 -0.000280507355  0.000161979499  1.054210403059
O    7.356844392647  0.849494855999  4.346180770884  0.000006427758 -0.000003599544 -1.054484225545
O    5.885476043810  1.698990594819  1.875851495283  0.000002828213 -0.000001542662 -1.054463142499
Zn   5.885476043810  3.397981189638  2.473459760153 -0.000067620013 -0.000039080768  1.054750591833
Zn   4.414106812152  4.247476045636  0.003130484551  0.000000000000 -0.000323701888  1.054210403059
O    5.885476043810  3.397981189638  4.346180770884 -0.000012855516 -0.000007456199 -1.054467256264
O    4.414106812152  4.247476045636  1.875851495283 -0.000000000000  0.000003342434 -1.054463142499
Zn   4.414106812152  5.946466640455  2.473459760153 -0.000000000000 -0.000071733778  1.054564186854
Zn   2.942737580494  6.795962379275  0.003130484551 -0.000173806574 -0.000100273023  1.054418148194
O    4.414106812152  5.946466640455  4.346180770884  0.000000000000  0.000007456199 -1.054484225545
O    2.942737580494  6.795962379275  1.875851495283 -0.000001799772 -0.000001028441 -1.054464942272