# total energy = -9837.99594669515 eV

CRYSTAL
PRIMVEC
3.0735263149139955 0.0 0.0
-3.0735263149139955 5.323504327273101 0.0
0.0 0.0 4.961771794691928
PRIMCOORD
8 1
Zn   1.526427503165  0.822602885860  2.549333635732  0.326967960352  2.421061036992 -0.471935241225
Zn   0.031782106212  1.770055176806 -0.041304198088 -1.673321245663  1.254362813745  1.307511115633
O    1.482729028078  0.936831720765  4.348420727403  1.737048094398 -0.924501076785  1.433083279810
O    0.024515982651  1.728426721692  1.937486444869 -0.495895608696  1.502509235812 -0.968495737199
Zn  -0.084005313887  3.582353206637  2.528464392053  1.774151169898 -1.504866166080 -1.246787572501
Zn  -1.506172964750  4.371113494244  0.071579354348 -1.091321448978  1.450998469527  0.158890575823
O   -0.012528000612  3.707458021760  4.332557336034  1.141468502146 -1.710030428159  0.760158219598
O   -1.469290956324  4.530642726152  1.908361709509 -1.719097680567 -2.489533627943 -0.972424382829