# total energy = -29517.058224474848 eV

CRYSTAL
PRIMVEC
10.790038638960128 0.0 0.0
-3.5966759496404963 6.22962880820363 0.0
0.0 0.0 5.457946824822479
PRIMCOORD
24 1
Zn   1.798340132828  1.038271468034  2.732432698799 -0.000070962447 -0.000000514221 -0.038612313056
Zn   0.000000000000  2.076544015072  0.003458207384  0.000011569964  0.000042937423 -0.038557291448
O    1.798340132828  1.038271468034  4.801229466128 -0.000006427758 -0.000000771331  0.038596629326
O    0.000000000000  2.076544015072  2.072254974713  0.000009255971 -0.000001542662  0.038589944458
Zn  -0.000000000000  4.153088030143  2.732432698799 -0.000006170648 -0.000052964725 -0.038606399518
Zn  -1.798340132828  5.191359498177  0.003458207384  0.000005399317 -0.000024425480 -0.038569889853
O   -0.000000000000  4.153088030143  4.801229466128 -0.000007456199 -0.000001799772  0.038593801113
O   -1.798340132828  5.191359498177  2.072254974713  0.000003856655  0.000002571103  0.038589944458
Zn   5.395019319480  1.038271468034  2.732432698799  0.000044480085 -0.000010284413 -0.038645994507
Zn   3.596679186652  2.076544015072  0.003458207384 -0.000026996583  0.000087931728 -0.038584288031
O    5.395019319480  1.038271468034  4.801229466128 -0.000006170648 -0.000000771331  0.038595600885
O    3.596679186652  2.076544015072  2.072254974713  0.000006170648 -0.000000257110  0.038591230010
Zn   3.596679186652  4.153088030143  2.732432698799  0.000041137651  0.000050907843 -0.038611284614
Zn   1.798340132828  5.191359498177  0.003458207384  0.000034967003 -0.000077647315 -0.038572203846
O    3.596679186652  4.153088030143  4.801229466128 -0.000009255971 -0.000006170648  0.038596372216
O    1.798340132828  5.191359498177  2.072254974713  0.000004885096  0.000001028441  0.038590458679
Zn   8.991698506132  1.038271468034  2.732432698799  0.000008484640 -0.000029824797 -0.038663220898
Zn   7.193359452308  2.076544015072  0.003458207384  0.000033424341  0.000042423202 -0.038534665740
O    8.991698506132  1.038271468034  4.801229466128 -0.000007199089  0.000000771331  0.038597657768
O    7.193359452308  2.076544015072  2.072254974713  0.000003085324 -0.000002571103  0.038588658906
Zn   7.193359452308  4.153088030143  2.732432698799 -0.000046794078  0.000006170648 -0.038631596329
Zn   5.395019319480  5.191359498177  0.003458207384 -0.000019540384 -0.000022111487 -0.038532865968
O    7.193359452308  4.153088030143  4.801229466128 -0.000005142206 -0.000003599544  0.038598943319
O    5.395019319480  5.191359498177  2.072254974713  0.000005399317 -0.000000000000  0.038592772672