# total energy = -14754.998638858075 eV

CRYSTAL
PRIMVEC
3.00813218303729 0.0 0.0
-1.504066091518645 2.605117673814869 0.0
0.0 0.0 14.277239080982149
PRIMCOORD
12 1
Zn   1.504066091519  0.868372858752  2.382554997988  0.000000000000 -0.000000000000 -0.536859195592
Zn  -0.000000000000  1.736746018316  0.003015351700  0.000000000000  0.000000000000 -0.536906503890
O    1.504066091519  0.868372858752  4.186449746147  0.000000000000  0.000000000000  0.536921416289
O   -0.000000000000  1.736746018316  1.806910099859  0.000000000000  0.000000000000  0.536905989670
Zn   1.504066091519  0.868372858752  7.141634290565  0.000000000000 -0.000000000000 -0.536868965784
Zn  -0.000000000000  1.736746018316  4.762094644277  0.000000000000 -0.000000000000 -0.536956897512
O    1.504066091519  0.868372858752  8.945529038724  0.000000000000  0.000000000000  0.536912931648
O   -0.000000000000  1.736746018316  6.565989392436  0.000000000000 -0.000000000000  0.536899561912
Zn   1.504066091519  0.868372858752  11.900713282328  0.000000000000  0.000000000000 -0.536900333243
Zn  -0.000000000000  1.736746018316  9.521173936853  0.000000000000 -0.000000000000 -0.536968981697
O    1.504066091519  0.868372858752  13.704608331300  0.000000000000 -0.000000000000  0.536916274082
O   -0.000000000000  1.736746018316  11.325068685012  0.000000000000 -0.000000000000  0.536904447008