# total energy = -9840.438008258088 eV

CRYSTAL
PRIMVEC
6.408629157334813 0.0 0.0
-1.6021572893337033 2.775019737305019 0.0
0.0 0.0 5.172910874588357
PRIMCOORD
8 1
Zn   1.602157289334  0.925006151860  2.589733451108  0.000155037521  0.000089474390  0.005255077751
Zn   0.000000000000  1.850011662857  0.003277372951 -0.000229599512 -0.000132668923  0.005290301865
O    1.602157289334  0.925006151860  4.550488789255 -0.000039337878 -0.000022625708 -0.005269733039
O    0.000000000000  1.850011662857  1.964032711098  0.000032138790  0.000018511943 -0.005282331445
Zn   4.806471868001  0.925006151860  2.589733451108  0.000279221803  0.000161208168  0.005267676157
Zn   3.204314578667  1.850011662857  0.003277372951 -0.000122641621 -0.000070705337  0.005212397439
O    4.806471868001  0.925006151860  4.550488789255 -0.000053736056 -0.000031110348 -0.005207769453
O    3.204314578667  1.850011662857  1.964032711098 -0.000020825936 -0.000012084185 -0.005265876385