# total energy = -9835.388621418235 eV

CRYSTAL
PRIMVEC
6.277840893581402 0.0 0.0
-1.5694602233953505 2.7183867188523636 0.0
0.0 0.0 4.560606573392039
PRIMCOORD
8 1
Zn   1.576396609799  1.135592989183  2.119814678740 -0.059840626307 -1.791493517831 -2.754830336537
Zn   0.128363012751  1.992640689054 -0.028658343679 -1.844057922191 -0.834597826765 -3.082474754130
O    1.573817672760  0.979855451216  3.830855908888 -2.290081328647 -2.024202522297  2.096719715630
O   -0.063180190753  1.671805352347  1.657088209940  0.032628841779  2.024975653018  2.429645436227
Zn   4.667810123411  0.968910035618  2.267488330080 -1.215653827211  2.181765123337  0.437970454244
Zn   2.943827752045  1.748269454431 -0.025623635391  4.013084772027 -0.754767644710 -0.885340861646
O    4.862189027647  0.692787365107  4.075668475726  0.058320333007  3.600960075201  0.268117722983
O    3.115092901679  2.002603622553  1.719000904617  1.305600271764 -2.402639339952  1.490192623228