# total energy = -19680.306630009683 eV

CRYSTAL
PRIMVEC
3.465891106174229 0.0 0.0
-3.465891106174229 6.00310015634018 0.0
0.0 0.0 10.295148793710947
PRIMCOORD
16 1
Zn   1.732945553087  1.000516461664  2.577049121842  0.000000000000  0.000079447088 -0.517752299560
Zn   0.000000000000  2.001033269917  0.003261403531  0.000000000000  0.000012084185 -0.517386431580
O    1.732945553087  1.000516461664  4.528200247192  0.000000000000  0.000025968142  0.517611660217
O    0.000000000000  2.001033269917  1.954412875470  0.000000000000 -0.000025711032  0.517574122110
Zn   1.732945553087  1.000516461664  7.724623865287  0.000000000000 -0.000063249138 -0.517733530506
Zn   0.000000000000  2.001033269917  5.150836493565  0.000000000000  0.000105158119 -0.517779039032
O    1.732945553087  1.000516461664  9.675775337226  0.000000000000  0.000031110348  0.517766183517
O    0.000000000000  2.001033269917  7.101987965503  0.000000000000  0.000013112626  0.517690850194
Zn   0.000000000000  4.002066193245  2.577049121842  0.000000000000 -0.000208516466 -0.517657682963
Zn  -1.732945553087  5.002583001498  0.003261403531  0.000000000000  0.000060163814 -0.517567437242
O    0.000000000000  4.002066193245  4.528200247192  0.000000000000  0.000031367459  0.517606775121
O   -1.732945553087  5.002583001498  1.954412875470  0.000000000000 -0.000031367459  0.517653569198
Zn   0.000000000000  4.002066193245  7.724623865287  0.000000000000  0.000011312854 -0.517679537340
Zn  -1.732945553087  5.002583001498  5.150836493565  0.000000000000  0.000003342434 -0.517743300698
O    0.000000000000  4.002066193245  9.675775337226  0.000000000000 -0.000005142206  0.517693678407
O   -1.732945553087  5.002583001498  7.101987965503  0.000000000000 -0.000039594989  0.517702677269