# total energy = -9838.63311009206 eV

CRYSTAL
PRIMVEC
6.931782212348458 0.0 0.0
-1.7329455530871145 3.0015518111156427 0.0
0.0 0.0 6.042808870743618
PRIMCOORD
8 1
Zn   1.732945553087  1.000516808253  3.025231472331 -0.000205431143 -0.000118527856 -0.207788329965
Zn  -0.000000000000  2.001032923328  0.003828423316  0.000237827042  0.000137296909 -0.207749763418
O    1.732945553087  1.000516808253  5.315713439144 -0.000219829320 -0.000127012496  0.207770846464
O   -0.000000000000  2.001032923328  2.294310390128  0.000194118289  0.000112100098  0.207793986392
Zn   5.198836659261  1.000516808253  3.025231472331 -0.000166607485 -0.000096159258 -0.207802728143
Zn   3.465891106174  2.001032923328  0.003828423316  0.000130612041  0.000075333323 -0.207762876044
O    5.198836659261  1.000516808253  5.315713439144 -0.000198489164 -0.000114671201  0.207768018250
O    3.465891106174  2.001032923328  2.294310390128  0.000227799740  0.000131640482  0.207770589353