# total energy = -14757.622823628148 eV

CRYSTAL
PRIMVEC
3.0081163077210396 0.0 0.0
-4.5121744615815595 7.815314784298647 0.0
0.0 0.0 5.341794890553176
PRIMCOORD
12 1
Zn   1.526557359784  0.830241604989  2.612578191984 -0.021132153993  1.491070140737  1.885687681917
Zn  -0.078967866064  1.689880026596  0.043497361810  2.495393429157  0.876520178031  1.625801859926
O    1.561505655047  0.861664087128  4.700539395843 -2.529703772404 -1.573632119901 -1.444730377130
O    0.015227686373  1.781032568575  2.076495166929  0.148179617163 -0.259786320299 -1.553140170595
Zn  -0.094767696158  3.487935224545  2.749168631603  0.238450020715  0.764461989180  0.163033908567
Zn  -1.451574947016  4.318868094661 -0.058552081495 -2.163952006415  0.104087254830  2.314716610697
O   -0.059396760554  3.449586554607  4.675366275334  2.249181247999 -0.914402554899 -0.915039417152
O   -1.573373576316  4.403463243902  1.997366667454 -0.224980268363 -1.087532414250 -1.236122122367
Zn  -1.544874381605  6.110667012314  2.657810033657 -0.391116727115 -0.567882383447  1.518070580585
Zn  -3.058835254351  6.846529870583  0.002408297916  1.241877793904  1.446607796659  1.352210258313
O   -1.485365418313  6.042737729853  4.651967041011 -1.414731259665  0.255145221982 -1.199446878433
O   -3.068235016189  6.952888741310  2.088279763376  0.372534079017 -0.534656788624 -2.511042191438