# total energy = -44282.03363422884 eV

CRYSTAL
PRIMVEC
3.335102842420818 0.0 0.0
-5.002654263631227 8.664850652425308 0.0
0.0 0.0 16.475197930079766
PRIMCOORD
36 1
Zn   1.667551421210  0.962761146546  2.749345723305  0.000000000000 -0.000456885032  0.070875801075
Zn   0.000000000000  1.925522626603  0.003479512795  0.000000000000  0.000108757664  0.071261466549
O    1.667551421210  0.962761146546  4.830947160810  0.000000000000  0.000113385649 -0.071252724798
O    0.000000000000  1.925522626603  2.085081283810  0.000000000000 -0.000101044354 -0.071190504102
Zn   1.667551421210  0.962761146546  8.241077810815  0.000000000000 -0.000333986301  0.071366881779
Zn   0.000000000000  1.925522626603  5.495211600305  0.000000000000  0.000098987472  0.071094601954
O    1.667551421210  0.962761146546  10.322679581829  0.000000000000  0.000111071657 -0.071195389198
O    0.000000000000  1.925522626603  7.576813371320  0.000000000000 -0.000104643899 -0.071197960301
Zn   1.667551421210  0.962761146546  13.732809898324  0.000000000000 -0.000357897560  0.071427816924
Zn   0.000000000000  1.925522626603  10.986943687814  0.000000000000  0.000132411813  0.071171220828
O    1.667551421210  0.962761146546  15.814411669339  0.000000000000  0.000113385649 -0.071195903419
O    0.000000000000  1.925522626603  13.068545458829  0.000000000000 -0.000104643899 -0.071254267460
Zn   0.000000000000  3.851044919695  2.749345723305  0.000000000000 -0.000120070518  0.070942392647
Zn  -1.667551421210  4.813806399751  0.003479512795  0.000000000000  0.000218286658  0.071306203744
O    0.000000000000  3.851044919695  4.830947160810  0.000000000000  0.000106700781 -0.071255553012
O   -1.667551421210  4.813806399751  2.085081283810  0.000000000000 -0.000114414091 -0.071194103646
Zn   0.000000000000  3.851044919695  8.241077810815  0.000000000000 -0.000188718972  0.071340142306
Zn  -1.667551421210  4.813806399751  5.495211600305  0.000000000000  0.000472568761  0.071025182169
O    0.000000000000  3.851044919695  10.322679581829  0.000000000000  0.000110300326 -0.071201302735
O   -1.667551421210  4.813806399751  7.576813371320  0.000000000000 -0.000103872568 -0.071194360757
Zn   0.000000000000  3.851044919695  13.732809898324  0.000000000000  0.000010284413  0.071307232185
Zn  -1.667551421210  4.813806399751  10.986943687814  0.000000000000  0.000144238887  0.071423188938
O    0.000000000000  3.851044919695  15.814411669339  0.000000000000  0.000109271884 -0.071191789653
O   -1.667551421210  4.813806399751  13.068545458829  0.000000000000 -0.000112614318 -0.071253239019
Zn  -1.667551421210  6.739328692843  2.749345723305  0.000000000000  0.000056821380  0.071112856786
Zn  -3.335102842421  7.702090172900  0.003479512795  0.000000000000  0.000260709861  0.071480524538
O   -1.667551421210  6.739328692843  4.830947160810  0.000000000000  0.000099501692 -0.071245011489
O   -3.335102842421  7.702090172900  2.085081283810  0.000000000000 -0.000098730361 -0.071194874977
Zn  -1.667551421210  6.739328692843  8.241077810815  0.000000000000 -0.000080218419  0.071151680444
Zn  -3.335102842421  7.702090172900  5.495211600305  0.000000000000 -0.000059135373  0.070953705501
O   -1.667551421210  6.739328692843  10.322679581829  0.000000000000  0.000104386788 -0.071206444941
O   -3.335102842421  7.702090172900  7.576813371320  0.000000000000 -0.000105672340 -0.071181762351
Zn  -1.667551421210  6.739328692843  13.732809898324  0.000000000000 -0.000185119428  0.071163764629
Zn  -3.335102842421  7.702090172900  10.986943687814  0.000000000000  0.000251453889  0.071447871528
O   -1.667551421210  6.739328692843  15.814411669339  0.000000000000  0.000107215002 -0.071197703191
O   -3.335102842421  7.702090172900  13.068545458829  0.000000000000 -0.000101815685 -0.071249639475