# total energy = -19680.49568463657 eV

CRYSTAL
PRIMVEC
3.138920446790701 0.0 0.0
-3.138920446790701 5.436770298784281 0.0
0.0 0.0 10.742766893914366
PRIMCOORD
16 1
Zn   1.569460223395  0.906128173869  2.689094627135  0.000000000000 -0.000246054573  0.560408443667
Zn   0.000000000000  1.812256661631  0.003403217548  0.000000000000  0.000180491442  0.560455237745
O    1.569460223395  0.906128173869  4.725078785287  0.000000000000  0.000057849821 -0.560343394757
O    0.000000000000  1.812256661631  2.039387375700  0.000000000000 -0.000066848682 -0.560404329902
Zn   1.569460223395  0.906128173869  8.060477760200  0.000000000000 -0.000211858900  0.560269089876
Zn   0.000000000000  1.812256661631  5.374786350614  0.000000000000  0.000201574488  0.560402787240
O    1.569460223395  0.906128173869  10.096461918352  0.000000000000  0.000057849821 -0.560438011354
O    0.000000000000  1.812256661631  7.410770508765  0.000000000000 -0.000064020469 -0.560361392479
Zn   0.000000000000  3.624513009369  2.689094627135  0.000000000000 -0.000179977221  0.560410757660
Zn  -1.569460223395  4.530641497131  0.003403217548  0.000000000000  0.000203888481  0.560459865730
O    0.000000000000  3.624513009369  4.725078785287  0.000000000000  0.000069676896 -0.560337481220
O   -1.569460223395  4.530641497131  2.039387375700  0.000000000000 -0.000070448227 -0.560413328763
Zn   0.000000000000  3.624513009369  8.060477760200  0.000000000000 -0.000182034104  0.560296343569
Zn  -1.569460223395  4.530641497131  5.374786350614  0.000000000000  0.000241169477  0.560395588151
O    0.000000000000  3.624513009369  10.096461918352  0.000000000000  0.000075847543 -0.560431069375
O   -1.569460223395  4.530641497131  7.410770508765  0.000000000000 -0.000067362903 -0.560369620009