# total energy = -14760.656942998105 eV

CRYSTAL
PRIMVEC
9.61294373600222 0.0 0.0
-1.6021604936482823 2.775016532990441 0.0
0.0 0.0 5.172907670273779
PRIMCOORD
12 1
Zn   1.602157609765  0.925005510997  2.589733771540  0.000158894175  0.000091788383  0.005184886635
Zn  -0.000000000000  1.850011983288  0.003277052520 -0.000153237748 -0.000088445949  0.005317298448
O    1.602157609765  0.925005510997  4.550488789255  0.000131640482  0.000076104654 -0.005306499815
O   -0.000000000000  1.850011983288  1.964033031529 -0.000035224113 -0.000020311715 -0.005234251816
Zn   4.806471868001  0.925005510997  2.589733771540 -0.000031367459 -0.000018254832  0.005254049310
Zn   3.204314258236  1.850011983288  0.003277052520 -0.000382065930 -0.000220600651  0.005333239287
O    4.806471868001  0.925005510997  4.550488789255  0.000034452782  0.000019797494 -0.005129350807
O    3.204314258236  1.850011983288  1.964033031529  0.000071219558  0.000041137651 -0.005302643160
Zn   8.010786126237  0.925005510997  2.589733771540  0.000275365149  0.000158894175  0.005337095942
Zn   6.408629477766  1.850011983288  0.003277052520  0.000050650732  0.000029310576  0.005201855916
O    8.010786126237  0.925005510997  4.550488789255 -0.000122898731 -0.000070962447 -0.005358693209
O    6.408629477766  1.850011983288  1.964033031529  0.000003085324  0.000001799772 -0.005297500954