# total energy = -44281.03973652836 eV

CRYSTAL
PRIMVEC
9.809126131632336 0.0 0.0
-4.904563065816168 8.494948458146894 0.0
0.0 0.0 4.961769889415847
PRIMCOORD
36 1
Zn   1.634854682243  0.943883162016  2.484029750546  0.000055535828  0.000032138790 -0.841566030553
Zn   0.000000000000  1.887767304945  0.003143824925  0.000000000000  0.000030081907 -0.841637250110
O    1.634854682243  0.943883162016  4.364754102928 -0.000003085324 -0.000001799772  0.841600226225
O    0.000000000000  1.887767304945  1.883868177308  0.000000000000 -0.000003856655  0.841600997556
Zn   0.000000000000  3.775534609891  2.484029750546  0.000000000000  0.000028025024 -0.841580942951
Zn  -1.634854682243  4.719417771907  0.003143824925 -0.000009255971 -0.000005399317 -0.841622594822
O    0.000000000000  3.775534609891  4.364754102928  0.000000000000 -0.000003599544  0.841600740446
O   -1.634854682243  4.719417771907  1.883868177308  0.000000514221  0.000000257110  0.841601768887
Zn  -1.634854682243  6.607185076852  2.484029750546  0.000024168370 -0.000013883957 -0.841580942951
Zn  -3.269708383573  7.551069219781  0.003143824925  0.000026225252 -0.000015169509 -0.841637250110
O   -1.634854682243  6.607185076852  4.364754102928 -0.000003085324  0.000001799772  0.841600740446
O   -3.269708383573  7.551069219781  1.883868177308 -0.000003342434  0.000001799772  0.841600997556
Zn   4.904563065816  0.943883162016  2.484029750546 -0.000000000000  0.000032138790 -0.841586599378
Zn   3.269708383573  1.887767304945  0.003143824925  0.000006427758  0.000003599544 -0.841612053300
O    4.904563065816  0.943883162016  4.364754102928  0.000000000000  0.000000257110  0.841601511777
O    3.269708383573  1.887767304945  1.883868177308 -0.000002828213 -0.000001542662  0.841599969115
Zn   3.269708383573  3.775534609891  2.484029750546  0.000028025024 -0.000016197950 -0.841586599378
Zn   1.634854682243  4.719417771907  0.003143824925  0.000009255971 -0.000005399317 -0.841622594822
O    3.269708383573  3.775534609891  4.364754102928  0.000000000000 -0.000000000000  0.841601511777
O    1.634854682243  4.719417771907  1.883868177308 -0.000000514221  0.000000257110  0.841601768887
Zn   1.634854682243  6.607185076852  2.484029750546 -0.000024168370 -0.000013883957 -0.841580942951
Zn  -0.000000000000  7.551069219781  0.003143824925  0.000000000000  0.000010541523 -0.841622594822
O    1.634854682243  6.607185076852  4.364754102928  0.000003085324  0.000001799772  0.841600740446
O   -0.000000000000  7.551069219781  1.883868177308 -0.000000000000 -0.000000514221  0.841601768887
Zn   8.174271449389  0.943883162016  2.484029750546 -0.000055535828  0.000032138790 -0.841566030553
Zn   6.539417748059  1.887767304945  0.003143824925 -0.000006427758  0.000003599544 -0.841612053300
O    8.174271449389  0.943883162016  4.364754102928  0.000003085324 -0.000001799772  0.841600226225
O    6.539417748059  1.887767304945  1.883868177308  0.000002828213 -0.000001542662  0.841599969115
Zn   6.539417748059  3.775534609891  2.484029750546 -0.000028025024 -0.000016197950 -0.841586599378
Zn   4.904563065816  4.719417771907  0.003143824925  0.000000000000 -0.000007456199 -0.841612053300
O    6.539417748059  3.775534609891  4.364754102928 -0.000000000000 -0.000000000000  0.841601511777
O    4.904563065816  4.719417771907  1.883868177308 -0.000000000000  0.000003085324  0.841599969115
Zn   4.904563065816  6.607185076852  2.484029750546 -0.000000000000 -0.000064020469 -0.841566030553
Zn   3.269708383573  7.551069219781  0.003143824925 -0.000026225252 -0.000015169509 -0.841637250110
O    4.904563065816  6.607185076852  4.364754102928  0.000000000000  0.000003342434  0.841600226225
O    3.269708383573  7.551069219781  1.883868177308  0.000003342434  0.000001799772  0.841600997556