# total energy = -39358.55438222512 eV

CRYSTAL
PRIMVEC
6.408629157334813 0.0 0.0
-3.2043145786674065 5.550033065980882 0.0
0.0 0.0 9.725075520368108
PRIMCOORD
32 1
Zn   1.602157289334  0.925006151860  2.434349187696  0.000015940840  0.000009255971 -1.095192501898
Zn  -0.000000000000  1.850011662857  0.003080628036  0.000000000000  0.000004113765 -1.095120511009
O    1.602157289334  0.925006151860  4.277459397814 -0.000001028441 -0.000000514221  1.095205871634
O   -0.000000000000  1.850011662857  1.846190838153  0.000000000000 -0.000002056883  1.095184274368
Zn   1.602157289334  0.925006151860  7.296886947881  0.000002056883  0.000001285552 -1.095226440460
Zn  -0.000000000000  1.850011662857  4.865618388220 -0.000000000000  0.000046536967 -1.095243152630
O    1.602157289334  0.925006151860  9.139996517135 -0.000000514221 -0.000000257110  1.095191216346
O   -0.000000000000  1.850011662857  6.708727957474  0.000000000000 -0.000005142206  1.095201243649
Zn  -0.000000000000  3.700023966576  2.434349187696  0.000000000000  0.000000000000 -1.095153678240
Zn  -1.602157289334  4.625029477573  0.003080628036  0.000003342434 -0.000002056883 -1.095120511009
O   -0.000000000000  3.700023966576  4.277459397814  0.000000000000  0.000000000000  1.095205871634
O   -1.602157289334  4.625029477573  1.846190838153 -0.000001542662  0.000001028441  1.095184274368
Zn  -0.000000000000  3.700023966576  7.296886947881  0.000000000000 -0.000000000000 -1.095236210652
Zn  -1.602157289334  4.625029477573  4.865618388220  0.000040366320 -0.000023397039 -1.095243152630
O   -0.000000000000  3.700023966576  9.139996517135  0.000000000000 -0.000000000000  1.095186074140
O   -1.602157289334  4.625029477573  6.708727957474 -0.000004370875  0.000002571103  1.095201243649
Zn   4.806471868001  0.925006151860  2.434349187696 -0.000015940840  0.000009255971 -1.095192501898
Zn   3.204314578667  1.850011662857  0.003080628036 -0.000000000000 -0.000000000000 -1.095131566753
O    4.806471868001  0.925006151860  4.277459397814  0.000001028441 -0.000000514221  1.095205871634
O    3.204314578667  1.850011662857  1.846190838153  0.000000000000  0.000000000000  1.095184274368
Zn   4.806471868001  0.925006151860  7.296886947881 -0.000002056883  0.000001285552 -1.095226440460
Zn   3.204314578667  1.850011662857  4.865618388220  0.000000000000  0.000000000000 -1.095251894381
O    4.806471868001  0.925006151860  9.139996517135  0.000000514221 -0.000000257110  1.095191216346
O    3.204314578667  1.850011662857  6.708727957474  0.000000000000  0.000000000000  1.095197386994
Zn   3.204314578667  3.700023966576  2.434349187696  0.000000000000 -0.000018254832 -1.095192501898
Zn   1.602157289334  4.625029477573  0.003080628036 -0.000003342434 -0.000002056883 -1.095120511009
O    3.204314578667  3.700023966576  4.277459397814 -0.000000000000  0.000001028441  1.095205871634
O    1.602157289334  4.625029477573  1.846190838153  0.000001542662  0.000001028441  1.095184274368
Zn   3.204314578667  3.700023966576  7.296886947881  0.000000000000 -0.000002571103 -1.095226440460
Zn   1.602157289334  4.625029477573  4.865618388220 -0.000040366320 -0.000023397039 -1.095243152630
O    3.204314578667  3.700023966576  9.139996517135  0.000000000000  0.000000514221  1.095191216346
O    1.602157289334  4.625029477573  6.708727957474  0.000004370875  0.000002571103  1.095201243649