# total energy = -14755.105715109361 eV

CRYSTAL
PRIMVEC
3.073509910420537 0.0 0.0
-4.610264865630805 7.985212334025746 0.0
0.0 0.0 5.060982799954336
PRIMCOORD
12 1
Zn   1.568588219405  0.719785593272  2.605216109674 -0.166092492888  5.132697611750  0.309715858139
Zn   0.133327323159  1.903290682491 -0.082512369108  0.304533799718 -1.118595197093  1.079311569002
O    1.706489847364  0.794156849330  4.511461971944 -0.891524364749  4.772532081601 -0.890285607246
O   -0.008087633978  1.830080291127  1.938482370966  0.301579859296  0.051867121183  0.624836689345
Zn   0.067453707302  3.709434171085  2.684438593774 -3.239724966136 -2.644869396535  0.916354536419
Zn  -1.507886398675  4.525926831636  0.108795489107  0.629836970773  2.721277183172  1.227675020041
O    0.040962818033  3.755078252063  4.827776239938 -0.667448096257 -1.724492883441 -2.526296546494
O   -1.616302924010  4.516869505281  2.105992963997  3.407160603316  2.077937549927 -0.887844087684
Zn  -1.568021464178  6.428870207507  2.627795650231  0.737160216041 -2.036163808424 -0.351397297039
Zn  -2.891187151077  7.139406687406  0.000698916154 -9.425687843423  1.648877767909  5.582927085868
O   -1.640807403824  6.449387422914  4.460923941136  9.875289454148 -6.410141475685 -2.750656407665
O   -3.086747517605  7.124970718708  1.930187889770 -0.865083396949 -2.470926297254 -2.334340812686