# total energy = -9836.794138375382 eV

CRYSTAL
PRIMVEC
3.2043145786674065 0.0 0.0
-3.2043145786674065 5.55003627029546 0.0
0.0 0.0 4.7590800553826185
PRIMCOORD
8 1
Zn   1.465031851254  0.722298648162  2.533987349520 -0.388652581846  3.075765460431 -3.395966534372
Zn  -0.030070569732  1.989199077367  0.019986271322  1.521496832658 -3.048772476782  0.722012047546
O    1.751924068857  1.049833751018  4.234989732819 -1.722058562968 -1.708432487544  2.249782371918
O   -0.032435674323  2.106923672399  1.831803145263 -0.195640638859 -4.463119613634  1.455401483691
Zn   0.130565565274  3.767259458517  2.416829918169 -4.473273928460 -1.069048753623 -0.287133601964
Zn  -1.545810058331  4.635590257561 -0.114777586913  0.408539036357  0.399398764619  1.193547225119
O    0.091015992155  3.611613402605  4.226452797919 -0.144959310454  4.560246635096  1.026226259141
O   -1.678608710435  4.557284179182  1.960503158590  4.994549667791  2.253962471437 -2.963869251079