# total energy = -39362.09193002005 eV

CRYSTAL
PRIMVEC
6.408629157334813 0.0 0.0
-3.2043145786674065 5.550033065980882 0.0
0.0 0.0 10.552743567408742
PRIMCOORD
32 1
Zn   1.602157289334  0.925006151860  2.641527991958  0.000015426619  0.000008741751  0.189114407705
Zn  -0.000000000000  1.850011662857  0.003342740968  0.000000000000 -0.000042166092  0.189175599960
O    1.602157289334  0.925006151860  4.641498372781  0.000001028441  0.000000514221 -0.189196168785
O   -0.000000000000  1.850011662857  2.003313121792 -0.000000000000  0.000001799772 -0.189195654564
Zn   1.602157289334  0.925006151860  7.917898493936 -0.000033938562 -0.000019540384  0.189216737610
Zn  -0.000000000000  1.850011662857  5.279713242947  0.000000000000 -0.000000257110  0.189285386065
O    1.602157289334  0.925006151860  9.917868874760 -0.000004885096 -0.000002828213 -0.189203110764
O   -0.000000000000  1.850011662857  7.279683623771  0.000000000000 -0.000001285552 -0.189199511219
Zn  -0.000000000000  3.700023966576  2.641527991958  0.000000000000  0.000000000000  0.189131634096
Zn  -1.602157289334  4.625029477573  0.003342740968 -0.000036509665  0.000021083046  0.189175599960
O   -0.000000000000  3.700023966576  4.641498372781  0.000000000000  0.000000000000 -0.189198225668
O   -1.602157289334  4.625029477573  2.003313121792  0.000001542662 -0.000001028441 -0.189195654564
Zn  -0.000000000000  3.700023966576  7.917898493936  0.000000000000 -0.000000000000  0.189190769468
Zn  -1.602157289334  4.625029477573  5.279713242947 -0.000000257110  0.000000257110  0.189285386065
O   -0.000000000000  3.700023966576  9.917868874760  0.000000000000  0.000000000000 -0.189206710308
O   -1.602157289334  4.625029477573  7.279683623771 -0.000001285552  0.000000771331 -0.189199511219
Zn   4.806471868001  0.925006151860  2.641527991958 -0.000015426619  0.000008741751  0.189114407705
Zn   3.204314578667  1.850011662857  0.003342740968  0.000000000000  0.000000000000  0.189193083461
O    4.806471868001  0.925006151860  4.641498372781 -0.000001028441  0.000000514221 -0.189196168785
O    3.204314578667  1.850011662857  2.003313121792  0.000000000000  0.000000000000 -0.189199511219
Zn   4.806471868001  0.925006151860  7.917898493936  0.000033938562 -0.000019540384  0.189216737610
Zn   3.204314578667  1.850011662857  5.279713242947  0.000000000000  0.000000000000  0.189292585154
O    4.806471868001  0.925006151860  9.917868874760  0.000004885096 -0.000002828213 -0.189203110764
O    3.204314578667  1.850011662857  7.279683623771  0.000000000000  0.000000000000 -0.189196168785
Zn   3.204314578667  3.700023966576  2.641527991958  0.000000000000 -0.000017740612  0.189114407705
Zn   1.602157289334  4.625029477573  0.003342740968  0.000036509665  0.000021083046  0.189175599960
O    3.204314578667  3.700023966576  4.641498372781  0.000000000000 -0.000001028441 -0.189196168785
O    1.602157289334  4.625029477573  2.003313121792 -0.000001542662 -0.000001028441 -0.189195654564
Zn   3.204314578667  3.700023966576  7.917898493936  0.000000000000  0.000039080768  0.189216737610
Zn   1.602157289334  4.625029477573  5.279713242947  0.000000257110  0.000000257110  0.189285386065
O    3.204314578667  3.700023966576  9.917868874760  0.000000000000  0.000005656427 -0.189203110764
O    1.602157289334  4.625029477573  7.279683623771  0.000001285552  0.000000771331 -0.189199511219