# total energy = -29518.338407430594 eV

CRYSTAL
PRIMVEC
9.220578415564779 0.0 0.0
-3.073523064995454 5.323500948226325 0.0
0.0 0.0 5.160241386800335
PRIMCOORD
24 1
Zn   1.536763376613  0.887250158038  2.583391232564  0.000032138790  0.000037538106  0.613898702276
Zn   0.000000000000  1.774501238133  0.003269617106 -0.000001028441  0.000028025024  0.613843423558
O    1.536763376613  0.887250158038  4.539344233337  0.000000514221 -0.000001285552 -0.613871191472
O    0.000000000000  1.774501238133  1.959222617879  0.000000771331 -0.000008998861 -0.613874791016
Zn  -0.000000000000  3.549002476267  2.583391232564  0.000042937423  0.000007199089  0.613905387144
Zn  -1.536763376613  4.436252634304  0.003269617106  0.000029567686 -0.000009770192  0.613839052682
O   -0.000000000000  3.549002476267  4.539344233337 -0.000005399317  0.000001285552 -0.613867077707
O   -1.536763376613  4.436252634304  1.959222617879 -0.000006941979  0.000002056883 -0.613877876340
Zn   4.610289207782  0.887250158038  2.583391232564  0.000014141067  0.000000771331  0.613861164170
Zn   3.073525831169  1.774501238133  0.003269617106 -0.000009255971 -0.000010541523  0.613864763714
O    4.610289207782  0.887250158038  4.539344233337  0.000000257110  0.000005913537 -0.613868363259
O    3.073525831169  1.774501238133  1.959222617879 -0.000004113765 -0.000002828213 -0.613869905920
Zn   3.073525831169  3.549002476267  2.583391232564 -0.000014398178  0.000004113765  0.613875562347
Zn   1.536763376613  4.436252634304  0.003269617106 -0.000017997722 -0.000012598405  0.613857821736
O    3.073525831169  3.549002476267  4.539344233337  0.000007970420  0.000002828213 -0.613870934362
O    1.536763376613  4.436252634304  1.959222617879 -0.000002056883 -0.000002056883 -0.613870677251
Zn   7.683815038951  0.887250158038  2.583391232564 -0.000030339017  0.000014912398  0.613885075429
Zn   6.147052584396  1.774501238133  0.003269617106 -0.000008998861 -0.000019026163  0.613877105009
O    7.683815038951  0.887250158038  4.539344233337  0.000001028441 -0.000002313993 -0.613872734134
O    6.147052584396  1.774501238133  1.959222617879  0.000002056883  0.000004370875 -0.613868620369
Zn   6.147052584396  3.549002476267  2.583391232564 -0.000008998861 -0.000035995444  0.613886103870
Zn   4.610289207782  4.436252634304  0.003269617106 -0.000026996583 -0.000005913537  0.613864763714
O    6.147052584396  3.549002476267  4.539344233337 -0.000000514221  0.000006684868 -0.613873248355
O    4.610289207782  4.436252634304  1.959222617879  0.000005656427 -0.000004885096 -0.613873248355