# total energy = -19677.215546872972 eV

CRYSTAL
PRIMVEC
3.2697087105441125 0.0 0.0
-3.2697087105441125 5.66330224180664 0.0
0.0 0.0 10.134684488523794
PRIMCOORD
16 1
Zn   1.787187141358  0.930822964514  2.533827741178 -1.525061410081 -1.584651610940 -2.291655872223
Zn  -0.062131004918  1.838212253670 -0.079606290092 -0.817653485601  0.376184788396  0.947255853983
O    1.588445417718  0.875102550494  4.317435532411  0.853116454395  1.450715391069  1.371196826718
O   -0.103989488859  1.963568961982  1.959790813567  2.137415393577 -1.956706950548 -1.525650449815
Zn   1.720171191627  0.952177759073  7.588304335606  0.382832118509  0.095733483549 -2.359633011594
Zn   0.052508579153  1.700293651463  4.912241976723 -1.114309939454  1.985087815684  1.563459036023
O    1.483633597118  1.034330825280  9.404856730894  1.166436484946 -1.294501847858  1.995806744763
O    0.174762333899  2.013673324320  6.918187671477 -0.904713352635 -0.781646985600 -0.243826711646
Zn  -0.294965654312  3.643681971283  2.621640019221  6.124932858658 -1.897183598372  3.815501921840
Zn  -1.549213490784  4.726980281183  0.000813176556 -0.844749827598  0.276090713886  0.300794130170
O   -0.072351460405  4.050727027746  4.515014220663  0.796046448855 -2.084108197514 -0.688113852137
O   -1.476699852827  4.478325473164  1.917722087355 -6.627488910093  5.788528949704 -3.426722070387
Zn  -0.123128728796  3.826920371073  7.791590954354  0.204593991397  0.059088578632 -3.768100549738
Zn  -1.671116078814  4.822165098427  5.048231777761 -0.614385926325 -1.484347477301  0.389066786565
O   -0.003415537719  3.722070294881  9.569995658116  0.660548798034  0.538335008807  1.792617861244
O   -1.709826814180  4.702559807737  6.919529232961  0.122440046305  0.513381938406  2.128002584904