# total energy = -14760.501423000407 eV

CRYSTAL
PRIMVEC
3.4004969742975235 0.0 0.0
-1.7002484871487618 2.944915392166013 0.0
0.0 0.0 15.151352933092301
PRIMCOORD
12 1
Zn   1.700248487149  0.981638804105  2.528425583201  0.000000000000  0.000000000000 -0.748397736628
Zn  -0.000000000000  1.963277948260  0.003199867653  0.000000000000  0.000000000000 -0.748360969853
O    1.700248487149  0.981638804105  4.442762558858  0.000000000000 -0.000000000000  0.748412134806
O   -0.000000000000  1.963277948260  1.917537183359  0.000000000000 -0.000000000000  0.748381795789
Zn   1.700248487149  0.981638804105  7.578876334199  0.000000000000  0.000000000000 -0.748223930055
Zn  -0.000000000000  1.963277948260  5.053650958700  0.000000000000  0.000000000000 -0.748573085864
O    1.700248487149  0.981638804105  9.493213649905  0.000000000000 -0.000000000000  0.748387966436
O   -0.000000000000  1.963277948260  6.967988274406  0.000000000000  0.000000000000  0.748410592144
Zn   1.700248487149  0.981638804105  12.629327425246  0.000000000000  0.000000000000 -0.748345543234
Zn  -0.000000000000  1.963277948260  10.104102049747  0.000000000000  0.000000000000 -0.748494152997
O    1.700248487149  0.981638804105  14.543664740953  0.000000000000  0.000000000000  0.748404164386
O   -0.000000000000  1.963277948260  12.018439365454  0.000000000000 -0.000000000000  0.748398765070