# total energy = -29516.58953913663 eV

CRYSTAL
PRIMVEC
3.00813218303729 0.0 0.0
-3.00813218303729 5.210238355761922 0.0
0.0 0.0 16.025472253665747
PRIMCOORD
24 1
Zn   1.504066091519  0.868372858752  2.674296291255  0.000000000000 -0.000246825903  1.353338201270
Zn   0.000000000000  1.736746018316  0.003384449519  0.000000000000  0.000304675725  1.353551345722
O    1.504066091519  0.868372858752  4.699076380735  0.000000000000  0.000066591572 -1.353574485650
O    0.000000000000  1.736746018316  2.028164538999  0.000000000000 -0.000070191116 -1.353475498178
Zn   1.504066091519  0.868372858752  8.016119974726  0.000000000000 -0.000263280964  1.353659589165
Zn   0.000000000000  1.736746018316  5.345208132990  0.000000000000  0.000311360593  1.353509693850
O    1.504066091519  0.868372858752  10.040900064206  0.000000000000  0.000063506248 -1.353486296812
O    0.000000000000  1.736746018316  7.369988222470  0.000000000000 -0.000059649593 -1.353501980541
Zn   1.504066091519  0.868372858752  13.357943658197  0.000000000000 -0.000264052295  1.353574999871
Zn   0.000000000000  1.736746018316  10.687031816461  0.000000000000  0.000296191084  1.353454158022
O    1.504066091519  0.868372858752  15.382723747677  0.000000000000  0.000057335600 -1.353480897495
O    0.000000000000  1.736746018316  12.711811905941  0.000000000000 -0.000069162675 -1.353580656298
Zn   0.000000000000  3.473491735819  2.674296291255  0.000000000000 -0.000264823626  1.353380624472
Zn  -1.504066091519  4.341864895384  0.003384449519  0.000000000000  0.000217772438  1.353556745038
O    0.000000000000  3.473491735819  4.699076380735  0.000000000000  0.000067105793 -1.353570371885
O   -1.504066091519  4.341864895384  2.028164538999  0.000000000000 -0.000060678035 -1.353477812171
Zn   0.000000000000  3.473491735819  8.016119974726  0.000000000000 -0.000273308266  1.353665245592
Zn  -1.504066091519  4.341864895384  5.345208132990  0.000000000000  0.000228313961  1.353475241068
O    0.000000000000  3.473491735819  10.040900064206  0.000000000000  0.000065306020 -1.353487839474
O   -1.504066091519  4.341864895384  7.369988222470  0.000000000000 -0.000075847543 -1.353493238790
Zn   0.000000000000  3.473491735819  13.357943658197  0.000000000000 -0.000292591540  1.353589140938
Zn  -1.504066091519  4.341864895384  10.687031816461  0.000000000000  0.000244511911  1.353409420827
O    0.000000000000  3.473491735819  15.382723747677  0.000000000000  0.000071733778 -1.353474212627
O   -1.504066091519  4.341864895384  12.711811905941  0.000000000000 -0.000053993166 -1.353561630134