# total energy = -14751.703727626005 eV

CRYSTAL
PRIMVEC
9.02439601993466 0.0 0.0
-1.50406901145445 2.605117521054638 0.0
0.0 0.0 4.564828287555589
PRIMCOORD
12 1
Zn   1.452718393222  0.875145316231  2.298161714833  0.522864938196  0.987463793661 -3.218792329749
Zn  -0.049917544145  1.749525363680  0.028788725743  0.440213227532 -0.448007783876 -4.545159658856
O    1.505073426731  0.866786920638  3.994039751493 -0.437387842268  0.352761524376  3.261967579584
O   -0.023861405516  1.782980604605  1.693188766646  0.305532930406 -0.407763334533  4.184820836354
Zn   4.474303668640  0.899076209597  2.299749106092  0.032767424239  0.206356482614 -1.821934607930
Zn   3.023969520847  1.707812800397 -0.028548676809  0.549610838831 -0.803475394329 -1.351822535956
O    4.607133753657  0.829600994398  4.029880140286 -1.238145580555  0.070912053630  1.745213660928
O    3.013626660568  1.781143237575  1.733411402147 -1.092441421515 -0.473329550470  1.349718345129
Zn   7.506267901921  0.922584761229  2.306417232312  0.334683069608 -0.878224048096 -2.161497117117
Zn   6.029454371326  1.706926604707  0.078141342697  0.882273792685 -0.034382077024 -4.182325066515
O    7.523206693250  0.797974998546  4.020162670652  0.134698809068  0.284157035834  2.157073019907
O    6.013687849039  1.723230980997  1.738917186158 -0.434670443337  1.143531555323  4.582737617110