# total energy = -9838.614894927758 eV

CRYSTAL
PRIMVEC
3.138920446790701 0.0 0.0
-3.138920446790701 5.436770298784281 0.0
0.0 0.0 4.763302361243548
PRIMCOORD
8 1
Zn   1.569460223395  0.906128173869  2.384668938739  0.000000000000 -0.000379494827 -1.391819130954
Zn   0.000000000000  1.812256661631  0.003018072010  0.000000000000  0.000309046600 -1.391619356238
O    1.569460223395  0.906128173869  4.190164365728  0.000000000000  0.000042423202  1.391733256108
O    0.000000000000  1.812256661631  1.808513498998  0.000000000000 -0.000032138790  1.391731199226
Zn   0.000000000000  3.624513009369  2.384668938739  0.000000000000 -0.000384379923 -1.391993965969
Zn  -1.569460223395  4.530641497131  0.003018072010  0.000000000000  0.000443515295 -1.391508027471
O    0.000000000000  3.624513009369  4.190164365728  0.000000000000  0.000032910120  1.391743797631
O   -1.569460223395  4.530641497131  1.808513498998  0.000000000000 -0.000032395900  1.391732227667