# total energy = -14758.135485964118 eV

CRYSTAL
PRIMVEC
9.02439601993466 0.0 0.0
-1.50406901145445 2.605117521054638 0.0
0.0 0.0 5.341819760475943
PRIMCOORD
12 1
Zn   1.497658080522  0.853119472865  2.729586503160  1.004351827665 -0.483691096210  0.789230711484
Zn  -0.028388042560  1.676527024275  0.013647594101  0.814702116283  1.575092763607  1.764245480748
O    1.507062403614  0.919815174090  4.716510335859 -0.515853539875 -1.536404088787 -1.451522460352
O    0.020438452106  1.666841140026  2.040361793731 -0.476351882236  0.983670645167 -1.249067883895
Zn   4.552447718656  0.886738055358  2.634233832373 -0.609678750657 -0.046851670246  1.414183871802
Zn   2.997589406401  1.699025745992 -0.007125663097  0.675846604734  1.001439796225  1.397878963994
O    4.500472612219  0.886635177244  4.658148664358  0.864858682532 -0.202331420615 -1.082722908676
O    3.018831932193  1.760325760837  1.980991194756 -0.264062579077 -0.536965125043 -0.720811599480
Zn   7.490600647991  0.841851611995  2.692482698924  0.506507579884  0.958207982119  1.760065638339
Zn   6.070713007489  1.637321438206  0.061768380998 -1.011198418274  0.747845720780  0.606973178801
O    7.556564470698  0.866178676346  4.693898809191 -0.776297805473 -1.609074776979 -1.575627295954
O    6.059208707443  1.781674774501  2.025356028029 -0.212824092617 -0.850938730017 -1.652825696813