# total energy = -29521.667776301998 eV

CRYSTAL
PRIMVEC
3.2697087105441125 0.0 0.0
-3.2697087105441125 5.66330224180664 0.0
0.0 0.0 16.468862293851164
PRIMCOORD
24 1
Zn   1.634854355272  0.943883488987  2.748288589445  0.000000000000 -0.000123670062  0.191180289095
Zn   0.000000000000  1.887767304945  0.003477989155  0.000000000000  0.000107215002  0.191075902306
O    1.634854355272  0.943883488987  4.829090014505  0.000000000000  0.000096930589 -0.191081558733
O    0.000000000000  1.887767304945  2.084279414216  0.000000000000 -0.000086903287 -0.191035021766
Zn   1.634854355272  0.943883488987  8.237909463052  0.000000000000 -0.000095387927  0.191241224240
Zn   0.000000000000  1.887767304945  5.493098862763  0.000000000000  0.000134468695  0.191293931854
O    1.634854355272  0.943883488987  10.318710888112  0.000000000000  0.000121613180 -0.191172575785
O    0.000000000000  1.887767304945  7.573900287823  0.000000000000 -0.000088188838 -0.191161262931
Zn   1.634854355272  0.943883488987  13.727530336659  0.000000000000 -0.000060678035  0.191001340315
Zn   0.000000000000  1.887767304945  10.982719736370  0.000000000000  0.000127012496  0.190965601981
O    1.634854355272  0.943883488987  15.808331761720  0.000000000000  0.000118784966 -0.191180031984
O    0.000000000000  1.887767304945  13.063521161431  0.000000000000 -0.000075076212 -0.191181060426
Zn   0.000000000000  3.775534282920  2.748288589445  0.000000000000 -0.000125984055  0.191185174191
Zn  -1.634854355272  4.719418098878  0.003477989155  0.000000000000  0.000088445949  0.191107526875
O    0.000000000000  3.775534282920  4.829090014505  0.000000000000  0.000087160397 -0.191083101395
O   -1.634854355272  4.719418098878  2.084279414216  0.000000000000 -0.000087931728 -0.191021652030
Zn   0.000000000000  3.775534282920  8.237909463052  0.000000000000 -0.000125469834  0.191278505235
Zn  -1.634854355272  4.719418098878  5.493098862763  0.000000000000  0.000102329906  0.191306530260
O    0.000000000000  3.775534282920  10.318710888112  0.000000000000  0.000071990889 -0.191172318675
O   -1.634854355272  4.719418098878  7.573900287823  0.000000000000 -0.000097444810 -0.191156377835
Zn   0.000000000000  3.775534282920  13.727530336659  0.000000000000 -0.000159922617  0.190972029739
Zn  -1.634854355272  4.719418098878  10.982719736370  0.000000000000  0.000095902148  0.190988999019
O    0.000000000000  3.775534282920  15.808331761720  0.000000000000  0.000080218419 -0.191159977380
O   -1.634854355272  4.719418098878  13.063521161431  0.000000000000 -0.000105415230 -0.191192116169