# total energy = -44278.08232632163 eV

CRYSTAL
PRIMVEC
9.416760811194894 0.0 0.0
-4.708380405597447 8.15515028151506 0.0
0.0 0.0 4.965994731109306
PRIMCOORD
36 1
Zn   1.569460449091  0.906127809057  2.486144447018  0.000000257110  0.000000000000 -0.338365403555
Zn   0.000000000000  1.812256559791  0.003146139787  0.000000000000 -0.000000514221 -0.338448450187
O    1.569460449091  0.906127809057  4.368469240652 -0.000002056883 -0.000001285552  0.338399856338
O    0.000000000000  1.812256559791  1.885470933421  0.000000000000 -0.000003599544  0.338415540067
Zn   0.000000000000  3.624513119581  2.486144447018  0.000000000000 -0.000013883957 -0.338355633363
Zn  -1.569460449091  4.530640928638  0.003146139787 -0.000014398178 -0.000008227530 -0.338447678857
O    0.000000000000  3.624513119581  4.368469240652  0.000000000000 -0.000000514221  0.338402427441
O   -1.569460449091  4.530640928638  1.885470933421  0.000001542662  0.000001028441  0.338414254515
Zn  -1.569460449091  6.342897488429  2.486144447018 -0.000012084185  0.000006941979 -0.338355633363
Zn  -3.138919956506  7.249026239162  0.003146139787 -0.000000257110  0.000000257110 -0.338448450187
O   -1.569460449091  6.342897488429  4.368469240652 -0.000000514221  0.000000257110  0.338402427441
O   -3.138919956506  7.249026239162  1.885470933421 -0.000003085324  0.000001799772  0.338415540067
Zn   4.708380405597  0.906127809057  2.486144447018  0.000000000000 -0.000022625708 -0.338375945078
Zn   3.138919956506  1.812256559791  0.003146139787 -0.000033938562 -0.000019540384 -0.338451021291
O    4.708380405597  0.906127809057  4.368469240652  0.000000000000  0.000001028441  0.338400113448
O    3.138919956506  1.812256559791  1.885470933421  0.000000771331  0.000000514221  0.338411683412
Zn   3.138919956506  3.624513119581  2.486144447018 -0.000019540384  0.000011312854 -0.338375945078
Zn   1.569460449091  4.530640928638  0.003146139787  0.000014398178 -0.000008227530 -0.338447678857
O    3.138919956506  3.624513119581  4.368469240652  0.000000771331 -0.000000514221  0.338400113448
O    1.569460449091  4.530640928638  1.885470933421 -0.000001542662  0.000001028441  0.338414254515
Zn   1.569460449091  6.342897488429  2.486144447018  0.000012084185  0.000006941979 -0.338355633363
Zn  -0.000000000000  7.249026239162  0.003146139787  0.000000000000  0.000016712171 -0.338447678857
O    1.569460449091  6.342897488429  4.368469240652  0.000000514221  0.000000257110  0.338402427441
O   -0.000000000000  7.249026239162  1.885470933421  0.000000000000 -0.000001799772  0.338414254515
Zn   7.847300362104  0.906127809057  2.486144447018 -0.000000257110  0.000000000000 -0.338365403555
Zn   6.277840854689  1.812256559791  0.003146139787  0.000033938562 -0.000019540384 -0.338451021291
O    7.847300362104  0.906127809057  4.368469240652  0.000002056883 -0.000001285552  0.338399856338
O    6.277840854689  1.812256559791  1.885470933421 -0.000000771331  0.000000514221  0.338411683412
Zn   6.277840854689  3.624513119581  2.486144447018  0.000019540384  0.000011312854 -0.338375945078
Zn   4.708380405597  4.530640928638  0.003146139787  0.000000000000  0.000039080768 -0.338451021291
O    6.277840854689  3.624513119581  4.368469240652 -0.000000771331 -0.000000514221  0.338400113448
O    4.708380405597  4.530640928638  1.885470933421 -0.000000000000 -0.000001028441  0.338411683412
Zn   4.708380405597  6.342897488429  2.486144447018  0.000000000000 -0.000000257110 -0.338365403555
Zn   3.138919956506  7.249026239162  0.003146139787  0.000000257110  0.000000257110 -0.338448450187
O    4.708380405597  6.342897488429  4.368469240652  0.000000000000  0.000002313993  0.338399856338
O    3.138919956506  7.249026239162  1.885470933421  0.000003085324  0.000001799772  0.338415540067