# total energy = -9822.51693384372 eV

CRYSTAL
PRIMVEC
3.00813218303729 0.0 0.0
-3.00813218303729 5.210238355761922 0.0
0.0 0.0 4.564831563362539
PRIMCOORD
8 1
Zn   1.560014943617  1.204735280755  2.221064023369 -2.242603337671 -4.287992007127  2.167306524710
Zn   0.136555062889  1.761096547525  0.148874567431 -0.134007182318 -3.403929240863 -4.697776742966
O    1.590835062712  0.758756221188  4.111997572178  0.983092661176  4.000181690812 -1.117053049416
O   -0.004584092634  1.996365874505  1.829812815048  3.111450572537 -1.792053761210  3.243872669756
Zn  -0.135527785748  3.700777479986  2.016777254620  50.966218462296 -29.041526547891  13.727033131929
Zn  -1.562010839321  4.303837893205 -0.149666007008  3.800797268640 -0.044406036919  0.713672160222
O    0.099854045376  3.405285045888  4.148639931112 -4.270219513635 -0.993705146585 -2.896470095699
O   -1.144783507160  4.360570062925  1.777531176894 -52.214728673915  35.563430792673 -11.140584341425