# total energy = -9840.222642808087 eV

CRYSTAL
PRIMVEC
3.4004969742975235 0.0 0.0
-3.4004969742975235 5.889834184829 0.0
0.0 0.0 5.379827648623857
PRIMCOORD
8 1
Zn   1.760272699540  0.979278179105  2.653586315136 -0.395744969916 -0.313568399116  0.536799031778
Zn   0.033074933821  1.999142989848  0.037245643359 -0.137082478809 -0.331200510376 -0.573339807017
O    1.660774158072  0.944137443373  4.729831833329  0.296075127428  0.310971842034  0.082375574184
O   -0.003069628619  1.914322013470  2.070358577831  0.301710214226  0.343868335651 -0.264866048815
Zn   0.013975022415  3.869229638427  2.622533656866 -0.028327900410  0.381500544182  0.404562568208
Zn  -1.713809329033  4.900729929667  0.036827722281  0.173529923003  0.103506185515 -0.711413960315
O    0.056708387792  3.915867114380  4.693970192238 -0.330209864328 -0.115486497806  0.160158643902
O   -1.703323556563  4.921485883098  2.011448028199  0.120049948807 -0.379592014305  0.365723998074