# total energy = -39356.838984205424 eV

CRYSTAL
PRIMVEC
6.931782212348458 0.0 0.0
-3.465891106174229 6.003096690449074 0.0
0.0 0.0 11.637997905124834
PRIMCOORD
32 1
Zn   1.732945553087  1.000516808253  2.913185451473  0.000035224113  0.000020311715 -0.049568812067
Zn  -0.000000000000  2.001032923328  0.003687014959 -0.000000000000  0.000012084185 -0.049430229607
O    1.732945553087  1.000516808253  5.118834881214  0.000001542662  0.000000771331  0.049478823456
O   -0.000000000000  2.001032923328  2.209336444700  0.000000000000 -0.000003599544  0.049485765435
Zn   1.732945553087  1.000516808253  8.732183710857 -0.000015426619 -0.000008998861 -0.049640031625
Zn  -0.000000000000  2.001032923328  5.822684581165 -0.000000000000  0.000047051188 -0.049314015744
O    1.732945553087  1.000516808253  10.937833140598  0.000001542662  0.000001028441  0.049477537905
O   -0.000000000000  2.001032923328  8.028334010906  0.000000000000  0.000002828213  0.049491936083
Zn   0.000000000000  4.002066539834  2.913185451473  0.000000000000 -0.000000000000 -0.049499649392
Zn  -1.732945553087  5.002582654909  0.003687014959  0.000010541523 -0.000006170648 -0.049430229607
O    0.000000000000  4.002066539834  5.118834881214  0.000000000000  0.000000000000  0.049486279656
O   -1.732945553087  5.002582654909  2.209336444700 -0.000003085324  0.000001799772  0.049485765435
Zn   0.000000000000  4.002066539834  8.732183710857  0.000000000000  0.000000000000 -0.049669342201
Zn  -1.732945553087  5.002582654909  5.822684581165  0.000040623430 -0.000023397039 -0.049314015744
O    0.000000000000  4.002066539834  10.937833140598  0.000000000000  0.000000000000  0.049479594787
O   -1.732945553087  5.002582654909  8.028334010906  0.000002571103 -0.000001542662  0.049491936083
Zn   5.198836659261  1.000516808253  2.913185451473 -0.000035224113  0.000020311715 -0.049568812067
Zn   3.465891106174  2.001032923328  0.003687014959  0.000000000000  0.000000000000 -0.049411460554
O    5.198836659261  1.000516808253  5.118834881214 -0.000001542662  0.000000771331  0.049478823456
O    3.465891106174  2.001032923328  2.209336444700  0.000000000000  0.000000000000  0.049488336538
Zn   5.198836659261  1.000516808253  8.732183710857  0.000015426619 -0.000008998861 -0.049640031625
Zn   3.465891106174  2.001032923328  5.822684581165  0.000000000000  0.000000000000 -0.049304245552
O    5.198836659261  1.000516808253  10.937833140598 -0.000001542662  0.000001028441  0.049477537905
O    3.465891106174  2.001032923328  8.028334010906  0.000000000000  0.000000000000  0.049489107869
Zn   3.465891106174  4.002066539834  2.913185451473 -0.000000000000 -0.000040623430 -0.049568812067
Zn   1.732945553087  5.002582654909  0.003687014959 -0.000010541523 -0.000006170648 -0.049430229607
O    3.465891106174  4.002066539834  5.118834881214  0.000000000000 -0.000001799772  0.049478823456
O    1.732945553087  5.002582654909  2.209336444700  0.000003085324  0.000001799772  0.049485765435
Zn   3.465891106174  4.002066539834  8.732183710857  0.000000000000  0.000017740612 -0.049640031625
Zn   1.732945553087  5.002582654909  5.822684581165 -0.000040623430 -0.000023397039 -0.049314015744
O    3.465891106174  4.002066539834  10.937833140598  0.000000000000 -0.000001799772  0.049477537905
O    1.732945553087  5.002582654909  8.028334010906 -0.000002571103 -0.000001542662  0.049491936083