# total energy = -9840.163055999983 eV

CRYSTAL
PRIMVEC
6.408629157334813 0.0 0.0
-1.6021572893337033 2.775019737305019 0.0
0.0 0.0 5.172910874588357
PRIMCOORD
8 1
Zn   1.651638955920  0.933889793598  2.678834544871  0.113582595915  0.268711390703 -0.848569201344
Zn  -0.096948460166  1.778725917288 -0.056879788086  0.510136691996  1.063290768093  1.191055569046
O    1.496182915862  0.933286741594  4.579009111594  1.027322577529 -0.297639386591  0.427557486441
O    0.086295395918  1.907079223777  2.004355164893 -0.148692038023 -0.383014666834 -0.618186016797
Zn   4.895420436390  0.881621655053  2.510352325188  0.383140136668  0.219293502391  0.378818112254
Zn   3.189913107225  1.742679941729  0.000504999978 -0.444826557934  0.537899978152  0.102279255087
O    4.787176126471  0.933782128628  4.512989977467 -0.755168993914 -1.230015752359 -0.217929275054
O    3.317735138357  1.821822666645  1.982565825758 -0.685494412236 -0.178525576445 -0.415025929633