# total energy = -14760.895001517738 eV

CRYSTAL
PRIMVEC
3.335102842420818 0.0 0.0
-5.002654263631227 8.664850652425308 0.0
0.0 0.0 5.276369489011546
PRIMCOORD
12 1
Zn   1.667551421210  0.962761146546  2.641528185105  0.000000000000 -0.000310589262 -0.132239034674
Zn   0.000000000000  1.925522626603  0.003343107089  0.000000000000  0.000200031826 -0.132179642191
O    1.667551421210  0.962761146546  4.641498311397  0.000000000000  0.000051679174  0.132209466987
O    0.000000000000  1.925522626603  2.003313233381  0.000000000000 -0.000122127400  0.132218465848
Zn   0.000000000000  3.851044919695  2.641528185105  0.000000000000 -0.000127783827 -0.132276572780
Zn  -1.667551421210  4.813806399751  0.003343107089  0.000000000000  0.000143981777 -0.132110993736
O    0.000000000000  3.851044919695  4.641498311397  0.000000000000  0.000018769053  0.132189155272
O   -1.667551421210  4.813806399751  2.003313233381  0.000000000000 -0.000064020469  0.132251118859
Zn  -1.667551421210  6.739328692843  2.641528185105  0.000000000000  0.000037023886 -0.132251890190
Zn  -3.335102842421  7.702090172900  0.003343107089  0.000000000000  0.000102329906 -0.132210238318
O   -1.667551421210  6.739328692843  4.641498311397  0.000000000000  0.000093845265  0.132218465848
O   -3.335102842421  7.702090172900  2.003313233381  0.000000000000 -0.000023139928  0.132181184853