# total energy = -9840.077335378814 eV

CRYSTAL
PRIMVEC
3.138920446790701 0.0 0.0
-3.138920446790701 5.436770298784281 0.0
0.0 0.0 5.472729771422714
PRIMCOORD
8 1
Zn   1.562860015372  0.928778937705  2.857262290072  0.051577614967 -0.314826697003  0.280924644939
Zn  -0.119902366579  1.830267159370  0.060296778431  0.128199317387 -0.461867829687  0.699709784504
O    1.456330077681  0.901232713541  4.887503793266  0.007296276551  0.421874062903 -1.050093809787
O    0.005483380128  1.755657531486  2.072368326727 -0.177081902020  0.125501715950 -0.250342144167
Zn  -0.010541436536  3.566043710423  2.667289174575  0.351826928377  0.754948393263  0.599947896523
Zn  -1.540391622814  4.560740919187 -0.037892419850 -0.569720722207 -0.828300938013  0.776566485753
O   -0.057039520683  3.550107725207  4.798221909538  0.652383231504  0.896526188839 -0.851301512673
O   -1.527920064095  4.594362837769  2.045399036140 -0.444480487449 -0.593854896251 -0.205411602203