# total energy = -14759.669089898372 eV

CRYSTAL
PRIMVEC
3.1389040422972423 0.0 0.0
-4.708356063445864 8.155111258595449 0.0
0.0 0.0 5.168663785632585
PRIMCOORD
12 1
Zn   1.576781989868  0.980472147227  2.613632306490 -0.049073617598 -1.353169794013  0.905795787066
Zn  -0.054826295236  1.825247903254  0.053915699173  0.457621395706  0.041373934961 -0.108135456757
O    1.556603545232  0.904149695439  4.576918537250 -0.455205587176 -0.145848140817 -0.172271368005
O    0.008038105472  1.726577082465  2.001114732826 -0.020200129097  1.802180308121 -0.698826867679
Zn  -0.080577550108  3.655770734751  2.613857365909  0.319252079765 -0.390057946834 -0.491889572860
Zn  -1.663824426742  4.544931535607  0.011658831284  0.531860456826 -0.803962104157  0.412471795752
O   -0.036141341143  3.641440382236  4.505870699814 -0.547488650282 -0.584018369777  0.509468976505
O   -1.614918732311  4.605455569460  1.960871785771 -0.259220934714 -1.980934712747 -0.564498297466
Zn  -1.557143436728  6.322205371150  2.566985995188  0.398666257328  1.439158796580  1.071992666743
Zn  -3.089219271883  7.237462078542  0.102344594080 -0.562262466157 -0.076643299686 -1.267352026916
O   -1.599344746015  6.263035146610  4.544624236901  0.669213929908  1.635454809635 -0.495992539285
O   -3.096599463067  7.255193119696  1.957674498114 -0.483162477400  0.416466775844  0.899237160012