# total energy = -29520.885910112764 eV

CRYSTAL
PRIMVEC
3.2043145786674065 0.0 0.0
-4.806471868001109 8.325052803285901 0.0
0.0 0.0 11.380405205820217
PRIMCOORD
24 1
Zn   1.602157289334  0.925005831428  2.848706796219  0.000000000000 -0.000075590433  0.366563977477
Zn   0.000000000000  1.850011983288  0.003605174332  0.000000000000  0.000109786105  0.367363590560
O    1.602157289334  0.925005831428  5.005537668181  0.000000000000  0.000136268468 -0.367197497296
O    0.000000000000  1.850011983288  2.160436046294  0.000000000000 -0.000170207029 -0.367113422222
Zn   1.602157289334  0.925005831428  8.538910039992  0.000000000000 -0.000069419785  0.367678293587
Zn   0.000000000000  1.850011983288  5.693808418105  0.000000000000  0.000490823593  0.367002093455
O    1.602157289334  0.925005831428  10.695740911954  0.000000000000  0.000134725806 -0.367252261793
O    0.000000000000  1.850011983288  7.850639290067  0.000000000000 -0.000192061406 -0.367275144611
Zn   0.000000000000  3.700023646145  2.848706796219  0.000000000000 -0.000023139928  0.366848855707
Zn  -1.602157289334  4.625029798004  0.003605174332  0.000000000000 -0.000185376538  0.367436609890
O    0.000000000000  3.700023646145  5.005537668181  0.000000000000  0.000170721250 -0.367209324370
O   -1.602157289334  4.625029798004  2.160436046294  0.000000000000 -0.000161722389 -0.367125249297
Zn   0.000000000000  3.700023646145  8.538910039992  0.000000000000  0.000150152425  0.367419897719
Zn  -1.602157289334  4.625029798004  5.693808418105  0.000000000000 -0.000129840710  0.367279515487
O    0.000000000000  3.700023646145  10.695740911954  0.000000000000  0.000187176310 -0.367229121865
O   -1.602157289334  4.625029798004  7.850639290067  0.000000000000 -0.000181776994 -0.367209838591
Zn  -1.602157289334  6.475041460861  2.848706796219  0.000000000000 -0.000068648454  0.366516926289
Zn  -3.204314578667  7.400047612721  0.003605174332  0.000000000000  0.000250168338  0.367710946597
O   -1.602157289334  6.475041460861  5.005537668181  0.000000000000  0.000192061406 -0.367237349395
O   -3.204314578667  7.400047612721  2.160436046294  0.000000000000 -0.000175349236 -0.367085397198
Zn  -1.602157289334  6.475041460861  8.538910039992  0.000000000000 -0.000245283242  0.367137847702
Zn  -3.204314578667  7.400047612721  5.693808418105  0.000000000000 -0.000196432282  0.367467977348
O   -1.602157289334  6.475041460861  10.695740911954  0.000000000000  0.000161208168 -0.367265374419
O   -3.204314578667  7.400047612721  7.850639290067  0.000000000000 -0.000107986333 -0.367226036541