# total energy = -9840.028885101668 eV

CRYSTAL
PRIMVEC
6.800993948595047 0.0 0.0
-1.7002484871487618 2.944918792662987 0.0
0.0 0.0 5.379831049120831
PRIMCOORD
8 1
Zn   1.712166548944  0.983746772179  2.724461853422 -0.156370380504 -0.119719304940 -0.580631198472
Zn  -0.088353752684  1.995640137914 -0.066502159128  0.350193763649 -0.523812389711  0.436437305429
O    1.848976023314  0.887301196895  4.736602562854 -0.920786861158  0.300301249694 -0.393199834897
O   -0.014220198247  1.960355901210  1.954024855943 -0.100846122185 -0.244880606832  0.661285161980
Zn   5.074740500885  0.977487137349  2.709587399557  0.148290688820 -0.204085170082 -0.649782817767
Zn   3.438008536520  1.956198453609 -0.079680445102 -0.122159281840 -0.769751519714  0.845661283668
O    5.064835533298  0.839535095996  4.727712983664  0.583728606450  1.140926256490 -0.146612015566
O    3.389632386465  1.893115154139  2.061556051364  0.217949586769  0.421021742205 -0.173158141486