# total energy = -14749.701865572257 eV

CRYSTAL
PRIMVEC
3.0081163077210396 0.0 0.0
-4.5121744615815595 7.815314784298647 0.0
0.0 0.0 4.467684421390365
PRIMCOORD
12 1
Zn   1.469004574527  0.902223722552  2.212807355790 -1.007686291355 -2.071801612232 -2.252718571728
Zn   0.042246286237  1.748443839744 -0.070687424304 -2.586317664243  0.527926411879  0.338886309056
O    1.429339252081  0.836037041868  3.947803110769  2.621093891382 -0.108169909540  2.168534483580
O   -0.082264761537  1.731789102995  1.772981946901  0.655341285691 -1.505306596052 -1.443009794895
Zn   0.095261929668  3.383432662391  2.196681445888 -1.219720541081  2.702174915124 -2.248337926162
Zn  -1.455990560945  4.283491744448  0.003129042583  0.359678306101  2.163288404689 -2.876466141773
O    0.049662195371  3.509437239912  3.915389153495 -0.440340497138 -0.526271392774  2.240935463050
O   -1.516439861395  4.344713529166  1.702130279447  1.595623022350  0.782317015084  3.262297195010
Zn  -1.508200630828  6.147782956188  2.248266429202 -2.204379004082 -1.905249406099 -6.314586683806
Zn  -3.079039267531  6.915608855097  0.001235433368  1.652921856071 -0.175772953401 -2.587159443418
O   -1.514563398442  6.134479261006  3.857048843388 -1.721011352650 -1.989221892457  7.357470863218
O   -3.084352503366  6.903788161254  1.696793279494  2.294796474735  2.106087015778  2.354153990757