# total energy = -9837.708002906043 eV

CRYSTAL
PRIMVEC
3.531285238050934 0.0 0.0
-1.765642619025467 3.0581812982830603 0.0
0.0 0.0 12.31364106307694
PRIMCOORD
8 1
Zn   1.806942765527  1.014637831136  3.081852209491 -0.141965517933 -0.079707026213 -0.472469516462
Zn  -0.023421955598  2.044168151506 -0.060683371173 -0.009137957746 -0.213335227925  0.232423354905
O    1.766195618294  1.007400815169  5.376509254330 -0.018137590141 -0.011741199696  0.538456364876
O   -0.103103994481  2.044859930284  2.284429030275  0.213093544228  0.055378733881  0.473620342237
Zn   1.754719294399  0.996360958129  9.205431693698 -0.035050820957 -0.062379076458 -0.276845589774
Zn  -0.008561601060  2.007224904731  6.177173447137 -0.039056342572  0.021687769386 -0.592389367449
O    1.812954778645  0.926938009120  11.608857267668 -0.126592120801  0.290044604963 -0.278749491665
O   -0.080286241787  2.020785393174  8.449860247738  0.156846805920  0.000051422063  0.375953903332