# total energy = -9840.33579522533 eV

CRYSTAL
PRIMVEC
6.800993948595047 0.0 0.0
-1.7002484871487618 2.944918792662987 0.0
0.0 0.0 5.0504521111964245
PRIMCOORD
8 1
Zn   1.700248487149  0.981639144155  2.528425243152  0.000286935113  0.000165579044 -0.748811941348
Zn  -0.000000000000  1.963277608210  0.003199867653 -0.000162750830 -0.000094102376 -0.748775945903
O    1.700248487149  0.981639144155  4.442762898908 -0.000008484640 -0.000004885096  0.748798057391
O   -0.000000000000  1.963277608210  1.917536843309  0.000014655288  0.000008484640  0.748794714956
Zn   5.100745461446  0.981639144155  2.528425243152  0.000089988611  0.000051936284 -0.748820168878
Zn   3.400496974298  1.963277608210  0.003199867653 -0.000212887342 -0.000122898731 -0.748760776395
O    5.100745461446  0.981639144155  4.442762898908 -0.000013369736 -0.000007713309  0.748789572750
O    3.400496974298  1.963277608210  1.917536843309  0.000005913537  0.000003342434  0.748786230316