# total energy = -9833.200540299857 eV

CRYSTAL
PRIMVEC
2.9427380511605845 0.0 0.0
-2.9427380511605845 5.0969723842507415 0.0
0.0 0.0 4.560608347879856
PRIMCOORD
8 1
Zn   1.471369025580  0.849495201193  2.283193648432  0.000000000000 -0.001003501564 -1.545689627854
Zn   0.000000000000  1.698990696659  0.002889474492  0.000000000000  0.000444029516 -1.544050292479
O    1.471369025580  0.849495201193  4.011859798421  0.000000000000  0.000056307159  1.544860189974
O    0.000000000000  1.698990696659  1.731555330207  0.000000000000 -0.000123927172  1.544807739470
Zn   0.000000000000  3.397981099044  2.283193648432  0.000000000000  0.000061449366 -1.545569557337
Zn  -1.471369025580  4.247476594511  0.002889474492  0.000000000000  0.000520648390 -1.543973673604
O    0.000000000000  3.397981099044  4.011859798421  0.000000000000  0.000055278718  1.544845020466
O   -1.471369025580  4.247476594511  1.731555330207  0.000000000000 -0.000009770192  1.544769944253