# total energy = -14753.160821448302 eV

CRYSTAL
PRIMVEC
3.00813218303729 0.0 0.0
-1.504066091518645 2.605117673814869 0.0
0.0 0.0 13.985865381468791
PRIMCOORD
12 1
Zn   1.474512095260  0.790807869599  2.359254306912 -0.010777550231  3.585091997820 -0.225403471944
Zn  -0.064321988030  1.834394801989 -0.019911729359  1.294553269921 -0.410928619635  0.936778094380
O    1.572764009436  0.856185712025  4.148107190903 -1.555312752766  0.583355025161  0.260844586360
O   -0.010817844957  1.794001001409  1.831828263611 -0.046627470051 -3.701692297516 -1.191021630484
Zn   1.520965477310  0.876348921235  7.010811524364 -0.307686229304 -0.990046723897 -3.922425103456
Zn  -0.023479674941  1.760313530717  4.668883758013  1.574829225533 -0.252387713842 -1.730136711990
O    1.495555483946  0.902818378753  8.700213151878  0.864493071663 -0.087104861339  4.131095578916
O   -0.002087944548  1.684276973527  6.404881653856  0.520482039786  0.804390964165  2.359226777294
Zn   1.552139051936  0.874338887310  11.670005486990 -1.395294748207 -0.591923740667 -0.901368347423
Zn   0.048767538138  1.773227742992  9.304250305617 -0.871664392600  0.129192277428 -0.187543720783
O    1.510763998637  0.940044014518  13.453370334626 -1.427572891514  0.403018363649  0.647598151411
O   -0.021001274836  1.726108661291  11.121434680947  1.360578684882  0.529035328673 -0.177644716502