# total energy = -9833.546671007423 eV

CRYSTAL
PRIMVEC
2.9427380511605845 0.0 0.0
-1.4713690255802923 2.5484847207563455 0.0
0.0 0.0 9.311241062675354
PRIMCOORD
8 1
Zn   1.442847714115  0.776053581924  2.244029041983  0.837474376982  1.548791406708  2.308716684360
Zn  -0.066633889061  1.795559588546  0.058432772387  1.949206271296 -0.455662215097 -1.595592683332
O    1.456657100967  0.899432288826  4.090701047740  1.985169833875 -1.003602351094 -1.387642888089
O    0.011264212712  1.679780796935  1.788081208336 -0.597625676147 -1.826314739275  0.832794712118
Zn   1.452044359072  0.969050408545  7.041038719917  1.528677152457 -1.143529241330 -2.441659687079
Zn   0.057867178133  1.705010950164  4.674040600169 -1.934676710221  1.002336339897 -1.726876810292
O    1.543232454432  0.881343866573  8.745638863850 -1.851117400141  0.368110238918  1.972516920997
O    0.055844339997  1.746988225642  6.396903670720 -1.917107590989  1.509870561273  2.037744008427