# total energy = -19664.477390865308 eV

CRYSTAL
PRIMVEC
3.00813218303729 0.0 0.0
-3.00813218303729 5.210238355761922 0.0
0.0 0.0 8.741165863417994
PRIMCOORD
16 1
Zn   1.504066091519  0.868372858752  2.188060601936  0.000000000000 -0.000671315035 -4.604561140743
Zn   0.000000000000  1.736746018316  0.002769286488  0.000000000000  0.000141153564 -4.604699208983
O    1.504066091519  0.868372858752  3.844698856965  0.000000000000  0.000031624569  4.604507404687
O    0.000000000000  1.736746018316  1.659407240704  0.000000000000 -0.000040366320  4.604501491150
Zn   1.504066091519  0.868372858752  6.558643533645  0.000000000000 -0.000515506184 -4.604258779011
Zn   0.000000000000  1.736746018316  4.373352218197  0.000000000000  0.000296191084 -4.604492235178
O    1.504066091519  0.868372858752  8.215281788674  0.000000000000  0.000024168370  4.604495577612
O    0.000000000000  1.736746018316  6.029990172413  0.000000000000 -0.000031367459  4.604500462708
Zn   0.000000000000  3.473491735819  2.188060601936  0.000000000000 -0.000240398146 -4.604493263620
Zn  -1.504066091519  4.341864895384  0.002769286488  0.000000000000  0.000857205794 -4.604549827889
O    0.000000000000  3.473491735819  3.844698856965  0.000000000000  0.000032395900  4.604515375107
O   -1.504066091519  4.341864895384  1.659407240704  0.000000000000 -0.000037795216  4.604507918908
Zn   0.000000000000  3.473491735819  6.558643533645  0.000000000000 -0.000456113701 -4.604455982624
Zn  -1.504066091519  4.341864895384  4.373352218197  0.000000000000  0.000611922552 -4.604516660658
O    0.000000000000  3.473491735819  8.215281788674  0.000000000000  0.000037538106  4.604489406965
O   -1.504066091519  4.341864895384  6.029990172413  0.000000000000 -0.000039594989  4.604509718680