# total energy = -44282.033633004336 eV

CRYSTAL
PRIMVEC
10.005308527262454 0.0 0.0
-1.6675547563132513 2.888282439107489 0.0
0.0 0.0 16.475201265182612
PRIMCOORD
36 1
Zn   1.667551754721  0.962760813036  2.749345723305  0.000172006801  0.000099244582  0.070709193590
Zn  -0.000000000000  1.925522626603  0.003479846306 -0.000133697364 -0.000077133095  0.071218272016
O    1.667551754721  0.962760813036  4.830947160810 -0.000145781549 -0.000084075073 -0.071201559845
O   -0.000000000000  1.925522626603  2.085081283810  0.000136525578  0.000078675757 -0.071092287961
Zn   1.667551754721  0.962760813036  8.241077477305  0.000127269606  0.000073533550  0.071491837392
Zn  -0.000000000000  1.925522626603  5.495211600305  0.000063249138  0.000036509665  0.071206187831
O    1.667551754721  0.962760813036  10.322679915340 -0.000132411813 -0.000076618874 -0.071142424473
O   -0.000000000000  1.925522626603  7.576813037809  0.000120841849  0.000069676896 -0.071165564401
Zn   1.667551754721  0.962760813036  13.732810231835 -0.000132154702 -0.000076361764  0.071056035407
Zn  -0.000000000000  1.925522626603  10.986943354304 -0.000144238887 -0.000083303742  0.071251182137
O    1.667551754721  0.962760813036  15.814411669339 -0.000123927172 -0.000071476668 -0.071110285683
O   -0.000000000000  1.925522626603  13.068545792339  0.000153237748  0.000088445949 -0.071192046764
Zn   5.002654263631  0.962760813036  2.749345723305 -0.000010027302 -0.000005656427  0.071150909113
Zn   3.335102508911  1.925522626603  0.003479846306 -0.000088960169 -0.000051422063  0.071244754379
O    5.002654263631  0.962760813036  4.830947160810 -0.000141924895 -0.000081761081 -0.071190761212
O    3.335102508911  1.925522626603  2.085081283810  0.000138839571  0.000080218419 -0.071142424473
Zn   5.002654263631  0.962760813036  8.241077477305 -0.000005142206 -0.000003085324  0.071365596227
Zn   3.335102508911  1.925522626603  5.495211600305  0.000151695087  0.000087417507  0.071113113897
O    5.002654263631  0.962760813036  10.322679915340 -0.000112871429 -0.000065306020 -0.071133682722
O    3.335102508911  1.925522626603  7.576813037809  0.000125469834  0.000072505109 -0.071146281128
Zn   5.002654263631  0.962760813036  13.732810231835  0.000128555158  0.000074304881  0.071166335732
Zn   3.335102508911  1.925522626603  10.986943354304  0.000013112626  0.000007456199  0.071033409699
O    5.002654263631  0.962760813036  15.814411669339 -0.000134982916 -0.000077904426 -0.071099487050
O    3.335102508911  1.925522626603  13.068545792339  0.000109271884  0.000063249138 -0.071175077483
Zn   8.337756772542  0.962760813036  2.749345723305  0.000054764497  0.000031624569  0.070819236805
Zn   6.670206018352  1.925522626603  0.003479846306  0.000001799772  0.000001028441  0.071055778296
O    8.337756772542  0.962760813036  4.830947160810 -0.000093588155 -0.000053993166 -0.071189989881
O    6.670206018352  1.925522626603  2.085081283810  0.000122641621  0.000070705337 -0.071112856786
Zn   8.337756772542  0.962760813036  8.241077477305  0.000018769053  0.000010798633  0.071517805534
Zn   6.670206018352  1.925522626603  5.495211600305 -0.000408805403 -0.000236027270  0.071064005826
O    8.337756772542  0.962760813036  10.322679915340 -0.000147324211 -0.000085103515 -0.071157079761
O    6.670206018352  1.925522626603  7.576813037809  0.000123670062  0.000071476668 -0.071179191248
Zn   8.337756772542  0.962760813036  13.732810231835  0.000175606346  0.000101301465  0.071044979663
Zn   6.670206018352  1.925522626603  10.986943354304  0.000031624569  0.000018254832  0.071231127532
O    8.337756772542  0.962760813036  15.814411669339 -0.000140125122 -0.000080732639 -0.071109514352
O    6.670206018352  1.925522626603  13.068545792339  0.000127012496  0.000073276440 -0.071199245853