# total energy = -19680.49568463657 eV

CRYSTAL
PRIMVEC
6.277840893581402 0.0 0.0
-1.5694602233953505 2.7183867188523636 0.0
0.0 0.0 10.742766893914366
PRIMCOORD
16 1
Zn   1.569460223395  0.906128487761  2.689094941027  0.000182805435  0.000105415230  0.560505888477
Zn  -0.000000000000  1.812256347739  0.003403217548 -0.000173292353 -0.000100015913  0.560377847540
O    1.569460223395  0.906128487761  4.725079099179 -0.000059906704 -0.000034452782 -0.560354450501
O   -0.000000000000  1.812256347739  2.039387375700  0.000061192255  0.000035224113 -0.560425155838
Zn   1.569460223395  0.906128487761  8.060477760200  0.000174063684  0.000100530134  0.560315112622
Zn  -0.000000000000  1.812256347739  5.374786036722 -0.000169949919 -0.000098216141  0.560421813404
O    1.569460223395  0.906128487761  10.096461918352 -0.000057849821 -0.000033424341 -0.560445981773
O   -0.000000000000  1.812256347739  7.410770194873  0.000061963586  0.000035738334 -0.560386075070
Zn   4.708380670186  0.906128487761  2.689094941027  0.000183833876  0.000106186561  0.560502803153
Zn   3.138920446791  1.812256347739  0.003403217548 -0.000187947641 -0.000108500553  0.560381189974
O    4.708380670186  0.906128487761  4.725079099179 -0.000065306020 -0.000037538106 -0.560356764494
O    3.138920446791  1.812256347739  2.039387375700  0.000058878262  0.000033938562 -0.560420270742
Zn   4.708380670186  0.906128487761  8.060477760200  0.000188461862  0.000108757664  0.560311255968
Zn   3.138920446791  1.812256347739  5.374786036722 -0.000191032965 -0.000110300326  0.560415128535
O    4.708380670186  0.906128487761  10.096461918352 -0.000062220697 -0.000035995444 -0.560448295766
O    3.138920446791  1.812256347739  7.410770194873  0.000056564270  0.000032653010 -0.560394045489