# total energy = -44273.31063451133 eV

CRYSTAL
PRIMVEC
3.59667936992764 0.0 0.0
-5.39501905489146 9.344446350704123 0.0
0.0 0.0 17.070609979061743
PRIMCOORD
36 1
Zn   1.798339684964  1.038271776782  2.848706734799  0.000000000000  0.000125726945  0.027565568323
Zn  -0.000000000000  2.076543913232  0.003605311400  0.000000000000 -0.000181519883  0.027471980168
O    1.798339684964  1.038271776782  5.005537163598  0.000000000000  0.000196946502 -0.027480721919
O   -0.000000000000  2.076543913232  2.160435740199  0.000000000000 -0.000201574488 -0.027483035912
Zn   1.798339684964  1.038271776782  8.538909581595  0.000000000000  0.000214430004  0.027492034773
Zn  -0.000000000000  2.076543913232  5.693808158197  0.000000000000 -0.000058878262  0.027564796992
O    1.798339684964  1.038271776782  10.695740010394  0.000000000000  0.000195918061 -0.027478407926
O   -0.000000000000  2.076543913232  7.850638586996  0.000000000000 -0.000201574488 -0.027484064353
Zn   1.798339684964  1.038271776782  14.229112068724  0.000000000000  0.000117499414  0.027421586546
Zn  -0.000000000000  2.076543913232  11.384011004994  0.000000000000 -0.000177663228  0.027384305550
O    1.798339684964  1.038271776782  16.385942857191  0.000000000000  0.000197717833 -0.027480721919
O   -0.000000000000  2.076543913232  13.540841433793  0.000000000000 -0.000199260495 -0.027478665036
Zn   0.000000000000  4.153087466795  2.848706734799  0.000000000000  0.000137554019  0.027580994942
Zn  -1.798339684964  5.191359603245  0.003605311400  0.000000000000 -0.000122384510  0.027475836823
O    0.000000000000  4.153087466795  5.005537163598  0.000000000000  0.000194632509 -0.027482007470
O   -1.798339684964  5.191359603245  2.160435740199  0.000000000000 -0.000195918061 -0.027483035912
Zn   0.000000000000  4.153087466795  8.538909581595  0.000000000000  0.000073019330  0.027458867542
Zn  -1.798339684964  5.191359603245  5.693808158197  0.000000000000 -0.000264052295  0.027504376068
O    0.000000000000  4.153087466795  10.695740010394  0.000000000000  0.000197460723 -0.027478150816
O   -1.798339684964  5.191359603245  7.850638586996  0.000000000000 -0.000199774716 -0.027479436367
Zn   0.000000000000  4.153087466795  14.229112068724  0.000000000000  0.000151952197  0.027367336269
Zn  -1.798339684964  5.191359603245  11.384011004994  0.000000000000 -0.000195918061  0.027451411343
O    0.000000000000  4.153087466795  16.385942857191  0.000000000000  0.000198746274 -0.027482007470
O   -1.798339684964  5.191359603245  13.540841433793  0.000000000000 -0.000202602929 -0.027476351043
Zn  -1.798339684964  7.267903156808  2.848706734799  0.000000000000  0.000170978360  0.027484064353
Zn  -3.596679369928  8.306175293258  0.003605311400  0.000000000000 -0.000141667784  0.027534457975
O   -1.798339684964  7.267903156808  5.005537163598  0.000000000000  0.000195660951 -0.027478407926
O   -3.596679369928  8.306175293258  2.160435740199  0.000000000000 -0.000200546047 -0.027482778801
Zn  -1.798339684964  7.267903156808  8.538909581595  0.000000000000  0.000159922617  0.027470694616
Zn  -3.596679369928  8.306175293258  5.693808158197  0.000000000000 -0.000082532411  0.027559140565
O   -1.798339684964  7.267903156808  10.695740010394  0.000000000000  0.000195918061 -0.027482521691
O   -3.596679369928  8.306175293258  7.850638586996  0.000000000000 -0.000200288936 -0.027479693478
Zn  -1.798339684964  7.267903156808  14.229112068724  0.000000000000  0.000180491442  0.027439841379
Zn  -3.596679369928  8.306175293258  11.384011004994  0.000000000000 -0.000072247999  0.027420043884
O   -1.798339684964  7.267903156808  16.385942857191  0.000000000000  0.000195146730 -0.027479179257
O   -3.596679369928  8.306175293258  13.540841433793  0.000000000000 -0.000200803157 -0.027478150816