# total energy = -29521.67143255959 eV

CRYSTAL
PRIMVEC
9.809126131632336 0.0 0.0
-3.2697054408354016 5.663298972097929 0.0
0.0 0.0 5.4896185848112475
PRIMCOORD
24 1
Zn   1.634854682243  0.943883162016  2.748288589445 -0.000004370875  0.000026739473  0.191028079788
Zn   0.000000000000  1.887767304945  0.003478316126  0.000024939701  0.000014141067  0.191035021766
O    1.634854682243  0.943883162016  4.829089687534 -0.000008998861 -0.000022882818 -0.191013424500
O    0.000000000000  1.887767304945  2.084279414216 -0.000016969281 -0.000009513082 -0.191026022905
Zn   0.000000000000  3.775534609891  2.748288589445  0.000022111487 -0.000013883957  0.191043249296
Zn  -1.634854682243  4.719417771907  0.003478316126  0.000023397039  0.000005656427  0.191010339176
O    0.000000000000  3.775534609891  4.829089687534 -0.000018511943 -0.000001285552 -0.191006225411
O   -1.634854682243  4.719417771907  2.084279414216 -0.000006427758 -0.000004113765 -0.191018309596
Zn   4.904563065816  0.943883162016  2.748288589445 -0.000000771331  0.000005656427  0.191007768073
Zn   3.269708383573  1.887767304945  0.003478316126 -0.000006170648  0.000021340156  0.191042477965
O    4.904563065816  0.943883162016  4.829089687534  0.000008741751 -0.000000771331 -0.191009310734
O    3.269708383573  1.887767304945  2.084279414216  0.000003085324 -0.000009770192 -0.191026022905
Zn   3.269708383573  3.775534609891  2.748288589445  0.000005656427 -0.000011312854  0.191016509823
Zn   1.634854682243  4.719417771907  0.003478316126  0.000005399317 -0.000003085324  0.191016252713
O    3.269708383573  3.775534609891  4.829089687534  0.000003856655  0.000011055744 -0.191013681610
O    1.634854682243  4.719417771907  2.084279414216 -0.000002313993  0.000011827075 -0.191025765795
Zn   8.174271449389  0.943883162016  2.748288589445 -0.000015426619 -0.000002571103  0.190993112785
Zn   6.539417748059  1.887767304945  0.003478316126  0.000006170648 -0.000015683729  0.191022423361
O    8.174271449389  0.943883162016  4.829089687534  0.000005399317  0.000002571103 -0.191026537126
O    6.539417748059  1.887767304945  2.084279414216  0.000000514221  0.000005656427 -0.191014452941
Zn   6.539417748059  3.775534609891  2.748288589445 -0.000023911259  0.000008227530  0.191000826094
Zn   4.904563065816  4.719417771907  0.003478316126 -0.000013112626 -0.000020311715  0.191006225411
O    6.539417748059  3.775534609891  4.829089687534  0.000002828213 -0.000002571103 -0.191023966022
O    4.904563065816  4.719417771907  2.084279414216  0.000004885096  0.000004885096 -0.191018566706