# total energy = -14757.569833267662 eV

CRYSTAL
PRIMVEC
9.809126131632336 0.0 0.0
-1.6348576249807667 2.8316494860489647 0.0
0.0 0.0 5.067345513970607
PRIMCOORD
12 1
Zn   1.904412411078  1.118531710052  2.640452942229 -3.253343071140 -1.726921033266 -0.699139770933
Zn  -0.129083195329  1.846529738688 -0.064555820897  7.030217510416  4.258832097734  3.213465518219
O    1.534925190690  1.021685226842  4.498823277070  1.088128653073 -0.201985864351  0.271156252699
O    0.021082754795  1.935115956783  1.961594711862  0.606567201611  0.243146654860  0.337461403684
Zn   4.916062304380  0.897889150498  2.664503938591  0.271683328847  0.176026464172 -5.307253404915
Zn   3.298152887530  1.885731911273 -0.217878347811 -0.463235142348 -0.795284630988  1.500136621815
O    4.985073430367  0.914876595132  4.386932537112  0.437047685320  0.849993078274  4.015663331387
O    3.300844511740  1.810040770391  1.783785663387  2.397341067668  1.348006504644 -0.464991462918
Zn   8.264673336731  1.005221589543  2.684261480446  0.826978619657 -0.593500084015 -2.146730500331
Zn   6.753089942584  1.792614857818 -0.078114975949 -3.405799461302  1.415045962692  1.976371004636
O    8.304720075076  1.112710974606  4.568712319846 -4.581631271420 -5.586845961306 -1.671963446084
O    6.637689497296  1.819089689247  2.112644464251 -0.953955120380  0.613486811549 -1.024175804370