# total energy = -14756.307016889214 eV

CRYSTAL
PRIMVEC
3.0735263149139955 0.0 0.0
-1.5367631574569978 2.6617506268733933 0.0
0.0 0.0 16.373851840125468
PRIMCOORD
12 1
Zn   1.627011417994  0.993701792875  2.748899543475  0.385466470808 -0.606530949057  0.852542327059
Zn   0.076520047899  1.581812140007  0.110018718558 -1.930896160133  0.924227768519 -4.673163315293
O    1.330484975595  1.070198789327  4.971959919721  4.874133079674 -2.790030281477 -3.697997108052
O    0.146069952822  1.668847643488  1.777768498446 -0.512001513119  0.994455908708  7.379256591635
Zn   1.730408838812  0.759848854973  8.243008862084 -1.491499257855  0.386971337489  1.405006576178
Zn   0.048400048291  1.806503510670  5.739224886339 -4.281359075192  2.595526070215 -1.708007484191
O    1.527044052544  0.923283616769  10.214019180527 -0.124526496521  0.403824404490  0.079260168484
O   -0.031799317959  1.753609352200  7.495929894244  1.114880981466 -0.225418898563  2.565316122290
Zn   1.388151398373  0.741629605683  13.622693869514  0.375122408570  4.872732856892  3.871930951362
Zn  -0.034068809790  1.860791513323  11.035864134799  0.148716720614 -0.491476139472 -0.181431180128
O    1.525338245439  0.780035161104  15.865503189097  1.719744570123 -1.151316084364 -3.265729360620
O    0.015070728933  1.860355687291  13.033497645535 -0.277781728435 -4.912965993381 -2.626984031614