# total energy = -29515.900916835915 eV

CRYSTAL
PRIMVEC
10.397673847699894 0.0 0.0
-1.7329491071745982 3.001548497984767 0.0
0.0 0.0 12.0856114247878
PRIMCOORD
24 1
Zn   1.732945987872  1.000516165995  3.025231279708 -0.000253767882 -0.000146552880 -0.207250712294
Zn  -0.000000000000  2.001033371757  0.003828423511  0.000258395868  0.000149123983 -0.207326559837
O    1.732945987872  1.000516165995  5.315714056270 -0.000275108038 -0.000158894175  0.207265624692
O   -0.000000000000  2.001033371757  2.294311200073  0.000288477775  0.000166607485  0.207267681575
Zn   1.732945987872  1.000516165995  9.068036992102 -0.000273822487 -0.000158122844 -0.207270509788
Zn  -0.000000000000  2.001033371757  6.046634135905  0.000234998829  0.000135754247 -0.207202375555
O    1.732945987872  1.000516165995  11.358519768664 -0.000279736024 -0.000161465279  0.207253540507
O   -0.000000000000  2.001033371757  8.337116912467  0.000277679141  0.000160179727  0.207250969404
Zn   5.198836923850  1.000516165995  3.025231279708 -0.000272794045 -0.000157608624 -0.207217545063
Zn   3.465890935978  2.001033371757  0.003828423511  0.000184605207  0.000106443671 -0.207284393745
O    5.198836923850  1.000516165995  5.315714056270 -0.000275622259 -0.000159151286  0.207255854500
O    3.465890935978  2.001033371757  2.294311200073  0.000280764465  0.000162236609  0.207259454045
Zn   5.198836923850  1.000516165995  9.068036992102 -0.000250939669 -0.000145010218 -0.207331702044
Zn   3.465890935978  2.001033371757  6.046634135905  0.000234484608  0.000135240026 -0.207261510927
O    5.198836923850  1.000516165995  11.358519768664 -0.000278964693 -0.000161208168  0.207253540507
O    3.465890935978  2.001033371757  8.337116912467  0.000280507355  0.000161979499  0.207252769177
Zn   8.664727859827  1.000516165995  3.025231279708 -0.000176891897 -0.000102072796 -0.207213431298
Zn   6.931782911722  2.001033371757  0.003828423511  0.000266623398  0.000154009079 -0.207287221959
O    8.664727859827  1.000516165995  5.315714056270 -0.000277936252 -0.000160436837  0.207269738457
O    6.931782911722  2.001033371757  2.294311200073  0.000279993134  0.000161722389  0.207257654273
Zn   8.664727859827  1.000516165995  9.068036992102 -0.000262252522 -0.000151437976 -0.207351499538
Zn   6.931782911722  2.001033371757  6.046634135905  0.000280507355  0.000161979499 -0.207083333478
O    8.664727859827  1.000516165995  11.358519768664 -0.000278964693 -0.000160951058  0.207244284536
O    6.931782911722  2.001033371757  8.337116912467  0.000290020437  0.000167378816  0.207250198073