# total energy = -59032.301537130465 eV

CRYSTAL
PRIMVEC
6.016263836897371 0.0 0.0
-3.0081319184486857 5.210234889349047 0.0
0.0 0.0 15.734100178348056
PRIMCOORD
48 1
Zn   1.504065959224  0.868373083185  2.625672611700 -0.000070705337 -0.000040880540  1.240718740599
Zn  -0.000000000000  1.736745564743  0.003322782517 -0.000000000000 -0.000031367459  1.240584529014
O    1.504065959224  0.868373083185  4.613638102227  0.000006427758  0.000003599544 -1.240600469854
O   -0.000000000000  1.736745564743  1.991288273044  0.000000000000 -0.000000257110 -1.240616924914
Zn   1.504065959224  0.868373083185  7.870371668438  0.000026739473  0.000015426619  1.240526679193
Zn  -0.000000000000  1.736745564743  5.248021839256 -0.000000000000 -0.000030596128  1.240561646196
O    1.504065959224  0.868373083185  9.858337158966 -0.000001028441 -0.000000514221 -1.240597641640
O   -0.000000000000  1.736745564743  7.235987931410  0.000000000000  0.000000771331 -1.240589928331
Zn   1.504065959224  0.868373083185  13.115070725177 -0.000016969281 -0.000009770192  1.240654720130
Zn  -0.000000000000  1.736745564743  10.492721497621 -0.000000000000  0.000008998861  1.240496854396
O    1.504065959224  0.868373083185  15.103036215704  0.000001028441  0.000000514221 -1.240610497156
O   -0.000000000000  1.736745564743  12.480686988148  0.000000000000  0.000002313993 -1.240617439134
Zn   0.000000000000  3.473491731112  2.625672611700  0.000000000000  0.000000000000  1.240814128526
Zn  -1.504065959224  4.341864212670  0.003322782517 -0.000026996583  0.000015683729  1.240584529014
O    0.000000000000  3.473491731112  4.613638102227  0.000000000000  0.000000000000 -1.240599184302
O   -1.504065959224  4.341864212670  1.991288273044 -0.000000257110  0.000000000000 -1.240616924914
Zn   0.000000000000  3.473491731112  7.870371668438 -0.000000000000 -0.000000000000  1.240613325369
Zn  -1.504065959224  4.341864212670  5.248021839256 -0.000026482363  0.000015169509  1.240561646196
O    0.000000000000  3.473491731112  9.858337158966  0.000000000000  0.000000000000 -1.240594299206
O   -1.504065959224  4.341864212670  7.235987931410  0.000000514221 -0.000000257110 -1.240589928331
Zn   0.000000000000  3.473491731112  13.115070725177 -0.000000000000 -0.000000000000  1.240679145610
Zn  -1.504065959224  4.341864212670  10.492721497621  0.000007713309 -0.000004370875  1.240496854396
O    0.000000000000  3.473491731112  15.103036215704  0.000000000000  0.000000000000 -1.240607926053
O   -1.504065959224  4.341864212670  12.480686988148  0.000002056883 -0.000001028441 -1.240617439134
Zn   4.512197877673  0.868373083185  2.625672611700  0.000070705337 -0.000040880540  1.240718740599
Zn   3.008131918449  1.736745564743  0.003322782517  0.000000000000  0.000000000000  1.240625923775
O    4.512197877673  0.868373083185  4.613638102227 -0.000006427758  0.000003599544 -1.240600469854
O    3.008131918449  1.736745564743  1.991288273044  0.000000000000  0.000000000000 -1.240614610921
Zn   4.512197877673  0.868373083185  7.870371668438 -0.000026739473  0.000015426619  1.240526679193
Zn   3.008131918449  1.736745564743  5.248021839256  0.000000000000 -0.000000000000  1.240648035262
O    4.512197877673  0.868373083185  9.858337158966  0.000001028441 -0.000000514221 -1.240597641640
O    3.008131918449  1.736745564743  7.235987931410  0.000000000000  0.000000000000 -1.240590956772
Zn   4.512197877673  0.868373083185  13.115070725177  0.000016969281 -0.000009770192  1.240654720130
Zn   3.008131918449  1.736745564743  10.492721497621  0.000000000000  0.000000000000  1.240506881698
O    4.512197877673  0.868373083185  15.103036215704 -0.000001028441  0.000000514221 -1.240610497156
O    3.008131918449  1.736745564743  12.480686988148  0.000000000000  0.000000000000 -1.240611782707
Zn   3.008131918449  3.473491731112  2.625672611700  0.000000000000  0.000081503970  1.240718740599
Zn   1.504065959224  4.341864212670  0.003322782517  0.000026996583  0.000015683729  1.240584529014
O    3.008131918449  3.473491731112  4.613638102227 -0.000000000000 -0.000007456199 -1.240600469854
O    1.504065959224  4.341864212670  1.991288273044  0.000000257110  0.000000000000 -1.240616924914
Zn   3.008131918449  3.473491731112  7.870371668438 -0.000000000000 -0.000030853238  1.240526679193
Zn   1.504065959224  4.341864212670  5.248021839256  0.000026482363  0.000015169509  1.240561646196
O    3.008131918449  3.473491731112  9.858337158966  0.000000000000  0.000001028441 -1.240597641640
O    1.504065959224  4.341864212670  7.235987931410 -0.000000514221 -0.000000257110 -1.240589928331
Zn   3.008131918449  3.473491731112  13.115070725177  0.000000000000  0.000019540384  1.240654720130
Zn   1.504065959224  4.341864212670  10.492721497621 -0.000007713309 -0.000004370875  1.240496854396
O    3.008131918449  3.473491731112  15.103036215704  0.000000000000 -0.000001285552 -1.240610497156
O    1.504065959224  4.341864212670  12.480686988148 -0.000002056883 -0.000001028441 -1.240617439134