# total energy = -14757.006418979643 eV

CRYSTAL
PRIMVEC
10.005308527262454 0.0 0.0
-1.6675547563132513 2.888282439107489 0.0
0.0 0.0 5.922452281850991
PRIMCOORD
12 1
Zn   1.610307382513  0.880675260816  2.935227346717 -0.061155231353  0.840316731527  0.319771699714
Zn   0.108149380933  2.123590715801  0.053495383103 -0.481117164835 -0.768328414114 -0.378232414954
O    1.725721617967  0.982592335068  5.026218766275  0.020932379277  0.568018137694  1.145474023761
O   -0.113079996975  1.961224569020  2.294020140723  0.384448056846 -0.871276413133 -0.519023710073
Zn   4.957413260064  0.895532143449  3.225064125728 -0.303241306159 -0.309618156219 -2.033058944247
Zn   3.310966703150  2.082882116996  0.017998549510 -0.065743879165 -0.189312382648  0.004534911756
O    4.958616898679  1.137829699522  5.086643826063  0.135266765757 -0.209393983889  1.590777521332
O    3.260789080355  1.808138345899  2.257200605343  0.520400792926  0.700950856000 -0.216254715565
Zn   8.132805031077  1.131750474061  2.920750665809  4.230021858370 -1.300505630850  2.276995699108
Zn   6.598700079369  2.343396338305  0.150173677809 -0.394403368287 -5.482059366416  2.357056766226
O    8.495003202949  0.928423594701  5.363375651965  0.572530680852  5.449844215136 -3.069521279293
O    6.797563590595  1.646938818093  2.031541877350 -4.557939584230  1.571363892692 -1.478519557766