# total energy = -14759.157593298087 eV

CRYSTAL
PRIMVEC
10.593856243330013 0.0 0.0
-1.7656462385070832 3.0581814510432914 0.0
0.0 0.0 5.24470041038539
PRIMCOORD
12 1
Zn   1.833910929368  0.966926684584  2.605065269346 -0.249821495777  0.044670089214  0.320245296916
Zn  -0.107827447001  2.024798446860  0.082334391338  0.904240012543  0.509236034558 -1.070162812623
O    1.797621674806  1.072931988311  4.671710507752 -0.018669808495 -0.036008042663 -0.410122578794
O   -0.065619404957  2.040390484478  1.981784212355  0.371747835671  0.149518647690  0.958915035489
Zn   5.281723819185  1.112331599066  2.640540915748 -0.000000257110 -0.036281865150 -0.867311514948
Zn   3.606452708904  2.163409521333 -0.006537468688 -0.758150702250 -0.689121724576 -0.831828234440
O    5.337786506424  1.006968283027  4.580256924961  0.263865632575  0.542974564461  0.313593853038
O    3.549174906353  1.996061552414  1.878689040937  0.285582969647  0.185823395658  1.547615898343
Zn   8.816509090602  1.089859911203  2.660109887001  0.134089714729  0.093503308666 -0.999384199247
Zn   6.994421964187  2.094451992274 -0.024535371060  0.513470641465  0.207341472236 -0.022343657803
O    8.884200653840  1.148370838620  4.561987819869 -0.963621182715 -0.624913822439  1.019434175920
O    7.095293485180  2.154734212455  1.986457162344 -0.482732846062 -0.346742057655  0.041348738150