# total energy = -19674.85120143052 eV

CRYSTAL
PRIMVEC
3.531285238050934 0.0 0.0
-3.531285238050934 6.116366127851358 0.0
0.0 0.0 12.31364106307694
PRIMCOORD
16 1
Zn   1.917949776371  1.056799258107  3.066255581980 -0.850813774403 -0.603530728778  0.416939344606
Zn   0.002939794961  2.034458529615  0.144207095266 -0.254788609974 -0.242152923488 -1.049857011186
O    1.831197398185  0.992223704344  5.334272964111 -0.290797938189  0.713389853095 -0.130082907563
O   -0.162331063622  2.043716853253  2.368186525451  1.223564340307  0.907467775452 -0.572843069886
Zn   1.736274332215  1.002384624488  9.114388450819  0.171779001750 -0.201370856474  0.055792167269
Zn   0.101738446479  2.127796048513  6.144890437490 -0.229156254118 -0.000824552784  0.283361022295
O    1.898792553954  0.978550921031  11.355277087238 -0.127237467694 -0.062245893314  1.408959904399
O   -0.004850926532  2.139831727990  8.342698453390  0.267541795875 -0.284361952756  0.230829013835
Zn   0.039863972795  4.199630760474  3.024179965240 -0.204051488630 -0.118064542946 -0.375477220806
Zn  -1.668643157336  5.027272913114 -0.120628350603 -0.102315507641  0.437270085743 -0.848692100075
O   -0.155999469190  4.147059457749  5.531842016867  1.242002749518 -0.565632153960 -0.832135224157
O   -1.730314228990  5.176577065493  2.344267011763 -0.104827475430 -0.343604540467  0.480744869097
Zn  -0.074293297609  3.961998923564  9.315039962459 -0.044114988041  0.718956548549 -0.668518703614
Zn  -1.719622556675  5.201808804776  5.821862942183 -0.625343710888 -0.025767081662  0.537317109065
O    0.022882375214  3.974720731763  11.563680476232  0.123679575140  0.134719377893  0.584452629101
O   -1.604963137509  5.196566611840  8.606692040859 -0.195120247579 -0.464247899883  0.479210177620