# total energy = -59030.673844530276 eV

CRYSTAL
PRIMVEC
6.408629157334813 0.0 0.0
-3.2043145786674065 5.550033065980882 0.0
0.0 0.0 13.966863847428975
PRIMCOORD
48 1
Zn   1.602157289334  0.925006151860  2.330760105997  0.000197717833  0.000114156980 -2.489637500510
Zn  -0.000000000000  1.850011662857  0.002949892001  0.000000000000  0.000174577905 -2.489854501617
O    1.602157289334  0.925006151860  4.095439589898 -0.000006170648 -0.000003599544  2.489695093221
O   -0.000000000000  1.850011662857  1.767629375902  0.000000000000  0.000007713309  2.489703577861
Zn   1.602157289334  0.925006151860  6.986381174853  0.000010284413  0.000005913537 -2.489771969206
Zn  -0.000000000000  1.850011662857  4.658570319994  0.000000000000  0.000151695087 -2.489285002267
O    1.602157289334  0.925006151860  8.751060658753  0.000006941979  0.000004113765  2.489747543726
O   -0.000000000000  1.850011662857  6.423250444757  0.000000000000  0.000013626847  2.489740344637
Zn   1.602157289334  0.925006151860  11.642001602845 -0.000049365181 -0.000028539245 -2.489975600576
Zn  -0.000000000000  1.850011662857  9.314191388849  0.000000000000  0.000021340156 -2.489935748477
O    1.602157289334  0.925006151860  13.406681727609 -0.000013369736 -0.000007713309  2.489736230872
O   -0.000000000000  1.850011662857  11.078870872750  0.000000000000 -0.000012855516  2.489737516423
Zn  -0.000000000000  3.700023966576  2.330760105997  0.000000000000  0.000000000000 -2.489565252511
Zn  -1.602157289334  4.625029477573  0.002949892001  0.000151180866 -0.000087417507 -2.489854501617
O   -0.000000000000  3.700023966576  4.095439589898  0.000000000000  0.000000000000  2.489702806531
O   -1.602157289334  4.625029477573  1.767629375902  0.000006684868 -0.000003856655  2.489703577861
Zn  -0.000000000000  3.700023966576  6.986381174853  0.000000000000  0.000000000000 -2.489839589219
Zn  -1.602157289334  4.625029477573  4.658570319994  0.000131383372 -0.000075847543 -2.489285002267
O   -0.000000000000  3.700023966576  8.751060658753  0.000000000000  0.000000000000  2.489731602886
O   -1.602157289334  4.625029477573  6.423250444757  0.000011827075 -0.000006684868  2.489740344637
Zn  -0.000000000000  3.700023966576  11.642001602845  0.000000000000  0.000000000000 -2.489759113690
Zn  -1.602157289334  4.625029477573  9.314191388849  0.000018511943 -0.000010541523 -2.489935748477
O   -0.000000000000  3.700023966576  13.406681727609  0.000000000000  0.000000000000  2.489791252479
O   -1.602157289334  4.625029477573  11.078870872750 -0.000011055744  0.000006427758  2.489737516423
Zn   4.806471868001  0.925006151860  2.330760105997 -0.000197717833  0.000114156980 -2.489637500510
Zn   3.204314578667  1.850011662857  0.002949892001 -0.000000000000 -0.000000000000 -2.489523343530
O    4.806471868001  0.925006151860  4.095439589898  0.000006170648 -0.000003599544  2.489695093221
O    3.204314578667  1.850011662857  1.767629375902  0.000000000000  0.000000000000  2.489739573306
Zn   4.806471868001  0.925006151860  6.986381174853 -0.000010284413  0.000005913537 -2.489771969206
Zn   3.204314578667  1.850011662857  4.658570319994  0.000000000000  0.000000000000 -2.489450067090
O    4.806471868001  0.925006151860  8.751060658753 -0.000006941979  0.000004113765  2.489747543726
O    3.204314578667  1.850011662857  6.423250444757  0.000000000000  0.000000000000  2.489722089804
Zn   4.806471868001  0.925006151860  11.642001602845  0.000049365181 -0.000028539245 -2.489975600576
Zn   3.204314578667  1.850011662857  9.314191388849  0.000000000000  0.000000000000 -2.489968401487
O    4.806471868001  0.925006151860  13.406681727609  0.000013369736 -0.000007713309  2.489736230872
O    3.204314578667  1.850011662857  11.078870872750  0.000000000000  0.000000000000  2.489717976039
Zn   3.204314578667  3.700023966576  2.330760105997 -0.000000000000 -0.000228056850 -2.489637500510
Zn   1.602157289334  4.625029477573  0.002949892001 -0.000151180866 -0.000087417507 -2.489854501617
O    3.204314578667  3.700023966576  4.095439589898 -0.000000000000  0.000007199089  2.489695093221
O    1.602157289334  4.625029477573  1.767629375902 -0.000006684868 -0.000003856655  2.489703577861
Zn   3.204314578667  3.700023966576  6.986381174853  0.000000000000 -0.000011827075 -2.489771969206
Zn   1.602157289334  4.625029477573  4.658570319994 -0.000131383372 -0.000075847543 -2.489285002267
O    3.204314578667  3.700023966576  8.751060658753  0.000000000000 -0.000007970420  2.489747543726
O    1.602157289334  4.625029477573  6.423250444757 -0.000011827075 -0.000006684868  2.489740344637
Zn   3.204314578667  3.700023966576  11.642001602845  0.000000000000  0.000057078490 -2.489975600576
Zn   1.602157289334  4.625029477573  9.314191388849 -0.000018511943 -0.000010541523 -2.489935748477
O    3.204314578667  3.700023966576  13.406681727609 -0.000000000000  0.000015426619  2.489736230872
O    1.602157289334  4.625029477573  11.078870872750  0.000011055744  0.000006427758  2.489737516423