# total energy = -14759.649455388286 eV

CRYSTAL
PRIMVEC
10.397673847699894 0.0 0.0
-1.7329491071745982 3.001548497984767 0.0
0.0 0.0 5.371386321352527
PRIMCOORD
12 1
Zn   1.720851413653  0.974584367419  2.740728048352 -0.168082269625  0.136362055703 -1.158635757954
Zn   0.121654863553  1.975532036878  0.037147769356 -0.627141683329 -0.035250852782  0.007538988690
O    1.724593536471  0.998181888216  4.639256992249  0.361489648278  0.062022978670  1.418964323910
O   -0.025890207881  2.058441008605  2.102779809194  0.145475587969 -0.494441392748 -0.576839592640
Zn   5.184010880711  0.937343018998  2.742244029199  0.040870512962  0.017240275138 -1.073353294536
Zn   3.495648038762  2.036154634480 -0.086046989694 -0.424553923728 -0.086171293781  0.372898147225
O    5.175924609759  1.069174085946  4.686645430577  0.035829093883 -0.349717595343  0.479913117225
O    3.359518573446  1.951808704227  1.942067123600  0.633134667687  0.419153321538  0.463794614396
Zn   8.735111793637  0.891929098934  2.665371946908 -0.026711190743  0.360701348048  0.273449419608
Zn   6.895138389781  2.009954575919  0.031383298975  0.624042475578  0.040005593859 -0.028036080202
O    8.702717840765  0.918080288428  4.715576958059 -0.069386875234  0.268688764995  0.515418509220
O    7.009802897206  1.946966507517  2.146786923987 -0.524966300809 -0.338593717516 -0.695112394942