# total energy = -29520.861654293352 eV

CRYSTAL
PRIMVEC
3.2697087105441125 0.0 0.0
-3.2697087105441125 5.66330224180664 0.0
0.0 0.0 17.102280074383902
PRIMCOORD
24 1
Zn   1.634854355272  0.943883488987  2.853992059610  0.000000000000 -0.000016197950  0.193368040775
Zn   0.000000000000  1.887767304945  0.003612047213  0.000000000000  0.000026482363  0.193440802994
O    1.634854355272  0.943883488987  5.014824182953  0.000000000000  0.000132668923 -0.193305820078
O    0.000000000000  1.887767304945  2.164444170556  0.000000000000 -0.000129326489 -0.193317390042
Zn   1.634854355272  0.943883488987  8.554752084404  0.000000000000 -0.000037280996  0.193230743866
Zn   0.000000000000  1.887767304945  5.704372072007  0.000000000000  0.000025453921  0.193262111324
O    1.634854355272  0.943883488987  10.715584207748  0.000000000000  0.000135497137 -0.193345929287
O    0.000000000000  1.887767304945  7.865204195350  0.000000000000 -0.000130354930 -0.193324332021
Zn   1.634854355272  0.943883488987  14.255512109199  0.000000000000 -0.000017483501  0.193468313798
Zn   0.000000000000  1.887767304945  11.405132096802  0.000000000000  0.000027767914  0.193324846242
O    1.634854355272  0.943883488987  16.416344559513  0.000000000000  0.000133954475 -0.193406093101
O    0.000000000000  1.887767304945  13.565964220145  0.000000000000 -0.000134468695 -0.193371126098
Zn   0.000000000000  3.775534282920  2.853992059610  0.000000000000 -0.000021854377  0.193386552717
Zn  -1.634854355272  4.719418098878  0.003612047213  0.000000000000  0.000014398178  0.193416377514
O    0.000000000000  3.775534282920  5.014824182953  0.000000000000  0.000142953336 -0.193292707452
O   -1.634854355272  4.719418098878  2.164444170556  0.000000000000 -0.000132154702 -0.193312504946
Zn   0.000000000000  3.775534282920  8.554752084404  0.000000000000 -0.000019283274  0.193233829190
Zn  -1.634854355272  4.719418098878  5.704372072007  0.000000000000  0.000017226391  0.193247198926
O    0.000000000000  3.775534282920  10.715584207748  0.000000000000  0.000136525578 -0.193345672177
O   -1.634854355272  4.719418098878  7.865204195350  0.000000000000 -0.000133440254 -0.193325360462
Zn   0.000000000000  3.775534282920  14.255512109199  0.000000000000 -0.000037023886  0.193457772275
Zn  -1.634854355272  4.719418098878  11.405132096802  0.000000000000  0.000005913537  0.193306077188
O    0.000000000000  3.775534282920  16.416344559513  0.000000000000  0.000141924895 -0.193428461699
O   -1.634854355272  4.719418098878  13.565964220145  0.000000000000 -0.000132154702 -0.193367783664