# total energy = -29511.210582981657 eV

CRYSTAL
PRIMVEC
6.147052100650782 0.0 0.0
-1.5367630251626956 2.661753471259097 0.0
0.0 0.0 13.99219660884584
PRIMCOORD
24 1
Zn   1.536763025163  0.887250747283  2.334987860987  0.000219829320  0.000127012496 -1.739628967751
Zn  -0.000000000000  1.774500879861  0.002954887945 -0.000323701888 -0.000186919200 -1.739775263521
O    1.536763025163  0.887250747283  4.102868980441 -0.000083560853 -0.000048079629  1.739674476277
O   -0.000000000000  1.774500879861  1.770836007398  0.000060420924  0.000034967003  1.739665991637
Zn   1.536763025163  0.887250747283  6.999054421778  0.000521419721  0.000301076180 -1.739883764075
Zn  -0.000000000000  1.774500879861  4.667021448735 -0.000151437976 -0.000087417507 -1.739572660592
O    1.536763025163  0.887250747283  8.766934926526 -0.000062477807 -0.000035995444  1.739672419395
O   -0.000000000000  1.774500879861  6.434901953484  0.000068905565  0.000039852099  1.739655193004
Zn   1.536763025163  0.887250747283  11.663120367864  0.000533246796  0.000308018159 -1.739658792548
Zn  -0.000000000000  1.774500879861  9.331087394821 -0.000077390205 -0.000044737195 -1.739503755027
O    1.536763025163  0.887250747283  13.431001487317 -0.000082275301 -0.000047565408  1.739697359095
O   -0.000000000000  1.774500879861  11.098967899569  0.000111328767  0.000064277579  1.739643623039
Zn   4.610289075488  0.887250747283  2.334987860987  0.000333986301  0.000192832737 -1.739775777742
Zn   3.073526050325  1.774500879861  0.002954887945 -0.000222400423 -0.000128298048 -1.739883506964
O    4.610289075488  0.887250747283  4.102868980441 -0.000049108070 -0.000028282135  1.739678075822
O    3.073526050325  1.774500879861  1.770836007398  0.000075076212  0.000043194533  1.739645679922
Zn   4.610289075488  0.887250747283  6.999054421778  0.000029053466  0.000016712171 -1.740016947218
Zn   3.073526050325  1.774500879861  4.667021448735 -0.000393635894 -0.000227285519 -1.739256929124
O    4.610289075488  0.887250747283  8.766934926526 -0.000082532411 -0.000047565408  1.739641566157
O    3.073526050325  1.774500879861  6.434901953484  0.000047051188  0.000027253694  1.739668305630
Zn   4.610289075488  0.887250747283  11.663120367864  0.000049365181  0.000028539245 -1.739477015554
Zn   3.073526050325  1.774500879861  9.331087394821 -0.000495451579 -0.000286163782 -1.739514039440
O    4.610289075488  0.887250747283  13.431001487317 -0.000084332184 -0.000048593850  1.739687846014
O    3.073526050325  1.774500879861  11.098967899569  0.000058364042  0.000033681451  1.739616626456