# total energy = -19677.533057871504 eV

CRYSTAL
PRIMVEC
3.4004969742975235 0.0 0.0
-3.4004969742975235 5.889834184829 0.0
0.0 0.0 10.100900821895875
PRIMCOORD
16 1
Zn   1.541653388864  1.013749697033  2.598654006913 -0.335139440419  1.022044102739 -1.682995021307
Zn   0.166068710535  1.551393092298  0.088086813672 -1.654497685199  1.452261909621  0.115361285082
O    1.760225772682  0.677508216165  4.332057339561 -0.035747589913  1.141649250699  3.526344090357
O   -0.205561062245  1.892181717720  1.865360297835  0.434490723226  0.694416911537  0.670972307360
Zn   1.753897107763  1.172596772144  7.547862101545 -0.804479410113 -0.530485945076 -2.885358044946
Zn   0.034344339341  2.080357399135  5.028365203249 -0.038451361998 -1.165453295097 -1.744784800921
O    1.668006675087  1.151057004160  9.300792448018  1.559944852222 -1.416678098979  2.440445355056
O   -0.175015078025  2.101488087333  6.876002790953  1.449475605125 -0.110126004825  0.745624287648
Zn   0.075044547577  4.138157601590  2.402963227186 -0.845755386044 -0.770182950824  0.292253953909
Zn  -1.579138427210  4.951623127583 -0.044162594255  0.253167529431 -0.717402059578 -0.268797522659
O   -0.192641554091  3.883931006996  4.314047967536  1.354532221578 -0.951643441528 -0.128105729232
O   -1.724279119167  5.066861549396  1.966218698043  0.612129526191 -0.930086798403 -1.562735784703
Zn   0.169951738030  3.997646346215  7.627144688501 -0.321464771145 -0.445371631804 -1.362734297773
Zn  -1.512018057733  4.770349094827  5.273199285150 -0.802540284109  1.044213439747 -3.484277243094
O    0.195554079749  3.975496529073  9.435709545821 -0.511812794147  0.572665406658  2.613043767384
O   -1.554096147343  4.787855873400  7.015960785471 -0.313851991795  1.110178948004  2.715743654948