# total energy = -29518.182160072607 eV

CRYSTAL
PRIMVEC
3.2697087105441125 0.0 0.0
-3.2697087105441125 5.66330224180664 0.0
0.0 0.0 14.25190169684094
PRIMCOORD
24 1
Zn   1.634854355272  0.943883488987  2.378326607351  0.000000000000 -0.000288734885 -1.978598608415
Zn   0.000000000000  1.887767304945  0.003010093839  0.000000000000  0.000306218387 -1.978598351305
O    1.634854355272  0.943883488987  4.179020261451  0.000000000000  0.000018769053  1.978610178379
O    0.000000000000  1.887767304945  1.803703420968  0.000000000000 -0.000018769053  1.978609149938
Zn   1.634854355272  0.943883488987  7.128959961347  0.000000000000 -0.000290020437 -1.978609407048
Zn   0.000000000000  1.887767304945  4.753643447834  0.000000000000  0.000301076180 -1.978632804087
O    1.634854355272  0.943883488987  8.929653615447  0.000000000000  0.000014398178  1.978606578835
O    0.000000000000  1.887767304945  6.554336774964  0.000000000000 -0.000016969281  1.978607864387
Zn   1.634854355272  0.943883488987  11.879593642313  0.000000000000 -0.000283335568 -1.978584981568
Zn   0.000000000000  1.887767304945  9.504276801830  0.000000000000  0.000295162643 -1.978581382024
O    1.634854355272  0.943883488987  13.680286969442  0.000000000000  0.000019540384  1.978607864387
O    0.000000000000  1.887767304945  11.304970455930  0.000000000000 -0.000014141067  1.978604007732
Zn   0.000000000000  3.775534282920  2.378326607351  0.000000000000 -0.000300304849 -1.978624319447
Zn  -1.634854355272  4.719418098878  0.003010093839  0.000000000000  0.000282821348 -1.978616091917
O    0.000000000000  3.775534282920  4.179020261451  0.000000000000  0.000015426619  1.978608892828
O   -1.634854355272  4.719418098878  1.803703420968  0.000000000000 -0.000015940840  1.978609149938
Zn   0.000000000000  3.775534282920  7.128959961347  0.000000000000 -0.000281278686 -1.978622005454
Zn  -1.634854355272  4.719418098878  4.753643447834  0.000000000000  0.000289763326 -1.978629204543
O    0.000000000000  3.775534282920  8.929653615447  0.000000000000  0.000014912398  1.978609149938
O   -1.634854355272  4.719418098878  6.554336774964  0.000000000000 -0.000015683729  1.978607350166
Zn   0.000000000000  3.775534282920  11.879593642313  0.000000000000 -0.000307761048 -1.978586267120
Zn  -1.634854355272  4.719418098878  9.504276801830  0.000000000000  0.000274850928 -1.978609921269
O    0.000000000000  3.775534282920  13.680286969442  0.000000000000  0.000015683729  1.978605550394
O   -1.634854355272  4.719418098878  11.304970455930  0.000000000000 -0.000015683729  1.978607607276