# total energy = -9831.118420582365 eV

CRYSTAL
PRIMVEC
5.88547557314396 0.0 0.0
-1.47136889328599 2.5484874343537856 0.0
0.0 0.0 4.465592820171834
PRIMCOORD
8 1
Zn   1.415333280354  0.906423270115  2.239926075195  0.104631557369 -1.367910185547 -2.937405657571
Zn  -0.041592655875  1.730331584147  0.024698398243  1.713895310431 -1.051068772106 -5.619190181965
O    1.457564510329  0.789765493137  3.903046116844 -0.178159451355  2.025058956760  2.829324451090
O    0.011323066455  1.705310661843  1.627080920525 -1.928014981930  0.616752626785  7.166143249912
Zn   4.361300427373  0.753083678080  2.180597538680  1.561372585807  2.471475227779 -0.328854378741
Zn   2.892360469856  1.672374951988  0.009518579644  0.807794847640  0.226082243178 -3.577002535944
O    4.475020174945  0.865984756000  3.929242368621 -2.468799223609 -1.263911633776  0.591339843139
O    2.932165118252  1.669913057556  1.702970596755  0.387279355647 -1.656478463074  1.875645210079