# total energy = -29520.462266689796 eV

CRYSTAL
PRIMVEC
10.397673847699894 0.0 0.0
-3.4658878166753486 6.003096995969534 0.0
0.0 0.0 5.147576391780786
PRIMCOORD
24 1
Zn   1.732945987872  1.000516165995  2.577048906409  0.000129583599  0.000108500553 -0.518116624877
Zn  -0.000000000000  2.001033371757  0.003261750286  0.000105158119 -0.000070705337 -0.518087571412
O    1.732945987872  1.000516165995  4.528200477649  0.000004370875  0.000005399317  0.518101969589
O   -0.000000000000  2.001033371757  1.954413321526  0.000011055744 -0.000000771331  0.518105054913
Zn  -0.000000000000  4.002066743514  2.577048906409  0.000067620013  0.000014398178 -0.518145164123
Zn  -1.732945987872  5.002582909509  0.003261750286 -0.000036252555  0.000106700781 -0.518110197120
O   -0.000000000000  4.002066743514  4.528200477649  0.000002828213  0.000001285552  0.518101455369
O   -1.732945987872  5.002582909509  1.954413321526  0.000002828213  0.000004113765  0.518106083355
Zn   5.198836923850  1.000516165995  2.577048906409 -0.000185633648  0.000105929450 -0.518140536137
Zn   3.465890935978  2.001033371757  0.003261750286 -0.000006941979 -0.000074819102 -0.518043091327
O    5.198836923850  1.000516165995  4.528200477649 -0.000007199089  0.000007199089  0.518102740920
O    3.465890935978  2.001033371757  1.954413321526  0.000005142206  0.000001799772  0.518095798942
Zn   3.465890935978  4.002066743514  2.577048906409  0.000005142206 -0.000201831598 -0.518162133403
Zn   1.732945987872  5.002582909509  0.003261750286 -0.000025968142  0.000031367459 -0.518071887682
O    3.465890935978  4.002066743514  4.528200477649  0.000002313993 -0.000002571103  0.518108654458
O    1.732945987872  5.002582909509  1.954413321526  0.000001799772 -0.000001799772  0.518101198259
Zn   8.664727859827  1.000516165995  2.577048906409  0.000027253694 -0.000009770192 -0.518085000309
Zn   6.931782911722  2.001033371757  0.003261750286 -0.000095387927  0.000045251416 -0.518103255141
O    8.664727859827  1.000516165995  4.528200477649 -0.000000000000  0.000000514221  0.518102226700
O    6.931782911722  2.001033371757  1.954413321526  0.000000257110  0.000003342434  0.518104540693
Zn   6.931782911722  4.002066743514  2.577048906409 -0.000085874846 -0.000009770192 -0.518067516807
Zn   5.198836923850  5.002582909509  0.003261750286  0.000072505109 -0.000066334462 -0.518104026472
O    6.931782911722  4.002066743514  4.528200477649 -0.000003599544  0.000003599544  0.518102740920
O    5.198836923850  5.002582909509  1.954413321526  0.000008484640 -0.000000771331  0.518104026472