# total energy = -9839.933141031197 eV

CRYSTAL
PRIMVEC
3.465891106174229 0.0 0.0
-3.465891106174229 6.00310015634018 0.0
0.0 0.0 5.147576129801027
PRIMCOORD
8 1
Zn   1.665963741569  1.060780683040  2.637474160566  0.179029769775 -0.473279413958 -0.537227891786
Zn  -0.013959916197  2.021173563135  0.107439851579 -0.039350990994  0.035406147413 -1.526705116332
O    1.722602987437  1.012773932150  4.574941254650  0.069280174453  0.334267065116  0.506602710701
O    0.037386913951  2.079214068777  1.979397098098 -0.340970445278 -0.520773602884  1.274318173821
Zn  -0.045029203841  3.957216869153  2.539843127407 -0.042446342090  1.048508467578  0.338135032712
Zn  -1.661947120366  5.044742100914 -0.042649176418 -0.575913481281 -0.036488838955  0.247191514353
O   -0.035877171786  4.035338747864  4.680163629099  0.403891767393 -0.348702009595 -0.794637484322
O   -1.844017311956  5.060803040300  1.979939856645  0.346479548022 -0.038937814716  0.492323060853