# total energy = -9839.392104841043 eV

CRYSTAL
PRIMVEC
3.465891106174229 0.0 0.0
-3.465891106174229 6.00310015634018 0.0
0.0 0.0 5.70709572641737
PRIMCOORD
8 1
Zn   1.756706316155  1.000662722269  2.899744032585 -0.040981584619 -0.154313755086 -0.155118767485
Zn  -0.037658639814  2.011718958786  0.065554904150  0.111990825948  0.236592912902 -0.152893991920
O    1.716275310045  1.025561337386  5.000017202312  0.065407321761  0.104640042010  0.280501698469
O    0.021950528143  1.964292744657  2.188881448570 -0.103919361793  0.190114309724 -0.107376467104
Zn  -0.047914558186  3.970185540494  2.867096378132  0.189027504418  0.207486739564  0.047901708777
Zn  -1.737186070856  5.114927088992 -0.036746763864  0.021129068669 -0.649478913373  0.135509220785
O    0.031992601034  3.995841452818  5.013524473131 -0.158631408624  0.147455337403  0.167583218501
O   -1.717829762206  5.018981865267  2.217263284249 -0.084022365759 -0.082496673143 -0.216106620023