# total energy = -44249.4043104995 eV

CRYSTAL
PRIMVEC
8.828213624304544 0.0 0.0
-1.4713718801219655 2.5484845679961143 0.0
0.0 0.0 13.681824223529194
PRIMCOORD
36 1
Zn   1.471369231658  0.849494855999  2.283193217300  0.000442743964  0.000255567654 -1.544802854374
Zn  -0.000000000000  1.698990594819  0.002889474319 -0.000351212692 -0.000202860039 -1.544804654146
O    1.471369231658  0.849494855999  4.011859852217 -0.000052193394 -0.000030081907  1.544807739470
O   -0.000000000000  1.698990594819  1.731555226415  0.000055021608  0.000031881679  1.544814424338
Zn   1.471369231658  0.849494855999  6.843801586084  0.000396978328  0.000229342402 -1.544786142203
Zn  -0.000000000000  1.698990594819  4.563497843103 -0.000451742825 -0.000260709861 -1.544886415227
O    1.471369231658  0.849494855999  8.572467338179 -0.000054507387 -0.000031367459  1.544811081904
O   -0.000000000000  1.698990594819  6.292163595198  0.000058621152  0.000033681451  1.544819309434
Zn   1.471369231658  0.849494855999  11.404409954867  0.000416775822  0.000240655256 -1.544755546076
Zn  -0.000000000000  1.698990594819  9.124106211886 -0.000453285487 -0.000261738302 -1.544811596125
O    1.471369231658  0.849494855999  13.133075706963 -0.000056050049 -0.000032395900  1.544813910118
O   -0.000000000000  1.698990594819  10.852771963982  0.000053736056  0.000031110348  1.544807739470
Zn   4.414106812152  0.849494855999  2.283193217300  0.000442743964  0.000255567654 -1.544859418643
Zn   2.942737580494  1.698990594819  0.002889474319 -0.000447629060 -0.000258395868 -1.544785370872
O    4.414106812152  0.849494855999  4.011859852217 -0.000055792939 -0.000032395900  1.544811596125
O    2.942737580494  1.698990594819  1.731555226415  0.000056821380  0.000032910120  1.544811853235
Zn   4.414106812152  0.849494855999  6.843801586084  0.000445572178  0.000257110316 -1.544717750859
Zn   2.942737580494  1.698990594819  4.563497843103 -0.000444543737 -0.000256596095 -1.544900556294
O    4.414106812152  0.849494855999  8.572467338179 -0.000058878262 -0.000033938562  1.544806968139
O    2.942737580494  1.698990594819  6.292163595198  0.000054507387  0.000031367459  1.544817509662
Zn   4.414106812152  0.849494855999  11.404409954867  0.000423974911  0.000244769021 -1.544779971556
Zn   2.942737580494  1.698990594819  9.124106211886 -0.000389522129 -0.000224971527 -1.544855819099
O    4.414106812152  0.849494855999  13.133075706963 -0.000053221835 -0.000030596128  1.544813653007
O    2.942737580494  1.698990594819  10.852771963982  0.000055021608  0.000031881679  1.544815195669
Zn   7.356844392647  0.849494855999  2.283193217300  0.000396464107  0.000228828181 -1.544764287827
Zn   5.885476043810  1.698990594819  0.002889474319 -0.000477196747 -0.000275622259 -1.544751175200
O    7.356844392647  0.849494855999  4.011859852217 -0.000056564270 -0.000032653010  1.544806453918
O    5.885476043810  1.698990594819  1.731555226415  0.000053478946  0.000030853238  1.544808253691
Zn   7.356844392647  0.849494855999  6.843801586084  0.000435287765  0.000251196779 -1.544766858930
Zn   5.885476043810  1.698990594819  4.563497843103 -0.000380009047 -0.000219315100 -1.544903641618
O    7.356844392647  0.849494855999  8.572467338179 -0.000053221835 -0.000030853238  1.544810053463
O    5.885476043810  1.698990594819  6.292163595198  0.000052964725  0.000030596128  1.544816224110
Zn   7.356844392647  0.849494855999  11.404409954867  0.000431174000  0.000248882786 -1.544857875982
Zn   5.885476043810  1.698990594819  9.124106211886 -0.000432973772 -0.000250168338 -1.544833450502
O    7.356844392647  0.849494855999  13.133075706963 -0.000060935145 -0.000035224113  1.544816481221
O    5.885476043810  1.698990594819  10.852771963982  0.000057849821  0.000033424341  1.544814424338