# total energy = -9835.208324094961 eV

CRYSTAL
PRIMVEC
2.9427380511605845 0.0 0.0
-1.4713690255802923 2.5484847207563455 0.0
0.0 0.0 10.451393149645318
PRIMCOORD
8 1
Zn   1.764354794251  0.847527686532  2.483027926915 -8.714411694237 -4.940713081587  5.464656340448
Zn  -0.004730745691  1.628814928079 -0.001777413783  0.293090847988  1.543103098074  1.215924821484
O    1.499255882722  0.892098102781  4.449153321287 -0.044841324684  6.340992941713 -3.286669453207
O   -0.025980551432  1.718818865648  1.959659610326  8.717597033944  5.063513339445 -5.364985212408
Zn   1.437407474279  0.912183467075  7.904987473322 -0.479538764604 -0.617034419691 -2.380547907370
Zn   0.072844537718  1.976953493305  5.137045119662 -0.114009656150 -6.482512116137  4.180429392154
O    1.475894368155  0.946636749904  9.660233021936 -0.182427739713 -1.490772149881  2.338979854120
O   -0.057850993074  1.722102078491  7.161419071019  0.524541040347  0.583422388064 -2.167788092332