# total energy = -19645.586874301418 eV

CRYSTAL
PRIMVEC
2.9427380511605845 0.0 0.0
-2.9427380511605845 5.0969723842507415 0.0
0.0 0.0 8.931192328844068
PRIMCOORD
16 1
Zn   1.435487337701  0.928793752005  2.154625422977  0.511200357374 -4.064128883088 -2.171648860839
Zn  -0.013306472920  1.814831285769 -0.025344625739  0.137111532275 -2.794503229646  2.837522413520
O    1.516712793389  0.901764997279  3.873015825965 -15.150944515431  0.415918873761 -8.816354134810
O   -0.019139274011  1.645831899408  1.872805579567 -0.871170226573  4.412996985946 -3.738316376497
Zn   1.432945106299  0.696554336376  6.551306782074 -5.407788937837  13.356816388191  5.775861638649
Zn  -0.268875915818  1.462340705239  4.563239449971  13.076065035605  9.493029148982 -12.257887302069
O    1.477451665132  0.727195596334  8.375334418527  0.352743783764  18.232372059244 -1.447606156016
O   -0.105216716198  1.555960679325  6.000945317889  5.504351602156  6.179989176202  19.669393240655
Zn   0.063645244297  3.585619493948  2.178069628483 -0.496746643842 -0.909567338294 -6.802407485913
Zn  -1.513669119423  4.359402753465 -0.302417538399  0.818444099823 -10.454116509532  4.017309608741
O    0.074195843032  3.445072558982  3.746060220961  0.182603603169 -1.399797521173  11.184204906328
O   -1.420584723662  4.227609287106  1.459557757864  0.550700472351  1.087729617862  0.657251872450
Zn  -0.021003204293  3.112912472826  7.100330477541 -0.164156195097 -9.169239586359 -32.751588043307
Zn  -1.391232382971  4.506713277568  4.448213999301 -0.843275814155 -11.094922063501 -2.516151744751
O   -0.007140848155  3.555306937831  8.400620483779 -0.978771408093  5.303203146105  25.587666226526
O   -1.259647851013  4.395226763678  6.117545721964  2.779632997403 -18.595780521811  0.772750968662