# total energy = -19666.401696665445 eV

CRYSTAL
PRIMVEC
2.9427380511605845 0.0 0.0
-2.9427380511605845 5.0969723842507415 0.0
0.0 0.0 9.121216695759712
PRIMCOORD
16 1
Zn   1.471369025580  0.849495201193  2.283193648432  0.000000000000 -0.000467426555 -1.544798740609
Zn   0.000000000000  1.698990696659  0.002889474492  0.000000000000  0.000455342370 -1.544832936281
O    1.471369025580  0.849495201193  4.011859798421  0.000000000000  0.000014141067  1.544800540381
O    0.000000000000  1.698990696659  1.731555330207  0.000000000000 -0.000016969281  1.544817766772
Zn   1.471369025580  0.849495201193  6.843802290586  0.000000000000 -0.000499051124 -1.544860447085
Zn   0.000000000000  1.698990696659  4.563497822372  0.000000000000  0.000431431110 -1.544788199086
O    1.471369025580  0.849495201193  8.572468146301  0.000000000000  0.000035738334  1.544865846401
O    0.000000000000  1.698990696659  6.292163972361  0.000000000000 -0.000018254832  1.544826508523
Zn   0.000000000000  3.397981099044  2.283193648432  0.000000000000 -0.000465369672 -1.544832679171
Zn  -1.471369025580  4.247476594511  0.002889474492  0.000000000000  0.000494166028 -1.544830365178
O    0.000000000000  3.397981099044  4.011859798421  0.000000000000 -0.000000257110  1.544810824794
O   -1.471369025580  4.247476594511  1.731555330207  0.000000000000  0.000008484640  1.544840392480
Zn   0.000000000000  3.397981099044  6.843802290586  0.000000000000 -0.000449171722 -1.544868417505
Zn  -1.471369025580  4.247476594511  4.563497822372  0.000000000000  0.000509078426 -1.544821366317
O    0.000000000000  3.397981099044  8.572468146301  0.000000000000 -0.000017997722  1.544871502828
O   -1.471369025580  4.247476594511  6.292163972361  0.000000000000 -0.000013883957  1.544799254830