# total energy = -44275.583459362184 eV

CRYSTAL
PRIMVEC
10.790038638960128 0.0 0.0
-1.7983433698395679 3.114814404101815 0.0
0.0 0.0 16.37385126450608
PRIMCOORD
36 1
Zn   1.798340132828  1.038271468034  2.732432698799 -0.000046022747 -0.000026482363 -0.038613598607
Zn  -0.000000000000  2.076544015072  0.003458207384  0.000005142206  0.000003085324 -0.038462417741
O    1.798340132828  1.038271468034  4.801229466128 -0.000092816824 -0.000053478946  0.038492242538
O   -0.000000000000  2.076544015072  2.072254974713  0.000099758803  0.000057592711  0.038553691903
Zn   1.798340132828  1.038271468034  8.190382760633 -0.000043194533 -0.000024939701 -0.038393255066
Zn  -0.000000000000  2.076544015072  5.461408269218  0.000011055744  0.000006427758 -0.038559091220
O    1.798340132828  1.038271468034  10.259179527962 -0.000095902148 -0.000055278718  0.038545464373
O   -0.000000000000  2.076544015072  7.530205036547  0.000096416369  0.000055535828  0.038533123078
Zn   1.798340132828  1.038271468034  13.648332822467 -0.000060678035 -0.000034967003 -0.038583516700
Zn  -0.000000000000  2.076544015072  10.919358331052  0.000022111487  0.000012598405 -0.038535437071
O    1.798340132828  1.038271468034  15.717129589796 -0.000091531273 -0.000052707615  0.038544178822
O   -0.000000000000  2.076544015072  12.988155098381  0.000098473251  0.000056821380  0.038483243677
Zn   5.395019319480  1.038271468034  2.732432698799 -0.000032653010 -0.000018769053 -0.038590715789
Zn   3.596679186652  2.076544015072  0.003458207384  0.000072762219  0.000041908982 -0.038481186794
O    5.395019319480  1.038271468034  4.801229466128 -0.000092302603 -0.000053221835  0.038493785200
O    3.596679186652  2.076544015072  2.072254974713  0.000094102376  0.000054250277  0.038548806807
Zn   5.395019319480  1.038271468034  8.190382760633 -0.000025196811 -0.000014655288 -0.038389655522
Zn   3.596679186652  2.076544015072  5.461408269218  0.000080218419  0.000046279857 -0.038566290309
O    5.395019319480  1.038271468034  10.259179527962 -0.000094616596 -0.000054507387  0.038543407491
O    3.596679186652  2.076544015072  7.530205036547  0.000095387927  0.000055021608  0.038533894409
Zn   5.395019319480  1.038271468034  13.648332822467 -0.000006427758 -0.000003599544 -0.038564233426
Zn   3.596679186652  2.076544015072  10.919358331052  0.000063506248  0.000036509665 -0.038548549697
O    5.395019319480  1.038271468034  15.717129589796 -0.000097701920 -0.000056307159  0.038543150381
O    3.596679186652  2.076544015072  12.988155098381  0.000096416369  0.000055792939  0.038485300559
Zn   8.991698506132  1.038271468034  2.732432698799 -0.000025711032 -0.000014912398 -0.038599200429
Zn   7.193359452308  2.076544015072  0.003458207384  0.000021597267  0.000012598405 -0.038499441627
O    8.991698506132  1.038271468034  4.801229466128 -0.000093331045 -0.000053993166  0.038490442766
O    7.193359452308  2.076544015072  2.072254974713  0.000095902148  0.000055278718  0.038557034338
Zn   8.991698506132  1.038271468034  8.190382760633 -0.000037023886 -0.000021340156 -0.038396597500
Zn   7.193359452308  2.076544015072  5.461408269218  0.000013626847  0.000007713309 -0.038576060501
O    8.991698506132  1.038271468034  10.259179527962 -0.000096673479 -0.000055792939  0.038541864829
O    7.193359452308  2.076544015072  7.530205036547  0.000096673479  0.000055792939  0.038534408630
Zn   8.991698506132  1.038271468034  13.648332822467 -0.000057335600 -0.000033167231 -0.038566547419
Zn   7.193359452308  2.076544015072  10.919358331052  0.000027253694  0.000015683729 -0.038526952431
O    8.991698506132  1.038271468034  15.717129589796 -0.000095902148 -0.000055278718  0.038543150381
O    7.193359452308  2.076544015072  12.988155098381  0.000094616596  0.000054507387  0.038485043449