# total energy = -19680.13524958479 eV

CRYSTAL
PRIMVEC
3.138920446790701 0.0 0.0
-3.138920446790701 5.436770298784281 0.0
0.0 0.0 11.148152191776493
PRIMCOORD
16 1
Zn   1.578484933572  0.897682594515  2.818488461361 -0.312423486879  0.395714888009  0.454318299475
Zn  -0.020548314921  1.820599912178 -0.005039536777  0.055973944262 -0.198250051457  1.082059564060
O    1.570303965211  0.959293638937  4.842911033831 -0.198396347227 -0.850166884848 -0.036793514679
O   -0.014618894197  1.736322409318  2.098249353595  0.373049070980  1.195197102018 -0.465291253546
Zn   1.591413205216  0.879584207003  8.401511108306 -0.281788535602  0.642006516256  0.696796467512
Zn  -0.013591525535  1.797240066213  5.593075667461  0.179573815204 -0.402870525217  0.604591308832
O    1.549811523075  0.940093176456  10.465553762440 -0.024784663144 -0.710680424583 -0.679683719091
O   -0.014624858146  1.793375427359  7.655103448560  0.248723634727  0.103035930747 -0.228904286008
Zn  -0.012937688406  3.698503014357  2.862458145087  0.919392037693 -1.303569871597  0.471591484733
Zn  -1.529980451476  4.529838561281  0.031298175775 -0.668973274652  0.236525549999  0.473614942921
O   -0.024086192156  3.597208168187  5.004709827181  0.579655464822  0.678582258497 -1.178150430948
O   -1.504435289096  4.529642378753  2.143538953369 -1.053639618157 -0.236996318988 -0.848962065907
Zn   0.001598024399  3.623777246417  8.296863895099 -0.365537593095 -0.182013534994  0.826881431958
Zn  -1.541863776503  4.535093428001  5.630006322085 -0.553355907696  0.583980060340  0.050920955220
O   -0.033849490314  3.602938895247  10.489779322664  0.711056319865  0.615032301660 -0.990117686344
O   -1.611485032013  4.577596294202  7.644691021653  0.391475138896 -0.565526995841 -0.232871755296