# total energy = -9833.453540862485 eV

CRYSTAL
PRIMVEC
5.88547557314396 0.0 0.0
-1.47136889328599 2.5484874343537856 0.0
0.0 0.0 4.6556230554775055
PRIMCOORD
8 1
Zn   1.490299525467  0.836288411900  2.242066622661 -0.965832074324 -0.572286683162  2.731509402423
Zn  -0.108223301934  1.715237693492 -0.002433055602  3.026843537919  0.808644854345  0.167840071707
O    1.494666548342  0.850949131553  4.180955919218 -2.273352960149  0.144437119402 -2.344675876063
O    0.048469834083  1.701330314713  1.776082917062 -1.803350931390 -1.137429813301  0.854718508774
Zn   4.376631502694  0.815078923577  2.334882926640  1.229048503350  1.146964235154 -1.079043660052
Zn   2.875586275925  1.699936634097  0.025262815350  2.880889467652 -0.155188701491 -0.628124873178
O    4.509682683333  0.802568168151  4.079321407188 -3.733460848176 -0.779356389793  0.376243152438
O    2.928267756328  1.683004120873  1.802007848415  1.639215048008  0.544215635957 -0.078466726048