# total energy = -19681.19311430984 eV

CRYSTAL
PRIMVEC
6.670205684841636 0.0 0.0
-1.667551421210409 2.888285774210331 0.0
0.0 0.0 10.552738978023092
PRIMCOORD
16 1
Zn   1.667551421210  0.962761480056  2.641528185105  0.000007456199  0.000004370875 -0.132111250847
Zn  -0.000000000000  1.925522293092  0.003343107089 -0.000139353791 -0.000080475529 -0.132174242874
O    1.667551421210  0.962761480056  4.641498644908 -0.000092302603 -0.000053221835  0.132133876554
O   -0.000000000000  1.925522293092  2.003313566892 -0.000008998861 -0.000005142206  0.132169871999
Zn   1.667551421210  0.962761480056  7.917898341137  0.000074304881  0.000042937423 -0.131978067703
Zn  -0.000000000000  1.925522293092  5.279713263121 -0.000161979499 -0.000093588155 -0.132232606916
O    1.667551421210  0.962761480056  9.917868800940 -0.000078161536 -0.000044994305  0.132106365751
O   -0.000000000000  1.925522293092  7.279683722924 -0.000003856655 -0.000002056883  0.132119735487
Zn   5.002654263631  0.962761480056  2.641528185105  0.000198232054  0.000114414091 -0.132131819672
Zn   3.335102842421  1.925522293092  0.003343107089 -0.000088445949 -0.000050907843 -0.132222065393
O    5.002654263631  0.962761480056  4.641498644908  0.000008227530  0.000004885096  0.132124877693
O    3.335102842421  1.925522293092  2.003313566892  0.000087931728  0.000050907843  0.132190183714
Zn   5.002654263631  0.962761480056  7.917898341137  0.000134982916  0.000077904426 -0.132033346421
Zn   3.335102842421  1.925522293092  5.279713263121 -0.000017740612 -0.000010284413 -0.132202267899
O    5.002654263631  0.962761480056  9.917868800940 -0.000002828213 -0.000001799772  0.132080911829
O    3.335102842421  1.925522293092  7.279683722924  0.000082018191  0.000047308298  0.132159844696