# total energy = -19675.8038364688 eV

CRYSTAL
PRIMVEC
3.531285238050934 0.0 0.0
-3.531285238050934 6.116366127851358 0.0
0.0 0.0 11.401520679944097
PRIMCOORD
16 1
Zn   1.922986095377  1.177549084922  2.765601603684 -2.336639378912 -2.310247262072  0.725486379248
Zn  -0.095077383135  2.147251311404 -0.017805446427  0.099019867609 -0.248585823597 -0.660826220065
O    1.730122480201  1.022253400880  5.274636265883 -0.432926978283  0.116456575029 -0.723357505830
O   -0.136075604749  2.015279766359  2.191307979162  2.200605653083  1.014706431427 -0.836772980040
Zn   1.721967683201  1.177795568632  8.577497140154 -0.093450086831  0.143068006968  0.436552490851
Zn  -0.155524864454  1.945057334372  5.764348899511  0.675669712836  0.427766002907  0.241303431003
O    1.627533347108  0.817671215642  10.786167389446  0.128855462914  2.650731511742 -0.876847993684
O   -0.057475198535  2.054580146030  7.993897166516  0.073060724541 -0.250283780125 -0.151259798751
Zn   0.004229420330  3.881104241331  2.793466975497  0.002525337525  1.859128957592  0.299167136089
Zn  -1.913031755420  5.137172159778  0.017542365677  0.277270593127 -0.688298971564 -0.730052144242
O   -0.091028058352  4.168480940261  5.101509003902  1.146349227277 -1.265201042011 -1.208730360618
O   -1.822651334780  5.143457141245  1.895410288953  0.021559471338 -0.431738614402  2.679304952505
Zn  -0.085119158764  4.234337291179  8.372724265512  1.211301978000 -0.901087325847  0.856605441385
Zn  -1.599699756862  5.045524007738  5.806130713319 -1.063237289148  0.646820649815 -1.668549792416
O   -0.025621593173  4.235066854709  10.731155968622 -0.459353290795 -1.446994747685 -0.450255442259
O   -1.675902067271  4.898874675601  7.644559830542 -1.450610747171  0.683759431823  2.068232406824