# total energy = -59033.157731214735 eV

CRYSTAL
PRIMVEC
6.147052100650782 0.0 0.0
-3.073526050325391 5.323500795466094 0.0
0.0 0.0 14.885320249705694
PRIMCOORD
48 1
Zn   1.536763025163  0.887250747283  2.484029900925  0.000123412952  0.000071219558  0.019815234954
Zn  -0.000000000000  1.774500879861  0.003143602444  0.000000000000 -0.000153494859  0.019464793593
O    1.536763025163  0.887250747283  4.364754299906  0.000024939701  0.000014398178 -0.019534984709
O   -0.000000000000  1.774500879861  1.883868001425  0.000000000000  0.000051164953 -0.019578693463
Zn   1.536763025163  0.887250747283  7.445802497887 -0.000023139928 -0.000013369736  0.019316955161
Zn  -0.000000000000  1.774500879861  4.964916199406  0.000000000000  0.000117242304  0.019876170099
O    1.536763025163  0.887250747283  9.326526896867  0.000006427758  0.000003856655 -0.019807264534
O   -0.000000000000  1.774500879861  6.845640598387  0.000000000000  0.000089474390 -0.019640657049
Zn   1.536763025163  0.887250747283  12.407575094848  0.000028796355  0.000016455060  0.019601319171
Zn  -0.000000000000  1.774500879861  9.926688796368 -0.000000000000 -0.000079704198  0.019607489818
O    1.536763025163  0.887250747283  14.288298879124  0.000094616596  0.000054764497 -0.019530356723
O   -0.000000000000  1.774500879861  11.807413195348  0.000000000000  0.000107729222 -0.019674852721
Zn  -0.000000000000  3.549002374426  2.484029900925  0.000000000000  0.000000000000  0.020009610353
Zn  -1.536763025163  4.436252507004  0.003143602444 -0.000132926033  0.000076875985  0.019464793593
O   -0.000000000000  3.549002374426  4.364754299906  0.000000000000 -0.000000000000 -0.019541412467
O   -1.536763025163  4.436252507004  1.883868001425  0.000044222974 -0.000025453921 -0.019578693463
Zn  -0.000000000000  3.549002374426  7.445802497887  0.000000000000  0.000000000000  0.019364520570
Zn  -1.536763025163  4.436252507004  4.964916199406  0.000101558575 -0.000058621152  0.019876170099
O   -0.000000000000  3.549002374426  9.326526896867  0.000000000000  0.000000000000 -0.019902395351
O   -1.536763025163  4.436252507004  6.845640598387  0.000077390205 -0.000044737195 -0.019640657049
Zn  -0.000000000000  3.549002374426  12.407575094848  0.000000000000 -0.000000000000  0.019671510287
Zn  -1.536763025163  4.436252507004  9.926688796368 -0.000068905565  0.000039852099  0.019607489818
O   -0.000000000000  3.549002374426  14.288298879124  0.000000000000 -0.000000000000 -0.019512359001
O   -1.536763025163  4.436252507004  11.807413195348  0.000093331045 -0.000053736056 -0.019674852721
Zn   4.610289075488  0.887250747283  2.484029900925 -0.000123412952  0.000071219558  0.019815234954
Zn   3.073526050325  1.774500879861  0.003143602444  0.000000000000  0.000000000000  0.019598233847
O    4.610289075488  0.887250747283  4.364754299906 -0.000024939701  0.000014398178 -0.019534984709
O    3.073526050325  1.774500879861  1.883868001425  0.000000000000 -0.000000000000 -0.019628058644
Zn   4.610289075488  0.887250747283  7.445802497887  0.000023139928 -0.000013369736  0.019316955161
Zn   3.073526050325  1.774500879861  4.964916199406  0.000000000000  0.000000000000  0.019836060889
O    4.610289075488  0.887250747283  9.326526896867 -0.000006427758  0.000003856655 -0.019807264534
O    3.073526050325  1.774500879861  6.845640598387  0.000000000000  0.000000000000 -0.019668424963
Zn   4.610289075488  0.887250747283  12.407575094848 -0.000028796355  0.000016455060  0.019601319171
Zn   3.073526050325  1.774500879861  9.926688796368  0.000000000000  0.000000000000  0.019607489818
O    4.610289075488  0.887250747283  14.288298879124 -0.000094616596  0.000054764497 -0.019530356723
O    3.073526050325  1.774500879861  11.807413195348  0.000000000000 -0.000000000000 -0.019579979014
Zn   3.073526050325  3.549002374426  2.484029900925  0.000000000000 -0.000142696225  0.019815234954
Zn   1.536763025163  4.436252507004  0.003143602444  0.000132926033  0.000076875985  0.019464793593
O    3.073526050325  3.549002374426  4.364754299906  0.000000000000 -0.000028796355 -0.019534984709
O    1.536763025163  4.436252507004  1.883868001425 -0.000044222974 -0.000025453921 -0.019578693463
Zn   3.073526050325  3.549002374426  7.445802497887 -0.000000000000  0.000026739473  0.019316955161
Zn   1.536763025163  4.436252507004  4.964916199406 -0.000101558575 -0.000058621152  0.019876170099
O    3.073526050325  3.549002374426  9.326526896867  0.000000000000 -0.000007456199 -0.019807264534
O    1.536763025163  4.436252507004  6.845640598387 -0.000077390205 -0.000044737195 -0.019640657049
Zn   3.073526050325  3.549002374426  12.407575094848  0.000000000000 -0.000033167231  0.019601319171
Zn   1.536763025163  4.436252507004  9.926688796368  0.000068905565  0.000039852099  0.019607489818
O    3.073526050325  3.549002374426  14.288298879124  0.000000000000 -0.000109271884 -0.019530356723
O    1.536763025163  4.436252507004  11.807413195348 -0.000093331045 -0.000053736056 -0.019674852721