# total energy = -44280.684942668566 eV

CRYSTAL
PRIMVEC
10.20149092289257 0.0 0.0
-5.100745461446285 8.834746176498038 0.0
0.0 0.0 4.940663665884254
PRIMCOORD
36 1
Zn   1.700248827198  0.981638464055  2.473459610059  0.000153494859  0.000088703059 -1.168720138773
Zn   0.000000000000  1.963277948260  0.003130837564  0.000000000000  0.000115699642 -1.168682086447
O    1.700248827198  0.981638464055  4.346180963695 -0.000042680312 -0.000024682590  1.168705226375
O    0.000000000000  1.963277948260  1.875851171051  0.000000000000 -0.000037023886  1.168704712155
Zn   0.000000000000  3.926555896520  2.473459610059  0.000000000000  0.000006941979 -1.168695456183
Zn  -1.700248827198  4.908194360575  0.003130837564  0.000022625708  0.000013112626 -1.168708054589
O    0.000000000000  3.926555896520  4.346180963695 -0.000000000000 -0.000030596128  1.168698284397
O   -1.700248827198  4.908194360575  1.875851171051 -0.000018254832 -0.000010541523  1.168673601806
Zn  -1.700248827198  6.871472308835  2.473459610059  0.000005913537 -0.000003342434 -1.168695456183
Zn  -3.400496634248  7.853111793039  0.003130837564  0.000100273023 -0.000057849821 -1.168682086447
O   -1.700248827198  6.871472308835  4.346180963695 -0.000026482363  0.000015426619  1.168698284397
O   -3.400496634248  7.853111793039  1.875851171051 -0.000032138790  0.000018511943  1.168704712155
Zn   5.100745461446  0.981638464055  2.473459610059  0.000000000000  0.000209544908 -1.168750477791
Zn   3.400496634248  1.963277948260  0.003130837564  0.000086131956  0.000049879401 -1.168615237765
O    5.100745461446  0.981638464055  4.346180963695  0.000000000000 -0.000022625708  1.168700084169
O    3.400496634248  1.963277948260  1.875851171051 -0.000016455060 -0.000009513082  1.168689028425
Zn   3.400496634248  3.926555896520  2.473459610059  0.000181519883 -0.000104901009 -1.168750477791
Zn   1.700248827198  4.908194360575  0.003130837564 -0.000022625708  0.000013112626 -1.168708054589
O    3.400496634248  3.926555896520  4.346180963695 -0.000019540384  0.000011312854  1.168700084169
O    1.700248827198  4.908194360575  1.875851171051  0.000018254832 -0.000010541523  1.168673601806
Zn   1.700248827198  6.871472308835  2.473459610059 -0.000005913537 -0.000003342434 -1.168695456183
Zn  -0.000000000000  7.853111793039  0.003130837564  0.000000000000 -0.000026225252 -1.168708054589
O    1.700248827198  6.871472308835  4.346180963695  0.000026482363  0.000015426619  1.168698284397
O   -0.000000000000  7.853111793039  1.875851171051 -0.000000000000  0.000021083046  1.168673601806
Zn   8.501242095694  0.981638464055  2.473459610059 -0.000153494859  0.000088703059 -1.168720138773
Zn   6.800994288645  1.963277948260  0.003130837564 -0.000086131956  0.000049879401 -1.168615237765
O    8.501242095694  0.981638464055  4.346180963695  0.000042680312 -0.000024682590  1.168705226375
O    6.800994288645  1.963277948260  1.875851171051  0.000016455060 -0.000009513082  1.168689028425
Zn   6.800994288645  3.926555896520  2.473459610059 -0.000181519883 -0.000104901009 -1.168750477791
Zn   5.100745461446  4.908194360575  0.003130837564  0.000000000000 -0.000099501692 -1.168615237765
O    6.800994288645  3.926555896520  4.346180963695  0.000019540384  0.000011312854  1.168700084169
O    5.100745461446  4.908194360575  1.875851171051  0.000000000000  0.000019026163  1.168689028425
Zn   5.100745461446  6.871472308835  2.473459610059  0.000000000000 -0.000177406118 -1.168720138773
Zn   3.400496634248  7.853111793039  0.003130837564 -0.000100273023 -0.000057849821 -1.168682086447
O    5.100745461446  6.871472308835  4.346180963695 -0.000000000000  0.000049365181  1.168705226375
O    3.400496634248  7.853111793039  1.875851171051  0.000032138790  0.000018511943  1.168704712155