# total energy = -19674.611393218904 eV

CRYSTAL
PRIMVEC
6.016263836897371 0.0 0.0
-1.5040659592243428 2.6051204528064416 0.0
0.0 0.0 9.712403655205966
PRIMCOORD
16 1
Zn   1.504065959224  0.868373083185  2.431178232754  0.000419346926  0.000241940807  0.031564662180
Zn  -0.000000000000  1.736745564743  0.003076717326 -0.000409319623 -0.000236284381  0.031453590524
O    1.504065959224  0.868373083185  4.271887243104 -0.000038309437 -0.000022111487 -0.031508869242
O   -0.000000000000  1.736745564743  1.843785727676  0.000052193394  0.000030081907 -0.031491899961
Zn   1.504065959224  0.868373083185  7.287381263610  0.000423203580  0.000244254800  0.031539979590
Zn  -0.000000000000  1.736745564743  4.859279748182 -0.000280250245 -0.000161722389  0.031433793029
O    1.504065959224  0.868373083185  9.128090273960 -0.000028539245 -0.000016455060 -0.031510154793
O   -0.000000000000  1.736745564743  6.699988758532  0.000046794078  0.000026996583 -0.031495756615
Zn   4.512197877673  0.868373083185  2.431178232754  0.000250425448  0.000144495998  0.031467474481
Zn   3.008131918449  1.736745564743  0.003076717326 -0.000341442500 -0.000197203612  0.031520953426
O    4.512197877673  0.868373083185  4.271887243104 -0.000051936284 -0.000029824797 -0.031520182095
O    3.008131918449  1.736745564743  1.843785727676  0.000047822519  0.000027767914 -0.031496785057
Zn   4.512197877673  0.868373083185  7.287381263610  0.000315474358  0.000182034104  0.031559777084
Zn   3.008131918449  1.736745564743  4.859279748182 -0.000393121673 -0.000227028409  0.031487271975
O    4.512197877673  0.868373083185  9.128090273960 -0.000045508526 -0.000026225252 -0.031499356160
O    3.008131918449  1.736745564743  6.699988758532  0.000033424341  0.000019283274 -0.031503984146