# total energy = -19647.400517389877 eV

CRYSTAL
PRIMVEC
2.9427380511605845 0.0 0.0
-2.9427380511605845 5.0969723842507415 0.0
0.0 0.0 8.551140652274729
PRIMCOORD
16 1
Zn   1.727825409727  0.907917085448  2.272025957528 -3.213238232700 -4.950957385023 -4.495773138003
Zn   0.041019414243  1.655959038137  0.008598092038 -0.979227007573 -0.257207503828 -4.953443127559
O    1.310523377811  0.965637126679  3.859969785362  10.770032582945 -8.365586528801  2.268380446635
O    0.039454760421  1.774642312204  1.668180523537  5.456827074212 -7.187469522194 -2.117851098292
Zn   1.551459761476  0.769620167996  6.493120022589  4.579120332072 -0.601749211397 -15.689350229575
Zn   0.067598812868  1.762229843105  4.133822754046 -11.799802850683  3.522947148860  5.174678841278
O    1.442714113807  0.742128814848  7.984739500068  0.539062631002 -1.110481309736  16.054741012679
O    0.282247423249  1.777567688101  5.936813050445 -4.015395936658  1.215921993270  0.577727394562
Zn  -0.105843813677  3.213119177492  2.228775359295 -2.937441653015  9.578549696554 -0.959151834090
Zn  -1.364132413984  4.035788084336  0.121070128901 -1.851237213549  2.263293519030 -2.568887898802
O    0.046557941529  3.459258616305  3.884446891924 -6.620143011251 -0.765374216582  0.458858610547
O   -1.683234394312  4.235185366218  1.701730680058  0.128270279834  2.802736930410  6.055535699011
Zn  -0.031319561079  3.533878213616  6.606690583566 -4.640199715882 -0.656817613127 -28.073790828787
Zn  -1.508815661555  4.120147556049  4.178605635983  7.056496241607  5.998041975670 -4.988317313728
O    0.017783260317  3.478745133406  7.985977509966  3.754407882742 -3.925963712737  26.518692506024
O   -1.667402169323  4.160922428759  5.764243240006  3.772468339788  2.440115739631  6.737950443880