# total energy = -19678.670887193693 eV

CRYSTAL
PRIMVEC
7.193359269032489 0.0 0.0
-3.5966796345162444 6.229628960963861 0.0
0.0 0.0 5.225694967940611
PRIMCOORD
16 1
Zn   1.798339817258  1.038272212830  2.616159306578  0.000096159258  0.000055535828 -0.344873379877
Zn  -0.000000000000  2.076543706324  0.003311103272  0.000000000000  0.000020825936 -0.344803445871
O    1.798339817258  1.038272212830  4.596921995563 -0.000004370875 -0.000002571103  0.344820158042
O   -0.000000000000  2.076543706324  1.984073792256  0.000000000000 -0.000000257110  0.344817329828
Zn  -0.000000000000  4.153088131984  2.616159306578  0.000000000000  0.000000000000 -0.344779534612
Zn  -1.798339817258  5.191359625478  0.003311103272  0.000017997722 -0.000010284413 -0.344803445871
O   -0.000000000000  4.153088131984  4.596921995563  0.000000000000 -0.000000000000  0.344796761003
O   -1.798339817258  5.191359625478  1.984073792256 -0.000000257110  0.000000000000  0.344817329828
Zn   5.395019451774  1.038272212830  2.616159306578 -0.000096159258  0.000055535828 -0.344873379877
Zn   3.596679634516  2.076543706324  0.003311103272  0.000000000000  0.000000000000 -0.344701373076
O    5.395019451774  1.038272212830  4.596921995563  0.000004370875 -0.000002571103  0.344820158042
O    3.596679634516  2.076543706324  1.984073792256  0.000000000000  0.000000000000  0.344802674540
Zn   3.596679634516  4.153088131984  2.616159306578  0.000000000000 -0.000110814546 -0.344873379877
Zn   1.798339817258  5.191359625478  0.003311103272 -0.000017997722 -0.000010284413 -0.344803445871
O    3.596679634516  4.153088131984  4.596921995563 -0.000000000000  0.000004885096  0.344820158042
O    1.798339817258  5.191359625478  1.984073792256  0.000000257110  0.000000000000  0.344817329828