# total energy = -14760.285528016877 eV

CRYSTAL
PRIMVEC
3.2043145786674065 0.0 0.0
-1.6021572893337033 2.775016532990441 0.0
0.0 0.0 15.518735828079649
PRIMCOORD
12 1
Zn   1.594180468622  0.898462891616  2.542068951319 -0.381968227847  0.103369659938  0.710425628260
Zn   0.007427921625  1.785647877641  0.000658166214  0.007638747492  0.743071953540  0.235190633237
O    1.637512735100  0.864124815728  4.564037272157  0.332163645620  0.416612300283 -0.833549588006
O   -0.059232075418  1.841909873876  1.923506142464  0.461751101604 -0.097365105615  0.438332722680
Zn   1.642930269758  0.886965810908  7.720870317397  0.188434865139 -0.166722927383 -0.127480179833
Zn   0.083311858614  1.832112682052  5.154169159049 -0.385247155709 -0.392059550645  0.428008715046
O    1.739573038314  0.817912511306  9.631732875397 -0.387105806184  0.688609560826  1.280123467649
O    0.063022459133  1.789768626189  7.135367383345 -0.202827386415  0.180477300855 -0.501637910496
Zn   1.706114226346  1.034908694573  13.008615495267 -0.320903242215 -0.520035953387 -0.083759856126
Zn   0.015290348306  1.852696237611  10.409969884021  0.367678036477 -0.626419460451 -1.321387616505
O    1.606034509974  0.941566690465  14.997482926076  0.030198635071 -0.734328145909 -1.105030056814
O    0.074150402802  1.885057571835  12.313613121276  0.290186272747  0.404790625058  0.880764555129