# total energy = -9831.537631270896 eV

CRYSTAL
PRIMVEC
2.9427380511605845 0.0 0.0
-2.9427380511605845 5.0969723842507415 0.0
0.0 0.0 4.465596164422034
PRIMCOORD
8 1
Zn   1.569868942176  0.861603979726  2.219496906220 -5.374835108619 -2.430386685269  0.214764247062
Zn  -0.016430777909  1.668447724152 -0.030563865947 -1.194373320565  0.452462991433 -0.050347084994
O    1.409981449916  0.810193757424  3.972101641707  1.031906340245  0.317589604461  0.655576541631
O   -0.044838205412  1.629625652412  1.754380383627  5.770811220710  3.965147839136 -0.764881336106
Zn  -0.016277166982  3.430022219493  2.273628278397 -0.044505024391 -1.041203963497 -3.390449204098
Zn  -1.528580561676  4.219294875016 -0.037114695123  2.339845287444  0.168272274148 -1.507386875619
O    0.019442376030  3.382317492945  3.967247006744 -2.443000003157 -1.202297203398  2.136671059212
O   -1.486196305525  4.245633851943  1.668631939554 -0.085849134555 -0.229584857015  2.706052652912