# total energy = -9837.070353377758 eV

CRYSTAL
PRIMVEC
3.0735263149139955 0.0 0.0
-3.0735263149139955 5.323504327273101 0.0
0.0 0.0 4.6640669623030435
PRIMCOORD
8 1
Zn   1.536763157457  0.887250516310  2.334988369351  0.000000000000 -0.000429888449 -1.739785547934
Zn   0.000000000000  1.774501339973  0.002955195552  0.000000000000  0.000275108038 -1.739831570680
O    1.536763157457  0.887250516310  4.102869333642  0.000000000000  0.000020825936  1.739814858510
O    0.000000000000  1.774501339973  1.770836159843  0.000000000000 -0.000064534689  1.739821543378
Zn   0.000000000000  3.549002372594  2.334988369351  0.000000000000 -0.000310846372 -1.739835941556
Zn  -1.536763157457  4.436253196257  0.002955195552  0.000000000000  0.000475396975 -1.739819743606
O    0.000000000000  3.549002372594  4.102869333642  0.000000000000  0.000070191116  1.739809459193
O   -1.536763157457  4.436253196257  1.770836159843  0.000000000000 -0.000036252555  1.739826942695