# total energy = -44280.99749833804 eV

CRYSTAL
PRIMVEC
10.20149092289257 0.0 0.0
-5.100745461446285 8.834746176498038 0.0
0.0 0.0 5.489616093936027
PRIMCOORD
36 1
Zn   1.700248827198  0.981638464055  2.748288795671 -0.000018254832 -0.000010541523 -0.002514024671
Zn   0.000000000000  1.963277948260  0.003477688256  0.000000000000  0.000002571103 -0.002504768700
O    1.700248827198  0.981638464055  4.829089959661 -0.000002828213 -0.000001799772  0.002499883604
O    0.000000000000  1.963277948260  2.084279872394  0.000000000000 -0.000001285552  0.002509910906
Zn   0.000000000000  3.926555896520  2.748288795671  0.000000000000  0.000006170648 -0.002499626493
Zn  -1.700248827198  4.908194360575  0.003477688256 -0.000005399317 -0.000003085324 -0.002509139575
O    0.000000000000  3.926555896520  4.829089959661  0.000000000000 -0.000005142206  0.002502197597
O   -1.700248827198  4.908194360575  2.084279872394 -0.000004370875 -0.000002571103  0.002507854024
Zn  -1.700248827198  6.871472308835  2.748288795671  0.000005399317 -0.000003085324 -0.002499626493
Zn  -3.400496634248  7.853111793039  0.003477688256  0.000002313993 -0.000001285552 -0.002504768700
O   -1.700248827198  6.871472308835  4.829089959661 -0.000004370875  0.000002571103  0.002502197597
O   -3.400496634248  7.853111793039  2.084279872394 -0.000001285552  0.000000771331  0.002509910906
Zn   5.100745461446  0.981638464055  2.748288795671  0.000000000000 -0.000019283274 -0.002496541170
Zn   3.400496634248  1.963277948260  0.003477688256  0.000002056883  0.000001285552 -0.002509396685
O    5.100745461446  0.981638464055  4.829089959661 -0.000000000000  0.000004113765  0.002505540031
O    3.400496634248  1.963277948260  2.084279872394  0.000004113765  0.000002313993  0.002508111134
Zn   3.400496634248  3.926555896520  2.748288795671 -0.000016712171  0.000009770192 -0.002496541170
Zn   1.700248827198  4.908194360575  0.003477688256  0.000005399317 -0.000003085324 -0.002509139575
O    3.400496634248  3.926555896520  4.829089959661  0.000003599544 -0.000002056883  0.002505540031
O    1.700248827198  4.908194360575  2.084279872394  0.000004370875 -0.000002571103  0.002507854024
Zn   1.700248827198  6.871472308835  2.748288795671 -0.000005399317 -0.000003085324 -0.002499626493
Zn  -0.000000000000  7.853111793039  0.003477688256  0.000000000000  0.000006427758 -0.002509139575
O    1.700248827198  6.871472308835  4.829089959661  0.000004370875  0.000002571103  0.002502197597
O   -0.000000000000  7.853111793039  2.084279872394  0.000000000000  0.000005142206  0.002507854024
Zn   8.501242095694  0.981638464055  2.748288795671  0.000018254832 -0.000010541523 -0.002514024671
Zn   6.800994288645  1.963277948260  0.003477688256 -0.000002056883  0.000001285552 -0.002509396685
O    8.501242095694  0.981638464055  4.829089959661  0.000002828213 -0.000001799772  0.002499883604
O    6.800994288645  1.963277948260  2.084279872394 -0.000004113765  0.000002313993  0.002508111134
Zn   6.800994288645  3.926555896520  2.748288795671  0.000016712171  0.000009770192 -0.002496541170
Zn   5.100745461446  4.908194360575  0.003477688256  0.000000000000 -0.000002313993 -0.002509396685
O    6.800994288645  3.926555896520  4.829089959661 -0.000003599544 -0.000002056883  0.002505540031
O    5.100745461446  4.908194360575  2.084279872394 -0.000000000000 -0.000004885096  0.002508111134
Zn   5.100745461446  6.871472308835  2.748288795671  0.000000000000  0.000021083046 -0.002514024671
Zn   3.400496634248  7.853111793039  0.003477688256 -0.000002313993 -0.000001285552 -0.002504768700
O    5.100745461446  6.871472308835  4.829089959661  0.000000000000  0.000003342434  0.002499883604
O    3.400496634248  7.853111793039  2.084279872394  0.000001285552  0.000000771331  0.002509910906