# total energy = -14749.726281258545 eV

CRYSTAL
PRIMVEC
3.00813218303729 0.0 0.0
-1.504066091518645 2.605117673814869 0.0
0.0 0.0 13.403120990574259
PRIMCOORD
12 1
Zn   1.462668778042  0.871073259012  2.265590095129  2.041659284321  0.886826445053 -5.778420657626
Zn   0.055975624475  1.719565973792 -0.003919897048 -0.327097801061  0.224642939629 -1.970247665347
O    1.428894673144  0.805435814778  3.896444746777  2.120854661005  0.258639351179  5.843260022699
O    0.067230851851  1.786717711767  1.723479252949 -1.848228251519 -0.486186094717  1.586774570820
Zn   1.552608621370  0.845685525827  6.704496733111  0.190572223197  0.527369253824 -1.422643572534
Zn   0.079255559440  1.739000312574  4.491282731487 -1.975934945540 -0.481630614136 -4.855694670463
O    1.439571737514  0.857700908206  8.455923940547  1.072182414156  0.652064414712  0.692456188266
O    0.042808428284  1.740339833835  6.140693648133 -0.277697139141 -0.562668957567  5.249507456353
Zn   1.417405112271  0.802418959012  11.194290739981  0.962138941743  1.198073909345 -4.586676032933
Zn  -0.005170979223  1.756917650296  8.896838809583 -1.277573190423 -0.652630314518 -0.503292415380
O    1.552411287898  0.875647424810  12.842480956587  0.786332306891 -0.039513741824  5.099895220508
O    0.022306503390  1.753144249286  10.660080456167 -1.467207989408 -1.524986076758  0.645081812747