# total energy = -44281.88553382313 eV

CRYSTAL
PRIMVEC
10.20149092289257 0.0 0.0
-5.100745461446285 8.834746176498038 0.0
0.0 0.0 5.160240556508594
PRIMCOORD
36 1
Zn   1.700248827198  0.981638464055  2.583390876244  0.000052964725  0.000030596128 -0.440793011295
Zn   0.000000000000  1.963277948260  0.003269577841 -0.000000000000  0.000123412952 -0.440429714418
O    1.700248827198  0.981638464055  4.539344154021  0.000030339017  0.000017483501  0.440612519853
O    0.000000000000  1.963277948260  1.959222855618  0.000000000000  0.000039337878  0.440590408366
Zn   0.000000000000  3.926555896520  2.583390876244  0.000000000000  0.000098987472 -0.440793782626
Zn  -1.700248827198  4.908194360575  0.003269577841  0.000113385649  0.000065563131 -0.440354381095
O    0.000000000000  3.926555896520  4.539344154021  0.000000000000  0.000024682590  0.440607377646
O   -1.700248827198  4.908194360575  1.959222855618  0.000048079629  0.000027767914  0.440579352622
Zn  -1.700248827198  6.871472308835  2.583390876244  0.000085874846 -0.000049622291 -0.440793782626
Zn  -3.400496634248  7.853111793039  0.003269577841  0.000106957892 -0.000061706476 -0.440429714418
O   -1.700248827198  6.871472308835  4.539344154021  0.000021340156 -0.000012341295  0.440607377646
O   -3.400496634248  7.853111793039  1.959222855618  0.000034195672 -0.000019797494  0.440590408366
Zn   5.100745461446  0.981638464055  2.583390876244 -0.000000000000  0.000012341295 -0.440874001044
Zn   3.400496634248  1.963277948260  0.003269577841  0.000007456199  0.000004370875 -0.440315814548
O    5.100745461446  0.981638464055  4.539344154021  0.000000000000  0.000012598405  0.440635145561
O    3.400496634248  1.963277948260  1.959222855618 -0.000002313993 -0.000001285552  0.440535900979
Zn   3.400496634248  3.926555896520  2.583390876244  0.000010541523 -0.000006170648 -0.440874001044
Zn   1.700248827198  4.908194360575  0.003269577841 -0.000113385649  0.000065563131 -0.440354381095
O    3.400496634248  3.926555896520  4.539344154021  0.000011055744 -0.000006427758  0.440635145561
O    1.700248827198  4.908194360575  1.959222855618 -0.000048079629  0.000027767914  0.440579352622
Zn   1.700248827198  6.871472308835  2.583390876244 -0.000085874846 -0.000049622291 -0.440793782626
Zn  -0.000000000000  7.853111793039  0.003269577841 -0.000000000000 -0.000131126261 -0.440354381095
O    1.700248827198  6.871472308835  4.539344154021 -0.000021340156 -0.000012341295  0.440607377646
O   -0.000000000000  7.853111793039  1.959222855618  0.000000000000 -0.000055535828  0.440579352622
Zn   8.501242095694  0.981638464055  2.583390876244 -0.000052964725  0.000030596128 -0.440793011295
Zn   6.800994288645  1.963277948260  0.003269577841 -0.000007456199  0.000004370875 -0.440315814548
O    8.501242095694  0.981638464055  4.539344154021 -0.000030339017  0.000017483501  0.440612519853
O    6.800994288645  1.963277948260  1.959222855618  0.000002313993 -0.000001285552  0.440535900979
Zn   6.800994288645  3.926555896520  2.583390876244 -0.000010541523 -0.000006170648 -0.440874001044
Zn   5.100745461446  4.908194360575  0.003269577841 -0.000000000000 -0.000008484640 -0.440315814548
O    6.800994288645  3.926555896520  4.539344154021 -0.000011055744 -0.000006427758  0.440635145561
O    5.100745461446  4.908194360575  1.959222855618  0.000000000000  0.000002828213  0.440535900979
Zn   5.100745461446  6.871472308835  2.583390876244  0.000000000000 -0.000061192255 -0.440793011295
Zn   3.400496634248  7.853111793039  0.003269577841 -0.000106957892 -0.000061706476 -0.440429714418
O    5.100745461446  6.871472308835  4.539344154021  0.000000000000 -0.000034967003  0.440612519853
O    3.400496634248  7.853111793039  1.959222855618 -0.000034195672 -0.000019797494  0.440590408366