# total energy = -14751.915423620896 eV

CRYSTAL
PRIMVEC
2.942722175844334 0.0 0.0
-4.414083263766501 7.645415859728944 0.0
0.0 0.0 5.035645041748341
PRIMCOORD
12 1
Zn   1.601826969860  0.976532348799  2.571880621517 -3.248984794172 -1.883798692424  2.213135667229
Zn   0.096116368796  1.677774803680 -0.065045342430 -1.234942757347  2.125863941294  1.026480027023
O    1.503475015027  0.727397958125  4.525417037479  0.668945249628  3.685212554693 -2.471354128820
O   -0.012289984895  1.763394188203  1.899198168168  2.984591314118 -0.984490827075 -2.624238607658
Zn   0.177875490369  3.419490840430  2.360538728931 -2.123793431919 -0.579498884640  3.770155118274
Zn  -1.402127074747  4.509224708706 -0.065985836438 -0.540145322543 -4.223208949214  1.548527868634
O   -0.011088177159  3.511059232104  4.405803032108  1.231570755551 -1.445764217712 -1.058520086178
O   -1.359873409840  4.177265048215  1.853257566648  3.275430389958 -0.882731449048 -3.428778438696
Zn  -1.645874518205  5.730255483662  2.389409776198  1.057145574428  5.214717859478  2.109278526132
Zn  -2.792635988071  6.748412637638 -0.041598614950 -6.356184561852  0.379288624132  5.369068124228
O   -1.511609876210  6.069761166628  4.333927925780  6.410252033120 -0.385526891732 -5.340676203349
O   -2.896807764551  6.910229398821  1.944034660328 -2.123884448971 -1.020063067753 -1.113077609709