# total energy = -14758.891356165948 eV

CRYSTAL
PRIMVEC
10.790038638960128 0.0 0.0
-1.7983433698395679 3.114814404101815 0.0
0.0 0.0 5.225702033157502
PRIMCOORD
12 1
Zn   1.787096912566  1.046675829130  2.528552760708 -0.027665327126 -0.063060675906  0.230912831798
Zn   0.053617860005  2.046457071331  0.040628811491 -0.026423227189  0.006746574695 -0.805440231365
O    1.850770009579  1.048407630331  4.527917787403 -0.258260884793 -0.000626320730  0.638311583903
O   -0.087124166990  2.065035359859  1.993736942541  0.435710711676  0.139422954017  0.213609821743
Zn   5.407703009900  1.025198257219  2.559605412907  0.018119078198  0.098993385247  0.280298838430
Zn   3.582525892969  2.138116291561  0.033792243009  0.083998197390 -0.062739030900 -0.978567262502
O    5.361698601159  1.058728302290  4.621856942798  0.220511176848  0.038363173159 -0.072675316178
O    3.630154202526  2.098584827000  1.974590018976 -0.220917668258 -0.085094515777  0.539987971029
Zn   8.946780654282  0.999337771613  2.629921936709  0.063977274183  0.085891300647 -0.209647237551
Zn   7.203016536890  2.126456575808 -0.014514759977 -0.109371386047 -0.235315588851 -0.145902648204
O    9.018022963400  0.989945042978  4.636572397493 -0.057239184128  0.210162486624  0.026724303369
O    7.207526773041  2.080065883683  1.994742574142 -0.122438503644 -0.132743485114  0.282387602638