# total energy = -29519.12826315425 eV

CRYSTAL
PRIMVEC
6.147052100650782 0.0 0.0
-4.610289075488087 7.985254266725191 0.0
0.0 0.0 5.358717256950722
PRIMCOORD
24 1
Zn   1.536763025163  0.887250747283  2.682752415940  0.000070962447 -0.000100787244  0.902344852403
Zn  -0.000000000000  1.774500879861  0.003395016875 -0.000016455060  0.000048336739  0.902357707919
O    1.536763025163  0.887250747283  4.713934520957  0.000047051188 -0.000044222974 -0.902352822823
O   -0.000000000000  1.774500879861  2.034577121892 -0.000019026163  0.000033167231 -0.902369534994
Zn   0.000000000000  3.549002374426  2.682752415940 -0.000070705337 -0.000086389066  0.902371848986
Zn  -1.536763025163  4.436252507004  0.003395016875  0.000019797494  0.000072247999  0.902221953672
O    0.000000000000  3.549002374426  4.713934520957  0.000001799772  0.000007199089 -0.902306285856
O   -1.536763025163  4.436252507004  2.034577121892 -0.000016197950  0.000052450504 -0.902373905869
Zn  -1.536763025163  6.210754001570  2.682752415940 -0.000052193394  0.000028282135  0.902391389370
Zn  -3.073526050325  7.098004134148  0.003395016875  0.000056821380 -0.000041651871  0.902370563435
O   -1.536763025163  6.210754001570  4.713934520957  0.000013883957 -0.000034452782 -0.902301657870
O   -3.073526050325  7.098004134148  2.034577121892  0.000003599544 -0.000005913537 -0.902378533855
Zn   4.610289075488  0.887250747283  2.682752415940 -0.000095130817  0.000027253694  0.902345109514
Zn   3.073526050325  1.774500879861  0.003395016875  0.000078675757  0.000028796355  0.902385732943
O    4.610289075488  0.887250747283  4.713934520957  0.000036766775  0.000007199089 -0.902376991193
O    3.073526050325  1.774500879861  2.034577121892 -0.000021340156  0.000047051188 -0.902317598710
Zn   3.073526050325  3.549002374426  2.682752415940  0.000027767914 -0.000075590433  0.902338424645
Zn   1.536763025163  4.436252507004  0.003395016875 -0.000001799772  0.000028796355  0.902326854681
O    3.073526050325  3.549002374426  4.713934520957  0.000030596128  0.000022111487 -0.902337139094
O    1.536763025163  4.436252507004  2.034577121892  0.000015940840 -0.000010027302 -0.902343309741
Zn   1.536763025163  6.210754001570  2.682752415940  0.000011827075  0.000015683729  0.902327626012
Zn  -0.000000000000  7.098004134148  0.003395016875 -0.000110814546 -0.000002828213  0.902332253998
O    1.536763025163  6.210754001570  4.713934520957  0.000021340156 -0.000021854377 -0.902320684033
O   -0.000000000000  7.098004134148  2.034577121892 -0.000032910120  0.000005142206 -0.902336624873