# total energy = -14760.196847749543 eV

CRYSTAL
PRIMVEC
3.2696912476962368 0.0 0.0
-4.904536871544355 8.494906358049647 0.0
0.0 0.0 5.700729578197122
PRIMCOORD
12 1
Zn   1.601416954470  0.943948092321  2.872290684667  0.294053211902  0.055697036452 -0.195048256691
Zn  -0.074903394979  1.902421461042 -0.088988243966  0.603633058684  0.361447225075  0.603281845992
O    1.639078239168  0.944211956405  5.001083333799 -0.546985999614 -0.102647437060 -0.160514741690
O    0.011741134301  1.880594310148  2.176143336873 -0.320709381036  0.045259128948 -0.241100828074
Zn   0.047780325172  3.806941736895  2.842490391667 -0.661179489640 -0.364659047145  0.101051039107
Zn  -1.610284684103  4.743230250500 -0.009542593906 -0.380105977827 -0.131188481922  0.430822530345
O   -0.027998693123  3.839857064747  4.977203470741  0.385894302374 -0.460311026723 -0.173005160848
O   -1.676691459405  4.680597025866  2.116202376013  0.731384232790  0.623730086544 -0.200869491358
Zn  -1.605105493166  6.639512212285  2.876232297466 -0.124583060790 -0.550308893339 -0.098018937149
Zn  -3.294377089647  7.533332668088 -0.096216223439  0.400503053426  0.187638337380  0.485970122052
O   -1.609298545222  6.613641761195  4.968211165871 -0.405689996944  0.003964898185  0.111793108115
O   -3.249341343309  7.516032731697  2.261481951469  0.023786046676  0.331377659384 -0.664361229802