# total energy = -19677.76874097338 eV

CRYSTAL
PRIMVEC
3.2043145786674065 0.0 0.0
-3.2043145786674065 5.55003627029546 0.0
0.0 0.0 9.725075520368108
PRIMCOORD
16 1
Zn   1.653542318780  0.963418834166  2.428934536921  0.203963814013  0.427590139451 -1.741968157407
Zn  -0.048928281459  1.873039469576  0.030670737853 -0.113148850812  0.611410645747 -4.283200756386
O    1.595352286463  0.950062610139  4.248251429566 -0.460078341887 -0.433775956547  1.556307255469
O    0.074547417378  1.835162548668  1.726669904369  0.006140051459  0.607308707763  5.231028937933
Zn   1.649275453487  0.777645812585  7.247920855510  0.015127599670  4.181347790203  1.264981984022
Zn  -0.066426402510  1.868711401875  4.875476782453  0.492893845755 -0.502431352932 -0.805482397456
O    1.577962150813  0.887233050743  9.204459315671 -0.095088650876  2.678724911632 -1.514852844979
O    0.027035763395  1.881984313722  6.717793283849  0.075062842573 -0.162883756143  1.444570968734
Zn   0.085188305231  3.890196512074  2.544106895391 -0.525818878618 -1.130756257935 -2.733956321301
Zn  -1.624935479948  4.752333371037 -0.013132883301 -0.011961800348 -2.684968835659  0.093792557772
O    0.066356868884  3.667578679310  4.307373917426  0.349206717145  0.409852098741  1.992680797540
O   -1.557710882676  4.626124391864  1.854606970394  0.622707558817  0.198231025294  0.798189463340
Zn   0.078523010476  3.755498983151  7.315094504179 -0.635814528512 -0.912917999933 -0.514182065710
Zn  -1.476285404054  4.638562579764  4.887413174690 -0.324544438512  0.097052973691 -2.344126945539
O   -0.024241921513  3.769671025669  9.164775161340 -0.034227296614 -0.360943803076  0.557048526056
O   -1.618303510064  4.698017034614  6.664469323651  0.435580870966 -3.022840073187  0.999168483692