# total energy = -14759.41533558041 eV

CRYSTAL
PRIMVEC
3.0735263149139955 0.0 0.0
-4.610289472370994 7.985254954146494 0.0
0.0 0.0 5.259479700607128
PRIMCOORD
12 1
Zn   1.536763157457  0.887250516310  2.633071860182  0.000000000000 -0.000017483501  0.789787869539
Zn   0.000000000000  1.774501339973  0.003332317231  0.000000000000  0.000724279761  0.789921824014
O    1.536763157457  0.887250516310  4.626639710308  0.000000000000  0.000083817963 -0.789867573737
O    0.000000000000  1.774501339973  1.996900167358  0.000000000000 -0.000100273023 -0.789867830848
Zn   0.000000000000  3.549002372594  2.633071860182  0.000000000000 -0.000305961276  0.789835177838
Zn  -1.536763157457  4.436253196257  0.003332317231  0.000000000000 -0.000067362903  0.789828235859
O    0.000000000000  3.549002372594  4.626639710308  0.000000000000  0.000086646177 -0.789848290464
O   -1.536763157457  4.436253196257  1.996900167358  0.000000000000 -0.000080218419 -0.789853689780
Zn  -1.536763157457  6.210754228878  2.633071860182  0.000000000000 -0.000452257046  0.789928508882
Zn  -3.073526314914  7.098005052541  0.003332317231  0.000000000000  0.000118013635  0.789853946891
O   -1.536763157457  6.210754228878  4.626639710308  0.000000000000  0.000104129678 -0.789856003773
O   -3.073526314914  7.098005052541  1.996900167358  0.000000000000 -0.000093073934 -0.789862174421