# total energy = -29517.80492321581 eV

CRYSTAL
PRIMVEC
10.593856243330013 0.0 0.0
-3.531281883157923 6.116362902086583 0.0
0.0 0.0 5.586744246913785
PRIMCOORD
24 1
Zn   1.765643060350  1.019393817014  2.796912590213  0.000475396975  0.000149381094 -0.003202308987
Zn  -0.000000000000  2.038788693414  0.003539407371  0.000377695054  0.000028796355 -0.003764352138
O    1.765643060350  1.019393817014  4.914528049163 -0.000033167231 -0.000011055744  0.003494386307
O   -0.000000000000  2.038788693414  2.121154866321  0.000039080768  0.000016969281  0.003466618392
Zn  -0.000000000000  4.077577386829  2.796912590213  0.000162750830  0.000252482330 -0.003276356758
Zn  -1.765643060350  5.096971203843  0.003539407371  0.000266366288  0.000306732607 -0.003539123502
O   -0.000000000000  4.077577386829  4.914528049163  0.000004370875 -0.000003856655  0.003483330563
O   -1.765643060350  5.096971203843  2.121154866321  0.000033938562  0.000015169509  0.003460704855
Zn   5.296928121665  1.019393817014  2.796912590213  0.000172521022  0.000371267296 -0.003562777651
Zn   3.531285061315  2.038788693414  0.003539407371 -0.000047822519  0.000415747381 -0.003642996069
O    5.296928121665  1.019393817014  4.914528049163 -0.000005399317  0.000012598405  0.003489758321
O    3.531285061315  2.038788693414  2.121154866321  0.000025968142  0.000034709893  0.003523696883
Zn   3.531285061315  4.077577386829  2.796912590213  0.000065048910 -0.000219829320 -0.003196395450
Zn   1.765643060350  5.096971203843  0.003539407371  0.000427317345 -0.000192318516 -0.003732213349
O    3.531285061315  4.077577386829  4.914528049163  0.000003342434  0.000000257110  0.003501328285
O    1.765643060350  5.096971203843  2.121154866321 -0.000008998861 -0.000015940840  0.003473560371
Zn   8.828213182980  1.019393817014  2.796912590213 -0.000720423106 -0.000051936284 -0.003324693498
Zn   7.062571182015  2.038788693414  0.003539407371 -0.000247597234 -0.000228828181 -0.003345005213
O    8.828213182980  1.019393817014  4.914528049163 -0.000023397039 -0.000024939701  0.003494643417
O    7.062571182015  2.038788693414  2.121154866321  0.000006170648  0.000008227530  0.003472017709
Zn   7.062571182015  4.077577386829  2.796912590213 -0.000252225220 -0.000527590369 -0.003556607003
Zn   5.296928121665  5.096971203843  0.003539407371 -0.000682113669 -0.000302361732 -0.003717815171
O    7.062571182015  4.077577386829  4.914528049163 -0.000017483501 -0.000009513082  0.003515469352
O    5.296928121665  5.096971203843  2.121154866321 -0.000021597267 -0.000024682590  0.003485387445