# total energy = -9828.63878962229 eV

CRYSTAL
PRIMVEC
2.9427380511605845 0.0 0.0
-2.9427380511605845 5.0969723842507415 0.0
0.0 0.0 4.27557179750639
PRIMCOORD
8 1
Zn   1.471369025580  0.849495201193  2.140494100582  0.000000000000 -0.000453542598 -5.560833853513
Zn   0.000000000000  1.698990696659  0.002709084650  0.000000000000  0.000451999936 -5.560784745443
O    1.471369025580  0.849495201193  3.761118505843  0.000000000000  0.000012341295  5.560837453057
O    0.000000000000  1.698990696659  1.623333195637  0.000000000000  0.000029567686  5.560796829627
Zn   0.000000000000  3.397981099044  2.140494100582  0.000000000000 -0.000563328703 -5.560852108345
Zn  -1.471369025580  4.247476594511  0.002709084650  0.000000000000  0.000554844062 -5.560807371150
O    0.000000000000  3.397981099044  3.761118505843  0.000000000000  0.000051679174  5.560878333598
O   -1.471369025580  4.247476594511  1.623333195637  0.000000000000 -0.000083303742  5.560765719279