# total energy = -9836.72428947414 eV

CRYSTAL
PRIMVEC
3.59667936992764 0.0 0.0
-1.79833968496382 3.1148142513415844 0.0
0.0 0.0 12.077163772502075
PRIMCOORD
8 1
Zn   1.930628789201  1.193397996679  2.997134139369 -2.049048891917 -1.178976526394  1.770212496965
Zn  -0.050591611353  2.117896014951  0.033758432566 -0.140576865116 -0.112706363957 -0.368432398144
O    1.711846379808  0.865517871625  5.135925782456  0.141024237066  0.277248481639  0.790809883046
O   -0.182970272907  1.953371671861  2.330488179481  2.116864823120  1.094955446187 -1.980947311153
Zn   1.986408970214  0.997411700800  9.144259492989 -0.058084562848  0.024850483385 -0.946875330715
Zn  -0.110085004147  1.972188059653  6.195447819959  0.101376540767  0.174639868237 -1.136716332173
O    1.758029900925  1.062132147722  11.111979038193  0.131692675252 -0.063487736141  1.431487138967
O    0.063170637782  2.155582021390  8.232985745424 -0.243247699214 -0.216523910066  0.440461596097