# total energy = -9838.542625573918 eV

CRYSTAL
PRIMVEC
3.00813218303729 0.0 0.0
-3.00813218303729 5.210238355761922 0.0
0.0 0.0 5.341823081844522
PRIMCOORD
8 1
Zn   1.472539362174  0.845711696577  2.627139006274  1.669055528408 -0.921047313909  1.488522434615
Zn   0.028363678354  1.710223316858 -0.007173793630 -1.347485084923 -0.095368644010  1.678727761391
O    1.457838018569  0.832935557569  4.713830366653  1.488209017139 -0.017039471981 -1.754954799475
O    0.066812721478  1.771145814709  2.076373466991 -1.697793262662 -1.280456168398 -2.196442779954
Zn  -0.041463793198  3.426120572640  2.703398466059  0.233121409413  1.744257724773  1.509494923101
Zn  -1.498721242256  4.322037092913  0.002453733422  0.749533135784 -0.362868530903  1.051371390948
O    0.051237515474  3.420376544237  4.697384005568 -0.868945193897  0.548973205247 -1.402818053167
O   -1.510414152865  4.294015740001  1.959796613183 -0.225695549263  0.383548942071 -0.373900877458