# total energy = -29518.95449356985 eV

CRYSTAL
PRIMVEC
7.062571005279078 0.0 0.0
-1.7656427513197694 3.058185058708909 0.0
0.0 0.0 16.076141937911473
PRIMCOORD
24 1
Zn   1.765642751320  1.019394548732  2.682752202953 -0.000105672340 -0.000060935145 -0.150886474572
Zn  -0.000000000000  2.038788391206  0.003394977882 -0.000087417507 -0.000050393622 -0.150551459830
O    1.765642751320  1.019394548732  4.713934911444 -0.000055021608 -0.000031624569  0.150948438158
O   -0.000000000000  2.038788391206  2.034577686373  0.000055535828  0.000032138790  0.151007059310
Zn   1.765642751320  1.019394548732  8.041467359352  0.000222914644  0.000128555158 -0.151161839720
Zn  -0.000000000000  2.038788391206  5.362110134281 -0.000115956753 -0.000066848682 -0.151201691819
O    1.765642751320  1.019394548732  10.072649361586 -0.000061963586 -0.000035738334  0.151039455210
O   -0.000000000000  2.038788391206  7.393292136515  0.000057849821  0.000033424341  0.151021457488
Zn   1.765642751320  1.019394548732  13.400181809494  0.000218286658  0.000125984055 -0.150883646358
Zn  -0.000000000000  2.038788391206  10.720824584423  0.000003342434  0.000002056883 -0.151321248116
O    1.765642751320  1.019394548732  15.431364517985 -0.000052964725 -0.000030596128  0.150989575808
O   -0.000000000000  2.038788391206  12.752006586656  0.000057592711  0.000033167231  0.150949723709
Zn   5.296928253959  1.019394548732  2.682752202953  0.000222657534  0.000128555158 -0.150813969462
Zn   3.531285502640  2.038788391206  0.003394977882 -0.000025711032 -0.000014912398 -0.150815512124
O    5.296928253959  1.019394548732  4.713934911444 -0.000055021608 -0.000031624569  0.150929926215
O    3.531285502640  2.038788391206  2.034577686373  0.000056050049  0.000032395900  0.151018886384
Zn   5.296928253959  1.019394548732  8.041467359352 -0.000104901009 -0.000060420924 -0.151297593967
Zn   3.531285502640  2.038788391206  5.362110134281 -0.000017997722 -0.000010284413 -0.150912699824
O    5.296928253959  1.019394548732  10.072649361586 -0.000047565408 -0.000027510804  0.151041769203
O    3.531285502640  2.038788391206  7.393292136515  0.000056307159  0.000032395900  0.151012715737
Zn   5.296928253959  1.019394548732  13.400181809494 -0.000092045493 -0.000053221835 -0.150862306202
Zn   3.531285502640  2.038788391206  10.720824584423 -0.000129840710 -0.000075076212 -0.151187293642
O    5.296928253959  1.019394548732  15.431364517985 -0.000054764497 -0.000031624569  0.150999860221
O    3.531285502640  2.038788391206  12.752006586656  0.000056307159  0.000032653010  0.150936353973