# total energy = -9840.27707074598 eV

CRYSTAL
PRIMVEC
3.2043145786674065 0.0 0.0
-3.2043145786674065 5.55003627029546 0.0
0.0 0.0 5.586744898108674
PRIMCOORD
8 1
Zn   1.627064426554  0.956586594621  2.885851851678 -0.364923099439 -0.265821984970  0.066546063351
Zn   0.033950353824  1.891181016995  0.032494313279 -0.386960795966 -0.370515248815  0.498068962198
O    1.578219777705  0.949856572712  4.912314223712  0.411603019994 -0.047738443727 -0.079375868126
O   -0.015356357187  1.781405044707  2.124689994580  0.371504352201  0.903090215210 -0.302377672607
Zn   0.002918169287  3.721284914237  2.779773337982 -0.067419724206 -0.301814086794  0.155034949522
Zn  -1.552011688766  4.608496816504 -0.031868831074 -0.695975257163  0.773719246112  0.842818157792
O   -0.004979825287  3.737418638141  4.974268043933  0.640503192237 -0.448390621136 -0.900802961837
O   -1.609075084078  4.653293134314  2.138332684330  0.091668312340 -0.242528818770 -0.279911373184