# total energy = -9839.47480377409 eV

CRYSTAL
PRIMVEC
3.0735263149139955 0.0 0.0
-3.0735263149139955 5.323504327273101 0.0
0.0 0.0 5.3587146447367555
PRIMCOORD
8 1
Zn   1.461086792531  0.886351202511  2.697533849642 -0.222585285769 -0.006028722693  0.784238400476
Zn  -0.008533953166  1.777050830052 -0.010910711065  0.557662762601  0.538496731196  0.988206842474
O    1.574297368167  0.884494485264  4.745316552496 -0.619440458030  0.833160837208 -1.764993671768
O   -0.088239096385  1.764314751708  1.993941898279  0.490642844937 -0.130405323899 -0.541112828662
Zn  -0.033304423796  3.509672300458  2.696842613574  1.325925099364  0.248808481131  0.784638721238
Zn  -1.600370706602  4.520531746633  0.023349886767  1.005628637495 -1.584453378886  1.020954983440
O    0.070142480796  3.540736430923  4.678591525609 -1.036659538659  0.176250921478 -0.598313189133
O   -1.432758100487  4.460841099424  2.004017224892 -1.501174061940 -0.075829288425 -0.673619515175