# total energy = -14755.818893915271 eV

CRYSTAL
PRIMVEC
3.00813218303729 0.0 0.0
-1.504066091518645 2.605117673814869 0.0
0.0 0.0 14.85998347187668
PRIMCOORD
12 1
Zn   1.581392535789  0.921830375776  2.520008890773 -1.054397836479 -1.088715378814 -0.994741815379
Zn   0.076987126960  1.741565046073 -0.018636281314 -2.572592858458  1.075283421679  0.861048564758
O    1.456341472808  0.876043896631  4.331637546775  2.121574569890 -1.304844624545  0.138666278356
O    0.013678277849  1.707978347810  1.847454307049  1.090874077028  1.160539402735 -0.163343983609
Zn   1.495472760311  0.873761025118  7.455431810624  2.358659591937 -1.032895443631  1.392599974984
Zn   0.048079277495  1.698227788152  4.886770292361 -2.220535559237  1.219848839128  2.628623624100
O    1.417850917460  0.831306653992  9.370451173009  1.341311609122  0.540113440864 -1.305867152272
O    0.098486247673  1.708549291299  6.884799964777 -2.480537595091  1.086271802370 -2.398920753450
Zn   1.486184851383  0.932752602920  12.446930224937  0.575402603083 -0.593777506046 -1.777428812208
Zn  -0.003893425485  1.740431882680  9.954169597104 -1.234695674333 -0.538643798297  0.573090410010
O    1.438581460400  0.892038436262  14.217028608020  2.601912947578 -1.146529975830  1.418077293319
O    0.004312157484  1.759154497387  11.821801251584 -0.526975875040  0.623349820386 -0.371803371499