# total energy = -9833.970400418359 eV

CRYSTAL
PRIMVEC
6.016263836897371 0.0 0.0
-1.5040659592243428 2.6051204528064416 0.0
0.0 0.0 4.5648281537182065
PRIMCOORD
8 1
Zn   1.480241554430  0.787259407630  2.214004945649  1.260358112096  0.743677191224 -0.563895373774
Zn  -0.051206226395  1.632007224353  0.054504342230  0.755623050732  1.232944495970 -2.017126075066
O    1.478751325878  0.838617845500  4.008489196061  1.331018968947 -0.132138247430  2.110035716013
O    0.001850001130  1.675782161657  1.809178974833 -0.875796412491 -0.476738576151  0.935283512113
Zn   4.423733530963  0.790198954141  2.217381874541  1.342765567960  1.999236339270 -3.755571049812
Zn   3.190939704891  1.654906929396 -0.133729512567 -4.407497910505  0.873673452610  2.406275651153
O    4.530922295613  0.791379345105  3.895701696284  2.563234042950 -1.861120534101  4.081448605313
O    3.043816184144  1.755083738544  1.852125472607 -1.969705419691 -2.379534378504 -3.196451243049