# total energy = -14758.643235420788 eV

CRYSTAL
PRIMVEC
3.465873114149145 0.0 0.0
-5.198809671223717 9.004601756916154 0.0
0.0 0.0 5.8189687451577665
PRIMCOORD
12 1
Zn   1.702604275341  1.072388277392  2.982250725198  0.234122082764 -0.177354696066 -0.092448127929
Zn   0.042530768746  1.881083223815  0.077414435052 -0.258502311380  0.664620911221 -0.067424095081
O    1.682878605100  1.029411104189  5.120099692801  0.463629035353 -0.251128644624  0.153567363838
O    0.060369271077  2.049900704396  2.256474366920 -0.283852874330 -0.379700000638 -0.148990285990
Zn   0.022021464593  4.009289785828  2.922490754614  0.069077828634  0.197628872934  0.135593552968
Zn  -1.659851690717  5.024474174058  0.041450109509 -0.039254060405 -0.333233481645 -0.127364737301
O    0.076170186604  4.071283511633  5.141450857534 -0.146667551394 -0.143685071727 -0.028058963020
O   -1.701800539366  4.954771999859  2.190505977827  0.101452902531  0.476003497758  0.260909892380
Zn  -1.651129474437  7.025880728428  2.964257991513 -0.071062720275 -0.056171662096 -0.231576947744
Zn  -3.467794594204  7.950596817109  0.047074181811  0.204114480658  0.213601851323  0.063544814631
O   -1.685043736034  7.059948874791  5.162421815986 -0.135434658793 -0.132659410041 -0.187857909590
O   -3.385584430523  8.034350334087  2.201385353532 -0.137622153363 -0.077921909288  0.270105442837