# total energy = -9835.014083386483 eV

CRYSTAL
PRIMVEC
3.0735263149139955 0.0 0.0
-1.5367631574569978 2.6617506268733933 0.0
0.0 0.0 9.129660962820516
PRIMCOORD
8 1
Zn   1.529797932122  0.837010347814  2.305397072696 -0.005869314297  0.386815271527 -5.329001081004
Zn  -0.009680685834  1.783501547081  0.045459913019 -0.655841622366 -0.457475099936 -6.502664679826
O    1.530533426969  0.932260465077  3.954915001837 -0.708550779835 -0.066518552548  5.205814386341
O   -0.004910572993  1.780233466551  1.667452262541 -0.044627151791 -0.793108192162  7.123155433497
Zn   1.570159479690  0.889741609389  6.917021992251  0.595093653754  0.699311777735 -3.162510881548
Zn  -0.056168693405  1.786175822328  4.548996903246  0.328648176268  0.287975381139 -3.590994222237
O    1.480652553699  0.866231284548  8.639172573208  0.535023685045  0.457695186367  1.725848883248
O    0.078973643956  1.831000744810  6.228569924163 -0.043876646778 -0.514695772121  4.530352418640