# total energy = -4919.846232252161 eV

CRYSTAL
PRIMVEC
3.465891106174229 0.0 0.0
-1.7329455530871145 3.001548345224537 0.0
0.0 0.0 5.595189034381216
PRIMCOORD
4 1
Zn   1.732945553087  1.000516461664  2.801140123792 -0.000000000000 -0.000000000000 -0.002962167952
Zn  -0.000000000000  2.001033269917  0.003544913423  0.000000000000  0.000000000000 -0.002962167952
O    1.732945553087  1.000516461664  4.921957016462  0.000000000000  0.000000000000  0.002962167952
O   -0.000000000000  2.001033269917  2.124361806094  0.000000000000  0.000000000000  0.002962167952