# total energy = -29502.719587522974 eV

CRYSTAL
PRIMVEC
8.828213624304544 0.0 0.0
-2.9427349320303064 5.096969135992229 0.0
0.0 0.0 4.655620252272371
PRIMCOORD
24 1
Zn   1.471369231658  0.849494855999  2.330760515129 -0.000010541523  0.000011312854 -0.663665489286
Zn   0.000000000000  1.698990594819  0.002949506172  0.000001799772  0.000022111487 -0.663707398268
O    1.471369231658  0.849494855999  4.095440081884  0.000000000000  0.000015169509  0.663673716816
O    0.000000000000  1.698990594819  1.767629072926 -0.000012084185  0.000019540384  0.663690943208
Zn   0.000000000000  3.397981189638  2.330760515129  0.000001542662 -0.000022882818 -0.663656490425
Zn  -1.471369231658  4.247476045636  0.002949506172  0.000017997722 -0.000002828213 -0.663720253784
O    0.000000000000  3.397981189638  4.095440081884 -0.000000514221 -0.000019283274  0.663684001229
O   -1.471369231658  4.247476045636  1.767629072926  0.000002571103 -0.000023397039  0.663694542752
Zn   4.414106812152  0.849494855999  2.330760515129  0.000013369736  0.000001285552 -0.663676030809
Zn   2.942737580494  1.698990594819  0.002949506172 -0.000037023886  0.000005142206 -0.663700456289
O    4.414106812152  0.849494855999  4.095440081884 -0.000004885096 -0.000020054605  0.663679116133
O    2.942737580494  1.698990594819  1.767629072926 -0.000029053466 -0.000009255971  0.663695571193
Zn   2.942737580494  3.397981189638  2.330760515129 -0.000050136512 -0.000016969281 -0.663668831720
Zn   1.471369231658  4.247476045636  0.002949506172 -0.000015169509 -0.000034452782 -0.663699170738
O    2.942737580494  3.397981189638  4.095440081884 -0.000024425480 -0.000001285552  0.663674231037
O    1.471369231658  4.247476045636  1.767629072926 -0.000015940840 -0.000011055744  0.663689143435
Zn   7.356844392647  0.849494855999  2.330760515129 -0.000010541523  0.000055278718 -0.663655461984
Zn   5.885476043810  1.698990594819  0.002949506172  0.000025196811  0.000005913537 -0.663686829443
O    7.356844392647  0.849494855999  4.095440081884  0.000011569964  0.000032653010  0.663686829443
O    5.885476043810  1.698990594819  1.767629072926  0.000034709893  0.000004113765  0.663694285642
Zn   5.885476043810  3.397981189638  2.330760515129  0.000044480085 -0.000034452782 -0.663666260617
Zn   4.414106812152  4.247476045636  0.002949506172  0.000006427758  0.000003599544 -0.663724881769
O    5.885476043810  3.397981189638  4.095440081884  0.000038823658 -0.000004113765  0.663681173016
O    4.414106812152  4.247476045636  1.767629072926  0.000012341295  0.000024168370  0.663684515450