# total energy = -19665.096698696354 eV

CRYSTAL
PRIMVEC
3.0735263149139955 0.0 0.0
-3.0735263149139955 5.323504327273101 0.0
0.0 0.0 9.526603812865343
PRIMCOORD
16 1
Zn   1.619750519428  0.839369893966  2.503678246439  2.007210358615  3.318629551053 -8.214951508119
Zn  -0.111465427395  1.852686624430  0.062222003482  0.037298736450  0.355769715075 -4.416423752240
O    1.475102687232  0.783070883045  4.059793862338 -1.219329219180  3.446134927696  10.705825452139
O    0.176056504960  1.775182126052  1.760782962620 -0.479416380094  0.364389852644  2.836388299916
Zn   1.534136829221  0.611006888768  7.239162588254  4.214384151833 -1.046297575969 -11.378956200604
Zn   0.108089158738  2.007364295049  4.982540534060  0.140895424797 -4.103017075512 -1.117465454364
O    1.534093799852  0.886119151274  8.715140001075 -0.245071896907  4.837736800433  15.859088032525
O    0.371640044657  1.645522959637  6.695292886251 -5.144455266507  4.076968200944 -1.699959417076
Zn  -0.087780833612  3.535987832766  2.304808799759  0.284704166586  0.373061669386  0.441466897433
Zn  -1.446459266093  4.696574728078  0.128305585427 -0.090446267008 -1.665544687041 -10.006484363828
O   -0.181456998048  3.607262908009  4.385280913793  10.608789704840 -5.148885534364 -4.628002659595
O   -1.590937132284  4.619825087763  1.682081018389 -1.393310113677 -4.368300414370  9.683423708951
Zn   0.039228031063  3.592998057677  6.998453227849  3.155865865428 -3.169352587060  1.120486500578
Zn  -1.441188783168  4.443120683455  4.579018493585 -10.526754287603  5.465357223170  3.337959875950
O   -0.248002838350  3.574104784066  8.807446909539  1.307205925688 -0.148105312282  2.106132010083
O   -1.404480121626  4.391302566549  6.620961496440 -2.657571417482 -2.588544496691 -4.628526907530