# total energy = -9836.559557878778 eV

CRYSTAL
PRIMVEC
5.88547557314396 0.0 0.0
-1.47136889328599 2.5484874343537856 0.0
0.0 0.0 5.13068687279054
PRIMCOORD
8 1
Zn   1.500537310226  0.798671394774  2.493359361755 -1.632453303804 -0.185887159017  2.662830608999
Zn   0.008167274453  1.666043357366  0.011636173756  0.671278782857  0.322662390998  0.582458995709
O    1.521112932830  0.846873439718  4.532411801449 -0.711692925008 -0.385947267099 -1.936425831702
O   -0.016302178790  1.672414384674  1.895286162226  0.844878639866 -0.569432244432 -1.038670655552
Zn   4.423791818461  0.914295682242  2.570595634797 -1.004620765056 -0.641860734706  1.513005507358
Zn   3.006340355448  1.701883549417 -0.059966522067 -1.883093438827  0.967764001239  2.858348349127
O    4.396789256532  0.870079281356  4.528881104653  1.801374267280 -0.954504308016 -2.307006386537
O    2.874908857687  1.713001801322  2.008716344399  1.914328742692  1.447205321033 -2.334540587402