# total energy = -9838.228482936542 eV

CRYSTAL
PRIMVEC
3.465891106174229 0.0 0.0
-3.465891106174229 6.00310015634018 0.0
0.0 0.0 6.154708630997559
PRIMCOORD
8 1
Zn   1.822920779382  0.897565285657  3.170235344897  0.041465209123  0.629580374677 -0.502264745447
Zn   0.088386808401  1.986996064348  0.002619867087 -0.127474009185  0.118621958111  0.097951060025
O    1.834805666574  0.950117206144  5.432054738850 -0.299952093884  0.021285134631  0.065744650496
O    0.005387727725  2.049916544668  2.304816545839  0.093299420186 -0.355616991547  0.507562503511
Zn  -0.054081418232  4.012765052501  3.008660007185  0.440921823563 -0.517420627252 -0.247270704330
Zn  -1.826908287099  5.031933900331 -0.062712180264  0.203575834546 -0.518072916124 -0.353753970196
O   -0.060454152209  3.922325396798  5.492153983810  0.255609048993  0.503218110499  0.262128595279
O   -1.651572321929  5.014731296414  2.434639468770 -0.607445233341  0.118405214114  0.169902610663