# total energy = -9839.91643473813 eV

CRYSTAL
PRIMVEC
3.465891106174229 0.0 0.0
-3.465891106174229 6.00310015634018 0.0
0.0 0.0 5.371382582091122
PRIMCOORD
8 1
Zn   1.731792104527  0.937563055379  2.686890142779  0.022421562228  0.251076194119  0.047272302723
Zn  -0.045704359428  2.088874893647  0.003042359213  0.114566557095 -0.769850764296 -0.203021504704
O    1.732874502319  0.979161373613  4.758944027120 -0.003890079083  0.196948301927 -0.232434667759
O    0.010892949158  1.960288947251  2.018664951152 -0.053736056071  0.288747997639  0.322945212346
Zn   0.050881014384  3.987426615802  2.632930377325 -0.176793167135 -0.131064297639 -0.023748251460
Zn  -1.763254424221  4.916958508309 -0.050542396823  0.472649493684  0.865367760958  0.207724823717
O    0.055067810840  4.040197927195  4.715360099871 -0.568342353802 -0.430231176618 -0.192184561989
O   -1.735836452859  4.989397365374  2.021885803757  0.193124300195 -0.270994016089  0.073446647126