# total energy = -9838.062700029364 eV

CRYSTAL
PRIMVEC
3.465891106174229 0.0 0.0
-3.465891106174229 6.00310015634018 0.0
0.0 0.0 5.595189034381216
PRIMCOORD
8 1
Zn   1.514477612868  1.097376334052  2.771304693383  0.288040172938 -0.488350449359  0.811764888031
Zn   0.171017118263  2.201903494634  0.215378791476  0.061721645380 -0.821721485023 -3.652019355771
O    1.774306111192  0.939137609708  4.943705136565 -0.413345456607  0.309165899173 -0.076469236002
O    0.015637754082  2.303142520434  1.981644728480  0.017033558444 -1.376296609838  2.543050883134
Zn   0.062038757622  4.096176227629  2.826960665944 -0.324688934510  0.333244794499 -1.423087859160
Zn  -1.657170082655  4.922624200500 -0.026730685156 -0.070220169769  0.796378892493 -0.489004795113
O   -0.130926809249  3.935654520814  4.624043227129  0.170919996184 -0.212389833293  3.957368966521
O   -1.735386580193  4.952588215470  2.361232241730  0.270539445050  1.459968791347 -1.671603748751