# total energy = -19674.886343980386 eV

CRYSTAL
PRIMVEC
5.88547557314396 0.0 0.0
-2.94273778657198 5.096968983231998 0.0
0.0 0.0 5.2256961049678035
PRIMCOORD
16 1
Zn   1.471368893286  0.849495419086  2.616159221041 -0.000003599544 -0.000002056883  1.823405793159
Zn  -0.000000000000  1.698990249625  0.003311168557  0.000000000000 -0.000024168370  1.823345886455
O    1.471368893286  0.849495419086  4.596921910659 -0.000002313993 -0.000001285552 -1.823350257330
O   -0.000000000000  1.698990249625  1.984073858175  0.000000000000  0.000003599544 -1.823394994525
Zn   0.000000000000  3.397981087797  2.616159221041  0.000000000000  0.000000000000  1.823443331265
Zn  -1.471368893286  4.247475918336  0.003311168557 -0.000021083046  0.000012084185  1.823345886455
O    0.000000000000  3.397981087797  4.596921910659  0.000000000000  0.000000000000 -1.823376225472
O   -1.471368893286  4.247475918336  1.984073858175  0.000003085324 -0.000001799772 -1.823394994525
Zn   4.414106679858  0.849495419086  2.616159221041  0.000003599544 -0.000002056883  1.823405793159
Zn   2.942737786572  1.698990249625  0.003311168557  0.000000000000  0.000000000000  1.823311433673
O    4.414106679858  0.849495419086  4.596921910659  0.000002313993 -0.000001285552 -1.823350257330
O    2.942737786572  1.698990249625  1.984073858175  0.000000000000 -0.000000000000 -1.823397822739
Zn   2.942737786572  3.397981087797  2.616159221041 -0.000000000000  0.000004113765  1.823405793159
Zn   1.471368893286  4.247475918336  0.003311168557  0.000021083046  0.000012084185  1.823345886455
O    2.942737786572  3.397981087797  4.596921910659 -0.000000000000  0.000002571103 -1.823350257330
O    1.471368893286  4.247475918336  1.984073858175 -0.000003085324 -0.000001799772 -1.823394994525