# total energy = -19676.429520743426 eV

CRYSTAL
PRIMVEC
3.59667936992764 0.0 0.0
-3.59667936992764 6.229632099362539 0.0
0.0 0.0 11.61265982523466
PRIMCOORD
16 1
Zn   1.798339684964  1.038271776782  2.906843460134  0.000000000000  0.000347870258 -0.002432263591
Zn   0.000000000000  2.076543913232  0.003678683660  0.000000000000 -0.000110300326 -0.002282368276
O    1.798339684964  1.038271776782  5.107691130066  0.000000000000  0.000186404979  0.002349216958
O    0.000000000000  2.076543913232  2.204526353591  0.000000000000 -0.000176891897  0.002345617414
Zn   1.798339684964  1.038271776782  8.713173013084  0.000000000000  0.000292077319 -0.002307050867
Zn   0.000000000000  2.076543913232  5.810008236609  0.000000000000 -0.000132411813 -0.002421464957
O    1.798339684964  1.038271776782  10.914020323348  0.000000000000  0.000191032965  0.002361815364
O    0.000000000000  2.076543913232  8.010855546873  0.000000000000 -0.000187947641  0.002368500232
Zn   0.000000000000  4.153087466795  2.906843460134  0.000000000000  0.000124184283 -0.002419922295
Zn  -1.798339684964  5.191359603245  0.003678683660  0.000000000000 -0.000347098927 -0.002338675436
O    0.000000000000  4.153087466795  5.107691130066  0.000000000000  0.000203117150  0.002358987150
O   -1.798339684964  5.191359603245  2.204526353591  0.000000000000 -0.000181776994  0.002356673158
Zn   0.000000000000  4.153087466795  8.713173013084  0.000000000000  0.000114928311 -0.002272598084
Zn  -1.798339684964  5.191359603245  5.810008236609  0.000000000000 -0.000326015881 -0.002379041755
O    0.000000000000  4.153087466795  10.914020323348  0.000000000000  0.000199774716  0.002354873385
O   -1.798339684964  5.191359603245  8.010855546873  0.000000000000 -0.000196689392  0.002357187378