# total energy = -9838.79550055601 eV

CRYSTAL
PRIMVEC
7.062571005279078 0.0 0.0
-1.7656427513197694 3.058185058708909 0.0
0.0 0.0 5.358711625113489
PRIMCOORD
8 1
Zn   1.862686714475  1.219352177804  2.733741846840 -0.622382828487 -0.923348451238  0.616246376572
Zn  -0.097926784531  1.858666699059  0.065779373829  2.150742706814  1.165079713807  0.522261500284
O    1.667900299892  0.787599555824  4.787160353883  0.576704866834  1.039743319791 -0.130648807369
O    0.194896590690  2.146769451820  2.115463899582 -1.283506268078 -0.334385078751 -0.008058608638
Zn   5.393753983670  1.398475222412  2.773209612389 -0.040035161545 -0.187706471613 -0.042124697084
Zn   3.456855891843  2.104513383238  0.104589614017 -0.264078262806 -0.340707421425 -0.508157199672
O    5.445329114694  1.016213566751  4.825933868702 -2.160776179791 -0.988592507949 -0.976752835001
O    3.465044236667  2.002974093638  2.037741718183  1.643331127059  0.569917154489  0.527234528018