# total energy = -14758.585462523532 eV

CRYSTAL
PRIMVEC
3.2696912476962368 0.0 0.0
-4.904536871544355 8.494906358049647 0.0
0.0 0.0 5.172883701934033
PRIMCOORD
12 1
Zn   1.624640917464  0.833934752725  2.526710804285  2.151971179904 -0.461568810389  1.637334543156
Zn  -0.045536990007  1.926335328889  0.114330639920  1.717071651276  1.798046745569 -1.857231997679
O    1.945802743609  0.804706655693  4.753936200552 -1.925371887881  3.674548647221 -2.956498669647
O    0.146539387494  1.618723103275  1.897625477919 -1.913352751932  1.847818160565  1.850847691420
Zn   0.050549426689  3.627984995526  2.508387781502 -0.589444425888  0.332679666024  0.330110105525
Zn  -1.632343656105  4.749945542384 -0.000000980907 -0.768130953391  0.757970210808 -0.899006789169
O   -0.113995823536  3.860513012236  4.488684786866  1.310761247139 -1.444849419207 -0.201593771119
O   -1.690581761764  4.621557845852  1.871745871694  0.522422965562  0.050246811971  1.365395389544
Zn  -1.562457929315  6.636982452167  2.615752344219 -2.386279410537 -1.684931319098  0.641518520876
Zn  -3.102796724309  7.654424048601 -0.012500683578  0.011087368162 -4.295530738706  1.157907621539
O   -1.385678475348  6.678621643237  4.603001040145 -1.088227640544 -0.823645955739 -0.108783117644
O   -3.394548004650  7.494902025039  2.041795647135  2.957492401019  0.249215486762 -0.959999526802