# total energy = -14760.373625960598 eV

CRYSTAL
PRIMVEC
3.4004969742975235 0.0 0.0
-1.7002484871487618 2.944915392166013 0.0
0.0 0.0 15.480731871016706
PRIMCOORD
12 1
Zn   1.619817552365  1.003066695739  2.637830792504  0.110901192428  0.021181004953 -1.298510454796
Zn  -0.043676323188  1.968384474566  0.004899776090  0.137897261401 -0.304171017062 -0.568278590444
O    1.685223731318  0.907491307630  4.536629537287  0.168739700703  0.254519929694  1.137970259185
O   -0.042769410645  1.991725485798  1.918295834234 -0.059847825396 -0.106417959846  1.194644057728
Zn   1.636182784103  0.956487028235  7.746893189451  0.490237381969 -0.065136841709  0.175211167360
Zn   0.053427928361  1.952562642244  5.236329396706 -0.187866137120 -0.185932667542 -0.916567423760
O    1.655239169147  1.028163723608  9.710887282373 -0.139185384085 -0.267303968832  0.332930348583
O    0.045766608678  1.952351471382  7.162725894832 -0.542236914964  0.076119308862  0.238026560024
Zn   1.694445199012  1.000931183639  12.968793937445 -0.018999423921  0.120946492479 -1.065051716649
Zn  -0.087643388866  1.936574185570  10.372813401253  0.225225551605  0.236520664903 -0.378987033731
O    1.711012080222  0.915666782456  14.860521688819 -0.160401098930  0.387765294145  0.902069230144
O   -0.002547992383  2.008195112793  12.326459781883 -0.024464303690 -0.168089982934  0.246543853467