# total energy = -19679.366053288 eV

CRYSTAL
PRIMVEC
3.335102842420818 0.0 0.0
-3.335102842420818 5.77656821331782 0.0
0.0 0.0 11.844911233907668
PRIMCOORD
16 1
Zn   1.667551421210  0.962761146546  2.964980466195  0.000000000000  0.000100530134 -0.039688319729
Zn   0.000000000000  1.925522626603  0.003752324208  0.000000000000 -0.000048593850 -0.039829730402
O    1.667551421210  0.962761146546  5.209845193145  0.000000000000  0.000196432282  0.039830758844
O    0.000000000000  1.925522626603  2.248617051157  0.000000000000 -0.000203374260  0.039827673520
Zn   1.667551421210  0.962761146546  8.887436750170  0.000000000000  0.000033167231 -0.039985539254
Zn   0.000000000000  1.925522626603  5.926208608182  0.000000000000 -0.000118270745 -0.039816103556
O    1.667551421210  0.962761146546  11.132301477119  0.000000000000  0.000205431143  0.039806590474
O    0.000000000000  1.925522626603  8.171073335132  0.000000000000 -0.000204916922  0.039820217321
Zn   0.000000000000  3.851044919695  2.964980466195  0.000000000000  0.000116213863 -0.039754397080
Zn  -1.667551421210  4.813806399751  0.003752324208  0.000000000000 -0.000169178588 -0.039837700822
O    0.000000000000  3.851044919695  5.209845193145  0.000000000000  0.000207488025  0.039829730402
O   -1.667551421210  4.813806399751  2.248617051157  0.000000000000 -0.000203888481  0.039828701961
Zn   0.000000000000  3.851044919695  8.887436750170  0.000000000000  0.000180491442 -0.039860326530
Zn  -1.667551421210  4.813806399751  5.926208608182  0.000000000000 -0.000086131956 -0.039811475570
O    0.000000000000  3.851044919695  11.132301477119  0.000000000000  0.000199774716  0.039820474431
O   -1.667551421210  4.813806399751  8.171073335132  0.000000000000 -0.000205174032  0.039819960210