# total energy = -14759.596209376852 eV

CRYSTAL
PRIMVEC
3.5312667168486422 0.0 0.0
-5.296900075272964 9.174499306643252 0.0
0.0 0.0 5.13065863204388
PRIMCOORD
12 1
Zn   1.744315101255  1.027927375534  2.610931388150  0.009176267183  0.150905243625 -0.510321554313
Zn  -0.049385824415  2.044854148992 -0.021303072723  0.066770263547 -0.112289588135 -0.200770503886
O    1.789536855957  0.962401190336  4.575038179888 -0.221187891200  0.253320510069  0.111979255983
O   -0.028893530531  2.060436216507  1.950785088049  0.123529679825  0.052924873023  0.623814932948
Zn  -0.013615151953  4.124752942009  2.548508127016 -0.004530283770 -0.062815649775 -0.302194352951
Zn  -1.791903864038  5.098370141692 -0.032094270683 -0.124233647871  0.095348075185 -0.226539642431
O   -0.104955603105  4.094332491750  4.543935488899  0.445858855853 -0.199030124156  0.061086325788
O   -1.753213893381  5.168818912693  1.950404770623 -0.221423404250 -0.200862549379  0.483026466043
Zn  -1.819237987186  7.183525225217  2.527254845154  0.213920411005 -0.178529175990  0.253764025364
Zn  -3.553116782786  8.093626942970  0.090094973380  0.083563938066  0.095342675868 -1.728108625817
O   -1.728273969067  7.110116899580  4.575068195655 -0.245585860429  0.111929633692 -0.214947566718
O   -3.513958213036  8.189104273080  1.944119822121 -0.125858327958 -0.006243924027  1.649211239989