# total energy = -19673.248745892244 eV

CRYSTAL
PRIMVEC
3.59667936992764 0.0 0.0
-3.59667936992764 6.229632099362539 0.0
0.0 0.0 12.54167131644886
PRIMCOORD
16 1
Zn   1.716783901247  1.108285097065  2.932402542741  0.291465653680  0.071916840745 -0.101188336016
Zn   0.036841506122  2.050630198039 -0.019905821973 -0.039224235608  0.168659225174 -0.230387555422
O    1.891179330868  1.045269476164  5.734758870499  0.060462061941  0.003466875503  0.543389283401
O   -0.010207735720  2.007595929378  2.393970649364 -0.123849782169  0.345575805261 -0.200841466334
Zn   1.602917708078  1.180103231056  9.460635279410  0.460224380546 -0.246305512204 -0.556613238291
Zn   0.169243186424  1.995871833636  6.247247915581 -0.386413922323 -0.010940558172 -0.694688677141
O    1.836223868435  1.231997200009  11.904089043546 -0.143136655423 -0.888172931778  0.174006091308
O   -0.089672410051  1.997018095351  8.771475905006 -0.223058625861 -0.005916108374  0.628392267906
Zn   0.031358368423  4.330558057278  3.153888216349 -0.145727556079 -0.067769908456  0.907534109914
Zn  -1.704045901590  5.169777369018 -0.025561959950  0.029712439463  0.010489329567 -1.088848561958
O   -0.017883409163  4.111780323567  5.472011731492  0.018852871040 -0.014598466639  0.429990264252
O   -1.809304881359  5.316984060610  2.643946699265  0.095146500697 -0.535594469947 -0.684860378196
Zn  -0.194108109912  3.976706670162  9.415366393856  0.115804543267  0.592009872623 -0.554188945120
Zn  -1.626377408936  5.116209865154  6.440237817876 -0.124652994796  0.110709902353 -0.298599179401
O    0.017052216561  4.051665784246  11.527548364293 -0.242425203313  0.613738522549  1.486454753452
O   -1.937447014283  5.035826958579  8.598271695592  0.356820782047 -0.147268675313  0.240449567643