# total energy = -14759.382214972426 eV

CRYSTAL
PRIMVEC
3.1389040422972423 0.0 0.0
-4.708356063445864 8.155111258595449 0.0
0.0 0.0 5.067314851914891
PRIMCOORD
12 1
Zn   1.570092671464  0.910779374667  2.408649316911 -0.272071822534 -0.053199981062  1.756276860721
Zn  -0.021306880639  1.858711759249  0.038860887605  0.473866653920 -1.114328451396 -0.662441644182
O    1.596929359354  0.906064426905  4.475219929622 -0.550075180062  0.032720630161 -0.352086609796
O   -0.014648637385  1.784170949395  1.957178237384  0.332876355416  1.120467474415 -0.141329169901
Zn  -0.039069624724  3.634300003321  2.479147846140  0.183621760021 -0.007282906815  0.715937559217
Zn  -1.577981051212  4.512743330215 -0.002105262941 -0.128985303623  0.748965950427 -0.407452745271
O   -0.017093529743  3.615140760827  4.484624400023  0.147248106488  0.550051783023 -0.914303567427
O   -1.593478134360  4.597264285471  1.920786411699 -0.195465803844 -1.179985684385 -0.099712779911
Zn  -1.550764242042  6.372578189330  2.441245579829 -0.543932043279  0.164508950451  1.031210856840
Zn  -3.147288682775  7.212532902638  0.007805198792  0.024323407237  0.505777643696 -0.144868550512
O   -1.576092686541  6.368201929314  4.394615698829 -0.016596213796 -0.677755391720  0.409780107853
O   -3.153260133825  7.262916706983  1.993465851456  0.545190855386 -0.089940016795 -1.191010574741