# total energy = -44280.69011623292 eV

CRYSTAL
PRIMVEC
3.465891106174229 0.0 0.0
-5.198836659261343 9.004648501564716 0.0
0.0 0.0 15.442724923511975
PRIMCOORD
36 1
Zn   1.732945553087  1.000516461664  2.577049121842  0.000000000000 -0.000160693948 -0.518134108379
Zn  -0.000000000000  2.001033269917  0.003261403531  0.000000000000  0.000154266190 -0.517964158460
O    1.732945553087  1.000516461664  4.528200247192  0.000000000000  0.000057078490  0.517981384851
O   -0.000000000000  2.001033269917  1.954412875470  0.000000000000 -0.000046536967  0.518014809192
Zn   1.732945553087  1.000516461664  7.724623865287  0.000000000000 -0.000156065962 -0.517986012837
Zn  -0.000000000000  2.001033269917  5.150836493565  0.000000000000  0.000049879401 -0.518051318857
O    1.732945553087  1.000516461664  9.675775337226  0.000000000000  0.000039594989  0.517952588496
O   -0.000000000000  2.001033269917  7.101987965503  0.000000000000 -0.000011569964  0.517950788724
Zn   1.732945553087  1.000516461664  12.872198955321  0.000000000000 -0.000107986333 -0.517771068613
Zn  -0.000000000000  2.001033269917  10.298411583598  0.000000000000  0.000185119428 -0.517865428099
O    1.732945553087  1.000516461664  14.823350427259  0.000000000000  0.000028796355  0.517960558916
O   -0.000000000000  2.001033269917  12.249563055537  0.000000000000 -0.000031110348  0.517914793279
Zn   0.000000000000  4.002066193245  2.577049121842  0.000000000000 -0.000100787244 -0.518169075382
Zn  -1.732945553087  5.002583001498  0.003261403531  0.000000000000  0.000122898731 -0.517930219898
O    0.000000000000  4.002066193245  4.528200247192  0.000000000000  0.000021597267  0.518005039000
O   -1.732945553087  5.002583001498  1.954412875470  0.000000000000 -0.000041394761  0.518015580523
Zn   0.000000000000  4.002066193245  7.724623865287  0.000000000000 -0.000108500553 -0.517880340497
Zn  -1.732945553087  5.002583001498  5.150836493565  0.000000000000  0.000159408396 -0.518080886544
O    0.000000000000  4.002066193245  9.675775337226  0.000000000000  0.000026996583  0.517949503172
O   -1.732945553087  5.002583001498  7.101987965503  0.000000000000 -0.000044737195  0.517936904767
Zn   0.000000000000  4.002066193245  12.872198955321  0.000000000000 -0.000173806574 -0.517811177822
Zn  -1.732945553087  5.002583001498  10.298411583598  0.000000000000  0.000121613180 -0.517900395102
O    0.000000000000  4.002066193245  14.823350427259  0.000000000000  0.000042423202  0.517937161877
O   -1.732945553087  5.002583001498  12.249563055537  0.000000000000 -0.000025453921  0.517924563471
Zn  -1.732945553087  7.003615924826  2.577049121842  0.000000000000 -0.000126241165 -0.518144649902
Zn  -3.465891106174  8.004132733079  0.003261403531  0.000000000000  0.000133697364 -0.517957216481
O   -1.732945553087  7.003615924826  4.528200247192  0.000000000000  0.000029824797  0.517992440595
O   -3.465891106174  8.004132733079  1.954412875470  0.000000000000 -0.000032138790  0.518008895655
Zn  -1.732945553087  7.003615924826  7.724623865287  0.000000000000 -0.000132668923 -0.517935104994
Zn  -3.465891106174  8.004132733079  5.150836493565  0.000000000000  0.000167893036 -0.518061603270
O   -1.732945553087  7.003615924826  9.675775337226  0.000000000000  0.000038052327  0.517957730702
O   -3.465891106174  8.004132733079  7.101987965503  0.000000000000 -0.000043965864  0.517947960510
Zn  -1.732945553087  7.003615924826  12.872198955321  0.000000000000 -0.000116985194 -0.517777239260
Zn  -3.465891106174  8.004132733079  10.298411583598  0.000000000000  0.000095645038 -0.517891396241
O   -1.732945553087  7.003615924826  14.823350427259  0.000000000000  0.000030339017  0.517941275642
O   -3.465891106174  8.004132733079  12.249563055537  0.000000000000 -0.000044222974  0.517918907044