# total energy = -14757.321854838041 eV

CRYSTAL
PRIMVEC
3.59667936992764 0.0 0.0
-5.39501905489146 9.344446350704123 0.0
0.0 0.0 5.806328114277645
PRIMCOORD
12 1
Zn   1.798339684964  1.038271776782  2.906843460134  0.000000000000  0.000304161504 -0.002021658416
Zn  -0.000000000000  2.076543913232  0.003678683660  0.000000000000 -0.000377952165 -0.002262570782
O    1.798339684964  1.038271776782  5.107691130066  0.000000000000  0.000255567654  0.002139157830
O   -0.000000000000  2.076543913232  2.204526353591  0.000000000000 -0.000266109177  0.002164611751
Zn   0.000000000000  4.153087466795  2.906843460134  0.000000000000  0.000590839506 -0.002101876834
Zn  -1.798339684964  5.191359603245  0.003678683660  0.000000000000 -0.000232170615 -0.002193665217
O    0.000000000000  4.153087466795  5.107691130066  0.000000000000  0.000265337846  0.002136586727
O   -1.798339684964  5.191359603245  2.204526353591  0.000000000000 -0.000242712138  0.002144814257
Zn  -1.798339684964  7.267903156808  2.906843460134  0.000000000000  0.000321902116 -0.002296252233
Zn  -3.596679369928  8.306175293258  0.003678683660  0.000000000000 -0.000635576701 -0.002024229519
O   -1.798339684964  7.267903156808  5.107691130066  0.000000000000  0.000258910088  0.002158183994
O   -3.596679369928  8.306175293258  2.204526353591  0.000000000000 -0.000242455028  0.002157155552