# total energy = -44278.93553994302 eV

CRYSTAL
PRIMVEC
10.593856243330013 0.0 0.0
-1.7656462385070832 3.0581814510432914 0.0
0.0 0.0 15.734101231156167
PRIMCOORD
36 1
Zn   1.765643060350  1.019393817014  2.625672438511  0.000054507387  0.000031367459 -0.321574557250
Zn  -0.000000000000  2.038788693414  0.003323292704 -0.000048336739 -0.000027767914 -0.321556816638
O    1.765643060350  1.019393817014  4.613638165983 -0.000042166092 -0.000024425480  0.321577385464
O   -0.000000000000  2.038788693414  1.991289020176  0.000042166092  0.000024425480  0.321577899684
Zn   1.765643060350  1.019393817014  7.870371789510  0.000041651871  0.000024168370 -0.321479940654
Zn  -0.000000000000  2.038788693414  5.248022643703 -0.000079704198 -0.000046022747 -0.321438803003
O    1.765643060350  1.019393817014  9.858337516983 -0.000043965864 -0.000025453921  0.321566329720
O   -0.000000000000  2.038788693414  7.235988371176  0.000040623430  0.000023397039  0.321573785919
Zn   1.765643060350  1.019393817014  13.115071140510  0.000164807713  0.000095130817 -0.321737308080
Zn  -0.000000000000  2.038788693414  10.492721994703  0.000002571103  0.000001542662 -0.321648605021
O    1.765643060350  1.019393817014  15.103036867983 -0.000041908982 -0.000024168370  0.321582527670
O   -0.000000000000  2.038788693414  12.480687722176  0.000046279857  0.000026739473  0.321569157934
Zn   5.296928121665  1.019393817014  2.625672438511  0.000022882818  0.000013112626 -0.321567615272
Zn   3.531285061315  2.038788693414  0.003323292704 -0.000035224113 -0.000020311715 -0.321630350189
O    5.296928121665  1.019393817014  4.613638165983 -0.000043965864 -0.000025453921  0.321578928126
O    3.531285061315  2.038788693414  1.991289020176  0.000042937423  0.000024682590  0.321588184097
Zn   5.296928121665  1.019393817014  7.870371789510  0.000098730361  0.000057078490 -0.321521335415
Zn   3.531285061315  2.038788693414  5.248022643703 -0.000009513082 -0.000005399317 -0.321471456013
O    5.296928121665  1.019393817014  9.858337516983 -0.000044480085 -0.000025711032  0.321568900823
O    3.531285061315  2.038788693414  7.235988371176  0.000041908982  0.000024168370  0.321574300140
Zn   5.296928121665  1.019393817014  13.115071140510 -0.000040623430 -0.000023397039 -0.321709540166
Zn   3.531285061315  2.038788693414  10.492721994703 -0.000084846404 -0.000048850960 -0.321576357022
O    5.296928121665  1.019393817014  15.103036867983 -0.000039852099 -0.000022882818  0.321580727898
O    3.531285061315  2.038788693414  12.480687722176  0.000033938562  0.000019540384  0.321560159073
Zn   8.828213182980  1.019393817014  2.625672438511  0.000044480085  0.000025711032 -0.321558359300
Zn   7.062571182015  2.038788693414  0.003323292704 -0.000030339017 -0.000017483501 -0.321611838246
O    8.828213182980  1.019393817014  4.613638165983 -0.000042937423 -0.000024682590  0.321577385464
O    7.062571182015  2.038788693414  1.991289020176  0.000039080768  0.000022625708  0.321586898545
Zn   8.828213182980  1.019393817014  7.870371789510  0.000015940840  0.000009255971 -0.321524163628
Zn   7.062571182015  2.038788693414  5.248022643703 -0.000046536967 -0.000026739473 -0.321396636911
O    8.828213182980  1.019393817014  9.858337516983 -0.000042680312 -0.000024682590  0.321567358161
O    7.062571182015  2.038788693414  7.235988371176  0.000044480085  0.000025711032  0.321565558389
Zn   8.828213182980  1.019393817014  13.115071140510  0.000017997722  0.000010284413 -0.321676115825
Zn   7.062571182015  2.038788693414  10.492721994703 -0.000075847543 -0.000043708754 -0.321673287612
O    8.828213182980  1.019393817014  15.103036867983 -0.000043194533 -0.000024939701  0.321577642574
O    7.062571182015  2.038788693414  12.480687722176  0.000040623430  0.000023397039  0.321579699457