# total energy = -29495.84317884567 eV

CRYSTAL
PRIMVEC
2.9427380511605845 0.0 0.0
-4.414107076740876 7.645457105007086 0.0
0.0 0.0 8.931192328844068
PRIMCOORD
24 1
Zn   1.471369025580  0.849495201193  2.235627230573  0.000000000000 -0.000276907810 -2.629748481733
Zn  -0.000000000000  1.698990696659  0.002829442636  0.000000000000  0.000228828181 -2.629713771840
O    1.471369025580  0.849495201193  3.928279269470  0.000000000000  0.000067620013  2.629609127942
O   -0.000000000000  1.698990696659  1.695481481533  0.000000000000 -0.000081503970  2.629624554561
Zn   1.471369025580  0.849495201193  6.701222806448  0.000000000000 -0.000239883925 -2.629275398751
Zn  -0.000000000000  1.698990696659  4.468425018511  0.000000000000  0.000687255875 -2.629646666048
O    1.471369025580  0.849495201193  8.393874845345  0.000000000000  0.000074819102  2.629611699045
O   -0.000000000000  1.698990696659  6.161077057407  0.000000000000 -0.000093331045  2.629614270148
Zn   0.000000000000  3.397981099044  2.235627230573  0.000000000000 -0.000718109113 -2.629406267902
Zn  -1.471369025580  4.247476594511  0.002829442636  0.000000000000  0.000376152392 -2.629784734288
O    0.000000000000  3.397981099044  3.928279269470  0.000000000000  0.000095130817  2.629600386191
O   -1.471369025580  4.247476594511  1.695481481533  0.000000000000 -0.000061706476  2.629620440795
Zn   0.000000000000  3.397981099044  6.701222806448  0.000000000000 -0.000719137554 -2.629778820750
Zn  -1.471369025580  4.247476594511  4.468425018511  0.000000000000  0.000415233161 -2.629632010760
O    0.000000000000  3.397981099044  8.393874845345  0.000000000000  0.000097701920  2.629619926575
O   -1.471369025580  4.247476594511  6.161077057407  0.000000000000 -0.000067620013  2.629642038062
Zn  -1.471369025580  5.946466996896  2.235627230573  0.000000000000 -0.000459713245 -2.629361016487
Zn  -2.942738051161  6.795962492362  0.002829442636  0.000000000000  0.000831751873 -2.629825357717
O   -1.471369025580  5.946466996896  3.928279269470  0.000000000000  0.000082789522  2.629602700184
O   -2.942738051161  6.795962492362  1.695481481533  0.000000000000 -0.000104129678  2.629628668326
Zn  -1.471369025580  5.946466996896  6.701222806448  0.000000000000 -0.000490566483 -2.629539708156
Zn  -2.942738051161  6.795962492362  4.468425018511  0.000000000000  0.000394407225 -2.629707858303
O   -1.471369025580  5.946466996896  8.393874845345  0.000000000000  0.000059135373  2.629629182546
O   -2.942738051161  6.795962492362  6.161077057407  0.000000000000 -0.000097701920  2.629617098361