# total energy = -29511.648165572064 eV

CRYSTAL
PRIMVEC
7.193359269032489 0.0 0.0
-1.7983398172581222 3.114818077161565 0.0
0.0 0.0 18.46413037253066
PRIMCOORD
24 1
Zn   1.798339817258  1.038272212830  3.081254582148 -0.000270480053 -0.000156065962 -0.249610665317
Zn  -0.000000000000  2.076543706324  0.003899520060  0.000357897560  0.000206459584 -0.249136811005
O    1.798339817258  1.038272212830  5.414153068094 -0.000280764465 -0.000161979499  0.249090274038
O   -0.000000000000  2.076543706324  2.336798006006  0.000290534657  0.000167635926  0.249103386664
Zn   1.798339817258  1.038272212830  9.235963986989 -0.000245540352 -0.000141924895 -0.249070476543
Zn  -0.000000000000  2.076543706324  6.158608924901  0.000320873675  0.000185376538 -0.249757218198
O    1.798339817258  1.038272212830  11.568862472935 -0.000280507355 -0.000161979499  0.249185919075
O   -0.000000000000  2.076543706324  8.491507410847  0.000290277547  0.000167635926  0.249147095417
Zn   1.798339817258  1.038272212830  15.390673391830 -0.000219315100 -0.000126498276 -0.248670927112
Zn  -0.000000000000  2.076543706324  12.313319049078  0.000357640450  0.000206459584 -0.248633131896
O    1.798339817258  1.038272212830  17.723571877776 -0.000284106899 -0.000164036382  0.249159179602
O   -0.000000000000  2.076543706324  14.646217535023  0.000282050017  0.000162750830  0.249177691545
Zn   5.395019451774  1.038272212830  3.081254582148 -0.000328072763 -0.000189490303 -0.249601152236
Zn   3.596679634516  2.076543706324  0.003899520060  0.000249139896  0.000143981777 -0.249099015788
O    5.395019451774  1.038272212830  5.414153068094 -0.000291048878 -0.000168150147  0.249078704073
O    3.596679634516  2.076543706324  2.336798006006  0.000279478914  0.000161208168  0.249105957767
Zn   5.395019451774  1.038272212830  9.235963986989 -0.000365867980 -0.000211344680 -0.249125498151
Zn   3.596679634516  2.076543706324  6.158608924901  0.000287192223  0.000165836154 -0.249713252334
O    5.395019451774  1.038272212830  11.568862472935 -0.000288991995 -0.000166864595  0.249187461737
O    3.596679634516  2.076543706324  8.491507410847  0.000276907810  0.000159922617  0.249166121581
Zn   5.395019451774  1.038272212830  15.390673391830 -0.000377695054 -0.000218029548 -0.248719778072
Zn   3.596679634516  2.076543706324  12.313319049078  0.000239883925  0.000138582460 -0.248597393562
O    5.395019451774  1.038272212830  17.723571877776 -0.000285906672 -0.000165064823  0.249155065837
O    3.596679634516  2.076543706324  14.646217535023  0.000286420892  0.000165321933  0.249178977097