# total energy = -29510.002566248608 eV

CRYSTAL
PRIMVEC
6.016263836897371 0.0 0.0
-1.5040659592243428 2.6051204528064416 0.0
0.0 0.0 14.27723782518801
PRIMCOORD
24 1
Zn   1.504065959224  0.868373083185  2.382554788424  0.000320102344  0.000184862317 -0.537675006625
Zn  -0.000000000000  1.736745564743  0.003015351435 -0.000407005630 -0.000234998829 -0.537643124946
O    1.504065959224  0.868373083185  4.186449678730 -0.000052964725 -0.000030596128  0.537547479909
O   -0.000000000000  1.736745564743  1.806910241741  0.000020311715  0.000011827075  0.537538995268
Zn   1.504065959224  0.868373083185  7.141633662403  0.000318045461  0.000183576766 -0.537535395724
Zn  -0.000000000000  1.736745564743  4.762094225413 -0.000403406086 -0.000232941946 -0.537553136336
O    1.504065959224  0.868373083185  8.945528552708 -0.000051936284 -0.000029824797  0.537579875808
O   -0.000000000000  1.736745564743  6.565989115719  0.000030596128  0.000017740612  0.537574733602
Zn   1.504065959224  0.868373083185  11.900712536381  0.000296962415  0.000171492581 -0.537541823482
Zn  -0.000000000000  1.736745564743  9.521173099392 -0.000446086398 -0.000257624537 -0.537340506104
O    1.504065959224  0.868373083185  13.704606825060 -0.000067362903 -0.000038823658  0.537542851923
O   -0.000000000000  1.736745564743  11.325067388071  0.000012598405  0.000007456199  0.537547994129
Zn   4.512197877673  0.868373083185  2.382554788424  0.000398520990  0.000230113733 -0.537673721074
Zn   3.008131918449  1.736745564743  0.003015351435 -0.000299790629 -0.000173035243 -0.537684005486
O    4.512197877673  0.868373083185  4.186449678730 -0.000015169509 -0.000008741751  0.537559564093
O    3.008131918449  1.736745564743  1.806910241741  0.000068905565  0.000039852099  0.537522283098
Zn   4.512197877673  0.868373083185  7.141633662403  0.000377695054  0.000218029548 -0.537457234188
Zn   3.008131918449  1.736745564743  4.762094225413 -0.000326272991 -0.000188461862 -0.537547994129
O    4.512197877673  0.868373083185  8.945528552708 -0.000021597267 -0.000012341295  0.537577561816
O    3.008131918449  1.736745564743  6.565989115719  0.000050650732  0.000029310576  0.537570876947
Zn   4.512197877673  0.868373083185  11.900712536381  0.000407776961  0.000235513050 -0.537515084009
Zn   3.008131918449  1.736745564743  9.521173099392 -0.000265337846 -0.000153237748 -0.537465718828
O    4.512197877673  0.868373083185  13.704606825060 -0.000011827075 -0.000006941979  0.537533081731
O    3.008131918449  1.736745564743  11.325067388071  0.000065820241  0.000038052327  0.537537709717