# total energy = -14760.356202103336 eV

CRYSTAL
PRIMVEC
10.005308527262454 0.0 0.0
-1.6675547563132513 2.888282439107489 0.0
0.0 0.0 5.49173375506087
PRIMCOORD
12 1
Zn   1.672438347405  0.959802243304  2.823842249007  0.165740251755  0.216996478827 -0.610694593516
Zn  -0.054813082236  1.871754098577 -0.025265405093  0.900602158680  0.200171179739  0.656424748563
O    1.659661568416  0.857256835678  4.816444466099  0.318931206090  0.783887702005  0.217895079382
O    0.001927022422  1.949531364945  2.078815959610  0.287476587125 -0.063993729243 -0.073028842862
Zn   5.050132454186  1.007245415279  2.786249303277 -0.464336345832 -0.043568371509 -0.472416551737
Zn   3.379014807506  1.944923920368 -0.024990259109 -0.640108527902 -0.165518365552  0.570144440008
O    5.016922834122  1.003792583306  4.828670953120 -0.403270331759 -0.477859834240 -0.113746632297
O    3.340015115397  2.009456159307  2.083654526814 -0.093046680745 -0.472768792870 -0.044759306494
Zn   8.418570650047  1.016186158979  2.795554240208 -0.496349665514 -0.393373384360 -0.442965079245
Zn   6.611079647610  1.903893150628 -0.071344853515  0.889396262662  0.355225926756  0.788862786622
O    8.391209132818  0.964576776534  4.832097771290 -1.014939887594 -0.473243675624 -0.104497602894
O    6.669025391946  1.890329954389  2.131872109669  0.549905230143  0.534044866072 -0.371218188419