# total energy = -19677.729440388004 eV

CRYSTAL
PRIMVEC
6.016263836897371 0.0 0.0
-3.0081319184486857 5.210234889349047 0.0
0.0 0.0 5.341822611989666
PRIMCOORD
16 1
Zn   1.504065959224  0.868373083185  2.674296056029 -0.000077647315 -0.000044737195  1.353361341198
Zn  -0.000000000000  1.736745564743  0.003384750035  0.000000000000 -0.000075333323  1.353162080703
O    1.504065959224  0.868373083185  4.699075666601  0.000005399317  0.000003085324 -1.353225072731
O   -0.000000000000  1.736745564743  2.028164360606 -0.000000000000 -0.000007199089 -1.353270324146
Zn   0.000000000000  3.473491731112  2.674296056029  0.000000000000  0.000000000000  1.353302977156
Zn  -1.504065959224  4.341864212670  0.003384750035 -0.000065306020  0.000037538106  1.353162080703
O    0.000000000000  3.473491731112  4.699075666601  0.000000000000  0.000000000000 -1.353225586951
O   -1.504065959224  4.341864212670  2.028164360606 -0.000006170648  0.000003599544 -1.353270324146
Zn   4.512197877673  0.868373083185  2.674296056029  0.000077647315 -0.000044737195  1.353361341198
Zn   3.008131918449  1.736745564743  0.003384750035  0.000000000000 -0.000000000000  1.353105773544
O    4.512197877673  0.868373083185  4.699075666601 -0.000005399317  0.000003085324 -1.353225072731
O    3.008131918449  1.736745564743  2.028164360606  0.000000000000  0.000000000000 -1.353266467491
Zn   3.008131918449  3.473491731112  2.674296056029 -0.000000000000  0.000089731500  1.353361341198
Zn   1.504065959224  4.341864212670  0.003384750035  0.000065306020  0.000037538106  1.353162080703
O    3.008131918449  3.473491731112  4.699075666601 -0.000000000000 -0.000006170648 -1.353225072731
O    1.504065959224  4.341864212670  2.028164360606  0.000006170648  0.000003599544 -1.353270324146