# total energy = -44278.2460984436 eV

CRYSTAL
PRIMVEC
3.0735263149139955 0.0 0.0
-4.610289472370994 7.985254954146494 0.0
0.0 0.0 15.778439101821382
PRIMCOORD
36 1
Zn   1.536763157457  0.887250516310  2.633071860182  0.000000000000 -0.000235770160  0.790185876309
Zn   0.000000000000  1.774501339973  0.003332317231  0.000000000000  0.000302104621  0.789960904782
O    1.536763157457  0.887250516310  4.626639710308  0.000000000000  0.000061963586 -0.789970932084
O    0.000000000000  1.774501339973  1.996900167358  0.000000000000 -0.000092045493 -0.790028010575
Zn   1.536763157457  0.887250516310  7.892551253436  0.000000000000 -0.000303133063  0.789939050405
Zn   0.000000000000  1.774501339973  5.262811710485  0.000000000000  0.000309303710  0.789960133451
O    1.536763157457  0.887250516310  9.886119103563  0.000000000000  0.000092559714 -0.789962190334
O    0.000000000000  1.774501339973  7.256379560612  0.000000000000 -0.000089217280 -0.789928765993
Zn   1.536763157457  0.887250516310  13.152030339338  0.000000000000 -0.000302361732  0.789817437226
Zn   0.000000000000  1.774501339973  10.522290796387  0.000000000000  0.000225485747  0.789945478163
O    1.536763157457  0.887250516310  15.145598496817  0.000000000000  0.000078161536 -0.789966046988
O    0.000000000000  1.774501339973  12.515858646514  0.000000000000 -0.000072762219 -0.789916424697
Zn   0.000000000000  3.549002372594  2.633071860182  0.000000000000 -0.000240655256  0.790141396224
Zn  -1.536763157457  4.436253196257  0.003332317231  0.000000000000  0.000306732607  0.789982759159
O    0.000000000000  3.549002372594  4.626639710308  0.000000000000  0.000092302603 -0.789979416725
O   -1.536763157457  4.436253196257  1.996900167358  0.000000000000 -0.000093845265 -0.790015669279
Zn   0.000000000000  3.549002372594  7.892551253436  0.000000000000 -0.000243997690  0.789866545296
Zn  -1.536763157457  4.436253196257  5.262811710485  0.000000000000  0.000233970388  0.790004099315
O    0.000000000000  3.549002372594  9.886119103563  0.000000000000  0.000064277579 -0.789963218775
O   -1.536763157457  4.436253196257  7.256379560612  0.000000000000 -0.000081503970 -0.789937250633
Zn   0.000000000000  3.549002372594  13.152030339338  0.000000000000 -0.000188718972  0.789812809240
Zn  -1.536763157457  4.436253196257  10.522290796387  0.000000000000  0.000378980606  0.789985587372
O    0.000000000000  3.549002372594  15.145598496817  0.000000000000  0.000059649593 -0.789977616953
O   -1.536763157457  4.436253196257  12.515858646514  0.000000000000 -0.000097959030 -0.789918224470
Zn  -1.536763157457  6.210754228878  2.633071860182  0.000000000000 -0.000367153531  0.790091002602
Zn  -3.073526314914  7.098005052541  0.003332317231  0.000000000000  0.000230370843  0.789963475885
O   -1.536763157457  6.210754228878  4.626639710308  0.000000000000  0.000087417507 -0.789984044711
O   -3.073526314914  7.098005052541  1.996900167358  0.000000000000 -0.000049622291 -0.790007955970
Zn  -1.536763157457  6.210754228878  7.892551253436  0.000000000000 -0.000287192223  0.789961933223
Zn  -3.073526314914  7.098005052541  5.262811710485  0.000000000000  0.000296705305  0.790033667002
O   -1.536763157457  6.210754228878  9.886119103563  0.000000000000  0.000082275301 -0.789961161892
O   -3.073526314914  7.098005052541  7.256379560612  0.000000000000 -0.000070962447 -0.789954477024
Zn  -1.536763157457  6.210754228878  13.152030339338  0.000000000000 -0.000345813375  0.789783755774
Zn  -3.073526314914  7.098005052541  10.522290796387  0.000000000000  0.000235255939  0.789913339374
O   -1.536763157457  6.210754228878  15.145598496817  0.000000000000  0.000098216141 -0.789976331401
O   -3.073526314914  7.098005052541  12.515858646514  0.000000000000 -0.000073019330 -0.789902026520