# total energy = -44275.181239597805 eV

CRYSTAL
PRIMVEC
10.397673847699894 0.0 0.0
-1.7329491071745982 3.001548497984767 0.0
0.0 0.0 17.792707441661012
PRIMCOORD
36 1
Zn   1.732945987872  1.000516165995  2.969208613016 -0.000191290075 -0.000110300326 -0.117665507735
Zn  -0.000000000000  2.001033371757  0.003757719329  0.000179463001  0.000103615457 -0.117677334810
O    1.732945987872  1.000516165995  5.217274079117 -0.000234998829 -0.000135754247  0.117663450852
O   -0.000000000000  2.001033371757  2.251823185429  0.000235255939  0.000136011357  0.117652137999
Zn   1.732945987872  1.000516165995  8.900110400392 -0.000183319655 -0.000105929450 -0.117655737543
Zn  -0.000000000000  2.001033371757  5.934659506704  0.000181005663  0.000104386788 -0.117672449714
O    1.732945987872  1.000516165995  11.148176906259 -0.000233199057 -0.000134725806  0.117690704546
O   -0.000000000000  2.001033371757  8.182726012572  0.000235513050  0.000136011357  0.117666021956
Zn   1.732945987872  1.000516165995  14.831012187767 -0.000186404979 -0.000107729222 -0.117682734126
Zn  -0.000000000000  2.001033371757  11.865561294079  0.000184862317  0.000106700781 -0.117656508874
O    1.732945987872  1.000516165995  17.079078693635 -0.000234227498 -0.000135240026  0.117662422411
O   -0.000000000000  2.001033371757  14.113627799947  0.000237569932  0.000137296909  0.117674249486
Zn   5.198836923850  1.000516165995  2.969208613016 -0.000184090986 -0.000106186561 -0.117673735265
Zn   3.465890935978  2.001033371757  0.003757719329  0.000185633648  0.000107215002 -0.117671935493
O    5.198836923850  1.000516165995  5.217274079117 -0.000233713277 -0.000134982916  0.117660108418
O    3.465890935978  2.001033371757  2.251823185429  0.000238855484  0.000138068240  0.117650852447
Zn   5.198836923850  1.000516165995  8.900110400392 -0.000194889620 -0.000112357208 -0.117653680660
Zn   3.465890935978  2.001033371757  5.934659506704  0.000181776994  0.000104901009 -0.117663965073
O    5.198836923850  1.000516165995  11.148176906259 -0.000236798601 -0.000136782688  0.117685819450
O    3.465890935978  2.001033371757  8.182726012572  0.000238598373  0.000137811129  0.117668850169
Zn   5.198836923850  1.000516165995  14.831012187767 -0.000187176310 -0.000107986333 -0.117679905913
Zn   3.465890935978  2.001033371757  11.865561294079  0.000181005663  0.000104643899 -0.117664479294
O    5.198836923850  1.000516165995  17.079078693635 -0.000236541491 -0.000136525578  0.117666279066
O    3.465890935978  2.001033371757  14.113627799947  0.000233970388  0.000134982916  0.117678363251
Zn   8.664727859827  1.000516165995  2.969208613016 -0.000179463001 -0.000103615457 -0.117663965073
Zn   6.931782911722  2.001033371757  0.003757719329  0.000190518744  0.000110043215 -0.117677077699
O    8.664727859827  1.000516165995  5.217274079117 -0.000239112594 -0.000138068240  0.117666536176
O    6.931782911722  2.001033371757  2.251823185429  0.000236798601  0.000136782688  0.117650595337
Zn   8.664727859827  1.000516165995  8.900110400392 -0.000183576766 -0.000105929450 -0.117656765984
Zn   6.931782911722  2.001033371757  5.934659506704  0.000188976082  0.000109014774 -0.117675277927
O    8.664727859827  1.000516165995  11.148176906259 -0.000237055711 -0.000136782688  0.117693275649
O    6.931782911722  2.001033371757  8.182726012572  0.000232170615  0.000133954475  0.117661136860
Zn   8.664727859827  1.000516165995  14.831012187767 -0.000181005663 -0.000104386788 -0.117677849030
Zn   6.931782911722  2.001033371757  11.865561294079  0.000192061406  0.000110814546 -0.117660108418
O    8.664727859827  1.000516165995  17.079078693635 -0.000234998829 -0.000135754247  0.117665507735
O    6.931782911722  2.001033371757  14.113627799947  0.000237827042  0.000137296909  0.117672963934