# total energy = -14758.714367610897 eV

CRYSTAL
PRIMVEC
3.5966608487253477 0.0 0.0
-5.394991273088022 9.344398231212956 0.0
0.0 0.0 5.341796659135373
PRIMCOORD
12 1
Zn   1.810208396816  1.049668924061  2.705565464490  0.056993900887 -0.264035068273 -0.321739622073
Zn   0.041697527884  2.091133864725  0.037217167464 -0.015094689550 -0.273580031649 -0.212750559066
O    1.837708825331  1.007601659442  4.688332657176 -0.097694721040  0.393875520808  0.530308538958
O    0.015494055270  2.017549420755  2.070774606325  0.019456308952  0.474319425187 -0.085069318967
Zn  -0.025106850721  4.124366525111  2.653725712679  0.057363368411  0.175221451773  0.004935232518
Zn  -1.849880285309  5.118342954260 -0.015478589629  0.219763757159  0.507825013143  0.045733240371
O    0.042088844584  4.168000854862  4.726135720692 -0.247202570097 -0.370706281780 -0.077541128910
O   -1.781794056778  5.200216982154  2.042385442914  0.027896212190 -0.269314828615 -0.058881090607
Zn  -1.760523404519  7.299020726139  2.621512579454 -0.034100541228  0.061843001449  0.106919839183
Zn  -3.612275751800  8.319839035202 -0.021322444176  0.084505218933 -0.141849046960 -0.098120752834
O   -1.827713345166  7.286492117739  4.653277802214  0.155164790232 -0.084449940215  0.350578400682
O   -3.526313399519  8.356731064525  2.042088718394 -0.227051034849 -0.209149471979 -0.184373036365