# total energy = -9836.898828188301 eV

CRYSTAL
PRIMVEC
7.193359269032489 0.0 0.0
-1.7983398172581222 3.114818077161565 0.0
0.0 0.0 6.154710124176888
PRIMCOORD
8 1
Zn   1.620911294872  1.227228093445  2.723958988583  0.700326077932 -0.286985763532 -0.047941817987
Zn   0.043160155614  2.188457270496 -0.017848882354 -0.342079362072 -1.411292666297 -0.201108089731
O    1.781459161061  0.882458296375  5.628344691697  0.169650128332  1.590606028751  0.564666447613
O   -0.100539424495  2.087051765544  2.320010144144  0.538187427485  0.670163952526  0.123222947218
Zn   5.449704807609  1.184523277472  3.096885751840 -0.481678436655 -0.431352691817  0.348487065370
Zn   3.640407346177  2.028621546874  0.183828454128  0.357260954908  0.232086540391 -0.743953327704
O    5.433603192222  1.014082384280  5.471708574277 -0.193725681224  0.070509161764  0.451763908484
O    3.718060378822  2.231126119672  2.470734039579 -0.747941108707 -0.433734561786 -0.495136876153