# total energy = -9838.121515802906 eV

CRYSTAL
PRIMVEC
7.062571005279078 0.0 0.0
-1.7656427513197694 3.058185058708909 0.0
0.0 0.0 6.042806377826832
PRIMCOORD
8 1
Zn   1.765642751320  1.019394548732  3.025231808655 -0.000399035211 -0.000230370843 -0.190970229966
Zn  -0.000000000000  2.038788391206  0.003828619742  0.000173806574  0.000100273023 -0.190783053656
O    1.765642751320  1.019394548732  5.315713986576 -0.000206459584 -0.000119299187  0.190869442722
O   -0.000000000000  2.038788391206  2.294310797663  0.000236541491  0.000136525578  0.190930120757
Zn   5.296928253959  1.019394548732  3.025231808655 -0.000048336739 -0.000028025024 -0.190830361954
Zn   3.531285502640  2.038788391206  0.003828619742  0.000245797462  0.000141924895 -0.191005454080
O    5.296928253959  1.019394548732  5.315713986576 -0.000206202474 -0.000119042076  0.190859672530
O    3.531285502640  2.038788391206  2.294310797663  0.000204145591  0.000117756525  0.190929863647