# total energy = -9831.947572673627 eV

CRYSTAL
PRIMVEC
2.9427380511605845 0.0 0.0
-2.9427380511605845 5.0969723842507415 0.0
0.0 0.0 4.465596164422034
PRIMCOORD
8 1
Zn   1.471369025580  0.849495201193  2.235627230573  0.000000000000 -0.000476939636 -2.629757223484
Zn   0.000000000000  1.698990696659  0.002829442636  0.000000000000  0.000760789425 -2.629443291788
O    1.471369025580  0.849495201193  3.928279269470  0.000000000000  0.000026996583  2.629573389608
O    0.000000000000  1.698990696659  1.695481481533  0.000000000000  0.000012084185  2.629569275843
Zn   0.000000000000  3.397981099044  2.235627230573  0.000000000000 -0.000698054508 -2.629627896995
Zn  -1.471369025580  4.247476594511  0.002829442636  0.000000000000  0.000416518712 -2.629475173467
O    0.000000000000  3.397981099044  3.928279269470  0.000000000000  0.000005656427  2.629597043757
O   -1.471369025580  4.247476594511  1.695481481533  0.000000000000 -0.000046794078  2.629563876526