# total energy = -14758.832107867458 eV

CRYSTAL
PRIMVEC
10.20149092289257 0.0 0.0
-1.700251887645736 2.9449153921660125 0.0
0.0 0.0 5.928790278166552
PRIMCOORD
12 1
Zn   1.669468888786  1.020615300424  2.932936801524  0.257608081701  0.279421063811  0.219922651335
Zn  -0.017868931501  2.007083150283  0.075029925440 -0.113099999851 -0.272988163701 -0.518353680589
O    1.659568341845  0.950878928625  5.227633645843 -0.117098065267  0.207632778224  0.307268939261
O   -0.077934289905  2.017276480013  2.346931538292  0.611395990459  0.164178306585 -0.432219924914
Zn   5.145647323743  1.049248845147  2.816618381872 -0.405101214320 -0.031219877246  0.017126632378
Zn   3.405901384139  1.950110883926 -0.039278800500 -0.137149841712  0.327133539395 -0.070293189099
O    5.048644407005  1.011303379510  5.273697457957  0.227582738983 -0.304524286636 -0.091709192881
O    3.377078091685  2.053943698837  2.209479710044 -0.231042415397 -0.382358521307  0.235470883482
Zn   8.526140874590  1.053471242240  2.936323696511 -0.795202869907 -0.379158012092  0.066330090686
Zn   6.800841266281  1.963538086278 -0.058836078749 -0.300137470422 -0.296702219489  0.111726259432
O    8.432352447641  0.907397113864  5.282231005114  0.467658725337  0.754335442269 -0.210944101985
O    6.734634610340  2.073162287587  2.205090008500  0.534586340398 -0.065749792702  0.365674890004