# total energy = -19675.749626358032 eV

CRYSTAL
PRIMVEC
3.59667936992764 0.0 0.0
-3.59667936992764 6.229632099362539 0.0
0.0 0.0 11.61265982523466
PRIMCOORD
16 1
Zn   1.647023787192  0.940978003146  2.953112582221  0.208142885091  0.413552944632  0.080563717787
Zn  -0.082621839482  1.941978830289  0.208501301414 -0.135886401618  0.173818914998 -0.789658800161
O    1.856086889924  1.146575705305  5.079308654154 -0.208349601785 -0.455700267424  0.297867186331
O   -0.019453719376  2.138502829733  2.161560421838  0.353370875825 -0.524877597750  0.625170418535
Zn   1.835549131385  1.067788645367  8.486861315097 -0.097616816614 -0.489880255740  0.662285578220
Zn  -0.021816737722  2.059534856823  5.876640678284  0.146542081560  0.677009257583 -0.463392236751
O    1.949041989236  0.966966529269  10.854608215507 -0.122040753985  0.120770371913  0.582845946735
O    0.126673968405  2.256886452191  7.945698463075 -0.246320167492 -0.918555400725  0.072928569839
Zn   0.027855202716  4.232785925285  2.898373280218  0.256140496016 -0.464845681368  0.487305295924
Zn  -1.832452030780  5.248594281394 -0.003803848102  0.214479883053 -0.158398980899 -0.527255611064
O   -0.005768354373  4.190270297789  5.118307448562  0.139935889097  0.194661562775 -0.043495866400
O   -1.688177711878  5.149041073778  2.442298151054 -0.759020763560  0.659755355599 -0.510465793200
Zn   0.046184600121  4.084594103214  8.884619165621  0.091536671858  0.719117756717 -0.145076038537
Zn  -1.684335019639  5.243028420069  5.726684325314 -0.244291567097 -0.440339725807  0.163269678727
O    0.003449215516  4.202085029852  11.077149514510  0.045090464581 -0.015682700843 -0.370441972375
O   -1.900058812896  5.195650441733  8.074107469608  0.358286567959  0.509594703449 -0.122450587828