# total energy = -19680.076486465277 eV

CRYSTAL
PRIMVEC
3.465891106174229 0.0 0.0
-3.465891106174229 6.00310015634018 0.0
0.0 0.0 10.742765164182243
PRIMCOORD
16 1
Zn   1.732945553087  1.000516461664  2.689094449523  0.000000000000 -0.000067105793 -0.129414420741
Zn   0.000000000000  2.001033269917  0.003403158477  0.000000000000  0.000137811129 -0.129293321782
O    1.732945553087  1.000516461664  4.725078805122  0.000000000000  0.000054250277  0.129346800728
O    0.000000000000  2.001033269917  2.039387167487  0.000000000000 -0.000105415230  0.129240614167
Zn   1.732945553087  1.000516461664  8.060477378203  0.000000000000  0.000035224113 -0.129443217096
Zn   0.000000000000  2.001033269917  5.374785740568  0.000000000000 -0.000053736056 -0.129031326370
O    1.732945553087  1.000516461664  10.096461387213  0.000000000000 -0.000013112626  0.129299235319
O    0.000000000000  2.001033269917  7.410770096167  0.000000000000 -0.000135240026  0.129289722237
Zn   0.000000000000  4.002066193245  2.689094449523  0.000000000000 -0.000056050049 -0.129559173849
Zn  -1.732945553087  5.002583001498  0.003403158477  0.000000000000 -0.000014398178 -0.129304120415
O    0.000000000000  4.002066193245  4.725078805122  0.000000000000  0.000111585877  0.129368140884
O   -1.732945553087  5.002583001498  2.039387167487  0.000000000000 -0.000030081907  0.129301035091
Zn   0.000000000000  4.002066193245  8.060477378203  0.000000000000 -0.000159408396 -0.129391537923
Zn  -1.732945553087  5.002583001498  5.374785740568  0.000000000000  0.000163779271 -0.129035183025
O    0.000000000000  4.002066193245  10.096461387213  0.000000000000  0.000154009079  0.129288693796
O   -1.732945553087  5.002583001498  7.410770096167  0.000000000000 -0.000022111487  0.129338058977