# total energy = -14760.103361951815 eV

CRYSTAL
PRIMVEC
3.138920446790701 0.0 0.0
-1.5694602233953505 2.718383579931917 0.0
0.0 0.0 15.506069255157914
PRIMCOORD
12 1
Zn   1.569460223395  0.906128173869  2.587619606931  0.000000000000  0.000000000000  0.268156032420
Zn  -0.000000000000  1.812256661631  0.003274835702  0.000000000000  0.000000000000  0.268421370266
O    1.569460223395  0.906128173869  4.546773978767  0.000000000000 -0.000000000000 -0.268221338440
O   -0.000000000000  1.812256661631  1.962429521430  0.000000000000  0.000000000000 -0.268248592134
Zn   1.569460223395  0.906128173869  7.756308835497  0.000000000000  0.000000000000  0.268104610357
Zn  -0.000000000000  1.812256661631  5.171964064268  0.000000000000  0.000000000000  0.268150375993
O    1.569460223395  0.906128173869  9.715463521225  0.000000000000 -0.000000000000 -0.268225966426
O   -0.000000000000  1.812256661631  7.131118749996  0.000000000000  0.000000000000 -0.268208997145
Zn   1.569460223395  0.906128173869  12.924998064063  0.000000000000 -0.000000000000  0.268140348691
Zn  -0.000000000000  1.812256661631  10.340653292834  0.000000000000 -0.000000000000  0.268420856045
O    1.569460223395  0.906128173869  14.884152749791  0.000000000000  0.000000000000 -0.268259133657
O   -0.000000000000  1.812256661631  12.299807978562  0.000000000000  0.000000000000 -0.268229823081