# total energy = -44268.57383300135 eV

CRYSTAL
PRIMVEC
10.593856243330013 0.0 0.0
-1.7656462385070832 3.0581814510432914 0.0
0.0 0.0 18.81250635376798
PRIMCOORD
36 1
Zn   1.765643060350  1.019393817014  3.139390774848 -0.000423460691 -0.000244511911 -0.412729163179
Zn  -0.000000000000  2.038788693414  0.003972696091  0.000386693915  0.000223171754 -0.412188717294
O    1.765643060350  1.019393817014  5.516306756138 -0.000385922585 -0.000222914644  0.412434771867
O   -0.000000000000  2.038788693414  2.380888677381  0.000378209275  0.000218286658  0.412424230344
Zn   1.765643060350  1.019393817014  9.410226932361 -0.000392093232 -0.000226514189 -0.412572068776
Zn  -0.000000000000  2.038788693414  6.274808853604  0.000423203580  0.000244254800 -0.412727877627
O    1.765643060350  1.019393817014  11.787142913651 -0.000394664335 -0.000227799740  0.412347868580
O   -0.000000000000  2.038788693414  8.651724834894  0.000364839539  0.000210573349  0.412437085860
Zn   1.765643060350  1.019393817014  15.681063089874 -0.000297733746 -0.000172006801 -0.412703452147
Zn  -0.000000000000  2.038788693414  12.545645011117  0.000472825871  0.000273051156 -0.411809222468
O    1.765643060350  1.019393817014  18.057979071164 -0.000366125090 -0.000211344680  0.412379750259
O   -0.000000000000  2.038788693414  14.922560992407  0.000365610870  0.000211087570  0.412425515896
Zn   5.296928121665  1.019393817014  3.139390774848 -0.000579269542 -0.000334500521 -0.412631204148
Zn   3.531285061315  2.038788693414  0.003972696091  0.000410605175  0.000237055711 -0.412238596696
O    5.296928121665  1.019393817014  5.516306756138 -0.000378723496 -0.000218543769  0.412403661519
O    3.531285061315  2.038788693414  2.380888677381  0.000400320762  0.000231142174  0.412435543198
Zn   5.296928121665  1.019393817014  9.410226932361 -0.000477453857 -0.000275622259 -0.412511133631
Zn   3.531285061315  2.038788693414  6.274808853604  0.000357126229  0.000206202474 -0.412640717230
O    5.296928121665  1.019393817014  11.787142913651 -0.000368953304 -0.000213144452  0.412393377106
O    3.531285061315  2.038788693414  8.651724834894  0.000392607453  0.000226771299  0.412446084721
Zn   5.296928121665  1.019393817014  15.681063089874 -0.000722994209 -0.000417547153 -0.412467681987
Zn   3.531285061315  2.038788693414  12.545645011117  0.000366382200  0.000211601790 -0.411733889145
O    5.296928121665  1.019393817014  18.057979071164 -0.000391836122 -0.000226257078  0.412398005092
O    3.531285061315  2.038788693414  14.922560992407  0.000431174000  0.000248882786  0.412420887910
Zn   8.828213182980  1.019393817014  3.139390774848 -0.000230370843 -0.000132926033 -0.412563327025
Zn   7.062571182015  2.038788693414  0.003972696091  0.000448657502  0.000259167199 -0.412449684265
O    8.828213182980  1.019393817014  5.516306756138 -0.000394150115 -0.000227542630  0.412445570500
O    7.062571182015  2.038788693414  2.380888677381  0.000367410642  0.000212116011  0.412415745704
Zn   8.828213182980  1.019393817014  9.410226932361 -0.000372552848 -0.000214944224 -0.412422430572
Zn   7.062571182015  2.038788693414  6.274808853604  0.000464084121  0.000267908949 -0.412734562496
O    8.828213182980  1.019393817014  11.787142913651 -0.000381294599 -0.000220086431  0.412413688821
O    7.062571182015  2.038788693414  8.651724834894  0.000391579011  0.000226257078  0.412430400992
Zn   8.828213182980  1.019393817014  15.681063089874 -0.000246825903 -0.000142439115 -0.412232426048
Zn   7.062571182015  2.038788693414  12.545645011117  0.000417547153  0.000241169477 -0.412079445410
O    8.828213182980  1.019393817014  18.057979071164 -0.000393893004 -0.000227285519  0.412410089277
O    7.062571182015  2.038788693414  14.922560992407  0.000359440222  0.000207488025  0.412373322501