# total energy = -9839.7034509645 eV

CRYSTAL
PRIMVEC
3.138920446790701 0.0 0.0
-1.5694602233953505 2.718383579931917 0.0
0.0 0.0 10.337378457131795
PRIMCOORD
8 1
Zn   1.592691687514  0.944338252468  2.676099496485 -0.215737923829  0.666509643603 -1.771143236310
Zn   0.105909059227  1.747099892672  0.022702242131 -0.404565910642 -0.086363098077  0.238065897903
O    1.546257009561  0.879383943879  4.517935774946  0.094225531544 -0.450229217007  1.420463534163
O   -0.024491112894  1.920963440652  1.946675279708  0.258622124787 -0.768802782647  0.407356586013
Zn   1.518382140425  0.819205188857  7.687213976946  0.451268456905  1.903645809057  1.981717870770
Zn  -0.013166829598  1.725251750795  5.201725110700 -0.127301488163  0.478454016181 -0.177280905405
O    1.635370333261  0.833825966406  9.746043512002  0.324036645637  0.195769708238 -1.332119658210
O    0.013237455308  1.847416651231  7.131950877807 -0.380547693350 -1.938983822237 -0.767060346035