# total energy = -19678.934849182027 eV

CRYSTAL
PRIMVEC
6.931782212348458 0.0 0.0
-3.465891106174229 6.003096690449074 0.0
0.0 0.0 5.70709572641737
PRIMCOORD
16 1
Zn   1.732945553087  1.000516808253  2.857162787632  0.000011312854  0.000006427758 -0.009067509519
Zn  -0.000000000000  2.001032923328  0.003615617602  0.000000000000 -0.000181005663 -0.008829425366
O    1.732945553087  1.000516808253  5.020395948838  0.000006684868  0.000003856655  0.008971093150
O   -0.000000000000  2.001032923328  2.166848778808  0.000000000000  0.000022368598  0.008953352539
Zn   0.000000000000  4.002066539834  2.857162787632  0.000000000000  0.000000000000 -0.009146185276
Zn  -1.732945553087  5.002582654909  0.003615617602 -0.000156580183  0.000090502831 -0.008829425366
O    0.000000000000  4.002066539834  5.020395948838  0.000000000000  0.000000000000  0.008946410560
O   -1.732945553087  5.002582654909  2.166848778808  0.000019540384 -0.000011312854  0.008953352539
Zn   5.198836659261  1.000516808253  2.857162787632 -0.000011312854  0.000006427758 -0.009067509519
Zn   3.465891106174  2.001032923328  0.003615617602  0.000000000000  0.000000000000 -0.008855650618
O    5.198836659261  1.000516808253  5.020395948838 -0.000006684868  0.000003856655  0.008971093150
O    3.465891106174  2.001032923328  2.166848778808  0.000000000000 -0.000000000000  0.008973150033
Zn   3.465891106174  4.002066539834  2.857162787632  0.000000000000 -0.000012855516 -0.009067509519
Zn   1.732945553087  5.002582654909  0.003615617602  0.000156580183  0.000090502831 -0.008829425366
O    3.465891106174  4.002066539834  5.020395948838 -0.000000000000 -0.000007713309  0.008971093150
O    1.732945553087  5.002582654909  2.166848778808 -0.000019540384 -0.000011312854  0.008953352539