# total energy = -14758.027377993214 eV

CRYSTAL
PRIMVEC
3.5966608487253477 0.0 0.0
-5.394991273088022 9.344398231212956 0.0
0.0 0.0 5.5740474367809645
PRIMCOORD
12 1
Zn   1.826449118878  1.020781263456  2.796344464980  0.019793637687  0.097147590287 -0.077884371182
Zn  -0.047552891745  2.059616685374 -0.106894199088  0.160074054608  0.100845607964  0.310465848932
O    1.836702119959  1.003630945865  4.886038586367 -0.167504542744  0.201099605091  0.126386175437
O    0.005917945760  2.115260985031  2.191661614445 -0.022738065027 -0.287577631480 -0.316646780931
Zn   0.006412486627  4.114006703203  2.774132206910  0.033515615259  0.000350441361 -0.048014323096
Zn  -1.822357197830  5.202651921549 -0.040078311170  0.037872092455 -0.021837150480  0.035644488676
O    0.050179533163  4.172252827317  4.914724474299 -0.249650774527 -0.164144368023 -0.273701901939
O   -1.847328454437  5.159169370886  2.050335861720  0.174659922842  0.243755492088  0.168850772360
Zn  -1.803028742429  7.189986154180  2.730820137972 -0.062227895592  0.175334580312  0.122509980311
Zn  -3.657672445367  8.276962521892  0.044125633623  0.126142177747  0.065701713073 -0.330570590101
O   -1.823257442041  7.292246055764  4.783033096989  0.148903639814 -0.232072142213  0.611207528597
O   -3.537938526714  8.322129388830  2.112640457936 -0.198839862522 -0.178603737981 -0.328246312843