# total energy = -14759.890649883857 eV

CRYSTAL
PRIMVEC
10.397673847699894 0.0 0.0
-1.7329491071745982 3.001548497984767 0.0
0.0 0.0 5.03567662583184
PRIMCOORD
12 1
Zn   1.733007334148  1.004544224844  2.549215373286  0.028285220098 -0.059240016608 -1.682301594785
Zn  -0.004413812548  1.975853325000 -0.019811727749  0.167146645184  0.173428878649 -0.577199032862
O    1.710833254901  0.972266725918  4.387205940740  0.077940678342  0.063969560873  1.831921286829
O    0.038073162328  1.998982950474  1.914409311165 -0.386245257956 -0.145473788197  0.451101335199
Zn   5.240654288531  0.985960462376  2.491354397858 -0.475029306770 -0.101672988961 -0.056079359492
Zn   3.452833537160  2.066163360972  0.056429215739 -0.124391513605 -0.442367811981 -2.406969334786
O    5.168339506687  0.970332758582  4.485146829548  0.242905742493  0.571346173626 -0.170397805132
O    3.438592883058  2.018513941030  1.855098900003  0.283632530789 -0.109080337169  2.685675889028
Zn   8.651153696619  0.941981421302  2.454794097075  0.393586014592  0.374331280127 -0.303455221942
Zn   6.931403396627  2.039292652447 -0.024790133988 -0.121366096515 -0.100552245093 -0.468312299761
O    8.645716752964  1.043750733621  4.400670928372 -0.120668042007 -0.280630767848  0.799896932949
O    6.932362062156  1.972178787062  1.964382611211  0.034203128244  0.055942062583 -0.103880795246