# total energy = -14757.684079718594 eV

CRYSTAL
PRIMVEC
3.59667936992764 0.0 0.0
-1.79833968496382 3.1148142513415844 0.0
0.0 0.0 17.070609979061743
PRIMCOORD
12 1
Zn   1.790203276893  0.998894611704  2.910668168976  0.048473265010  0.012264419190 -0.295566306112
Zn  -0.006896632692  2.164374463777 -0.039492978154  0.018862898343 -0.292333915218  0.409456920186
O    1.847667423187  1.000810203136  5.035779122744 -0.110031645339  0.061657882021 -0.173525809238
O    0.016857636207  2.044688483720  2.181417328972 -0.016774648355  0.076334253086  0.000657173968
Zn   1.842801115999  1.122100302193  8.577536839025 -0.095290225364 -0.102769821570 -0.264677844063
Zn  -0.074964509104  2.121770717637  5.679112126292  0.129037239907 -0.113870559469  0.408716442475
O    1.755708604060  1.034264716296  10.660014553881  0.084112611480  0.077475051559  0.440347182006
O    0.016203040562  2.047239248729  7.875716793571 -0.037774647646  0.100601610274 -0.130607155497
Zn   1.827075714458  1.038513473635  14.198716891037 -0.000539931664 -0.009794874603  0.155803966478
Zn  -0.031177095782  2.109879735972  11.393705494567  0.033972757401 -0.035137724243 -0.244747166578
O    1.847086559468  0.998859364246  16.377692794052 -0.030179866017  0.251720769682 -0.292293548898
O    0.012156416602  2.094335247403  13.523780585201 -0.023867807757 -0.026146833599 -0.013563597617