# total energy = -14756.599505931825 eV

CRYSTAL
PRIMVEC
9.416760811194894 0.0 0.0
-1.5694632741194197 2.7183834271716862 0.0
0.0 0.0 4.864651551259227
PRIMCOORD
12 1
Zn   1.553841809610  0.719947147707  2.360929778511  0.681393245583  4.677757362421  1.284488943706
Zn   0.044856740124  1.803171268960 -0.028940531001 -0.281637611846  1.998424899112  0.632373364041
O    1.518598640598  1.020089448394  4.233441365704  1.311309149223 -1.787050137348  0.344808845188
O    0.141901168664  1.841277133258  1.920534242302 -1.684750570546 -4.872792249375 -1.673841379833
Zn   4.719797286405  0.863371006594  2.401682694274 -1.578869199930  0.375007480258 -2.470218986774
Zn   3.150940451682  1.784621191838  0.032002861617 -0.087293066091 -0.263272479075 -1.028992509032
O    4.552951118352  0.789212131854  4.118535225258  1.513600460629  1.096808697345  4.407939111808
O    3.078333459123  1.869810860192  1.847093866412  0.160351733750 -1.655758297079  0.436277639923
Zn   7.795361276173  0.918862094702  2.467550111120  0.538418826770  3.383686688564  0.062081856932
Zn   6.347571026819  1.668226261507  0.067517233340 -2.356764174687  0.823389873865 -0.154910508129
O    7.901212259424  0.970607195360  4.354711353107 -0.377940851855 -1.777612388974 -0.042862089471
O    6.064784757983  1.986661561746  1.964212003973  2.162182316109 -1.998589706825 -1.797144031249