# total energy = -9838.556727737548 eV

CRYSTAL
PRIMVEC
3.138920446790701 0.0 0.0
-3.138920446790701 5.436770298784281 0.0
0.0 0.0 5.5740760958882465
PRIMCOORD
8 1
Zn   1.456362722453  0.994204398254  2.713412471620  4.967793482743 -2.887284829655  2.566195439572
Zn  -0.179824044016  1.800103703337 -0.016684303851  1.863368963815  1.583784377843  1.164396314587
O    1.471427343353  1.050570934393  4.964466355917 -1.892897055181 -1.297206648383 -1.113144201280
O    0.024947198035  1.614503731807  2.204503694071 -5.194868943073  3.343021349634 -2.499399207883
Zn  -0.025611707494  3.530164280256  2.802607407252 -0.279175009238  0.146418411498  0.778425907559
Zn  -1.631619951111  4.720100457458  0.062107307744 -0.779924089371 -1.385834117015  0.322835169130
O   -0.279899733485  3.614631373911  4.887301646789  1.194296701691  0.594957899507  0.246888124180
O   -1.608834213696  4.509888524597  2.326548059962  0.121405691504 -0.097856700539 -1.466197545865