# total energy = -14759.137217822017 eV

CRYSTAL
PRIMVEC
3.335102842420818 0.0 0.0
-1.667551421210409 2.8882824391074893 0.0
0.0 0.0 17.767370185964346
PRIMCOORD
12 1
Zn   1.602226094815  0.978444467663  3.038274687322 -0.214218658971 -0.200581784914 -0.493818414452
Zn  -0.079245045128  2.006395201918 -0.028953028306  0.245564263162 -0.825321543670  0.695731259473
O    1.670427947412  0.992918146978  5.260857592181 -0.733569413366 -0.584616922593 -0.593528366150
O   -0.119535755547  1.880211252365  2.267670493696  0.338303439969  0.290439012188  0.322811772091
Zn   1.675707748722  0.937403359104  8.849879823551 -0.175130434721  0.223052198103 -0.240182944246
Zn  -0.067477134749  1.841445017455  5.857827994073  0.647875573442  0.631231794238  0.737614787080
O    1.755346335986  0.894611655064  10.996669514723 -0.220075889083  0.305248823507  1.079869241277
O   -0.065978006021  1.962196084478  8.142067612201  0.263404119557 -0.335067963751 -0.061869226701
Zn   1.639500871734  1.074749897871  14.837431645334  0.386449146436 -0.447640116123  0.167537967085
Zn  -0.024123465880  1.956396340635  11.854623053385  0.168700105714 -0.247324697497 -0.700534080178
O    1.698231032258  0.919719643303  17.127375623364 -0.322395510490  0.861438343997 -0.662407705620
O    0.026531076622  1.948932046964  14.156061796871 -0.384906484540  0.329143113626 -0.251224546772