# total energy = -9840.284115773264 eV

CRYSTAL
PRIMVEC
3.2697087105441125 0.0 0.0
-1.6348543552720562 2.831649486048965 0.0
0.0 0.0 11.401520049589267
PRIMCOORD
8 1
Zn   1.634854355272  0.943883488987  2.853992059610  0.000000000000  0.000000000000  0.193579128344
Zn  -0.000000000000  1.887767304945  0.003612047213  0.000000000000  0.000000000000  0.192681556231
O    1.634854355272  0.943883488987  5.014824182953  0.000000000000  0.000000000000 -0.192970548226
O   -0.000000000000  1.887767304945  2.164444170556  0.000000000000  0.000000000000 -0.193108616466
Zn   1.634854355272  0.943883488987  8.554752084404  0.000000000000 -0.000000000000  0.192026182035
Zn  -0.000000000000  1.887767304945  5.704372072007  0.000000000000  0.000000000000  0.193928541264
O    1.634854355272  0.943883488987  10.715584207748  0.000000000000  0.000000000000 -0.193105016921
O   -0.000000000000  1.887767304945  7.865204195350  0.000000000000 -0.000000000000 -0.193031226260