# total energy = -44282.664131108824 eV

CRYSTAL
PRIMVEC
9.809126131632336 0.0 0.0
-1.6348576249807667 2.8316494860489647 0.0
0.0 0.0 15.518733988197702
PRIMCOORD
36 1
Zn   1.634854682243  0.943883162016  2.589733874653  0.000327301432  0.000188976082 -0.190526457561
Zn  -0.000000000000  1.887767304945  0.003277229041 -0.000372809958 -0.000215201335 -0.190889754437
O    1.634854682243  0.943883162016  4.550488925318 -0.000057592711 -0.000033167231  0.190522858016
O   -0.000000000000  1.887767304945  1.964032279706  0.000042423202  0.000024425480  0.190511030942
Zn   1.634854682243  0.943883162016  7.762645204052  0.000154009079  0.000088960169 -0.190194013922
Zn  -0.000000000000  1.887767304945  5.176189539352  0.000167635926  0.000096673479 -0.190457294886
O    1.634854682243  0.943883162016  9.723400254718 -0.000039080768 -0.000022625708  0.190493033220
O   -0.000000000000  1.887767304945  7.136944590018  0.000056564270  0.000032653010  0.190516173148
Zn   1.634854682243  0.943883162016  12.935557514364 -0.000102844126 -0.000059392483 -0.190448296025
Zn  -0.000000000000  1.887767304945  10.349101849664 -0.000529133031 -0.000305447056 -0.190655784050
O    1.634854682243  0.943883162016  14.896312565029 -0.000080732639 -0.000046536967  0.190506660066
O   -0.000000000000  1.887767304945  12.309856900330  0.000030339017  0.000017483501  0.190543683952
Zn   4.904563065816  0.943883162016  2.589733874653  0.000178691670  0.000103101237 -0.190670953558
Zn   3.269708383573  1.887767304945  0.003277229041 -0.000183062545 -0.000105672340 -0.190472207284
O    4.904563065816  0.943883162016  4.550488925318 -0.000045251416 -0.000026225252  0.190530057105
O    3.269708383573  1.887767304945  1.964032279706  0.000055021608  0.000031881679  0.190497918316
Zn   4.904563065816  0.943883162016  7.762645204052  0.000337585845  0.000194889620 -0.190611818186
Zn   3.269708383573  1.887767304945  5.176189539352 -0.000206973804 -0.000119556297 -0.190440325605
O    4.904563065816  0.943883162016  9.723400254718 -0.000083560853 -0.000048336739  0.190506145846
O    3.269708383573  1.887767304945  7.136944590018  0.000070705337  0.000040880540  0.190507431397
Zn   4.904563065816  0.943883162016  12.935557514364 -0.000136782688 -0.000078932867 -0.190174473538
Zn   3.269708383573  1.887767304945  10.349101849664 -0.000438373089 -0.000252996551 -0.190689208391
O    4.904563065816  0.943883162016  14.896312565029 -0.000060935145 -0.000035224113  0.190485319910
O    3.269708383573  1.887767304945  12.309856900330  0.000056050049  0.000032395900  0.190535199312
Zn   8.174271449389  0.943883162016  2.589733874653  0.000044737195  0.000025711032 -0.191068960328
Zn   6.539417748059  1.887767304945  0.003277229041 -0.000026482363 -0.000015169509 -0.190443410929
O    8.174271449389  0.943883162016  4.550488925318 -0.000058106931 -0.000033681451  0.190542141290
O    6.539417748059  1.887767304945  1.964032279706  0.000064791800  0.000037280996  0.190512316493
Zn   8.174271449389  0.943883162016  7.762645204052  0.000131126261  0.000075590433 -0.189954901328
Zn   6.539417748059  1.887767304945  5.176189539352 -0.000534018127 -0.000308275269 -0.190077285838
O    8.174271449389  0.943883162016  9.723400254718 -0.000040109209 -0.000023139928  0.190502546301
O    6.539417748059  1.887767304945  7.136944590018  0.000027253694  0.000015683729  0.190479149263
Zn   8.174271449389  0.943883162016  12.935557514364  0.000803983959  0.000464084121 -0.190257777280
Zn   6.539417748059  1.887767304945  10.349101849664  0.000397492549  0.000229342402 -0.191199829479
O    8.174271449389  0.943883162016  14.896312565029 -0.000025711032 -0.000014912398  0.190489690786
O    6.539417748059  1.887767304945  12.309856900330  0.000076104654  0.000043965864  0.190551911482