# total energy = -14760.453821310271 eV

CRYSTAL
PRIMVEC
10.20149092289257 0.0 0.0
-1.700251887645736 2.9449153921660125 0.0
0.0 0.0 5.270039203311687
PRIMCOORD
12 1
Zn   1.609351502777  0.968201060212  2.594504380456  0.810993299972  0.122587627627  0.130932914268
Zn   0.037762858949  1.886306679097 -0.033529240216 -0.170086444539  0.429641108443 -0.315764892547
O    1.691154198041  0.981550731233  4.638960692734  0.309816645383 -0.273853597025 -0.118820447275
O   -0.012529471151  1.944992795930  1.961200924708 -0.304310627963  0.066582573016  0.312220626839
Zn   5.122169612533  1.005620128917  2.612200906760 -0.454456367714 -0.445780437207  0.042309302291
Zn   3.447658126784  2.027354532896 -0.043926599765 -0.098252907536 -0.673594061254  0.295829329965
O    5.173476990981  0.949580278830  4.659161685060 -0.312124724691  0.514929742509 -0.222466757913
O    3.416543579470  1.937127446428  2.031699347880 -0.307436060966  0.037107960596 -0.140848116499
Zn   8.512787122972  0.983955222644  2.580347771502 -0.350356000258 -0.178635619660  0.108412621678
Zn   6.837671708960  1.975220833683  0.002192300399 -0.140852744485 -0.107769074557 -0.609379474249
O    8.493696052858  0.968284712437  4.634596494917  0.204448981179  0.071807825971 -0.248769657473
O    6.736187277259  1.927597213608  1.942798455232  0.812617208729  0.436975694431  0.766344550915