# total energy = -9831.702957707108 eV

CRYSTAL
PRIMVEC
2.9427380511605845 0.0 0.0
-2.9427380511605845 5.0969723842507415 0.0
0.0 0.0 4.655620531337677
PRIMCOORD
8 1
Zn   1.398003623227  0.989950911279  2.260463645451 -1.022829574755 -3.872807697540  2.012480348764
Zn  -0.092112703656  1.881843610944 -0.154441955496  3.667327961103 -3.864414331270  3.210278121630
O    1.530950348628  0.928412373153  4.172273452244 -3.528041275554  0.568675825882 -2.416757781631
O   -0.094075804210  1.671365154656  1.839501435947  0.950810918324  2.525814464651 -3.181844291769
Zn   0.046325465223  3.358379790268  2.456021536998 -2.644822088237  0.845879570327 -1.200553738344
Zn  -1.615125899213  4.450908370261  0.096538287411  0.971393370461 -1.695254812511 -5.531648747309
O   -0.071219852040  3.474798921679  4.212377086405 -1.210822981481  5.644866246575 -0.313325686978
O   -1.670180408317  4.290428799105  1.698218227921  2.816983670137 -0.152759523225  7.421371261417