# total energy = -44277.00951628822 eV

CRYSTAL
PRIMVEC
10.790038638960128 0.0 0.0
-5.395019319480064 9.344443212305446 0.0
0.0 0.0 5.225702033157502
PRIMCOORD
36 1
Zn   1.798340132828  1.038271468034  2.616159242425  0.000167121705  0.000096416369 -0.344892920261
Zn   0.000000000000  2.076544015072  0.003311462858  0.000000000000 -0.000018511943 -0.344949998751
O    1.798340132828  1.038271468034  4.596922242507 -0.000007199089 -0.000004113765  0.344912203535
O    0.000000000000  2.076544015072  1.984073383936  0.000000000000  0.000010027302  0.344914517528
Zn   0.000000000000  4.153088030143  2.616159242425  0.000000000000 -0.000119299187 -0.344905518667
Zn  -1.798340132828  5.191359498177  0.003311462858 -0.000247340124 -0.000142696225 -0.344903461784
O    0.000000000000  4.153088030143  4.596922242507  0.000000000000  0.000000514221  0.344918374183
O   -1.798340132828  5.191359498177  1.984073383936  0.000013112626  0.000007456199  0.344913746197
Zn  -1.798340132828  7.267903513249  2.616159242425 -0.000103358347  0.000059649593 -0.344905518667
Zn  -3.596679186652  8.306176060287  0.003311462858 -0.000015940840  0.000009255971 -0.344949998751
O   -1.798340132828  7.267903513249  4.596922242507  0.000000514221 -0.000000257110  0.344918374183
O   -3.596679186652  8.306176060287  1.984073383936  0.000008741751 -0.000005142206  0.344914517528
Zn   5.395019319480  1.038271468034  2.616159242425  0.000000000000  0.000322159226 -0.344898576688
Zn   3.596679186652  2.076544015072  0.003311462858  0.000251196779  0.000145010218 -0.344916317300
O    5.395019319480  1.038271468034  4.596922242507  0.000000000000 -0.000010284413  0.344907061329
O    3.596679186652  2.076544015072  1.984073383936 -0.000003342434 -0.000001799772  0.344900890681
Zn   3.596679186652  4.153088030143  2.616159242425  0.000278964693 -0.000160951058 -0.344898576688
Zn   1.798340132828  5.191359498177  0.003311462858  0.000247340124 -0.000142696225 -0.344903461784
O    3.596679186652  4.153088030143  4.596922242507 -0.000008998861  0.000005142206  0.344907061329
O    1.798340132828  5.191359498177  1.984073383936 -0.000013112626  0.000007456199  0.344913746197
Zn   1.798340132828  7.267903513249  2.616159242425  0.000103358347  0.000059649593 -0.344905518667
Zn  -0.000000000000  8.306176060287  0.003311462858  0.000000000000  0.000285649561 -0.344903461784
O    1.798340132828  7.267903513249  4.596922242507 -0.000000514221 -0.000000257110  0.344918374183
O   -0.000000000000  8.306176060287  1.984073383936 -0.000000000000 -0.000015169509  0.344913746197
Zn   8.991698506132  1.038271468034  2.616159242425 -0.000167121705  0.000096416369 -0.344892920261
Zn   7.193359452308  2.076544015072  0.003311462858 -0.000251196779  0.000145010218 -0.344916317300
O    8.991698506132  1.038271468034  4.596922242507  0.000007199089 -0.000004113765  0.344912203535
O    7.193359452308  2.076544015072  1.984073383936  0.000003342434 -0.000001799772  0.344900890681
Zn   7.193359452308  4.153088030143  2.616159242425 -0.000278964693 -0.000160951058 -0.344898576688
Zn   5.395019319480  5.191359498177  0.003311462858 -0.000000000000 -0.000290020437 -0.344916317300
O    7.193359452308  4.153088030143  4.596922242507  0.000008998861  0.000005142206  0.344907061329
O    5.395019319480  5.191359498177  1.984073383936 -0.000000000000  0.000003856655  0.344900890681
Zn   5.395019319480  7.267903513249  2.616159242425  0.000000000000 -0.000192832737 -0.344892920261
Zn   3.596679186652  8.306176060287  0.003311462858  0.000015940840  0.000009255971 -0.344949998751
O    5.395019319480  7.267903513249  4.596922242507  0.000000000000  0.000008484640  0.344912203535
O    3.596679186652  8.306176060287  1.984073383936 -0.000008741751 -0.000005142206  0.344914517528