# total energy = -9837.894852730551 eV

CRYSTAL
PRIMVEC
3.59667936992764 0.0 0.0
-3.59667936992764 6.229632099362539 0.0
0.0 0.0 5.9224576977738685
PRIMCOORD
8 1
Zn   1.798339684964  1.038271776782  2.964980545138  0.000000000000  0.000739706380 -0.062858844308
Zn   0.000000000000  2.076543913232  0.003752415587  0.000000000000  0.000134211585 -0.062657012710
O    1.798339684964  1.038271776782  5.209844736867  0.000000000000  0.000225742858  0.062748801092
O    0.000000000000  2.076543913232  2.248616966983  0.000000000000 -0.000241169477  0.062752914858
Zn   0.000000000000  4.153087466795  2.964980545138  0.000000000000 -0.000210573349 -0.062618960383
Zn  -1.798339684964  5.191359603245  0.003752415587  0.000000000000 -0.000626577840 -0.062857558756
O    0.000000000000  4.153087466795  5.209844736867  0.000000000000  0.000227542630  0.062748286872
O   -1.798339684964  5.191359603245  2.248616966983  0.000000000000 -0.000248882786  0.062742373335