# total energy = -9840.33818982711 eV

CRYSTAL
PRIMVEC
6.408629157334813 0.0 0.0
-1.6021572893337033 2.775019737305019 0.0
0.0 0.0 5.483287193307239
PRIMCOORD
8 1
Zn   1.558508116143  0.981088706478  2.731023216414  0.482496561681 -0.670917285753  0.599170394927
Zn   0.009104739444  1.799794926505  0.030660804477  0.056503334403  0.368016393653 -0.268173773032
O    1.659649101504  0.956980725314  4.838466949069 -0.868368238347 -0.794651111169 -0.725972574856
O    0.028005068555  1.823606829002  2.001963464492 -0.870754736302  0.390764743093  0.387206336317
Zn   4.794130129970  0.912374743791  2.759187218972  0.373980581656 -0.265764649369  0.089430167038
Zn   3.226599304836  1.839680952655 -0.037106603684  0.070646972894  0.109049226821  0.867478636654
O    4.785092681132  0.900397656758  4.811603257367  0.690946693600  0.257259697222 -0.429619511176
O    3.210716158333  1.781671964111  2.095259006038  0.064548830416  0.606242728392 -0.519519418762