# total energy = -14753.025401819586 eV

CRYSTAL
PRIMVEC
3.00813218303729 0.0 0.0
-1.504066091518645 2.605117673814869 0.0
0.0 0.0 15.734098554152391
PRIMCOORD
12 1
Zn   1.490682911436  0.740149118757  2.536865561087  1.369418394661 -0.901643198350  1.883851142929
Zn  -0.136192282147  1.679738002876 -0.277271876652  11.792578565021  7.035101320871  5.100500972413
O    1.349933309032  0.868150256970  4.633219042038  1.064484788401  0.561831035046 -0.896022252619
O    0.068933153854  1.538796782451  1.821099459367 -1.463989996691  1.169416650620 -1.089229856557
Zn   1.553947541004  1.081970699046  7.926699335013  0.188518940212 -1.603849009804  1.633917547054
Zn   0.090816112232  1.892696013455  5.556340207334 -0.741847851325 -0.141463124375 -7.605721157853
O    1.444830554197  0.977789455524  9.921481728737  8.394045041252 -5.319861580597 -4.443057809888
O    0.053701777358  1.770715952620  7.206101270566 -0.370507021285  1.047276652053  5.688308891139
Zn   1.404431338979  0.894403730597  13.179045525073  0.627014670832 -0.404553312236  0.903208743065
Zn   0.266447112992  1.808341970778  10.503519810195 -8.468551239991  5.235911205726  4.797598023431
O    1.640467138040  0.870428616285  15.177417222118 -11.806609589193 -7.148642779135 -4.109479286198
O   -0.059697586425  1.741761777918  12.543376056550 -0.584554444786  0.470476397292 -1.863874699807