# total energy = -29511.02124059439 eV

CRYSTAL
PRIMVEC
3.138920446790701 0.0 0.0
-4.7083806701860516 8.155153878716197 0.0
0.0 0.0 9.121216285704524
PRIMCOORD
24 1
Zn   1.569460223395  0.906128173869  2.283193604643  0.000000000000 -0.000278193362 -3.086408284857
Zn   0.000000000000  1.812256661631  0.002889690163  0.000000000000  0.000239112594 -3.086342978836
O    1.569460223395  0.906128173869  4.011859559208  0.000000000000  0.000033681451  3.086362776331
O    0.000000000000  1.812256661631  1.731555330836  0.000000000000 -0.000026996583  3.086350949256
Zn   1.569460223395  0.906128173869  6.843801747496  0.000000000000 -0.000281535796 -3.086290785442
Zn   0.000000000000  1.812256661631  4.563497833016  0.000000000000  0.000324473219 -3.086384887818
O    1.569460223395  0.906128173869  8.572467702060  0.000000000000  0.000046279857  3.086358148345
O    0.000000000000  1.812256661631  6.292163473688  0.000000000000 -0.000027767914  3.086348635263
Zn   0.000000000000  3.624513009369  2.283193604643  0.000000000000 -0.000354812236 -3.086374860515
Zn  -1.569460223395  4.530641497131  0.002889690163  0.000000000000  0.000330129646 -3.086371003861
O    0.000000000000  3.624513009369  4.011859559208  0.000000000000  0.000033424341  3.086363033441
O   -1.569460223395  4.530641497131  1.731555330836  0.000000000000 -0.000031881679  3.086352749028
Zn   0.000000000000  3.624513009369  6.843801747496  0.000000000000 -0.000320102344 -3.086255561329
Zn  -1.569460223395  4.530641497131  4.563497833016  0.000000000000  0.000303390173 -3.086448136956
O    0.000000000000  3.624513009369  8.572467702060  0.000000000000  0.000040623430  3.086361747889
O   -1.569460223395  4.530641497131  6.292163473688  0.000000000000 -0.000040623430  3.086359176786
Zn  -1.569460223395  6.342897844870  2.283193604643  0.000000000000 -0.000286420892 -3.086425511248
Zn  -3.138920446791  7.249026332631  0.002889690163  0.000000000000  0.000316502799 -3.086323695562
O   -1.569460223395  6.342897844870  4.011859559208  0.000000000000  0.000035738334  3.086358148345
O   -3.138920446791  7.249026332631  1.731555330836  0.000000000000 -0.000027767914  3.086364061882
Zn  -1.569460223395  6.342897844870  6.843801747496  0.000000000000 -0.000317017020 -3.086267902624
Zn  -3.138920446791  7.249026332631  4.563497833016  0.000000000000  0.000283849789 -3.086396972003
O   -1.569460223395  6.342897844870  8.572467702060  0.000000000000  0.000043194533  3.086356348573
O   -3.138920446791  7.249026332631  6.292163473688  0.000000000000 -0.000037538106  3.086354034580