# total energy = -9839.894553248023 eV

CRYSTAL
PRIMVEC
6.277840893581402 0.0 0.0
-1.5694602233953505 2.7183867188523636 0.0
0.0 0.0 5.5740760958882465
PRIMCOORD
8 1
Zn   1.596542201226  0.975061691909  2.811877581008 -0.948420306605 -0.457632451449  0.449083790549
Zn   0.070422308008  1.673158227060  0.058898703264 -0.921522453773  0.556348671775  0.550340775019
O    1.604115160696  0.852351247099  4.932173770145 -0.784123729275 -1.084215434061 -1.249590074947
O   -0.063675512400  1.866096366810  2.073425829025  0.546904495643 -0.104693006735  0.113172504961
Zn   4.753874927574  0.901841350215  2.874157529377 -0.564783689917  0.224366288928  0.206271121990
Zn   3.015102590847  1.850048322134 -0.048012927154  0.737183613080  1.214075426980  1.393932063532
O    4.611177720710  1.029675140979  4.980716547070  1.017877115845 -0.639219697539 -0.976871362857
O    3.100953320634  1.828239102870  2.133429432286  0.916884955001  0.290969944991 -0.486338818245