# total energy = -9839.199195993746 eV

CRYSTAL
PRIMVEC
6.147052100650782 0.0 0.0
-1.5367630251626956 2.661753471259097 0.0
0.0 0.0 5.061009376664105
PRIMCOORD
8 1
Zn   1.536763025163  0.887250747283  2.533710376003  0.000160693948  0.000092816824  0.362368965559
Zn  -0.000000000000  1.774500879861  0.003206302376 -0.000308789490 -0.000178177449  0.362213413818
O    1.536763025163  0.887250747283  4.452049201492 -0.000040109209 -0.000023139928 -0.362284119154
O   -0.000000000000  1.774500879861  1.921545127865  0.000059649593  0.000034452782 -0.362244524166
Zn   4.610289075488  0.887250747283  2.533710376003  0.000352241133  0.000203374260  0.362351482057
Zn   3.073526050325  1.774500879861  0.003206302376 -0.000252482330 -0.000145781549  0.362170990615
O    4.610289075488  0.887250747283  4.452049201492 -0.000034452782 -0.000019797494 -0.362285661816
O    3.073526050325  1.774500879861  1.921545127865  0.000063506248  0.000036509665 -0.362290546912