# total energy = -14758.175562618162 eV

CRYSTAL
PRIMVEC
3.59667936992764 0.0 0.0
-5.39501905489146 9.344446350704123 0.0
0.0 0.0 5.574076140643938
PRIMCOORD
12 1
Zn   1.798339684964  1.038271776782  2.790569649795  0.000000000000 -0.000300304849  0.018402927987
Zn  -0.000000000000  2.076543913232  0.003531579473  0.000000000000 -0.000444800847  0.018697833520
O    1.798339684964  1.038271776782  4.903383556797  0.000000000000  0.000145781549 -0.018532511587
O   -0.000000000000  2.076543913232  2.116345126807  0.000000000000 -0.000167378816 -0.018542281779
Zn   0.000000000000  4.153087466795  2.790569649795  0.000000000000  0.000291820209  0.018444065638
Zn  -1.798339684964  5.191359603245  0.003531579473  0.000000000000 -0.000074304881  0.018663380737
O    0.000000000000  4.153087466795  4.903383556797  0.000000000000  0.000134725806 -0.018534825579
O   -1.798339684964  5.191359603245  2.116345126807  0.000000000000 -0.000174835015 -0.018537653793
Zn  -1.798339684964  7.267903156808  2.790569649795  0.000000000000  0.000446343509  0.018324766451
Zn  -3.596679369928  8.306175293258  0.003531579473  0.000000000000  0.000167121705  0.018700147513
O   -1.798339684964  7.267903156808  4.903383556797  0.000000000000  0.000140125122 -0.018534054248
O   -3.596679369928  8.306175293258  2.116345126807  0.000000000000 -0.000163779271 -0.018551794860