# total energy = -9840.551678507967 eV

CRYSTAL
PRIMVEC
6.670205684841636 0.0 0.0
-1.667551421210409 2.888285774210331 0.0
0.0 0.0 5.384049954484786
PRIMCOORD
8 1
Zn   1.667551421210  0.962761480056  2.695436787450  0.000119299187  0.000068905565 -0.001288122684
Zn  -0.000000000000  1.925522293092  0.003411143187 -0.000124441393 -0.000071990889 -0.001251098798
O    1.667551421210  0.962761480056  4.736222902859 -0.000052964725 -0.000030596128  0.001276809830
O   -0.000000000000  1.925522293092  2.044197258596  0.000069162675  0.000039852099  0.001282980477
Zn   5.002654263631  0.962761480056  2.695436787450  0.000109014774  0.000062992027 -0.001277838271
Zn   3.335102842421  1.925522293092  0.003411143187 -0.000107472112 -0.000061963586 -0.001271667624
O    5.002654263631  0.962761480056  4.736222902859 -0.000071990889 -0.000041651871  0.001263440093
O    3.335102842421  1.925522293092  2.044197258596  0.000059392483  0.000034195672  0.001265496976