# total energy = -19680.460888487625 eV

CRYSTAL
PRIMVEC
6.539417421088225 0.0 0.0
-1.6348543552720562 2.8316527557576756 0.0
0.0 0.0 9.92354631824912
PRIMCOORD
16 1
Zn   1.634854355272  0.943883815958  2.484029750546  0.000570270681  0.000329358315 -0.841140512980
Zn  -0.000000000000  1.887766977974  0.003143497954  0.000060935145  0.000035224113 -0.841545461728
O    1.634854355272  0.943883815958  4.364754429899  0.000006684868  0.000003856655  0.841285780308
O   -0.000000000000  1.887766977974  1.883868177308  0.000030081907  0.000017226391  0.841271125020
Zn   1.634854355272  0.943883815958  7.445802909670  0.000550216077  0.000317788351 -0.841334888379
Zn  -0.000000000000  1.887766977974  4.964916657079  0.000104643899  0.000060420924 -0.840985732569
O    1.634854355272  0.943883815958  9.326526935082  0.000002828213  0.000001542662  0.841248242202
O   -0.000000000000  1.887766977974  6.845640682491  0.000067620013  0.000039080768  0.841224330943
Zn   4.904563065816  0.943883815958  2.484029750546 -0.000147324211 -0.000085103515 -0.841246442430
Zn   3.269708710544  1.887766977974  0.003143497954 -0.000583897528 -0.000337071624 -0.841202476566
O    4.904563065816  0.943883815958  4.364754429899 -0.000026996583 -0.000015426619  0.841239500451
O    3.269708710544  1.887766977974  1.883868177308  0.000029053466  0.000016712171  0.841261611939
Zn   4.904563065816  0.943883815958  7.445802909670 -0.000063763358 -0.000036766775 -0.841527464006
Zn   3.269708710544  1.887766977974  4.964916657079 -0.000566928247 -0.000327301432 -0.841052067031
O    4.904563065816  0.943883815958  9.326526935082 -0.000026739473 -0.000015426619  0.841258269505
O    3.269708710544  1.887766977974  6.845640682491 -0.000006941979 -0.000003856655  0.841246185320