# total energy = -14757.067548265044 eV

CRYSTAL
PRIMVEC
10.790038638960128 0.0 0.0
-1.7983433698395679 3.114814404101815 0.0
0.0 0.0 5.806324802358586
PRIMCOORD
12 1
Zn   1.814102221272  1.004880614462  2.897264566059 -0.215322176448 -0.229408222228  0.041420729039
Zn  -0.022273876762  2.086458981577 -0.015810643618  0.238973497319  0.056078845271  0.198011967305
O    1.848044445818  0.974842225895  5.082476139268 -0.066162968980  0.076940004991  0.017617455971
O    0.014406859591  1.988490825755  2.201141986255  0.256643918015  0.234218242022 -0.102144272171
Zn   5.364399347830  1.081669003440  2.831881247923  0.715416396606 -0.240083442553  0.149307817231
Zn   3.755708171132  2.044273167510 -0.011974784882 -0.652085497758 -0.012599176821  0.171893158730
O    5.376450741986  1.141644354211  5.113264435520  0.561114982816 -0.423005605404 -0.116388440795
O    3.744604142369  1.984001090677  2.241130948455 -0.801633456024  0.472431978356 -0.441103857667
Zn   8.894210507029  0.965841175662  3.033105757504  0.275657483003  0.132371960707 -0.787507043925
Zn   7.176558283143  2.055050258103 -0.063668780997  0.072318704169  0.056637545988  0.326651457553
O    8.948189833328  1.035003165330  5.050722134557  0.001816484383 -0.091010881262  0.299012869900
O    7.255356856320  2.013310072632  2.159269083309 -0.386737881321 -0.032571506178  0.243227901720