# total energy = -9840.325049177727 eV

CRYSTAL
PRIMVEC
3.2697087105441125 0.0 0.0
-1.6348543552720562 2.831649486048965 0.0
0.0 0.0 10.134684488523794
PRIMCOORD
8 1
Zn   1.671360653025  0.957416486369  2.557076677994 -0.595870126909 -0.307163781142 -1.388210844777
Zn  -0.022916407440  1.939085383157 -0.024698071716 -0.199351254941 -0.464520693929 -0.194186937131
O    1.626513001381  0.978630683454  4.419876160254  0.208877449264 -0.297219525445  1.228214694595
O   -0.050639613655  1.866849997411  1.884243539868  0.628438033543  0.307447116710  0.713388824653
Zn   1.627883990243  0.946920067467  7.602239834130  0.012538755897  0.223010289121 -0.363009684467
Zn   0.026106662228  1.878097141434  5.058808631498 -0.261794351868  0.268768983413 -0.537628212548
O    1.572081506534  0.936426918273  9.530017583654  0.243300663939  0.486181466732 -0.015492182098
O   -0.007816238673  1.920795286572  6.968203097739 -0.036139168925 -0.216503855461  0.556924084663