# total energy = -14754.727390341426 eV

CRYSTAL
PRIMVEC
8.828213624304544 0.0 0.0
-1.4713718801219655 2.5484845679961143 0.0
0.0 0.0 5.035674848798682
PRIMCOORD
12 1
Zn   1.479432921982  0.915939523021  2.478914713351 -1.750262279095 -0.661159949256  1.368748365177
Zn   0.064667547619  1.731742384544 -0.032267120797 -2.490946192019  0.546252206771  2.085882772916
O    1.450170042282  0.900775300478  4.406652268568  0.958064771673 -1.431067277821 -1.951703326686
O   -0.076070951158  1.725455813622  1.929752153566  1.356980426008  0.709044431642 -1.936729478985
Zn   4.371840856605  0.833659689221  2.565906164762  1.057265387835 -0.472331191112  0.845299015233
Zn   2.923257244311  1.725081497364 -0.030169537240 -0.081013146619 -0.742964224318  2.727731166327
O    4.328673540446  0.818094665780  4.433530647768  0.924653543203  1.103196860260 -1.428157046153
O    2.951063468763  1.664866017875  1.926854733854  0.441869789299  1.269300151781 -2.458190080634
Zn   7.364816269549  0.842644162226  2.528812659577 -1.265098454995 -0.359753896533  1.491149330715
Zn   5.815304104996  1.668354045078  0.020043576213  1.009316370759 -0.172070050628  0.951299942146
O    7.372176351248  0.824284126352  4.438038333645 -0.370626834692  0.655223786277 -0.598726622521
O    5.837508827904  1.687624269777  1.921087261894  0.209796875755 -0.443670589953 -1.096604551754