# total energy = -44276.42808507083 eV

CRYSTAL
PRIMVEC
10.790038638960128 0.0 0.0
-1.7983433698395679 3.114814404101815 0.0
0.0 0.0 16.025473286969973
PRIMCOORD
36 1
Zn   1.798340132828  1.038271468034  2.674295970612 -0.000075076212 -0.000043194533 -0.154785552516
Zn  -0.000000000000  2.076544015072  0.003384835121 -0.000181262773 -0.000104643899 -0.154856000742
O    1.798340132828  1.038271468034  4.699075854317 -0.000075590433 -0.000043708754  0.154770897228
O   -0.000000000000  2.076544015072  2.028164718826  0.000067105793  0.000038566547  0.154862428500
Zn   1.798340132828  1.038271468034  8.016119320598 -0.000026225252 -0.000015169509 -0.154922592314
Zn  -0.000000000000  2.076544015072  5.345208185107 -0.000028025024 -0.000016197950 -0.154803036017
O    1.798340132828  1.038271468034  10.040899204303 -0.000091788383 -0.000052964725  0.154846744771
O   -0.000000000000  2.076544015072  7.369988068812  0.000064791800  0.000037280996  0.154818205526
Zn   1.798340132828  1.038271468034  13.357942670584 -0.000244769021 -0.000141410674 -0.154728474026
Zn  -0.000000000000  2.076544015072  10.687031535093 -0.000133954475 -0.000077390205 -0.154848287433
O    1.798340132828  1.038271468034  15.382722554290 -0.000084075073 -0.000048593850  0.154835174807
O   -0.000000000000  2.076544015072  12.711811418798  0.000057335600  0.000033167231  0.154787866509
Zn   5.395019319480  1.038271468034  2.674295970612 -0.000150152425 -0.000086646177 -0.154642856290
Zn   3.596679186652  2.076544015072  0.003384835121 -0.000029824797 -0.000017226391 -0.154818462636
O    5.395019319480  1.038271468034  4.699075854317 -0.000068905565 -0.000039852099  0.154760612815
O    3.596679186652  2.076544015072  2.028164718826  0.000068648454  0.000039594989  0.154866542265
Zn   5.395019319480  1.038271468034  8.016119320598 -0.000023397039 -0.000013369736 -0.154776039434
Zn   3.596679186652  2.076544015072  5.345208185107 -0.000014912398 -0.000008741751 -0.154790951832
O    5.395019319480  1.038271468034  10.040899204303 -0.000060163814 -0.000034709893  0.154859343176
O    3.596679186652  2.076544015072  7.369988068812  0.000070962447  0.000041137651  0.154819491077
Zn   5.395019319480  1.038271468034  13.357942670584  0.000059649593  0.000034452782 -0.154830289711
Zn   3.596679186652  2.076544015072  10.687031535093  0.000089988611  0.000051936284 -0.154994840313
O    5.395019319480  1.038271468034  15.382722554290 -0.000063763358 -0.000036766775  0.154823090622
O    3.596679186652  2.076544015072  12.711811418798  0.000077904426  0.000044994305  0.154791466053
Zn   8.991698506132  1.038271468034  2.674295970612  0.000206459584  0.000119299187 -0.154855229411
Zn   7.193359452308  2.076544015072  0.003384835121  0.000181519883  0.000104901009 -0.154990983658
O    8.991698506132  1.038271468034  4.699075854317 -0.000053478946 -0.000030853238  0.154787352288
O    7.193359452308  2.076544015072  2.028164718826  0.000083046632  0.000047822519  0.154858314735
Zn   8.991698506132  1.038271468034  8.016119320598  0.000017997722  0.000010541523 -0.154764983690
Zn   7.193359452308  2.076544015072  5.345208185107  0.000057849821  0.000033424341 -0.154699420560
O    8.991698506132  1.038271468034  10.040899204303 -0.000059906704 -0.000034709893  0.154847516102
O    7.193359452308  2.076544015072  7.369988068812  0.000091017052  0.000052450504  0.154818205526
Zn   8.991698506132  1.038271468034  13.357942670584  0.000187433420  0.000108243443 -0.154660854012
Zn   7.193359452308  2.076544015072  10.687031535093  0.000051422063  0.000029567686 -0.154982756128
O    8.991698506132  1.038271468034  15.382722554290 -0.000054764497 -0.000031624569  0.154814605981
O    7.193359452308  2.076544015072  12.711811418798  0.000087674618  0.000050650732  0.154783238523