# total energy = -29520.74490575568 eV

CRYSTAL
PRIMVEC
9.416760811194894 0.0 0.0
-3.1389171314780278 5.4367668543433725 0.0
0.0 0.0 5.472729463881326
PRIMCOORD
24 1
Zn   1.569460449091  0.906127809057  2.739831983271 -0.000005656427  0.000024425480  0.620933754746
Zn  -0.000000000000  1.812256559791  0.003467251331  0.000008227530  0.000075076212  0.620933497635
O    1.569460449091  0.906127809057  4.814231388848  0.000015683729  0.000053736056 -0.620936068739
O   -0.000000000000  1.812256559791  2.077866656907 -0.000005142206 -0.000016712171 -0.620927584098
Zn  -0.000000000000  3.624513119581  2.739831983271 -0.000061706476 -0.000029053466  0.620895445309
Zn  -1.569460449091  4.530640928638  0.003467251331  0.000059906704 -0.000012084185  0.621008830958
O   -0.000000000000  3.624513119581  4.814231388848  0.000032653010  0.000000514221 -0.620875647814
O   -1.569460449091  4.530640928638  2.077866656907 -0.000001028441 -0.000053736056 -0.620957923115
Zn   4.708380405597  0.906127809057  2.739831983271  0.000038052327 -0.000062220697  0.620877704697
Zn   3.138919956506  1.812256559791  0.003467251331 -0.000047565408  0.000095130817  0.621001374759
O    4.708380405597  0.906127809057  4.814231388848  0.000003856655 -0.000006684868 -0.620930155201
O    3.138919956506  1.812256559791  2.077866656907 -0.000032395900  0.000004370875 -0.620950209806
Zn   3.138919956506  3.624513119581  2.739831983271 -0.000102072796 -0.000004370875  0.620866648953
Zn   1.569460449091  4.530640928638  0.003467251331  0.000105929450 -0.000042423202  0.620891588654
O    3.138919956506  3.624513119581  4.814231388848 -0.000023911259  0.000002571103 -0.620904701280
O    1.569460449091  4.530640928638  2.077866656907  0.000035481224 -0.000031110348 -0.620902901508
Zn   7.847300362104  0.906127809057  2.739831983271 -0.000043965864  0.000048850960  0.620846080128
Zn   6.277840854689  1.812256559791  0.003467251331  0.000041394761 -0.000050136512  0.621008316737
O    7.847300362104  0.906127809057  4.814231388848 -0.000001028441  0.000038566547 -0.620944296269
O    6.277840854689  1.812256559791  2.077866656907 -0.000007456199  0.000001028441 -0.620936325849
Zn   6.277840854689  3.624513119581  2.739831983271  0.000089731500 -0.000054507387  0.620890303102
Zn   4.708380405597  4.530640928638  0.003467251331 -0.000079961308  0.000051679174  0.620941725166
O    6.277840854689  3.624513119581  4.814231388848  0.000001285552 -0.000009770192 -0.620908815045
O    4.708380405597  4.530640928638  2.077866656907 -0.000020311715 -0.000023911259 -0.620920899230