# total energy = -9840.089193963844 eV

CRYSTAL
PRIMVEC
3.465891106174229 0.0 0.0
-3.465891106174229 6.00310015634018 0.0
0.0 0.0 5.035672903655979
PRIMCOORD
8 1
Zn   1.732945553087  1.000516461664  2.521026111413  0.000000000000 -0.000118013635 -0.849100648367
Zn   0.000000000000  2.001033269917  0.003190699352  0.000000000000  0.000446343509 -0.849038170560
O    1.732945553087  1.000516461664  4.429761314816  0.000000000000 -0.000061449366  0.849035856567
O    0.000000000000  2.001033269917  1.911925556166  0.000000000000 -0.000013626847  0.849018887287
Zn   0.000000000000  4.002066193245  2.521026111413  0.000000000000 -0.000331158087 -0.849072366232
Zn  -1.732945553087  5.002583001498  0.003190699352  0.000000000000  0.000100015913 -0.848899330990
O    0.000000000000  4.002066193245  4.429761314816  0.000000000000  0.000004885096  0.849037913450
O   -1.732945553087  5.002583001498  1.911925556166  0.000000000000 -0.000027253694  0.849017858845