# total energy = -29485.91653798562 eV

CRYSTAL
PRIMVEC
2.9427380511605845 0.0 0.0
-2.9427380511605845 5.0969723842507415 0.0
0.0 0.0 12.82671244978112
PRIMCOORD
24 1
Zn   1.471369025580  0.849495201193  2.140494100582  0.000000000000 -0.000460227466 -5.560674959338
Zn   0.000000000000  1.698990696659  0.002709084650  0.000000000000  0.000511135308 -5.560397537307
O    1.471369025580  0.849495201193  3.761118505843  0.000000000000  0.000188718972  5.560659789829
O    0.000000000000  1.698990696659  1.623333195637  0.000000000000 -0.000136525578  5.560705298355
Zn   1.471369025580  0.849495201193  6.416064426719  0.000000000000 -0.000421918029 -5.560364370076
Zn   0.000000000000  1.698990696659  4.278279410787  0.000000000000  0.000608065898 -5.560869077626
O    1.471369025580  0.849495201193  8.036688831980  0.000000000000  0.000173292353  5.560682415537
O    0.000000000000  1.698990696659  5.898903521775  0.000000000000 -0.000030081907  5.560628936591
Zn   1.471369025580  0.849495201193  10.691635047130  0.000000000000 -0.000610637001 -5.560874476943
Zn   0.000000000000  1.698990696659  8.553849736925  0.000000000000  0.000539160333 -5.560820997997
O    1.471369025580  0.849495201193  12.312259158118  0.000000000000  0.000051164953  5.560580599852
O    0.000000000000  1.698990696659  10.174474142186  0.000000000000 -0.000184348097  5.560695528163
Zn   0.000000000000  3.397981099044  2.140494100582  0.000000000000 -0.000519619949 -5.560680358654
Zn  -1.471369025580  4.247476594511  0.002709084650  0.000000000000  0.000546359422 -5.560399851299
O    0.000000000000  3.397981099044  3.761118505843  0.000000000000  0.000043451643  5.560755177756
O   -1.471369025580  4.247476594511  1.623333195637  0.000000000000 -0.000085617735  5.560696299494
Zn   0.000000000000  3.397981099044  6.416064426719  0.000000000000 -0.000609608560 -5.560496524778
Zn  -1.471369025580  4.247476594511  4.278279410787  0.000000000000  0.000419089815 -5.560848765911
O    0.000000000000  3.397981099044  8.036688831980  0.000000000000  0.000057849821  5.560716868319
O   -1.471369025580  4.247476594511  5.898903521775  0.000000000000 -0.000245797462  5.560511437177
Zn   0.000000000000  3.397981099044  10.691635047130  0.000000000000 -0.000470511879 -5.560810199364
Zn  -1.471369025580  4.247476594511  8.553849736925  0.000000000000  0.000538389002 -5.560711726113
O    0.000000000000  3.397981099044  12.312259158118  0.000000000000  0.000165836154  5.560606567994
O   -1.471369025580  4.247476594511  10.174474142186  0.000000000000 -0.000068134234  5.560710440561