# total energy = -29520.82191111482 eV

CRYSTAL
PRIMVEC
3.2043145786674065 0.0 0.0
-3.2043145786674065 5.55003627029546 0.0
0.0 0.0 15.208362713675347
PRIMCOORD
24 1
Zn   1.602157289334  0.925005831428  2.537938910259  0.000000000000 -0.000305189945 -0.258824213496
Zn  -0.000000000000  1.850011983288  0.003212004934  0.000000000000  0.000276907810 -0.258791303375
O    1.602157289334  0.925005831428  4.459478885297  0.000000000000  0.000048336739  0.258878463773
O   -0.000000000000  1.850011983288  1.924751979973  0.000000000000 -0.000040366320  0.258854038293
Zn   1.602157289334  0.925005831428  7.607392720908  0.000000000000 -0.000301847511 -0.259004447828
Zn  -0.000000000000  1.850011983288  5.072665815583  0.000000000000  0.000275622259 -0.258931685608
O    1.602157289334  0.925005831428  9.528932695947  0.000000000000  0.000051936284  0.258861751602
O   -0.000000000000  1.850011983288  6.994205790622  0.000000000000 -0.000045765636  0.258866893808
Zn   1.602157289334  0.925005831428  12.676846211127  0.000000000000 -0.000191290075 -0.258828841482
Zn  -0.000000000000  1.850011983288  10.142119626233  0.000000000000  0.000277679141 -0.258818042848
O    1.602157289334  0.925005831428  14.598386506597  0.000000000000  0.000057592711  0.258857637837
O   -0.000000000000  1.850011983288  12.063659601272  0.000000000000 -0.000044994305  0.258864579816
Zn   0.000000000000  3.700023646145  2.537938910259  0.000000000000 -0.000243740580 -0.258759935917
Zn  -1.602157289334  4.625029798004  0.003212004934  0.000000000000  0.000243483469 -0.258826527489
O    0.000000000000  3.700023646145  4.459478885297  0.000000000000  0.000056564270  0.258871778904
O   -1.602157289334  4.625029798004  1.924751979973  0.000000000000 -0.000045251416  0.258857380727
Zn   0.000000000000  3.700023646145  7.607392720908  0.000000000000 -0.000240912366 -0.258963567287
Zn  -1.602157289334  4.625029798004  5.072665815583  0.000000000000  0.000231399285 -0.258923715188
O    0.000000000000  3.700023646145  9.528932695947  0.000000000000  0.000054250277  0.258865094036
O   -1.602157289334  4.625029798004  6.994205790622  0.000000000000 -0.000039594989  0.258866893808
Zn   0.000000000000  3.700023646145  12.676846211127  0.000000000000 -0.000301590401 -0.258758650365
Zn  -1.602157289334  4.625029798004  10.142119626233  0.000000000000  0.000213144452 -0.258935799373
O    0.000000000000  3.700023646145  14.598386506597  0.000000000000  0.000058106931  0.258858666278
O   -1.602157289334  4.625029798004  12.063659601272  0.000000000000 -0.000043708754  0.258864322705