# total energy = -14759.289615313415 eV

CRYSTAL
PRIMVEC
3.4004969742975235 0.0 0.0
-1.7002484871487618 2.944915392166013 0.0
0.0 0.0 17.456995297072226
PRIMCOORD
12 1
Zn   1.733214265016  0.996381318687  2.911847939439 -0.171329830028 -0.056318729196  0.049303217111
Zn   0.008045235791  1.990816873006 -0.023178127427 -0.055659498346 -0.416137931750  0.591712653097
O    1.689706606479  0.973157964651  5.095535560032 -0.091138665089 -0.075803320284  0.061431110722
O   -0.013343890177  1.969236979158  2.191886558848  0.155972630845  0.032106393616 -0.105275104490
Zn   1.660997230674  1.005867004997  8.767231349372 -0.016672832670 -0.034046033841 -0.370188718714
Zn  -0.041709815787  1.917331793342  5.837219995394  0.095271713421  0.136995061302 -0.125227122132
O    1.719292630404  0.994452556804  10.901177860423 -0.115307549026 -0.100072220133  0.340873514689
O   -0.059576706990  1.977480463923  7.995558611292  0.100528333834 -0.013634045844  0.286323190247
Zn   1.642709017896  1.058333612863  14.613598341577  0.335623836254 -0.229578943478 -0.279986963616
Zn  -0.002882261235  1.923351353086  11.669477645554  0.098170889345  0.168355577891 -0.245854283599
O    1.689992248225  0.923017976815  16.794058210442  0.028897142650  0.534479382506 -0.509761310934
O    0.055739586204  2.015022970668  13.826180962457 -0.364356428302  0.053654552101  0.306650074730