# total energy = -14755.510415871673 eV

CRYSTAL
PRIMVEC
9.416760811194894 0.0 0.0
-1.5694632741194197 2.7183834271716862 0.0
0.0 0.0 4.560612594948177
PRIMCOORD
12 1
Zn   1.569460449091  0.906127809057  2.283193476339  0.000326272991  0.000188461862 -3.086326523776
Zn  -0.000000000000  1.812256559791  0.002890003893 -0.000327558543 -0.000188976082 -3.086327552217
O    1.569460449091  0.906127809057  4.011859333761 -0.000033424341 -0.000019283274  3.086322410011
O   -0.000000000000  1.812256559791  1.731554919639  0.000049879401  0.000028796355  3.086328066438
Zn   4.708380405597  0.906127809057  2.283193476339  0.000324216109  0.000187176310 -3.086312896929
Zn   3.138919956506  1.812256559791  0.002890003893 -0.000328586984 -0.000189747413 -3.086332180203
O    4.708380405597  0.906127809057  4.011859333761 -0.000054250277 -0.000031367459  3.086327809328
O    3.138919956506  1.812256559791  1.731554919639  0.000042680312  0.000024682590  3.086326009555
Zn   7.847300362104  0.906127809057  2.283193476339  0.000328329874  0.000189490303 -3.086314953812
Zn   6.277840854689  1.812256559791  0.002890003893 -0.000321387895 -0.000185633648 -3.086333979975
O    7.847300362104  0.906127809057  4.011859333761 -0.000049365181 -0.000028539245  3.086324466893
O    6.277840854689  1.812256559791  1.731554919639  0.000042680312  0.000024682590  3.086319324687