# total energy = -29521.256959509046 eV

CRYSTAL
PRIMVEC
6.800993948595047 0.0 0.0
-5.1007454614462855 8.834749576995012 0.0
0.0 0.0 5.160240556508595
PRIMCOORD
24 1
Zn   1.700248487149  0.981639144155  2.583390876244  0.000006941979 -0.000061449366 -0.440585780380
Zn  -0.000000000000  1.963277608210  0.003269237791  0.000004627986 -0.000082275301 -0.440636174002
O    1.700248487149  0.981639144155  4.539344494071  0.000001542662  0.000002313993  0.440604292323
O   -0.000000000000  1.963277608210  1.959222855618 -0.000001542662  0.000007199089  0.440613805404
Zn   0.000000000000  3.926555896520  2.583390876244  0.000013369736  0.000019026163 -0.440603263881
Zn  -1.700248487149  4.908194360575  0.003269237791  0.000002571103  0.000019540384 -0.440592722358
O    0.000000000000  3.926555896520  4.539344494071 -0.000004370875 -0.000004885096  0.440613291184
O   -1.700248487149  4.908194360575  1.959222855618  0.000001542662 -0.000002571103  0.440608406088
Zn  -1.700248487149  6.871472648884  2.583390876244  0.000026996583  0.000059906704 -0.440625375369
Zn  -3.400496974298  7.853111112940  0.003269237791 -0.000069676896  0.000037538106 -0.440632574457
O   -1.700248487149  6.871472648884  4.539344494071 -0.000001799772  0.000000771331  0.440612776963
O   -3.400496974298  7.853111112940  1.959222855618  0.000005656427 -0.000001799772  0.440609177419
Zn   5.100745461446  0.981639144155  2.583390876244 -0.000004370875 -0.000082532411 -0.440586551711
Zn   3.400496974298  1.963277608210  0.003269237791 -0.000007970420 -0.000068648454 -0.440627432251
O    5.100745461446  0.981639144155  4.539344494071 -0.000002828213  0.000006170648  0.440607120536
O    3.400496974298  1.963277608210  1.959222855618  0.000004627986  0.000003856655  0.440615348066
Zn   3.400496974298  3.926555896520  2.583390876244 -0.000006941979  0.000003342434 -0.440604549433
Zn   1.700248487149  4.908194360575  0.003269237791 -0.000011312854  0.000081503970 -0.440607634757
O    3.400496974298  3.926555896520  4.539344494071  0.000003085324 -0.000006427758  0.440614576735
O    1.700248487149  4.908194360575  1.959222855618  0.000000514221 -0.000005913537  0.440610720081
Zn   1.700248487149  6.871472648884  2.583390876244 -0.000017997722  0.000048850960 -0.440594522131
Zn   0.000000000000  7.853111112940  0.003269237791  0.000059392483  0.000029824797 -0.440629489134
O    1.700248487149  6.871472648884  4.539344494071  0.000001542662 -0.000002828213  0.440607891867
O    0.000000000000  7.853111112940  1.959222855618 -0.000003599544 -0.000000771331  0.440608663198