# total energy = -39353.755760260596 eV

CRYSTAL
PRIMVEC
7.062571005279078 0.0 0.0
-3.531285502639539 6.116363054846814 0.0
0.0 0.0 11.857583525606218
PRIMCOORD
32 1
Zn   1.765642751320  1.019394548732  2.968151403534  0.000122384510  0.000070705337 -0.102989136670
Zn  -0.000000000000  2.038788391206  0.003756581518  0.000000000000 -0.000000514221 -0.102976024044
O    1.765642751320  1.019394548732  5.215417003216  0.000000257110  0.000000257110  0.103104064981
O   -0.000000000000  2.038788391206  2.251022181200 -0.000000000000  0.000003856655  0.103102265209
Zn   1.765642751320  1.019394548732  8.896942460080  0.000041394761  0.000023911259 -0.103398199183
Zn  -0.000000000000  2.038788391206  5.932546931807  0.000000000000  0.000023139928 -0.103112292511
O    1.765642751320  1.019394548732  11.144208059762  0.000001542662  0.000001028441  0.103112035401
O   -0.000000000000  2.038788391206  8.179812531489  0.000000000000 -0.000007970420  0.103100979657
Zn  -0.000000000000  4.077577488669  2.968151403534  0.000000000000 -0.000000000000 -0.102939514379
Zn  -1.765642751320  5.096971331144  0.003756581518 -0.000000514221  0.000000257110 -0.102976024044
O   -0.000000000000  4.077577488669  5.215417003216  0.000000000000  0.000000000000  0.103082467714
O   -1.765642751320  5.096971331144  2.251022181200  0.000003342434 -0.000001799772  0.103102265209
Zn  -0.000000000000  4.077577488669  8.896942460080  0.000000000000  0.000000000000 -0.103352433546
Zn  -1.765642751320  5.096971331144  5.932546931807  0.000020054605 -0.000011569964 -0.103112292511
O   -0.000000000000  4.077577488669  11.144208059762  0.000000000000  0.000000000000  0.103105607643
O   -1.765642751320  5.096971331144  8.179812531489 -0.000006941979  0.000004113765  0.103100979657
Zn   5.296928253959  1.019394548732  2.968151403534 -0.000122384510  0.000070705337 -0.102989136670
Zn   3.531285502640  2.038788391206  0.003756581518  0.000000000000  0.000000000000 -0.102855439305
O    5.296928253959  1.019394548732  5.215417003216 -0.000000257110  0.000000257110  0.103104064981
O    3.531285502640  2.038788391206  2.251022181200  0.000000000000  0.000000000000  0.103109721408
Zn   5.296928253959  1.019394548732  8.896942460080 -0.000041394761  0.000023911259 -0.103398199183
Zn   3.531285502640  2.038788391206  5.932546931807  0.000000000000  0.000000000000 -0.103084524597
O    5.296928253959  1.019394548732  11.144208059762 -0.000001542662  0.000001028441  0.103112035401
O    3.531285502640  2.038788391206  8.179812531489  0.000000000000  0.000000000000  0.103102779429
Zn   3.531285502640  4.077577488669  2.968151403534 -0.000000000000 -0.000141410674 -0.102989136670
Zn   1.765642751320  5.096971331144  0.003756581518  0.000000514221  0.000000257110 -0.102976024044
O    3.531285502640  4.077577488669  5.215417003216  0.000000000000 -0.000000257110  0.103104064981
O    1.765642751320  5.096971331144  2.251022181200 -0.000003342434 -0.000001799772  0.103102265209
Zn   3.531285502640  4.077577488669  8.896942460080  0.000000000000 -0.000047822519 -0.103398199183
Zn   1.765642751320  5.096971331144  5.932546931807 -0.000020054605 -0.000011569964 -0.103112292511
O    3.531285502640  4.077577488669  11.144208059762  0.000000000000 -0.000001799772  0.103112035401
O    1.765642751320  5.096971331144  8.179812531489  0.000006941979  0.000004113765  0.103100979657