# total energy = -9839.29879646154 eV

CRYSTAL
PRIMVEC
3.335102842420818 0.0 0.0
-1.667551421210409 2.8882824391074893 0.0
0.0 0.0 11.629550302961185
PRIMCOORD
8 1
Zn   1.355586568351  0.955700400318  2.869952380375  1.854118391751 -0.722843028088  1.329658084044
Zn   0.102867578561  1.866292867673  0.119095521972 -0.144308307133  0.184792126180 -0.900083567173
O    1.791328093532  1.013975319305  5.235386411243 -0.707008632159 -0.260230092704 -0.990882589534
O   -0.030819351857  1.973552776677  2.287053110885 -1.451388248767  0.671295752138 -0.971792662782
Zn   1.531785387681  0.919177022071  8.697225162737  0.819581812972 -0.298464967816 -0.202475402393
Zn   0.055894656088  1.957172419067  5.811752881285  0.434236441123  0.170870373893  0.227478866415
O    1.755075525635  0.943015670168  10.921059398183 -0.109712828547 -0.108532692196  0.593631724497
O    0.093168765985  1.910595039790  7.887025627635 -0.695518629241  0.363112528593  0.914465289816