# total energy = -19671.11601613007 eV

CRYSTAL
PRIMVEC
3.00813218303729 0.0 0.0
-3.00813218303729 5.210238355761922 0.0
0.0 0.0 9.518157381899977
PRIMCOORD
16 1
Zn   1.548886358606  0.841102335633  2.355841580950 -0.565962540716  0.664010017110  0.760007038733
Zn   0.074984312553  1.669964581413 -0.082237220060 -4.619938137420  0.544184268499  1.350538012817
O    1.518439247902  0.852269725549  4.244753664932  0.617239079503  3.530773329773 -2.584283150311
O    0.010361210491  1.689531879637  1.707134566733  0.420710895833  0.812796157509  1.671080786368
Zn   1.493937108832  0.926527273367  7.158623318695  0.416786621078 -1.429883027705 -1.825121747409
Zn   0.032190924930  1.742614884205  4.792759242937 -0.375190542803  1.222975043462 -4.862527120004
O    1.431638992134  0.912386946414  8.905297677281  4.828856210114 -3.947733243204  0.446877269816
O   -0.000274642468  1.702966498780  6.459300870739 -0.288459005643  0.033121979365  4.560145333632
Zn  -0.019466826609  3.445266431546  2.402642703080  0.304216525588 -0.367168958051 -0.822428024172
Zn  -1.590105289844  4.182728385824 -0.041988110637  2.881269219589  3.198260271234  0.157635363260
O    0.160441136488  3.508523239970  4.188027511477 -2.422023915126 -1.172491175780  0.156635975461
O   -1.479066106572  4.354821221510  1.745570374075 -0.360238035259 -0.813542291646  0.716421183722
Zn   0.020326550787  3.388576676490  7.185647475788  0.772595416920  1.247546562154 -1.527454592903
Zn  -1.511141218413  4.464704379584  4.772827960719  2.132364718527 -3.187414072548 -0.923411443266
O    0.004893328622  3.405149980753  8.991349810575 -3.123963617402 -0.007160522304 -1.067275463773
O   -1.408944740506  4.338077957779  6.496970206002 -0.618262892782 -0.328274337868  3.793160063809