# total energy = -14758.736834826042 eV

CRYSTAL
PRIMVEC
3.335102842420818 0.0 0.0
-1.667551421210409 2.8882824391074893 0.0
0.0 0.0 14.859980942672626
PRIMCOORD
12 1
Zn   1.780950921038  0.987251807249  2.286024898679 -3.835337725619 -2.364915343039  2.594502256936
Zn   0.058313272669  1.953229326976 -0.035589549452  0.398423802300 -0.411234838022 -0.271667388007
O    1.798951138099  0.930001431856  4.373199960054 -0.928553392478 -0.393574701738 -0.415410309555
O   -0.161333932451  1.892386712312  1.916728293917  4.079368068635  2.367647654368 -1.518526694286
Zn   1.699427000137  0.880808331420  7.443865833202 -0.720025870354 -0.200500795165  0.263156779433
Zn   0.023843650751  1.850681918288  5.045952569793  0.826326330785  0.356322502254 -3.305892305992
O    1.849756093739  1.038472316703  9.434279222299 -2.747716351200 -1.651488208948 -1.268538848135
O   -0.094504474674  1.842465558925  6.828624737408  0.813788346219  0.356152552335  2.928385199240
Zn   1.655540715344  0.965732723179  12.375323321884  0.000379494827 -0.340780440755 -1.945568674543
Zn  -0.081072681486  1.959083099485  9.992027480723  2.311538212969  1.624542276487 -2.660332525167
O    1.849391233488  0.896357581402  14.192051892174 -0.405995443999  0.305646058945  2.029172464708
O    0.017680380699  1.820879439288  11.748038502706  0.207804527915  0.352183026165  3.570719788259