# total energy = -9840.334123221848 eV

CRYSTAL
PRIMVEC
3.4004969742975235 0.0 0.0
-1.7002484871487618 2.944915392166013 0.0
0.0 0.0 10.100900821895875
PRIMCOORD
8 1
Zn   1.700248487149  0.981638804105  2.528425583201  0.000000000000 -0.000000000000 -0.748326002850
Zn  -0.000000000000  1.963277948260  0.003199867653  0.000000000000  0.000000000000 -0.748258382837
O    1.700248487149  0.981638804105  4.442762558858  0.000000000000  0.000000000000  0.748232671805
O   -0.000000000000  1.963277948260  1.917537183359  0.000000000000  0.000000000000  0.748216473855
Zn   1.700248487149  0.981638804105  7.578876334199  0.000000000000  0.000000000000 -0.748221873172
Zn  -0.000000000000  1.963277948260  5.053650958700  0.000000000000  0.000000000000 -0.748167622895
O    1.700248487149  0.981638804105  9.493213649905  0.000000000000  0.000000000000  0.748251697969
O   -0.000000000000  1.963277948260  6.967988274406  0.000000000000 -0.000000000000  0.748273552346