# total energy = -44270.581000050435 eV

CRYSTAL
PRIMVEC
3.138920446790701 0.0 0.0
-4.7083806701860516 8.155153878716197 0.0
0.0 0.0 13.985864971413605
PRIMCOORD
36 1
Zn   1.569460223395  0.906128173869  2.333931428637  0.000000000000 -0.000363811097 -2.143893030882
Zn   0.000000000000  1.812256661631  0.002953724140  0.000000000000  0.000392864563 -2.143894830654
O    1.569460223395  0.906128173869  4.101011805522  0.000000000000  0.000052450504  2.143884289131
O    0.000000000000  1.812256661631  1.770034414917  0.000000000000 -0.000055792939  2.143881718028
Zn   1.569460223395  0.906128173869  6.995886209847  0.000000000000 -0.000374866841 -2.143877604263
Zn   0.000000000000  1.812256661631  4.664908819242  0.000000000000  0.000346584706 -2.143853950114
O    1.569460223395  0.906128173869  8.762966900624  0.000000000000  0.000052193394  2.143884032021
O    0.000000000000  1.812256661631  6.431989510019  0.000000000000 -0.000056050049  2.143885060462
Zn   1.569460223395  0.906128173869  11.657841304949  0.000000000000 -0.000355326457 -2.143898173088
Zn   0.000000000000  1.812256661631  9.326863914344  0.000000000000  0.000358668891 -2.143878632704
O    1.569460223395  0.906128173869  13.424921995726  0.000000000000  0.000053478946  2.143880689587
O    0.000000000000  1.812256661631  11.093944605121  0.000000000000 -0.000057849821  2.143885060462
Zn   0.000000000000  3.624513009369  2.333931428637  0.000000000000 -0.000347098927 -2.143898430199
Zn  -1.569460223395  4.530641497131  0.002953724140  0.000000000000  0.000355326457 -2.143850864790
O    0.000000000000  3.624513009369  4.101011805522  0.000000000000  0.000052964725  2.143883260690
O   -1.569460223395  4.530641497131  1.770034414917  0.000000000000 -0.000052450504  2.143885831793
Zn   0.000000000000  3.624513009369  6.995886209847  0.000000000000 -0.000385922585 -2.143890459779
Zn  -1.569460223395  4.530641497131  4.664908819242  0.000000000000  0.000377180834 -2.143887117345
O    0.000000000000  3.624513009369  8.762966900624  0.000000000000  0.000050650732  2.143883003580
O   -1.569460223395  4.530641497131  6.431989510019  0.000000000000 -0.000057078490  2.143884032021
Zn   0.000000000000  3.624513009369  11.657841304949  0.000000000000 -0.000394921446 -2.143876318711
Zn  -1.569460223395  4.530641497131  9.326863914344  0.000000000000  0.000344527824 -2.143893802213
O    0.000000000000  3.624513009369  13.424921995726  0.000000000000  0.000050650732  2.143883003580
O   -1.569460223395  4.530641497131  11.093944605121  0.000000000000 -0.000056307159  2.143886603124
Zn  -1.569460223395  6.342897844870  2.333931428637  0.000000000000 -0.000374609731 -2.143890202669
Zn  -3.138920446791  7.249026332631  0.002953724140  0.000000000000  0.000347098927 -2.143877861373
O   -1.569460223395  6.342897844870  4.101011805522  0.000000000000  0.000052964725  2.143880432477
O   -3.138920446791  7.249026332631  1.770034414917  0.000000000000 -0.000058878262  2.143885574683
Zn  -1.569460223395  6.342897844870  6.995886209847  0.000000000000 -0.000329615425 -2.143897658868
Zn  -3.138920446791  7.249026332631  4.664908819242  0.000000000000  0.000371010186 -2.143877861373
O   -1.569460223395  6.342897844870  8.762966900624  0.000000000000  0.000052964725  2.143883774911
O   -3.138920446791  7.249026332631  6.431989510019  0.000000000000 -0.000054250277  2.143883260690
Zn  -1.569460223395  6.342897844870  11.657841304949  0.000000000000 -0.000337842955 -2.143877090042
Zn  -3.138920446791  7.249026332631  9.326863914344  0.000000000000  0.000405462969 -2.143894316434
O   -1.569460223395  6.342897844870  13.424921995726  0.000000000000  0.000050136512  2.143883517800
O   -3.138920446791  7.249026332631  11.093944605121  0.000000000000 -0.000054507387  2.143884803352