# total energy = -14760.895001517738 eV

CRYSTAL
PRIMVEC
10.005308527262454 0.0 0.0
-1.6675547563132513 2.888282439107489 0.0
0.0 0.0 5.276369489011546
PRIMCOORD
12 1
Zn   1.667551754721  0.962760813036  2.641528518616  0.000028539245  0.000016455060 -0.132293284950
Zn  -0.000000000000  1.925522626603  0.003342773579 -0.000271251384 -0.000156580183 -0.132223093834
O    1.667551754721  0.962760813036  4.641498644908 -0.000056307159 -0.000032653010  0.132279658104
O   -0.000000000000  1.925522626603  2.003312899871  0.000054764497  0.000031624569  0.132258575058
Zn   5.002654263631  0.962760813036  2.641528518616  0.000155294631  0.000089731500 -0.132233892467
Zn   3.335102508911  1.925522626603  0.003342773579 -0.000016455060 -0.000009513082 -0.132272716125
O    5.002654263631  0.962760813036  4.641498644908 -0.000061963586 -0.000035738334  0.132286857193
O    3.335102508911  1.925522626603  2.003312899871  0.000046536967  0.000026739473  0.132261660382
Zn   8.337756772542  0.962760813036  2.641528518616  0.000252225220  0.000145781549 -0.132218980069
Zn   6.670206018352  1.925522626603  0.003342773579 -0.000114156980 -0.000065820241 -0.132384302002
O    8.337756772542  0.962760813036  4.641498644908 -0.000056564270 -0.000032653010  0.132289428296
O    6.670206018352  1.925522626603  2.003312899871  0.000039594989  0.000022882818  0.132249833307