# total energy = -44280.99311784946 eV

CRYSTAL
PRIMVEC
3.4004969742975235 0.0 0.0
-5.1007454614462855 8.834749576995012 0.0
0.0 0.0 16.468861883795977
PRIMCOORD
36 1
Zn   1.700248487149  0.981638804105  2.748288455621  0.000000000000 -0.000062992027 -0.002355130496
Zn   0.000000000000  1.963277948260  0.003478028305  0.000000000000  0.000044222974 -0.002324020147
O    1.700248487149  0.981638804105  4.829089959661  0.000000000000  0.000111585877  0.002343560532
O    0.000000000000  1.963277948260  2.084279532345  0.000000000000 -0.000114671201  0.002394982595
Zn   1.700248487149  0.981638804105  8.237909310253  0.000000000000 -0.000119556297 -0.002346902966
Zn   0.000000000000  1.963277948260  5.493098882937  0.000000000000 -0.000011312854 -0.002388811947
O    1.700248487149  0.981638804105  10.318710474243  0.000000000000  0.000112871429  0.002396011036
O    0.000000000000  1.963277948260  7.573900046927  0.000000000000 -0.000117242304  0.002399610580
Zn   1.700248487149  0.981638804105  13.727529824835  0.000000000000  0.000002828213 -0.002420436516
Zn   0.000000000000  1.963277948260  10.982719397519  0.000000000000  0.000003856655 -0.002400896132
O    1.700248487149  0.981638804105  15.808331328874  0.000000000000  0.000115956753  0.002395239705
O    0.000000000000  1.963277948260  13.063520901559  0.000000000000 -0.000111328767  0.002342532090
Zn   0.000000000000  3.926555556470  2.748288455621  0.000000000000 -0.000002828213 -0.002479057668
Zn  -1.700248487149  4.908194700625  0.003478028305  0.000000000000  0.000058878262 -0.002206520733
O    0.000000000000  3.926555556470  4.829089959661  0.000000000000  0.000116728084  0.002341503649
O   -1.700248487149  4.908194700625  2.084279532345  0.000000000000 -0.000111071657  0.002388811947
Zn   0.000000000000  3.926555556470  8.237909310253  0.000000000000  0.000002056883 -0.002345103193
Zn  -1.700248487149  4.908194700625  5.493098882937  0.000000000000  0.000032138790 -0.002372871108
O    0.000000000000  3.926555556470  10.318710474243  0.000000000000  0.000114414091  0.002395239705
O   -1.700248487149  4.908194700625  7.573900046927  0.000000000000 -0.000110300326  0.002398582139
Zn   0.000000000000  3.926555556470  13.727529824835  0.000000000000 -0.000042166092 -0.002430720929
Zn  -1.700248487149  4.908194700625  10.982719397519  0.000000000000  0.000046794078 -0.002431492260
O    0.000000000000  3.926555556470  15.808331328874  0.000000000000  0.000112871429  0.002397810808
O   -1.700248487149  4.908194700625  13.063520901559  0.000000000000 -0.000115185422  0.002347160076
Zn  -1.700248487149  6.871472308835  2.748288455621  0.000000000000 -0.000094102376 -0.002508882465
Zn  -3.400496974298  7.853111452989  0.003478028305  0.000000000000  0.000008741751 -0.002242516177
O   -1.700248487149  6.871472308835  4.829089959661  0.000000000000  0.000117756525  0.002346645855
O   -3.400496974298  7.853111452989  2.084279532345  0.000000000000 -0.000112357208  0.002391383050
Zn  -1.700248487149  6.871472308835  8.237909310253  0.000000000000  0.000009770192 -0.002301394440
Zn  -3.400496974298  7.853111452989  5.493098882937  0.000000000000  0.000062992027 -0.002388811947
O   -1.700248487149  6.871472308835  10.318710474243  0.000000000000  0.000118784966  0.002392154381
O   -3.400496974298  7.853111452989  7.573900046927  0.000000000000 -0.000110043215  0.002401153242
Zn  -1.700248487149  6.871472308835  13.727529824835  0.000000000000 -0.000044737195 -0.002403467235
Zn  -3.400496974298  7.853111452989  10.982719397519  0.000000000000  0.000084332184 -0.002464659490
O   -1.700248487149  6.871472308835  15.808331328874  0.000000000000  0.000115956753  0.002396782367
O   -3.400496974298  7.853111452989  13.063520901559  0.000000000000 -0.000113385649  0.002342789201