# total energy = -44249.407766753415 eV

CRYSTAL
PRIMVEC
8.828213624304544 0.0 0.0
-4.414106812152272 7.645453703988343 0.0
0.0 0.0 4.560611017247606
PRIMCOORD
36 1
Zn   1.471369231658  0.849494855999  2.283193217300  0.000040109209  0.000023139928 -1.545252283207
Zn   0.000000000000  1.698990594819  0.002889474319  0.000000000000  0.000034709893 -1.545281079562
O    1.471369231658  0.849494855999  4.011859852217 -0.000001542662 -0.000000771331  1.545265138722
O    0.000000000000  1.698990594819  1.731555226415 -0.000000000000 -0.000001028441  1.545264367391
Zn   0.000000000000  3.397981189638  2.283193217300  0.000000000000  0.000024682590 -1.545244312787
Zn  -1.471369231658  4.247476045636  0.002889474319  0.000027510804  0.000015940840 -1.545279536900
O    0.000000000000  3.397981189638  4.011859852217  0.000000000000 -0.000003342434  1.545264881612
O   -1.471369231658  4.247476045636  1.731555226415 -0.000001542662 -0.000000771331  1.545265910053
Zn  -1.471369231658  5.946466640455  2.283193217300  0.000021597267 -0.000012341295 -1.545244312787
Zn  -2.942737580494  6.795962379275  0.002889474319  0.000030081907 -0.000017483501 -1.545281079562
O   -1.471369231658  5.946466640455  4.011859852217 -0.000002828213  0.000001799772  1.545264881612
O   -2.942737580494  6.795962379275  1.731555226415 -0.000001028441  0.000000514221  1.545264367391
Zn   4.414106812152  0.849494855999  2.283193217300  0.000000000000  0.000023139928 -1.545266424274
Zn   2.942737580494  1.698990594819  0.002889474319  0.000000771331  0.000000514221 -1.545267195605
O    4.414106812152  0.849494855999  4.011859852217  0.000000000000 -0.000001028441  1.545264881612
O    2.942737580494  1.698990594819  1.731555226415 -0.000002828213 -0.000001542662  1.545265138722
Zn   2.942737580494  3.397981189638  2.283193217300  0.000020054605 -0.000011569964 -1.545266424274
Zn   1.471369231658  4.247476045636  0.002889474319 -0.000027510804  0.000015940840 -1.545279536900
O    2.942737580494  3.397981189638  4.011859852217 -0.000000771331  0.000000514221  1.545264881612
O    1.471369231658  4.247476045636  1.731555226415  0.000001542662 -0.000000771331  1.545265910053
Zn   1.471369231658  5.946466640455  2.283193217300 -0.000021597267 -0.000012341295 -1.545244312787
Zn  -0.000000000000  6.795962379275  0.002889474319 -0.000000000000 -0.000031624569 -1.545279536900
O    1.471369231658  5.946466640455  4.011859852217  0.000002828213  0.000001799772  1.545264881612
O   -0.000000000000  6.795962379275  1.731555226415  0.000000000000  0.000001799772  1.545265910053
Zn   7.356844392647  0.849494855999  2.283193217300 -0.000040109209  0.000023139928 -1.545252283207
Zn   5.885476043810  1.698990594819  0.002889474319 -0.000000771331  0.000000514221 -1.545267195605
O    7.356844392647  0.849494855999  4.011859852217  0.000001542662 -0.000000771331  1.545265138722
O    5.885476043810  1.698990594819  1.731555226415  0.000002828213 -0.000001542662  1.545265138722
Zn   5.885476043810  3.397981189638  2.283193217300 -0.000020054605 -0.000011569964 -1.545266424274
Zn   4.414106812152  4.247476045636  0.002889474319 -0.000000000000 -0.000001028441 -1.545267195605
O    5.885476043810  3.397981189638  4.011859852217  0.000000771331  0.000000514221  1.545264881612
O    4.414106812152  4.247476045636  1.731555226415  0.000000000000  0.000003342434  1.545265138722
Zn   4.414106812152  5.946466640455  2.283193217300  0.000000000000 -0.000046279857 -1.545252283207
Zn   2.942737580494  6.795962379275  0.002889474319 -0.000030081907 -0.000017483501 -1.545281079562
O    4.414106812152  5.946466640455  4.011859852217 -0.000000000000  0.000001799772  1.545265138722
O    2.942737580494  6.795962379275  1.731555226415  0.000001028441  0.000000514221  1.545264367391