# total energy = -14756.77275972444 eV

CRYSTAL
PRIMVEC
3.2042976449967395 0.0 0.0
-4.8064464674951095 8.325008808322549 0.0
0.0 0.0 4.655597747261598
PRIMCOORD
12 1
Zn   1.628503529769  0.875365731719  2.341292811873 -0.748711925435  0.262481093522 -2.448305217420
Zn  -0.025579267240  1.878166060349 -0.041101525892  1.109450554479  0.208055210473 -2.509094066573
O    1.678872204880  0.906424027502  4.113668665043 -1.230872701043  0.321892345601  1.815678599718
O   -0.046085810879  1.828597177930  1.714863837318  0.829914305247  0.293413264325  3.147847623109
Zn  -0.022013845251  3.712375565604  2.281838671219  0.076059145048 -0.748175850426 -1.407169645268
Zn  -1.658360534365  4.598714094178  0.036223303158  0.673654739289  0.658214236364 -3.680062377951
O    0.005995561324  3.751742284751  4.089600224142 -0.722653023564 -0.472148385677  1.296263567744
O   -1.613109122593  4.616072735811  1.755763172029  0.059106319244 -0.259327378385  3.278882095952
Zn  -1.576692920717  6.393298934326  2.399109876861  0.654257565709  0.658836957549 -6.321649761300
Zn  -3.178932745269  7.414349340193  0.016081729021 -0.595003922254 -0.445706903656 -2.811482794923
O   -1.626970914205  6.473235586386  4.040305950031  0.465572018012  0.123886806054  6.643583758772
O   -3.115259826335  7.387078844656  1.754927170774 -0.570772817621 -0.601421395744  2.995508218141