# total energy = -19673.33521074476 eV

CRYSTAL
PRIMVEC
6.016263836897371 0.0 0.0
-1.5040659592243428 2.6051204528064416 0.0
0.0 0.0 9.51815654470406
PRIMCOORD
16 1
Zn   1.504065959224  0.868373083185  2.382554788424  0.000442743964  0.000255567654 -0.537435122700
Zn  -0.000000000000  1.736745564743  0.003015351435 -0.000249654117 -0.000144238887 -0.537816417299
O    1.504065959224  0.868373083185  4.186449678730 -0.000030339017 -0.000017483501  0.537563677858
O   -0.000000000000  1.736745564743  1.806910241741  0.000032395900  0.000018769053  0.537577561816
Zn   1.504065959224  0.868373083185  7.141633662403  0.000441458413  0.000254796323 -0.537576790485
Zn  -0.000000000000  1.736745564743  4.762094225413 -0.000404177417 -0.000233456167 -0.537425095398
O    1.504065959224  0.868373083185  8.945528552708 -0.000026225252 -0.000015169509  0.537550308122
O   -0.000000000000  1.736745564743  6.565989115719  0.000031110348  0.000017997722  0.537551850784
Zn   4.512197877673  0.868373083185  2.382554788424  0.000307246828  0.000177406118 -0.537356446944
Zn   3.008131918449  1.736745564743  0.003015351435 -0.000499822455 -0.000288734885 -0.537768080560
O    4.512197877673  0.868373083185  4.186449678730 -0.000031110348 -0.000017997722  0.537558792762
O    3.008131918449  1.736745564743  1.806910241741  0.000024425480  0.000014141067  0.537576533374
Zn   4.512197877673  0.868373083185  7.141633662403  0.000317017020  0.000183062545 -0.537696861002
Zn   3.008131918449  1.736745564743  4.762094225413 -0.000351984023 -0.000203117150 -0.537415325206
O    4.512197877673  0.868373083185  8.945528552708 -0.000033424341 -0.000019283274  0.537553650556
O    3.008131918449  1.736745564743  6.565989115719  0.000030339017  0.000017483501  0.537557764321