# total energy = -19681.003898319454 eV

CRYSTAL
PRIMVEC
6.408629157334813 0.0 0.0
-3.2043145786674065 5.550033065980882 0.0
0.0 0.0 5.483287193307239
PRIMCOORD
16 1
Zn   1.602157289334  0.925006151860  2.745117714520 -0.000006684868 -0.000003856655  0.369422272861
Zn  -0.000000000000  1.850011662857  0.003474117866  0.000000000000  0.000084332184  0.369442070355
O    1.602157289334  0.925006151860  4.823518180697  0.000004885096  0.000002828213 -0.369476780248
O   -0.000000000000  1.850011662857  2.081874584043 -0.000000000000  0.000001542662 -0.369465467394
Zn  -0.000000000000  3.700023966576  2.745117714520  0.000000000000 -0.000000000000  0.369596336545
Zn  -1.602157289334  4.625029477573  0.003474117866  0.000073019330 -0.000042166092  0.369442070355
O   -0.000000000000  3.700023966576  4.823518180697  0.000000000000  0.000000000000 -0.369461096519
O   -1.602157289334  4.625029477573  2.081874584043  0.000001285552 -0.000000771331 -0.369465467394
Zn   4.806471868001  0.925006151860  2.745117714520  0.000006684868 -0.000003856655  0.369422272861
Zn   3.204314578667  1.850011662857  0.003474117866 -0.000000000000 -0.000000000000  0.369563169314
O    4.806471868001  0.925006151860  4.823518180697 -0.000004885096  0.000002828213 -0.369476780248
O    3.204314578667  1.850011662857  2.081874584043  0.000000000000  0.000000000000 -0.369465210284
Zn   3.204314578667  3.700023966576  2.745117714520  0.000000000000  0.000007713309  0.369422272861
Zn   1.602157289334  4.625029477573  0.003474117866 -0.000073019330 -0.000042166092  0.369442070355
O    3.204314578667  3.700023966576  4.823518180697  0.000000000000 -0.000005656427 -0.369476780248
O    1.602157289334  4.625029477573  2.081874584043 -0.000001285552 -0.000000771331 -0.369465467394