# total energy = -14759.4076646913 eV

CRYSTAL
PRIMVEC
3.335102842420818 0.0 0.0
-1.667551421210409 2.8882824391074893 0.0
0.0 0.0 17.44432545444178
PRIMCOORD
12 1
Zn   1.680687390776  0.874381921753  2.865265893861  0.370297990598  0.040362720088  0.174093765926
Zn   0.161586733246  1.867198681605 -0.057247707311 -1.177382442434  0.553398588008  1.271704904568
O    1.740179288789  0.956435456985  5.046821364084 -0.639983572288 -0.352279699644  0.146167728940
O    0.106989098654  1.856713785289  2.131181076360 -0.349276651151  0.053945343868 -0.080820570992
Zn   1.647789602828  0.949790931592  8.672240573304 -0.045622940045  0.165451516870  0.257744093058
Zn  -0.083195807956  1.885628793422  5.856342205757  0.596159376015  0.325882183487 -0.601617056695
O    1.706816921015  0.913094795017  10.901561386435 -0.181267400856  0.489764041877 -0.407885719044
O   -0.047057300576  1.958692892453  7.934900028408  0.122263154408 -0.249001313868  0.311256977374
Zn   1.672372312369  0.950633045060  14.673532018267  0.028806382709 -0.097027519770 -1.194354808622
Zn  -0.013738622649  1.970377425261  11.617815410100  0.129156539094 -0.509612701172  0.084276133641
O    1.686371406550  0.942461376075  16.836585671961  1.149907119832 -0.579228918808 -1.232109658774
O    0.006517124464  1.848979014776  13.732427695539 -0.003057298769  0.158345759063  1.271544467731