# total energy = -9836.19510901182 eV

CRYSTAL
PRIMVEC
3.0735263149139955 0.0 0.0
-3.0735263149139955 5.323504327273101 0.0
0.0 0.0 5.457949588866384
PRIMCOORD
8 1
Zn   1.407679047815  0.831978677884  2.678045541337 -0.763419663958  7.835039134360  2.556983691165
Zn  -0.057225679105  1.894033544534 -0.127466820095  0.552474019311 -5.872927724966  2.292695369231
O    1.798997652056  0.617623268866  4.978258497198 -0.868329671800  2.543237802334 -1.328533740631
O   -0.038092977794  1.831798017536  2.108104037663 -0.418279917794  0.803330384111 -0.434556029246
Zn   0.098756703435  3.585539224016  2.785951825259  0.344760508448  0.028684769529  0.070055876277
Zn  -1.724223059751  4.319898095848 -0.004189523720  4.659472190959  2.314941839334  3.310158280357
O    0.070137255801  3.480707388466  4.888208786460 -4.329051496172  1.396993476066 -3.737977762210
O   -1.381423756622  4.645138650493  2.262137804519  0.822373773895 -9.049299680767 -2.728825684943