# total energy = -29514.60919462073 eV

CRYSTAL
PRIMVEC
3.00813218303729 0.0 0.0
-3.00813218303729 5.210238355761922 0.0
0.0 0.0 15.151354163257857
PRIMCOORD
24 1
Zn   1.504066091519  0.868372858752  2.528425644622  0.000000000000 -0.000350955582  0.814908832977
Zn   0.000000000000  1.736746018316  0.003199750203  0.000000000000  0.000338614286  0.815005249345
O    1.504066091519  0.868372858752  4.442763063441  0.000000000000  0.000045508526 -0.814954598613
O    0.000000000000  1.736746018316  1.917537169023  0.000000000000 -0.000049365181 -0.814958969488
Zn   1.504066091519  0.868372858752  7.578877132645  0.000000000000 -0.000327044322  0.814870780650
Zn   0.000000000000  1.736746018316  5.053651238227  0.000000000000  0.000370495966  0.814838127640
O    1.504066091519  0.868372858752  9.493214551465  0.000000000000  0.000049622291 -0.814942257318
O    0.000000000000  1.736746018316  6.967988657046  0.000000000000 -0.000048336739 -0.814964368805
Zn   1.504066091519  0.868372858752  12.629328620669  0.000000000000 -0.000339899838  0.815046129886
Zn   0.000000000000  1.736746018316  10.104102726250  0.000000000000  0.000349670030  0.815036102583
O    1.504066091519  0.868372858752  14.543666039488  0.000000000000  0.000049365181 -0.814943799980
O    0.000000000000  1.736746018316  12.018440145070  0.000000000000 -0.000050136512 -0.814945085531
Zn   0.000000000000  3.473491735819  2.528425644622  0.000000000000 -0.000346841816  0.814930173133
Zn  -1.504066091519  4.341864895384  0.003199750203  0.000000000000  0.000359697332  0.815009106000
O    0.000000000000  3.473491735819  4.442763063441  0.000000000000  0.000048079629 -0.814950741958
O   -1.504066091519  4.341864895384  1.917537169023  0.000000000000 -0.000044994305 -0.814941228877
Zn   0.000000000000  3.473491735819  7.578877132645  0.000000000000 -0.000358154670  0.814862810230
Zn  -1.504066091519  4.341864895384  5.053651238227  0.000000000000  0.000320616564  0.814838384750
O    0.000000000000  3.473491735819  9.493214551465  0.000000000000  0.000051679174 -0.814952541730
O   -1.504066091519  4.341864895384  6.967988657046  0.000000000000 -0.000053736056 -0.814949713517
Zn   0.000000000000  3.473491735819  12.629328620669  0.000000000000 -0.000346070486  0.815021447295
Zn  -1.504066091519  4.341864895384  10.104102726250  0.000000000000  0.000337842955  0.815025046840
O    0.000000000000  3.473491735819  14.543666039488  0.000000000000  0.000044480085 -0.814945599752
O   -1.504066091519  4.341864895384  12.018440145070  0.000000000000 -0.000049622291 -0.814943542869