# total energy = -19672.962672205493 eV

CRYSTAL
PRIMVEC
3.59667936992764 0.0 0.0
-3.59667936992764 6.229632099362539 0.0
0.0 0.0 12.773923290082568
PRIMCOORD
16 1
Zn   1.785820723081  0.982061792585  3.271662201653  0.019748386272  0.188757281475 -0.715304039398
Zn   0.001326455352  2.073828779975 -0.067330197473 -0.034591107711  0.038892563300 -0.127686896527
O    1.800736871764  1.018154470062  5.617816077798  0.039434808957  0.030944769208  0.599833739542
O   -0.046888110606  1.989097847710  2.435232474432  0.087049582621  0.191433542756  0.634453900719
Zn   1.809394079007  1.108766332764  9.584019365195 -0.098183230641 -0.344255543788 -0.441144223986
Zn   0.027646235645  2.034723523858  6.434550029121  0.016682088641  0.176492605176 -0.666429682295
O    1.751964820504  1.039545720615  11.979708867630  0.068148117731 -0.023308849929  0.278442244837
O    0.000366141960  2.075560581092  8.806132788079 -0.052522752489  0.126999126431  0.500674003921
Zn   0.029167631018  4.162556444572  3.176159934011 -0.039179498413 -0.155334997261 -0.381056257556
Zn  -1.851565863956  5.216775178345 -0.010536831882  0.016378441358 -0.139865440871 -0.305473280813
O    0.061330576616  4.164827747594  5.600121134633 -0.117364174444 -0.018215237456  0.598541760204
O   -1.821299807058  5.186086871289  2.466235131265 -0.002917944978 -0.112463137598  0.425488776837
Zn  -0.002039317203  4.140136543720  9.579173199412  0.046451606594  0.274159815412 -0.745204426502
Zn  -1.760832073822  5.216765467310  6.353996280276 -0.100492852610 -0.199974490348 -0.515864081398
O   -0.011025620609  4.127630889551  12.092230262383 -0.019241878949  0.117924160713  0.170252023582
O   -1.877116314532  5.222738472740  8.785247230646  0.170600408061 -0.152185652999  0.690476181721