# total energy = -9839.763691934273 eV

CRYSTAL
PRIMVEC
6.408629157334813 0.0 0.0
-1.6021572893337033 2.775019737305019 0.0
0.0 0.0 4.965995464985488
PRIMCOORD
8 1
Zn   1.607482219301  0.924208277530  2.528542578188 -0.558473431428  0.162917180484 -1.436773584177
Zn   0.038763234321  1.899412580716  0.013208825556 -0.625383820097 -0.693904747787 -0.955537634376
O    1.601990024113  0.931621779739  4.382484653307 -0.450693301127  0.070976845429  0.442768904074
O   -0.076904190751  1.874779732824  1.845849899082  0.758399842146 -0.124762266681  1.488127513169
Zn   4.735959003109  0.980983604960  2.470397726707  0.864825258191 -0.785801116977 -0.704544743999
Zn   3.179798367826  1.804938492267 -0.052762243852  0.937302856536  0.694330779581  0.226398488867
O    4.824624310089  0.915229147217  4.326347625340  0.184268135356 -0.069619045850  1.319190865964
O    3.203900581224  1.831192723336  1.895746203975 -1.110245539576  0.745862371801 -0.379629809522