# total energy = -14746.95004907153 eV

CRYSTAL
PRIMVEC
8.828213624304544 0.0 0.0
-1.4713718801219655 2.5484845679961143 0.0
0.0 0.0 4.465592954009216
PRIMCOORD
12 1
Zn   1.425883626601  0.869680566451  2.258902387513  1.531565272638 -0.302315451910 -5.069014728879
Zn  -0.046163611863  1.698563309279 -0.002162029517  1.737571313891  0.511001868210 -1.233847981621
O    1.469087138436  0.837997873396  3.898662731484 -0.617751757473 -0.062096255110  5.396509508269
O   -0.019707221274  1.680673817191  1.723717538359 -1.164804348659  0.644496372557  1.130746487743
Zn   4.486044393691  0.825478583655  2.212940941742 -3.136585419932  0.945883142005 -0.389704934370
Zn   2.950716519968  1.719917875215 -0.071351388154  0.307458686674 -4.337558248091  0.141910239215
O    4.396016036793  0.753220537962  3.965598247183  1.027678161096  5.208628715861  0.212289560269
O    2.912834655306  1.734433224056  1.681699655614  0.454485164070 -2.685077079102  1.456983740576
Zn   7.342211628564  0.846311402166  2.324222340119 -0.368629344646 -0.726454399588 -5.074404532436
Zn   5.955158899590  1.700961934921 -0.027356868379 -2.337695588091 -1.408293217349 -2.617922435632
O    7.357447359637  0.805090707111  3.979669536879  0.271808798681 -0.033805635696  2.716531440956
O    5.856353532706  1.645008716970  1.645104061677  2.294899061751  2.245590445324  3.329923635909