# total energy = -29520.270970253056 eV

CRYSTAL
PRIMVEC
10.397673847699894 0.0 0.0
-3.4658878166753486 6.003096995969534 0.0
0.0 0.0 5.03567662583184
PRIMCOORD
24 1
Zn   1.732945987872  1.000516165995  2.521026239718  0.000092045493  0.000030081907 -0.849512281983
Zn  -0.000000000000  2.001033371757  0.003191046104  0.000142953336 -0.000013883957 -0.849581701769
O    1.732945987872  1.000516165995  4.429761540264  0.000012084185 -0.000013369736  0.849545963435
O   -0.000000000000  2.001033371757  1.911925306882 -0.000018769053  0.000023654149  0.849564475377
Zn  -0.000000000000  4.002066743514  2.521026239718  0.000049622291  0.000032653010 -0.849579387776
Zn  -1.732945987872  5.002582909509  0.003191046104  0.000024939701  0.000117756525 -0.849574759790
O   -0.000000000000  4.002066743514  4.429761540264 -0.000018254832  0.000007970420  0.849608698352
O   -1.732945987872  5.002582909509  1.911925306882  0.000020054605 -0.000016455060  0.849577073783
Zn   5.198836923850  1.000516165995  2.521026239718 -0.000051422063  0.000019797494 -0.849580159107
Zn   3.465890935978  2.001033371757  0.003191046104 -0.000085617735  0.000005913537 -0.849586072644
O    5.198836923850  1.000516165995  4.429761540264 -0.000006170648 -0.000028282135  0.849569617584
O    3.465890935978  2.001033371757  1.911925306882 -0.000010541523 -0.000024939701  0.849559333171
Zn   3.465890935978  4.002066743514  2.521026239718 -0.000000771331 -0.000053221835 -0.849546991876
Zn   1.732945987872  5.002582909509  0.003191046104  0.000034967003 -0.000022625708 -0.849584529982
O    3.465890935978  4.002066743514  4.429761540264 -0.000025453921  0.000014141067  0.849554705185
O    1.732945987872  5.002582909509  1.911925306882 -0.000024939701  0.000002828213  0.849588386637
Zn   8.664727859827  1.000516165995  2.521026239718 -0.000019797494 -0.000017997722 -0.849581187548
Zn   6.931782911722  2.001033371757  0.003191046104 -0.000074819102  0.000003856655 -0.849563446936
O    8.664727859827  1.000516165995  4.429761540264 -0.000005399317  0.000028025024  0.849580416217
O    6.931782911722  2.001033371757  1.911925306882  0.000034709893 -0.000003085324  0.849564218267
Zn   6.931782911722  4.002066743514  2.521026239718 -0.000030081907 -0.000014398178 -0.849567817811
Zn   5.198836923850  5.002582909509  0.003191046104 -0.000083817963 -0.000095130817 -0.849574245569
O    6.931782911722  4.002066743514  4.429761540264  0.000040109209 -0.000005656427  0.849569617584
O    5.198836923850  5.002582909509  1.911925306882  0.000004113765  0.000022625708  0.849550334310