# total energy = -19679.52839327483 eV

CRYSTAL
PRIMVEC
7.062571005279078 0.0 0.0
-3.531285502639539 6.116363054846814 0.0
0.0 0.0 5.244700541375269
PRIMCOORD
16 1
Zn   1.765642751320  1.019394548732  2.625672504089 -0.000263795184 -0.000152209307 -0.321259082892
Zn  -0.000000000000  2.038788391206  0.003322939658  0.000000000000 -0.000178948780 -0.321530591386
O    1.765642751320  1.019394548732  4.613638634341 -0.000016455060 -0.000009513082  0.321441116996
O   -0.000000000000  2.038788391206  1.991288363653 -0.000000000000 -0.000011055744  0.321437260341
Zn  -0.000000000000  4.077577488669  2.625672504089  0.000000000000 -0.000000000000 -0.321441888327
Zn  -1.765642751320  5.096971331144  0.003322939658 -0.000155037521  0.000089474390 -0.321530591386
O   -0.000000000000  4.077577488669  4.613638634341  0.000000000000  0.000000000000  0.321451144299
O   -1.765642751320  5.096971331144  1.991288363653 -0.000009513082  0.000005399317  0.321437260341
Zn   5.296928253959  1.019394548732  2.625672504089  0.000263795184 -0.000152209307 -0.321259082892
Zn   3.531285502640  2.038788391206  0.003322939658  0.000000000000  0.000000000000 -0.321759676678
O    5.296928253959  1.019394548732  4.613638634341  0.000016455060 -0.000009513082  0.321441116996
O    3.531285502640  2.038788391206  1.991288363653  0.000000000000  0.000000000000  0.321484311529
Zn   3.531285502640  4.077577488669  2.625672504089  0.000000000000  0.000304675725 -0.321259082892
Zn   1.765642751320  5.096971331144  0.003322939658  0.000155037521  0.000089474390 -0.321530591386
O    3.531285502640  4.077577488669  4.613638634341  0.000000000000  0.000019026163  0.321441116996
O    1.765642751320  5.096971331144  1.991288363653  0.000009513082  0.000005399317  0.321437260341