# total energy = -9838.856182486259 eV

CRYSTAL
PRIMVEC
3.0735263149139955 0.0 0.0
-1.5367631574569978 2.6617506268733933 0.0
0.0 0.0 9.923546662910171
PRIMCOORD
8 1
Zn   1.536763157457  0.887250516310  2.484030114766  0.000000000000  0.000000000000  0.020371621678
Zn  -0.000000000000  1.774501339973  0.003143602715  0.000000000000  0.000000000000  0.020849846866
O    1.536763157457  0.887250516310  4.364754675651  0.000000000000  0.000000000000 -0.020597878756
O   -0.000000000000  1.774501339973  1.883868163600  0.000000000000  0.000000000000 -0.020552370230
Zn   1.536763157457  0.887250516310  7.445803138869  0.000000000000 -0.000000000000  0.020678097175
Zn  -0.000000000000  1.774501339973  4.964916626817  0.000000000000  0.000000000000  0.020227382790
O    1.536763157457  0.887250516310  9.326527392401  0.000000000000  0.000000000000 -0.020497862843
O   -0.000000000000  1.774501339973  6.845640880350  0.000000000000 -0.000000000000 -0.020478579569