# total energy = -19676.654775898784 eV

CRYSTAL
PRIMVEC
6.931782212348458 0.0 0.0
-3.465891106174229 6.003096690449074 0.0
0.0 0.0 6.154708630997559
PRIMCOORD
16 1
Zn   1.732945553087  1.000516808253  3.081254136171  0.000016455060  0.000009513082 -0.313331857625
Zn  -0.000000000000  2.001032923328  0.003899820673  0.000000000000 -0.000047565408 -0.313309489028
O    1.732945553087  1.000516808253  5.414152371520 -0.000000514221 -0.000000257110  0.313328515191
O   -0.000000000000  2.001032923328  2.336798056021  0.000000000000  0.000003342434  0.313318230779
Zn   0.000000000000  4.002066539834  3.081254136171  0.000000000000  0.000000000000 -0.313338028273
Zn  -1.732945553087  5.002582654909  0.003899820673 -0.000041137651  0.000023654149 -0.313309489028
O    0.000000000000  4.002066539834  5.414152371520  0.000000000000  0.000000000000  0.313317973668
O   -1.732945553087  5.002582654909  2.336798056021  0.000003085324 -0.000001799772  0.313318230779
Zn   5.198836659261  1.000516808253  3.081254136171 -0.000016455060  0.000009513082 -0.313331857625
Zn   3.465891106174  2.001032923328  0.003899820673  0.000000000000  0.000000000000 -0.313313602793
O    5.198836659261  1.000516808253  5.414152371520  0.000000514221 -0.000000257110  0.313328515191
O    3.465891106174  2.001032923328  2.336798056021  0.000000000000  0.000000000000  0.313316945227
Zn   3.465891106174  4.002066539834  3.081254136171  0.000000000000 -0.000019026163 -0.313331857625
Zn   1.732945553087  5.002582654909  0.003899820673  0.000041137651  0.000023654149 -0.313309489028
O    3.465891106174  4.002066539834  5.414152371520  0.000000000000  0.000000771331  0.313328515191
O    1.732945553087  5.002582654909  2.336798056021 -0.000003085324 -0.000001799772  0.313318230779