# total energy = -9840.072248754828 eV

CRYSTAL
PRIMVEC
6.277840893581402 0.0 0.0
-1.5694602233953505 2.7183867188523636 0.0
0.0 0.0 5.5740760958882465
PRIMCOORD
8 1
Zn   1.643995772757  0.870518063077  2.806088156136 -0.600727712111  0.492420762773  0.465337019183
Zn   0.038300479508  1.847930178616 -0.009288065602 -0.540709936797 -1.093958372381  0.775814952299
O    1.610143771306  0.876541651414  4.918496865974 -0.707852468216  0.498777815340 -1.122930591243
O   -0.036582234455  1.818029450224  2.133320197855  1.119421806759 -0.287259843129 -0.874406731232
Zn   4.717529367720  0.944907966529  2.784646190564 -0.453321739889 -0.643373571806  0.655280864767
Zn   3.066899172707  1.865953232038  0.009805359692  0.956607470402  0.395459577465  0.470570756778
O    4.671985515390  0.953174627418  4.852604020171  0.278827396091  0.129733751753 -0.276132108647
O    3.137851958271  1.792410837106  2.033088817932 -0.052244816237  0.508200137095 -0.093534161904