# total energy = -9830.21755969177 eV

CRYSTAL
PRIMVEC
2.9427380511605845 0.0 0.0
-2.9427380511605845 5.0969723842507415 0.0
0.0 0.0 4.370583980964211
PRIMCOORD
8 1
Zn   1.467776236694  0.883136876867  2.192525534886 -0.909268833217 -0.151873778186 -4.689192600841
Zn   0.062549662920  1.806600741714 -0.099619628425 -1.405611042531 -6.523615571046  1.076266354417
O    1.409734848468  0.788179722611  3.827622031609  1.693938921913  0.495209638372  5.770002865876
O   -0.046210992713  1.687604360318  1.692089681655  1.112520451653 -0.968185147937 -0.989208287156
Zn  -0.032830362794  3.350436163173  2.096982187210  0.262139908133  2.207208246001 -0.700407067682
Zn  -1.478141148657  4.218616573895 -0.000241010246 -0.109123531702  0.139506000649 -3.035479359217
O   -0.019867895952  3.358082573725  3.868116167109 -0.270058905869  5.539931556143 -0.814853554259
O   -1.494785569349  4.292569641038  1.683079900564 -0.374536968380 -0.738180943996  3.382872163082