# total energy = -14757.916908754478 eV

CRYSTAL
PRIMVEC
3.531285238050934 0.0 0.0
-1.765642619025467 3.0581812982830603 0.0
0.0 0.0 17.444326605001617
PRIMCOORD
12 1
Zn   1.619681534381  0.942405744720  2.899232499662  0.276981086911 -0.082054186289 -0.252918132424
Zn   0.045888345411  1.926740557842  0.021214902325 -0.158472771559  0.128848006714 -0.041108854225
O    1.693380516685  1.004371325563  5.122346058706  0.041949090738 -0.083314026838  0.186538676558
O   -0.004032727742  1.943775477831  2.166915273252 -0.207554359577  0.152508326446  0.509478746697
Zn   1.725729208237  0.922659503926  8.699795788674  0.191619947735  0.084642772952  0.007158465422
Zn  -0.039148181278  2.030243234427  5.824855353294 -0.001952238630 -0.058166066818 -0.212934392942
O    1.852707869084  1.064003786250  10.919073312565 -0.373958470169 -0.284560441920  0.158370184543
O    0.022093486092  1.946989300526  8.047107631868 -0.156098872011  0.122779174812 -0.032139817957
Zn   1.780441529201  1.133726188247  14.476493945791  0.395405841409 -0.380707101746  0.635184094017
Zn  -0.044666873848  2.047373852245  11.611966211192  0.368594120533  0.115554632040 -0.038390683963
O    1.768820069483  0.981576526223  16.839649449164  0.150339858040 -0.033432054406 -0.335757790729
O    0.097783760141  2.010255806851  13.911288436959 -0.526852976309  0.317900707943 -0.583480494995