# total energy = -59023.84023106032 eV

CRYSTAL
PRIMVEC
6.016263836897371 0.0 0.0
-3.0081319184486857 5.210234889349047 0.0
0.0 0.0 14.568611499072787
PRIMCOORD
48 1
Zn   1.504065959224  0.868373083185  2.431178232754  0.000017483501  0.000010027302  0.031119604223
Zn  -0.000000000000  1.736745564743  0.003076717326  0.000000000000  0.000008998861  0.031148143468
O    1.504065959224  0.868373083185  4.271887243104  0.000001285552  0.000000771331 -0.031135545063
O   -0.000000000000  1.736745564743  1.843785727676  0.000000000000  0.000001028441 -0.031137087724
Zn   1.504065959224  0.868373083185  7.287381263610  0.000005142206  0.000002828213  0.031127831753
Zn  -0.000000000000  1.736745564743  4.859279748182  0.000000000000  0.000005913537  0.031128860194
O    1.504065959224  0.868373083185  9.128090273960 -0.000000257110 -0.000000257110 -0.031135287952
O   -0.000000000000  1.736745564743  6.699988758532  0.000000000000  0.000001028441 -0.031138116166
Zn   1.504065959224  0.868373083185  12.143584294466  0.000011827075  0.000006941979  0.031141715710
Zn  -0.000000000000  1.736745564743  9.715482779038 -0.000000000000  0.000010541523  0.031142229931
O    1.504065959224  0.868373083185  13.984292703189  0.000001028441  0.000000514221 -0.031135030842
O   -0.000000000000  1.736745564743  11.556191789388  0.000000000000 -0.000000771331 -0.031136059283
Zn   0.000000000000  3.473491731112  2.431178232754 -0.000000000000 -0.000000000000  0.031120375554
Zn  -1.504065959224  4.341864212670  0.003076717326  0.000007970420 -0.000004627986  0.031148143468
O    0.000000000000  3.473491731112  4.271887243104  0.000000000000  0.000000000000 -0.031132716849
O   -1.504065959224  4.341864212670  1.843785727676  0.000000771331 -0.000000514221 -0.031137087724
Zn   0.000000000000  3.473491731112  7.287381263610 -0.000000000000 -0.000000000000  0.031128345974
Zn  -1.504065959224  4.341864212670  4.859279748182  0.000005142206 -0.000003085324  0.031128860194
O    0.000000000000  3.473491731112  9.128090273960  0.000000000000  0.000000000000 -0.031134516621
O   -1.504065959224  4.341864212670  6.699988758532  0.000000771331 -0.000000514221 -0.031138116166
Zn   0.000000000000  3.473491731112  12.143584294466  0.000000000000  0.000000000000  0.031150457461
Zn  -1.504065959224  4.341864212670  9.715482779038  0.000008998861 -0.000005142206  0.031142229931
O    0.000000000000  3.473491731112  13.984292703189  0.000000000000  0.000000000000 -0.031134259511
O   -1.504065959224  4.341864212670  11.556191789388 -0.000000514221  0.000000257110 -0.031136059283
Zn   4.512197877673  0.868373083185  2.431178232754 -0.000017483501  0.000010027302  0.031119604223
Zn   3.008131918449  1.736745564743  0.003076717326  0.000000000000  0.000000000000  0.031158170770
O    4.512197877673  0.868373083185  4.271887243104 -0.000001285552  0.000000771331 -0.031135545063
O    3.008131918449  1.736745564743  1.843785727676  0.000000000000  0.000000000000 -0.031137344835
Zn   4.512197877673  0.868373083185  7.287381263610 -0.000005142206  0.000002828213  0.031127831753
Zn   3.008131918449  1.736745564743  4.859279748182  0.000000000000  0.000000000000  0.031124232209
O    4.512197877673  0.868373083185  9.128090273960  0.000000257110 -0.000000257110 -0.031135287952
O    3.008131918449  1.736745564743  6.699988758532  0.000000000000  0.000000000000 -0.031138630386
Zn   4.512197877673  0.868373083185  12.143584294466 -0.000011827075  0.000006941979  0.031141715710
Zn   3.008131918449  1.736745564743  9.715482779038  0.000000000000  0.000000000000  0.031155856778
O    4.512197877673  0.868373083185  13.984292703189 -0.000001028441  0.000000514221 -0.031135030842
O    3.008131918449  1.736745564743  11.556191789388  0.000000000000  0.000000000000 -0.031135545063
Zn   3.008131918449  3.473491731112  2.431178232754  0.000000000000 -0.000020054605  0.031119604223
Zn   1.504065959224  4.341864212670  0.003076717326 -0.000007970420 -0.000004627986  0.031148143468
O    3.008131918449  3.473491731112  4.271887243104  0.000000000000 -0.000001542662 -0.031135545063
O    1.504065959224  4.341864212670  1.843785727676 -0.000000771331 -0.000000514221 -0.031137087724
Zn   3.008131918449  3.473491731112  7.287381263610  0.000000000000 -0.000005913537  0.031127831753
Zn   1.504065959224  4.341864212670  4.859279748182 -0.000005142206 -0.000003085324  0.031128860194
O    3.008131918449  3.473491731112  9.128090273960 -0.000000000000  0.000000257110 -0.031135287952
O    1.504065959224  4.341864212670  6.699988758532 -0.000000771331 -0.000000514221 -0.031138116166
Zn   3.008131918449  3.473491731112  12.143584294466 -0.000000000000 -0.000013626847  0.031141715710
Zn   1.504065959224  4.341864212670  9.715482779038 -0.000008998861 -0.000005142206  0.031142229931
O    3.008131918449  3.473491731112  13.984292703189  0.000000000000 -0.000001028441 -0.031135030842
O    1.504065959224  4.341864212670  11.556191789388  0.000000514221  0.000000257110 -0.031136059283