# total energy = -9840.332117878914 eV

CRYSTAL
PRIMVEC
3.2043145786674065 0.0 0.0
-1.6021572893337033 2.775016532990441 0.0
0.0 0.0 10.552740363094163
PRIMCOORD
8 1
Zn   1.627509826280  0.939481963400  2.596626252198 -0.554724763019 -0.624998154623  0.856226974999
Zn   0.047441159063  1.827190534427  0.011752785012 -0.052556433940  0.135666829408 -0.079582584820
O    1.622228474992  0.901789931443  4.633868899770 -0.119155976238  0.394051641374 -0.039114706613
O   -0.016695440249  1.797915596005  2.042439084523  0.607229774896  0.652681222361 -0.821247630711
Zn   1.564740187567  0.897363811715  7.873462020654  0.863052996782  0.328109530155  0.720343658705
Zn   0.000228147198  1.873421423874  5.311749339242  0.120806367357 -0.396362291785 -0.112627945311
O    1.645563575479  0.921207757358  9.875347940732  0.011404128072 -0.142327786368  0.344223919219
O    0.064160631672  1.870183463992  7.330822882289 -0.876056351020 -0.346821247632 -0.868221428357