# total energy = -29515.336786344273 eV

CRYSTAL
PRIMVEC
6.408629157334813 0.0 0.0
-4.806471868001109 8.325052803285901 0.0
0.0 0.0 4.655619146266606
PRIMCOORD
24 1
Zn   1.602157289334  0.925006151860  2.330760105997 -0.000004885096  0.000029310576 -2.489505088697
Zn   0.000000000000  1.850011662857  0.002949892001 -0.000186147869 -0.000011827075 -2.489548283231
O    1.602157289334  0.925006151860  4.095439589898  0.000007970420 -0.000005913537  2.489506888470
O    0.000000000000  1.850011662857  1.767629375902  0.000004627986  0.000004627986  2.489502003374
Zn  -0.000000000000  3.700023966576  2.330760105997  0.000013883957  0.000111071657 -2.489430012485
Zn  -1.602157289334  4.625029477573  0.002949892001 -0.000087417507 -0.000019026163 -2.489575536924
O   -0.000000000000  3.700023966576  4.095439589898  0.000008998861 -0.000017740612  2.489510230904
O   -1.602157289334  4.625029477573  1.767629375902  0.000010284413 -0.000013626847  2.489493775844
Zn  -1.602157289334  6.475041781292  2.330760105997 -0.000082532411 -0.000161979499 -2.489519229765
Zn  -3.204314578667  7.400047292289  0.002949892001 -0.000077133095 -0.000118784966 -2.489549568782
O   -1.602157289334  6.475041781292  4.095439589898  0.000000771331  0.000001285552  2.489510745124
O   -3.204314578667  7.400047292289  1.767629375902  0.000007970420 -0.000001799772  2.489499689381
Zn   4.806471868001  0.925006151860  2.330760105997  0.000040366320  0.000035481224 -2.489442868001
Zn   3.204314578667  1.850011662857  0.002949892001  0.000071219558  0.000092559714 -2.489548283231
O    4.806471868001  0.925006151860  4.095439589898  0.000003342434 -0.000010798633  2.489497889609
O    3.204314578667  1.850011662857  1.767629375902  0.000013112626 -0.000004113765  2.489503031815
Zn   3.204314578667  3.700023966576  2.330760105997  0.000064277579  0.000069419785 -2.489536970377
Zn   1.602157289334  4.625029477573  0.002949892001  0.000029310576  0.000133697364 -2.489494032954
O    3.204314578667  3.700023966576  4.095439589898  0.000012341295 -0.000006941979  2.489511516455
O    1.602157289334  4.625029477573  1.767629375902  0.000014912398  0.000002056883  2.489504574477
Zn   1.602157289334  6.475041781292  2.330760105997  0.000070962447 -0.000100015913 -2.489417156969
Zn   0.000000000000  7.400047292289  0.002949892001  0.000045251416 -0.000005913537 -2.489484519872
O    1.602157289334  6.475041781292  4.095439589898  0.000014655288 -0.000001799772  2.489505602918
O    0.000000000000  7.400047292289  1.767629375902  0.000003856655  0.000000771331  2.489505860028