# total energy = -9839.905604063124 eV

CRYSTAL
PRIMVEC
3.4004969742975235 0.0 0.0
-1.7002484871487618 2.944915392166013 0.0
0.0 0.0 9.881317130277587
PRIMCOORD
8 1
Zn   1.617661637283  0.981554131730  2.465621804583  0.445289356503 -0.113064261518 -1.403641063289
Zn  -0.056825704937  1.950455014219  0.033790058334  0.208262184278  0.054620001338 -1.917898976542
O    1.707843497141  0.915999011010  4.301424982718 -0.040691049961  0.377966048666  1.619730971141
O    0.030958804553  1.953825926870  1.864749228529 -0.448707381046  0.149512991263  1.481699755266
Zn   1.756561737192  0.998050282602  7.406228682168 -0.348147936863 -0.143765033036 -1.424648261669
Zn  -0.047261467148  1.981723944097  4.932522876128  0.123901975563 -0.352048814580 -1.272815106913
O    1.719900639263  0.969799973889  9.250441969419 -0.315078922224 -0.074698003035  1.694228171019
O   -0.015924527331  1.953132905587  6.789405735006  0.375171773750  0.101477070901  1.223344253876