# total energy = -44264.29059546358 eV

CRYSTAL
PRIMVEC
3.59667936992764 0.0 0.0
-5.39501905489146 9.344446350704123 0.0
0.0 0.0 19.16088853180322
PRIMCOORD
36 1
Zn   1.798339684964  1.038271776782  3.197527806148  0.000000000000  0.000305447056 -0.491288191831
Zn  -0.000000000000  2.076543913232  0.004046623959  0.000000000000 -0.000642518680 -0.491020797102
O    1.798339684964  1.038271776782  5.618460243073  0.000000000000  0.000532218354  0.491751247510
O   -0.000000000000  2.076543913232  2.424979060884  0.000000000000 -0.000562814482  0.491668200878
Zn   1.798339684964  1.038271776782  9.584490170525  0.000000000000  0.000142182005 -0.492552146145
Zn  -0.000000000000  2.076543913232  6.391008988336  0.000000000000 -0.000736106835 -0.491717051838
O    1.798339684964  1.038271776782  12.005422607450  0.000000000000  0.000577983991  0.491747905076
O   -0.000000000000  2.076543913232  8.811941425261  0.000000000000 -0.000455342370  0.491750733289
Zn   1.798339684964  1.038271776782  15.971452534902  0.000000000000  0.000258910088 -0.491818867523
Zn  -0.000000000000  2.076543913232  12.777971352713  0.000000000000 -0.001068550474 -0.492238471559
O    1.798339684964  1.038271776782  18.392384971827  0.000000000000  0.000502650668  0.491820153075
O   -0.000000000000  2.076543913232  15.198903789638  0.000000000000 -0.000495194469  0.491777729873
Zn   0.000000000000  4.153087466795  3.197527806148  0.000000000000  0.000201060267 -0.491218514935
Zn  -1.798339684964  5.191359603245  0.004046623959  0.000000000000 -0.000558957827 -0.491010512689
O    0.000000000000  4.153087466795  5.618460243073  0.000000000000  0.000499565344  0.491765131467
O   -1.798339684964  5.191359603245  2.424979060884  0.000000000000 -0.000524762155  0.491645575170
Zn   0.000000000000  4.153087466795  9.584490170525  0.000000000000  0.000681599448 -0.492872505599
Zn  -1.798339684964  5.191359603245  6.391008988336  0.000000000000 -0.000842807616 -0.491365839146
O    0.000000000000  4.153087466795  12.005422607450  0.000000000000  0.000576184218  0.491635033647
O   -1.798339684964  5.191359603245  8.811941425261  0.000000000000 -0.000544816760  0.491773358997
Zn   0.000000000000  4.153087466795  15.971452534902  0.000000000000  0.000529390141 -0.491853577416
Zn  -1.798339684964  5.191359603245  12.777971352713  0.000000000000 -0.000105158119 -0.492014785584
O    0.000000000000  4.153087466795  18.392384971827  0.000000000000  0.000550987407  0.491727079140
O   -1.798339684964  5.191359603245  15.198903789638  0.000000000000 -0.000509078426  0.491783900520
Zn  -1.798339684964  7.267903156808  3.197527806148  0.000000000000  0.001024327499 -0.491722708265
Zn  -3.596679369928  8.306175293258  0.004046623959  0.000000000000 -0.000377695054 -0.490794797134
O   -1.798339684964  7.267903156808  5.618460243073  0.000000000000  0.000541731436  0.491690569475
O   -3.596679369928  8.306175293258  2.424979060884  0.000000000000 -0.000473340092  0.491678742401
Zn  -1.798339684964  7.267903156808  9.584490170525  0.000000000000  0.000644575563 -0.492379110902
Zn  -3.596679369928  8.306175293258  6.391008988336  0.000000000000 -0.000095387927 -0.491104357955
O   -1.798339684964  7.267903156808  12.005422607450  0.000000000000  0.000444286626  0.491752790172
O   -3.596679369928  8.306175293258  8.811941425261  0.000000000000 -0.000555615393  0.491784928961
Zn  -1.798339684964  7.267903156808  15.971452534902  0.000000000000  0.000735078394 -0.491889315750
Zn  -3.596679369928  8.306175293258  12.777971352713  0.000000000000 -0.000140382233 -0.492479383925
O   -1.798339684964  7.267903156808  18.392384971827  0.000000000000  0.000526047707  0.491759217930
O   -3.596679369928  8.306175293258  15.198903789638  0.000000000000 -0.000585440190  0.491828637715