# total energy = -19678.08710001469 eV

CRYSTAL
PRIMVEC
3.531285238050934 0.0 0.0
-3.531285238050934 6.116366127851358 0.0
0.0 0.0 11.173487935696958
PRIMCOORD
16 1
Zn   1.785896305508  1.009267805674  2.765910944271 -0.146766538866 -0.247499018291 -0.256255681438
Zn   0.017397936111  2.036500318740  0.005904662047  0.012129693384 -0.140646542011 -0.526735734005
O    1.798297826136  0.972411781645  4.934039920259 -0.326224140207 -0.089719673254 -0.367039631562
O   -0.025780147880  1.977672991088  2.050485620797  0.022679186765 -0.042454826730  0.497350853085
Zn   1.795874658205  0.901192467835  8.442644419483 -0.057798913286  0.879532996715 -0.188660607997
Zn  -0.138245579527  1.926307622272  5.641615549777  0.531522613871  0.508615370255  0.407812699714
O    1.723285558852  0.913129977582  10.401417618848  0.080271383357  0.348843163158  1.021899349631
O    0.068434189142  2.067022982695  7.718269759830 -0.261095268918 -0.067929316852 -0.401128859936
Zn  -0.031608887294  4.035532641719  2.823011473441 -0.033769640251  0.108094833327 -0.592777604026
Zn  -1.797245856263  5.014931777464  0.002763230699  0.029306462274  0.100915027750 -0.234565340949
O   -0.004882001842  4.053168233326  4.818213058194 -0.096890994192  0.114918541117  0.765591989019
O   -1.888570895704  5.022149018234  2.052010076634  0.361605605030  0.225822818869  0.517127778602
Zn  -0.112013427137  4.101303888663  8.305232576400  0.582840547418 -0.582731789755  0.626025824557
Zn  -1.701656083641  5.133308580600  5.532061309680 -0.063939221856 -0.414398323351  0.002887863071
O    0.018214369258  4.039242256861  10.513171849648 -0.255178389213 -0.197149619304 -0.146091624286
O   -1.711401724640  5.148643893003  7.820326021981 -0.378692128199 -0.504213384533 -1.125441273480