# total energy = -9830.440267317366 eV

CRYSTAL
PRIMVEC
2.9427380511605845 0.0 0.0
-1.4713690255802923 2.5484847207563455 0.0
0.0 0.0 8.741165019190372
PRIMCOORD
8 1
Zn   1.471369025580  0.849495201193  2.188060812714  0.000000000000  0.000000000000 -3.953623640546
Zn  -0.000000000000  1.698990696659  0.002769116506  0.000000000000  0.000000000000 -3.953748596160
O    1.471369025580  0.849495201193  3.844698740520  0.000000000000  0.000000000000  3.953669406183
O   -0.000000000000  1.698990696659  1.659407338585  0.000000000000 -0.000000000000  3.953724427790
Zn   1.471369025580  0.849495201193  6.558643616583  0.000000000000  0.000000000000 -3.953557563195
Zn  -0.000000000000  1.698990696659  4.373352214649  0.000000000000 -0.000000000000 -3.953844498308
O    1.471369025580  0.849495201193  8.215281838663  0.000000000000  0.000000000000  3.953657579108
O   -0.000000000000  1.698990696659  6.029990436728  0.000000000000  0.000000000000  3.953722885128