# total energy = -14759.360831314585 eV

CRYSTAL
PRIMVEC
3.531285238050934 0.0 0.0
-1.765642619025467 3.0581812982830603 0.0
0.0 0.0 16.076144264659735
PRIMCOORD
12 1
Zn   1.768799941157  1.112104834991  2.681102185479  0.053589760301 -0.191043506407 -0.126516273257
Zn   0.082188898273  2.107033150699  0.048209106070 -0.108620881034 -0.130275226079 -0.711990658754
O    1.734726923023  0.970378114476  4.702021061235  0.029024669367  0.127626989823  0.164993089176
O    0.028266172688  2.039611734163  2.008378928747 -0.093413834276  0.095766650779  0.648655389031
Zn   1.767245116266  1.051920434422  8.109869870661 -0.109713342767 -0.112755214918 -0.409929746057
Zn  -0.035535676479  2.010684858007  5.368864374918  0.011381245254 -0.029663331392  0.103377116137
O    1.771838258976  1.030522964651  10.105008951665  0.024849454944 -0.001560145398  0.396431711570
O   -0.045025652428  1.997625105811  7.434290863557  0.148148763926  0.128405519860 -0.091032735639
Zn   1.662882218598  1.077667035093  13.444792944385  0.335964764534 -0.172121472691 -0.168478733732
Zn   0.038578584969  2.055922740678  10.775512795626 -0.076269718397  0.009616440044 -0.075594546707
O    1.749825639316  1.000355901119  15.431116524921  0.073805316017  0.172977907154  0.482609175999
O    0.020200717204  2.072986617205  12.815023535031 -0.288746197866  0.103025389224 -0.212523787767