# total energy = -29521.72224437668 eV

CRYSTAL
PRIMVEC
10.005308527262454 0.0 0.0
-1.6675547563132513 2.888282439107489 0.0
0.0 0.0 10.337374711973766
PRIMCOORD
24 1
Zn   1.667551754721  0.962760813036  2.587618915740  0.000181005663  0.000104386788 -0.335021683894
Zn  -0.000000000000  1.925522626603  0.003274737481 -0.000250168338 -0.000144495998 -0.334916782885
O    1.667551754721  0.962760813036  4.546774386957 -0.000037280996 -0.000021597267  0.334891586074
O   -0.000000000000  1.925522626603  1.962429208167  0.000061192255  0.000035224113  0.334837592908
Zn   1.667551754721  0.962760813036  7.756308272788  0.000165064823  0.000095387927 -0.334848905762
Zn  -0.000000000000  1.925522626603  5.171964094530 -0.000225485747 -0.000130097820 -0.334812396097
O    1.667551754721  0.962760813036  9.715462743474 -0.000040880540 -0.000023654149  0.334909069576
O   -0.000000000000  1.925522626603  7.131118565216  0.000047308298  0.000027253694  0.334946864792
Zn   5.002654263631  0.962760813036  2.587618915740  0.000201574488  0.000116470973 -0.335001629289
Zn   3.335102508911  1.925522626603  0.003274737481 -0.000074561992 -0.000042937423 -0.334885415427
O    5.002654263631  0.962760813036  4.546774386957 -0.000053736056 -0.000031110348  0.334878730558
O    3.335102508911  1.925522626603  1.962429208167  0.000021597267  0.000012341295  0.334830650929
Zn   5.002654263631  0.962760813036  7.756308272788  0.000141410674  0.000081761081 -0.334807253890
Zn   3.335102508911  1.925522626603  5.171964094530 -0.000095645038 -0.000055278718 -0.334827822716
O    5.002654263631  0.962760813036  9.715462743474 -0.000038309437 -0.000022111487  0.334900842046
O    3.335102508911  1.925522626603  7.131118565216  0.000029824797  0.000017226391  0.334957406315
Zn   8.337756772542  0.962760813036  2.587618915740  0.000118270745  0.000068391344 -0.334989287994
Zn   6.670206018352  1.925522626603  0.003274737481 -0.000177149008 -0.000102329906 -0.334894928508
O    8.337756772542  0.962760813036  4.546774386957 -0.000022111487 -0.000012598405  0.334878730558
O    6.670206018352  1.925522626603  1.962429208167  0.000035224113  0.000020311715  0.334827822716
Zn   8.337756772542  0.962760813036  7.756308272788  0.000188976082  0.000109014774 -0.334775115101
Zn   6.670206018352  1.925522626603  5.171964094530 -0.000182291214 -0.000105158119 -0.334916782885
O    8.337756772542  0.962760813036  9.715462743474 -0.000043451643 -0.000024939701  0.334880273220
O    6.670206018352  1.925522626603  7.131118565216  0.000049365181  0.000028539245  0.334957920536