# total energy = -14758.021002093861 eV

CRYSTAL
PRIMVEC
10.593856243330013 0.0 0.0
-1.7656462385070832 3.0581814510432914 0.0
0.0 0.0 5.814777002551464
PRIMCOORD
12 1
Zn   1.731290362710  1.007743753304  2.961510394052  0.125060257537  0.008894731386 -0.120885814444
Zn  -0.052656762457  2.015313767365  0.007950689111  0.370122384252  0.142174291510  0.078668557646
O    1.798596309581  0.987614367056  5.202578178576 -0.141291374684  0.110608086668 -0.257879075974
O    0.051168325655  2.079143870002  2.231522720049 -0.262230410964 -0.262376449624  0.152437363999
Zn   5.275060283608  1.012996187229  2.916652828561  0.056430572184 -0.017180111324  0.038527209541
Zn   3.519030088413  2.077075949264  0.059114777223 -0.045012045934 -0.138908733384 -0.153195582321
O    5.342982792912  1.053812196563  5.063450123918 -0.099905612648 -0.137240858764  0.337115076088
O    3.536012039971  2.002996290711  2.226292533222  0.112066930601  0.258649378481 -0.064935781441
Zn   8.852377769071  0.969700156148  2.919580970426  0.064235155830  0.154399372821 -0.093966878566
Zn   7.049905167491  2.064751056910  0.002394211511  0.014310245975 -0.076092569389 -0.049768843893
O    8.880644296299  0.982846072361  5.081299712303 -0.113632732427  0.085133853656  0.132499487424
O    7.104844905969  2.058935029832  2.183749725320 -0.080153369722 -0.128060734926  0.001384281942