# total energy = -39361.1001046025 eV

CRYSTAL
PRIMVEC
6.408629157334813 0.0 0.0
-3.2043145786674065 5.550033065980882 0.0
0.0 0.0 10.138906339573845
PRIMCOORD
32 1
Zn   1.602157289334  0.925006151860  2.537938910259 -0.000010027302 -0.000005913537 -0.259085694687
Zn  -0.000000000000  1.850011662857  0.003212004934 -0.000000000000 -0.000020054605 -0.259160256679
O    1.602157289334  0.925006151860  4.459479205729  0.000000771331  0.000000514221  0.259078495599
O   -0.000000000000  1.850011662857  1.924752300404  0.000000000000 -0.000004370875  0.259052527457
Zn   1.602157289334  0.925006151860  7.607392720908  0.000020568825  0.000011827075 -0.259089037122
Zn  -0.000000000000  1.850011662857  5.072665815583  0.000000000000  0.000002571103 -0.259015503571
O    1.602157289334  0.925006151860  9.528933016379 -0.000002571103 -0.000001542662  0.259097778872
O   -0.000000000000  1.850011662857  6.994206111054  0.000000000000  0.000005399317  0.259121433021
Zn  -0.000000000000  3.700023966576  2.537938910259  0.000000000000  0.000000000000 -0.259065640083
Zn  -1.602157289334  4.625029477573  0.003212004934 -0.000017226391  0.000010027302 -0.259160256679
O   -0.000000000000  3.700023966576  4.459479205729  0.000000000000 -0.000000000000  0.259074896054
O   -1.602157289334  4.625029477573  1.924752300404 -0.000003856655  0.000002313993  0.259052527457
Zn  -0.000000000000  3.700023966576  7.607392720908  0.000000000000  0.000000000000 -0.259093407997
Zn  -1.602157289334  4.625029477573  5.072665815583  0.000002313993 -0.000001285552 -0.259015503571
O   -0.000000000000  3.700023966576  9.528933016379  0.000000000000  0.000000000000  0.259085437577
O   -1.602157289334  4.625029477573  6.994206111054  0.000004885096 -0.000002828213  0.259121433021
Zn   4.806471868001  0.925006151860  2.537938910259  0.000010027302 -0.000005913537 -0.259085694687
Zn   3.204314578667  1.850011662857  0.003212004934  0.000000000000  0.000000000000 -0.259168227099
O    4.806471868001  0.925006151860  4.459479205729 -0.000000771331  0.000000514221  0.259078495599
O    3.204314578667  1.850011662857  1.924752300404  0.000000000000  0.000000000000  0.259043785706
Zn   4.806471868001  0.925006151860  7.607392720908 -0.000020568825  0.000011827075 -0.259089037122
Zn   3.204314578667  1.850011662857  5.072665815583 -0.000000000000 -0.000000000000 -0.258997762959
O    4.806471868001  0.925006151860  9.528933016379  0.000002571103 -0.000001542662  0.259097778872
O    3.204314578667  1.850011662857  6.994206111054  0.000000000000  0.000000000000  0.259120918801
Zn   3.204314578667  3.700023966576  2.537938910259  0.000000000000  0.000011569964 -0.259085694687
Zn   1.602157289334  4.625029477573  0.003212004934  0.000017226391  0.000010027302 -0.259160256679
O    3.204314578667  3.700023966576  4.459479205729  0.000000000000 -0.000001028441  0.259078495599
O    1.602157289334  4.625029477573  1.924752300404  0.000003856655  0.000002313993  0.259052527457
Zn   3.204314578667  3.700023966576  7.607392720908  0.000000000000 -0.000023911259 -0.259089037122
Zn   1.602157289334  4.625029477573  5.072665815583 -0.000002313993 -0.000001285552 -0.259015503571
O    3.204314578667  3.700023966576  9.528933016379  0.000000000000  0.000002828213  0.259097778872
O    1.602157289334  4.625029477573  6.994206111054 -0.000004885096 -0.000002828213  0.259121433021