# total energy = -39344.54666740231 eV

CRYSTAL
PRIMVEC
6.147052100650782 0.0 0.0
-3.073526050325391 5.323500795466094 0.0
0.0 0.0 9.129663250407548
PRIMCOORD
32 1
Zn   1.536763025163  0.887250747283  2.285307385910  0.000222914644  0.000128812268 -2.654030751319
Zn  -0.000000000000  1.774500879861  0.002892188013  0.000000000000  0.000390036350 -2.655130669251
O    1.536763025163  0.887250747283  4.015574078854 -0.000022625708 -0.000013112626  2.654327713734
O   -0.000000000000  1.774500879861  1.733158266252  0.000000000000  0.000024682590  2.654346225677
Zn   1.536763025163  0.887250747283  6.850138396409  0.000480796291  0.000277679141 -2.654635731893
Zn  -0.000000000000  1.774500879861  4.567722583807  0.000000000000  0.000088960169 -2.653546612594
O    1.536763025163  0.887250747283  8.580404474648  0.000040880540  0.000023654149  2.654326942403
O   -0.000000000000  1.774500879861  6.297989276751  0.000000000000  0.000006427758  2.654267549920
Zn  -0.000000000000  3.549002374426  2.285307385910  0.000000000000  0.000000000000 -2.654395333747
Zn  -1.536763025163  4.436252507004  0.002892188013  0.000337585845 -0.000194889620 -2.655130669251
O   -0.000000000000  3.549002374426  4.015574078854  0.000000000000  0.000000000000  2.654340055029
O   -1.536763025163  4.436252507004  1.733158266252  0.000021340156 -0.000012341295  2.654346225677
Zn  -0.000000000000  3.549002374426  6.850138396409  0.000000000000  0.000000000000 -2.654136680769
Zn  -1.536763025163  4.436252507004  4.567722583807  0.000076875985 -0.000044480085 -2.653546612594
O   -0.000000000000  3.549002374426  8.580404474648  0.000000000000  0.000000000000  2.654247238205
O   -1.536763025163  4.436252507004  6.297989276751  0.000005399317 -0.000003085324  2.654267549920
Zn   4.610289075488  0.887250747283  2.285307385910 -0.000222914644  0.000128812268 -2.654030751319
Zn   3.073526050325  1.774500879861  0.002892188013  0.000000000000  0.000000000000 -2.654992858122
O    4.610289075488  0.887250747283  4.015574078854  0.000022625708 -0.000013112626  2.654327713734
O    3.073526050325  1.774500879861  1.733158266252  0.000000000000  0.000000000000  2.654352910545
Zn   4.610289075488  0.887250747283  6.850138396409 -0.000480796291  0.000277679141 -2.654635731893
Zn   3.073526050325  1.774500879861  4.567722583807  0.000000000000  0.000000000000 -2.653191286137
O    4.610289075488  0.887250747283  8.580404474648 -0.000040880540  0.000023654149  2.654326942403
O    3.073526050325  1.774500879861  6.297989276751  0.000000000000 -0.000000000000  2.654002212074
Zn   3.073526050325  3.549002374426  2.285307385910 -0.000000000000 -0.000257367426 -2.654030751319
Zn   1.536763025163  4.436252507004  0.002892188013 -0.000337585845 -0.000194889620 -2.655130669251
O    3.073526050325  3.549002374426  4.015574078854  0.000000000000  0.000026225252  2.654327713734
O    1.536763025163  4.436252507004  1.733158266252 -0.000021340156 -0.000012341295  2.654346225677
Zn   3.073526050325  3.549002374426  6.850138396409 -0.000000000000 -0.000555358283 -2.654635731893
Zn   1.536763025163  4.436252507004  4.567722583807 -0.000076875985 -0.000044480085 -2.653546612594
O    3.073526050325  3.549002374426  8.580404474648  0.000000000000 -0.000047051188  2.654326942403
O    1.536763025163  4.436252507004  6.297989276751 -0.000005399317 -0.000003085324  2.654267549920