# total energy = -29516.35503088625 eV

CRYSTAL
PRIMVEC
10.790038638960128 0.0 0.0
-3.5966759496404963 6.22962880820363 0.0
0.0 0.0 5.574080010693608
PRIMCOORD
24 1
Zn   1.798340132828  1.038271468034  2.790569426986  0.000007456199 -0.000045251416  0.018506800555
Zn   0.000000000000  2.076544015072  0.003531579647  0.000041651871  0.000064020469  0.018531740256
O    1.798340132828  1.038271468034  4.903384156942 -0.000005913537 -0.000003599544 -0.018525826718
O    0.000000000000  2.076544015072  2.116345230599  0.000010284413  0.000003342434 -0.018524284056
Zn  -0.000000000000  4.153088030143  2.790569426986 -0.000065563131  0.000038052327  0.018544852882
Zn  -1.798340132828  5.191359498177  0.003531579647  0.000080475529  0.000005913537  0.018549995088
O   -0.000000000000  4.153088030143  4.903384156942 -0.000006170648 -0.000005399317 -0.018526855160
O   -1.798340132828  5.191359498177  2.116345230599  0.000010541523  0.000006170648 -0.018527626491
Zn   5.395019319480  1.038271468034  2.790569426986 -0.000001799772  0.000020825936  0.018504229452
Zn   3.596679186652  2.076544015072  0.003531579647  0.000010027302 -0.000013883957  0.018521198733
O    5.395019319480  1.038271468034  4.903384156942 -0.000005656427 -0.000004113765 -0.018526083829
O    3.596679186652  2.076544015072  2.116345230599  0.000010284413  0.000004885096 -0.018526083829
Zn   3.596679186652  4.153088030143  2.790569426986  0.000046536967  0.000009513082  0.018516056526
Zn   1.798340132828  5.191359498177  0.003531579647 -0.000037280996 -0.000013112626  0.018487774392
O    3.596679186652  4.153088030143  4.903384156942 -0.000005399317 -0.000004627986 -0.018526598049
O    1.798340132828  5.191359498177  2.116345230599  0.000009513082  0.000005399317 -0.018526083829
Zn   8.991698506132  1.038271468034  2.790569426986 -0.000057335600 -0.000032395900  0.018488545722
Zn   7.193359452308  2.076544015072  0.003531579647 -0.000031624569  0.000013112626  0.018580076995
O    8.991698506132  1.038271468034  4.903384156942 -0.000004370875 -0.000003599544 -0.018525826718
O    7.193359452308  2.076544015072  2.116345230599  0.000009513082  0.000004885096 -0.018526340939
Zn   7.193359452308  4.153088030143  2.790569426986 -0.000020825936 -0.000008227530  0.018480832413
Zn   5.395019319480  5.191359498177  0.003531579647  0.000001028441 -0.000044222974  0.018602959813
O    7.193359452308  4.153088030143  4.903384156942 -0.000005142206 -0.000003599544 -0.018526855160
O    5.395019319480  5.191359498177  2.116345230599  0.000010027302  0.000005913537 -0.018525826718