# total energy = -19679.416186045008 eV

CRYSTAL
PRIMVEC
6.147052100650782 0.0 0.0
-1.5367630251626956 2.661753471259097 0.0
0.0 0.0 10.717428366849344
PRIMCOORD
16 1
Zn   1.536763025163  0.887250747283  2.682752415940  0.000273565376  0.000157865734  0.902639500825
Zn  -0.000000000000  1.774500879861  0.003395016875 -0.000289506216 -0.000167121705  0.902916151526
O    1.536763025163  0.887250747283  4.713934520957 -0.000082532411 -0.000047565408 -0.902344081072
O   -0.000000000000  1.774500879861  2.034577121892  0.000077133095  0.000044480085 -0.902405016217
Zn   1.536763025163  0.887250747283  8.041466599365  0.000380009047  0.000219315100  0.902043262002
Zn  -0.000000000000  1.774500879861  5.362109200300 -0.000145267329 -0.000083817963  0.901869969649
O    1.536763025163  0.887250747283  10.072648704382 -0.000072247999 -0.000041651871 -0.902429955918
O   -0.000000000000  1.774500879861  7.393291920022  0.000072247999  0.000041651871 -0.902364135677
Zn   4.610289075488  0.887250747283  2.682752415940  0.000113642760  0.000065563131  0.902520972970
Zn   3.073526050325  1.774500879861  0.003395016875 -0.000097701920 -0.000056307159  0.902943662329
O    4.610289075488  0.887250747283  4.713934520957 -0.000081246860 -0.000046794078 -0.902340738638
O    3.073526050325  1.774500879861  2.034577121892  0.000078161536  0.000044994305 -0.902385218723
Zn   4.610289075488  0.887250747283  8.041466599365  0.000020311715  0.000011827075  0.902072572578
Zn   3.073526050325  1.774500879861  5.362109200300 -0.000246311683 -0.000142182005  0.902041719340
O    4.610289075488  0.887250747283  10.072648704382 -0.000078932867 -0.000045508526 -0.902427899035
O    3.073526050325  1.774500879861  7.393291920022  0.000078418646  0.000045251416 -0.902350765940