# total energy = -44270.15268538526 eV

CRYSTAL
PRIMVEC
9.02439601993466 0.0 0.0
-4.51219800996733 7.815352563163914 0.0
0.0 0.0 4.953328536213776
PRIMCOORD
36 1
Zn   1.504066304136  0.868372507018  2.479802050603 -0.000014655288 -0.000008484640  0.475307757242
Zn  -0.000000000000  1.736745916476  0.003138684936  0.000000000000 -0.000008484640  0.475412658251
O    1.504066304136  0.868372507018  4.357324935232 -0.000008741751 -0.000005142206 -0.475354551320
O   -0.000000000000  1.736745916476  1.880661569564  0.000000000000 -0.000019540384 -0.475378205469
Zn  -0.000000000000  3.473491832952  2.479802050603  0.000000000000 -0.000004627986  0.475342467135
Zn  -1.504066304136  4.341864339970  0.003138684936  0.000003856655  0.000002313993  0.475408287376
O   -0.000000000000  3.473491832952  4.357324935232  0.000000000000 -0.000014912398 -0.475361493298
O   -1.504066304136  4.341864339970  1.880661569564 -0.000013626847 -0.000007970420 -0.475373834593
Zn  -1.504066304136  6.078610256446  2.479802050603 -0.000004113765  0.000002313993  0.475342467135
Zn  -3.008131705832  6.946983665904  0.003138684936 -0.000007199089  0.000004113765  0.475412658251
O   -1.504066304136  6.078610256446  4.357324935232 -0.000012855516  0.000007456199 -0.475361493298
O   -3.008131705832  6.946983665904  1.880661569564 -0.000016969281  0.000009770192 -0.475378205469
Zn   4.512198009967  0.868372507018  2.479802050603 -0.000000000000 -0.000011827075  0.475294130395
Zn   3.008131705832  1.736745916476  0.003138684936  0.000000771331  0.000000514221  0.475441968827
O    4.512198009967  0.868372507018  4.357324935232  0.000000000000  0.000002056883 -0.475356351092
O    3.008131705832  1.736745916476  1.880661569564 -0.000004370875 -0.000002571103 -0.475382576344
Zn   3.008131705832  3.473491832952  2.479802050603 -0.000010027302  0.000005913537  0.475294130395
Zn   1.504066304136  4.341864339970  0.003138684936 -0.000003856655  0.000002313993  0.475408287376
O    3.008131705832  3.473491832952  4.357324935232  0.000001799772 -0.000001028441 -0.475356351092
O    1.504066304136  4.341864339970  1.880661569564  0.000013626847 -0.000007970420 -0.475373834593
Zn   1.504066304136  6.078610256446  2.479802050603  0.000004113765  0.000002313993  0.475342467135
Zn  -0.000000000000  6.946983665904  0.003138684936 -0.000000000000 -0.000004627986  0.475408287376
O    1.504066304136  6.078610256446  4.357324935232  0.000012855516  0.000007456199 -0.475361493298
O   -0.000000000000  6.946983665904  1.880661569564  0.000000000000  0.000015683729 -0.475373834593
Zn   7.520329715799  0.868372507018  2.479802050603  0.000014655288 -0.000008484640  0.475307757242
Zn   6.016264314103  1.736745916476  0.003138684936 -0.000000771331  0.000000514221  0.475441968827
O    7.520329715799  0.868372507018  4.357324935232  0.000008741751 -0.000005142206 -0.475354551320
O    6.016264314103  1.736745916476  1.880661569564  0.000004370875 -0.000002571103 -0.475382576344
Zn   6.016264314103  3.473491832952  2.479802050603  0.000010027302  0.000005913537  0.475294130395
Zn   4.512198009967  4.341864339970  0.003138684936  0.000000000000 -0.000001028441  0.475441968827
O    6.016264314103  3.473491832952  4.357324935232 -0.000001799772 -0.000001028441 -0.475356351092
O    4.512198009967  4.341864339970  1.880661569564  0.000000000000  0.000004885096 -0.475382576344
Zn   4.512198009967  6.078610256446  2.479802050603  0.000000000000  0.000016969281  0.475307757242
Zn   3.008131705832  6.946983665904  0.003138684936  0.000007199089  0.000004113765  0.475412658251
O    4.512198009967  6.078610256446  4.357324935232  0.000000000000  0.000010284413 -0.475354551320
O    3.008131705832  6.946983665904  1.880661569564  0.000016969281  0.000009770192 -0.475378205469