# total energy = -39314.5576388068 eV

CRYSTAL
PRIMVEC
5.88547557314396 0.0 0.0
-2.94273778657198 5.096968983231998 0.0
0.0 0.0 8.551142826159042
PRIMCOORD
32 1
Zn   1.471368893286  0.849495419086  2.140493908125 -0.000147838432 -0.000085360625 -5.561038513325
Zn  -0.000000000000  1.698990249625  0.002709084406  0.000000000000 -0.000009255971 -5.560987862592
O    1.471368893286  0.849495419086  3.761117873398  0.000019283274  0.000011312854  5.561125159501
O   -0.000000000000  1.698990249625  1.623333049680  0.000000000000 -0.000002571103  5.561100734021
Zn   1.471368893286  0.849495419086  6.416064144109 -0.000386179695 -0.000222914644 -5.561341646387
Zn  -0.000000000000  1.698990249625  4.278278731843 -0.000000000000  0.000053993166 -5.561025400699
O    1.471368893286  0.849495419086  8.036688109383 -0.000056307159 -0.000032653010  5.561140071899
O   -0.000000000000  1.698990249625  5.898903285664  0.000000000000 -0.000032395900  5.561093020712
Zn   0.000000000000  3.397981087797  2.140493908125  0.000000000000  0.000000000000 -5.561077851203
Zn  -1.471368893286  4.247475918336  0.002709084406 -0.000007970420  0.000004627986 -5.560987862592
O    0.000000000000  3.397981087797  3.761117873398  0.000000000000  0.000000000000  5.561149584981
O   -1.471368893286  4.247475918336  1.623333049680 -0.000002313993  0.000001285552  5.561100734021
Zn   0.000000000000  3.397981087797  6.416064144109  0.000000000000 -0.000000000000 -5.561246001350
Zn  -1.471368893286  4.247475918336  4.278278731843  0.000046794078 -0.000026996583 -5.561025400699
O    0.000000000000  3.397981087797  8.036688109383  0.000000000000  0.000000000000  5.561140586120
O   -1.471368893286  4.247475918336  5.898903285664 -0.000028025024  0.000016197950  5.561093020712
Zn   4.414106679858  0.849495419086  2.140493908125  0.000147838432 -0.000085360625 -5.561038513325
Zn   2.942737786572  1.698990249625  0.002709084406  0.000000000000  0.000000000000 -5.560978606621
O    4.414106679858  0.849495419086  3.761117873398 -0.000019283274  0.000011312854  5.561125159501
O    2.942737786572  1.698990249625  1.623333049680  0.000000000000  0.000000000000  5.561113075316
Zn   4.414106679858  0.849495419086  6.416064144109  0.000386179695 -0.000222914644 -5.561341646387
Zn   2.942737786572  1.698990249625  4.278278731843  0.000000000000  0.000000000000 -5.561311050260
O    4.414106679858  0.849495419086  8.036688109383  0.000056307159 -0.000032653010  5.561140071899
O    2.942737786572  1.698990249625  5.898903285664  0.000000000000  0.000000000000  5.561014344955
Zn   2.942737786572  3.397981087797  2.140493908125  0.000000000000  0.000170721250 -5.561038513325
Zn   1.471368893286  4.247475918336  0.002709084406  0.000007970420  0.000004627986 -5.560987862592
O    2.942737786572  3.397981087797  3.761117873398  0.000000000000 -0.000022368598  5.561125159501
O    1.471368893286  4.247475918336  1.623333049680  0.000002313993  0.000001285552  5.561100734021
Zn   2.942737786572  3.397981087797  6.416064144109 -0.000000000000  0.000445829288 -5.561341646387
Zn   1.471368893286  4.247475918336  4.278278731843 -0.000046794078 -0.000026996583 -5.561025400699
O    2.942737786572  3.397981087797  8.036688109383  0.000000000000  0.000065048910  5.561140071899
O    1.471368893286  4.247475918336  5.898903285664  0.000028025024  0.000016197950  5.561093020712