# total energy = -59036.80463312588 eV

CRYSTAL
PRIMVEC
6.931782212348458 0.0 0.0
-3.465891106174229 6.003096690449074 0.0
0.0 0.0 17.121280247469898
PRIMCOORD
48 1
Zn   1.732945553087  1.000516808253  2.857162787632  0.000025196811  0.000014655288 -0.008922499301
Zn  -0.000000000000  2.001032923328  0.003615617602 -0.000000000000  0.000010027302 -0.008967236496
O    1.732945553087  1.000516808253  5.020395948838 -0.000001542662 -0.000000771331  0.008854107957
O   -0.000000000000  2.001032923328  2.166848778808  0.000000000000 -0.000002056883  0.008851279743
Zn   1.732945553087  1.000516808253  8.564257127693 -0.000002571103 -0.000001542662 -0.008755634705
Zn  -0.000000000000  2.001032923328  5.710709957663 -0.000000000000  0.000043451643 -0.008849479971
O    1.732945553087  1.000516808253  10.727490288899 -0.000000514221 -0.000000257110  0.008857964611
O   -0.000000000000  2.001032923328  7.873943118869  0.000000000000  0.000000514221  0.008855650618
Zn   1.732945553087  1.000516808253  14.271350774576 -0.000028796355 -0.000016712171 -0.008848965750
Zn  -0.000000000000  2.001032923328  11.417804297724  0.000000000000 -0.000010541523 -0.008792401481
O    1.732945553087  1.000516808253  16.434583935782  0.000000771331  0.000000514221  0.008856679060
O   -0.000000000000  2.001032923328  13.581037458930  0.000000000000  0.000000257110  0.008853593736
Zn   0.000000000000  4.002066539834  2.857162787632  0.000000000000 -0.000000000000 -0.008891903173
Zn  -1.732945553087  5.002582654909  0.003615617602  0.000008484640 -0.000004885096 -0.008967236496
O    0.000000000000  4.002066539834  5.020395948838  0.000000000000  0.000000000000  0.008854365067
O   -1.732945553087  5.002582654909  2.166848778808 -0.000001799772  0.000001028441  0.008851279743
Zn   0.000000000000  4.002066539834  8.564257127693  0.000000000000 -0.000000000000 -0.008776203531
Zn  -1.732945553087  5.002582654909  5.710709957663  0.000037795216 -0.000021854377 -0.008849479971
O    0.000000000000  4.002066539834  10.727490288899  0.000000000000  0.000000000000  0.008857450391
O   -1.732945553087  5.002582654909  7.873943118869  0.000000257110 -0.000000257110  0.008855650618
Zn   0.000000000000  4.002066539834  14.271350774576  0.000000000000  0.000000000000 -0.008840738220
Zn  -1.732945553087  5.002582654909  11.417804297724 -0.000008998861  0.000005142206 -0.008792401481
O    0.000000000000  4.002066539834  16.434583935782  0.000000000000  0.000000000000  0.008856679060
O   -1.732945553087  5.002582654909  13.581037458930  0.000000257110 -0.000000257110  0.008853593736
Zn   5.198836659261  1.000516808253  2.857162787632 -0.000025196811  0.000014655288 -0.008922499301
Zn   3.465891106174  2.001032923328  0.003615617602  0.000000000000  0.000000000000 -0.008926355955
O    5.198836659261  1.000516808253  5.020395948838  0.000001542662 -0.000000771331  0.008854107957
O    3.465891106174  2.001032923328  2.166848778808  0.000000000000 -0.000000000000  0.008853079515
Zn   5.198836659261  1.000516808253  8.564257127693  0.000002571103 -0.000001542662 -0.008755634705
Zn   3.465891106174  2.001032923328  5.710709957663  0.000000000000  0.000000000000 -0.008860021494
O    5.198836659261  1.000516808253  10.727490288899  0.000000514221 -0.000000257110  0.008857964611
O    3.465891106174  2.001032923328  7.873943118869  0.000000000000  0.000000000000  0.008855393508
Zn   5.198836659261  1.000516808253  14.271350774576  0.000028796355 -0.000016712171 -0.008848965750
Zn   3.465891106174  2.001032923328  11.417804297724  0.000000000000  0.000000000000 -0.008817598292
O    5.198836659261  1.000516808253  16.434583935782 -0.000000771331  0.000000514221  0.008856679060
O    3.465891106174  2.001032923328  13.581037458930  0.000000000000  0.000000000000  0.008857707501
Zn   3.465891106174  4.002066539834  2.857162787632  0.000000000000 -0.000029310576 -0.008922499301
Zn   1.732945553087  5.002582654909  0.003615617602 -0.000008484640 -0.000004885096 -0.008967236496
O    3.465891106174  4.002066539834  5.020395948838  0.000000000000  0.000001542662  0.008854107957
O    1.732945553087  5.002582654909  2.166848778808  0.000001799772  0.000001028441  0.008851279743
Zn   3.465891106174  4.002066539834  8.564257127693  0.000000000000  0.000002828213 -0.008755634705
Zn   1.732945553087  5.002582654909  5.710709957663 -0.000037795216 -0.000021854377 -0.008849479971
O    3.465891106174  4.002066539834  10.727490288899  0.000000000000  0.000000514221  0.008857964611
O    1.732945553087  5.002582654909  7.873943118869 -0.000000257110 -0.000000257110  0.008855650618
Zn   3.465891106174  4.002066539834  14.271350774576  0.000000000000  0.000033424341 -0.008848965750
Zn   1.732945553087  5.002582654909  11.417804297724  0.000008998861  0.000005142206 -0.008792401481
O    3.465891106174  4.002066539834  16.434583935782  0.000000000000 -0.000000771331  0.008856679060
O    1.732945553087  5.002582654909  13.581037458930 -0.000000257110 -0.000000257110  0.008853593736