# total energy = -14760.225476030166 eV

CRYSTAL
PRIMVEC
3.4004969742975235 0.0 0.0
-1.7002484871487618 2.944915392166013 0.0
0.0 0.0 14.82197739566487
PRIMCOORD
12 1
Zn   1.700248487149  0.981638804105  2.473459610059  0.000000000000 -0.000000000000 -1.168093046712
Zn  -0.000000000000  1.963277948260  0.003130497515  0.000000000000  0.000000000000 -1.168243970468
O    1.700248487149  0.981638804105  4.346180963695  0.000000000000  0.000000000000  1.167911526829
O   -0.000000000000  1.963277948260  1.875851511100  0.000000000000 -0.000000000000  1.167955749804
Zn   1.700248487149  0.981638804105  7.414118175198  0.000000000000 -0.000000000000 -1.167483181043
Zn  -0.000000000000  1.963277948260  4.943789062653  0.000000000000  0.000000000000 -1.167632562136
O    1.700248487149  0.981638804105  9.286839528833  0.000000000000 -0.000000000000  1.167876816937
O   -0.000000000000  1.963277948260  6.816510076239  0.000000000000  0.000000000000  1.167809196923
Zn   1.700248487149  0.981638804105  12.354777080386  0.000000000000  0.000000000000 -1.168296935193
Zn  -0.000000000000  1.963277948260  9.884447627792  0.000000000000  0.000000000000 -1.167741319800
O    1.700248487149  0.981638804105  14.227498093972  0.000000000000  0.000000000000  1.167987631483
O   -0.000000000000  1.963277948260  11.757168981428  0.000000000000  0.000000000000  1.167950093377