# total energy = -19678.15713912351 eV

CRYSTAL
PRIMVEC
6.800993948595047 0.0 0.0
-3.4004969742975235 5.889830784332026 0.0
0.0 0.0 6.038582123975697
PRIMCOORD
16 1
Zn   1.700248487149  0.981639144155  3.023117301183  0.000088703059  0.000051164953 -0.190625187922
Zn  -0.000000000000  1.963277608210  0.003826239195  0.000000000000  0.000021340156 -0.190671982000
O    1.700248487149  0.981639144155  5.311998615577  0.000012341295  0.000007199089  0.190629301687
O   -0.000000000000  1.963277608210  2.292707553589  0.000000000000  0.000008227530  0.190597162898
Zn   0.000000000000  3.926555896520  3.023117301183  0.000000000000 -0.000000000000 -0.190412814801
Zn  -1.700248487149  4.908194360575  0.003826239195  0.000018511943 -0.000010541523 -0.190671982000
O    0.000000000000  3.926555896520  5.311998615577 -0.000000000000 -0.000000000000  0.190641128762
O   -1.700248487149  4.908194360575  2.292707553589  0.000007199089 -0.000004113765  0.190597162898
Zn   5.100745461446  0.981639144155  3.023117301183 -0.000088703059  0.000051164953 -0.190625187922
Zn   3.400496974298  1.963277608210  0.003826239195  0.000000000000  0.000000000000 -0.190637014997
O    5.100745461446  0.981639144155  5.311998615577 -0.000012341295  0.000007199089  0.190629301687
O    3.400496974298  1.963277608210  2.292707553589  0.000000000000  0.000000000000  0.190620559936
Zn   3.400496974298  3.926555896520  3.023117301183  0.000000000000 -0.000102587016 -0.190625187922
Zn   1.700248487149  4.908194360575  0.003826239195 -0.000018511943 -0.000010541523 -0.190671982000
O    3.400496974298  3.926555896520  5.311998615577  0.000000000000 -0.000014141067  0.190629301687
O    1.700248487149  4.908194360575  2.292707553589 -0.000007199089 -0.000004113765  0.190597162898