# total energy = -44279.42042829976 eV

CRYSTAL
PRIMVEC
9.416760811194894 0.0 0.0
-4.708380405597447 8.15515028151506 0.0
0.0 0.0 5.0673379109593855
PRIMCOORD
36 1
Zn   1.569460449091  0.906127809057  2.536881954268 -0.000004885096 -0.000002828213  0.011027718569
Zn   0.000000000000  1.812256559791  0.003210173761  0.000000000000 -0.000007713309  0.011008178185
O    1.569460449091  0.906127809057  4.457621481956  0.000005142206  0.000003085324 -0.011016405715
O    0.000000000000  1.812256559791  1.923950643124  0.000000000000  0.000004885096 -0.011021290811
Zn   0.000000000000  3.624513119581  2.536881954268  0.000000000000  0.000003599544  0.011018462598
Zn  -1.569460449091  4.530640928638  0.003210173761 -0.000001285552 -0.000000771331  0.011014863053
O    0.000000000000  3.624513119581  4.457621481956 -0.000000000000 -0.000001028441 -0.011016919936
O   -1.569460449091  4.530640928638  1.923950643124 -0.000002056883 -0.000001028441 -0.011018976818
Zn  -1.569460449091  6.342897488429  2.536881954268  0.000003085324 -0.000001799772  0.011018462598
Zn  -3.138919956506  7.249026239162  0.003210173761 -0.000006684868  0.000003856655  0.011008178185
O   -1.569460449091  6.342897488429  4.457621481956 -0.000000771331  0.000000514221 -0.011016919936
O   -3.138919956506  7.249026239162  1.923950643124  0.000004370875 -0.000002571103 -0.011021290811
Zn   4.708380405597  0.906127809057  2.536881954268  0.000000000000 -0.000008998861  0.011023604804
Zn   3.138919956506  1.812256559791  0.003210173761  0.000004885096  0.000002828213  0.011016662825
O    4.708380405597  0.906127809057  4.457621481956 -0.000000000000 -0.000002056883 -0.011015634384
O    3.138919956506  1.812256559791  1.923950643124 -0.000002056883 -0.000001285552 -0.011020519480
Zn   3.138919956506  3.624513119581  2.536881954268 -0.000007970420  0.000004627986  0.011023604804
Zn   1.569460449091  4.530640928638  0.003210173761  0.000001285552 -0.000000771331  0.011014863053
O    3.138919956506  3.624513119581  4.457621481956 -0.000001799772  0.000001028441 -0.011015634384
O    1.569460449091  4.530640928638  1.923950643124  0.000002056883 -0.000001028441 -0.011018976818
Zn   1.569460449091  6.342897488429  2.536881954268 -0.000003085324 -0.000001799772  0.011018462598
Zn  -0.000000000000  7.249026239162  0.003210173761  0.000000000000  0.000001285552  0.011014863053
O    1.569460449091  6.342897488429  4.457621481956  0.000000771331  0.000000514221 -0.011016919936
O   -0.000000000000  7.249026239162  1.923950643124  0.000000000000  0.000002313993 -0.011018976818
Zn   7.847300362104  0.906127809057  2.536881954268  0.000004885096 -0.000002828213  0.011027718569
Zn   6.277840854689  1.812256559791  0.003210173761 -0.000004885096  0.000002828213  0.011016662825
O    7.847300362104  0.906127809057  4.457621481956 -0.000005142206  0.000003085324 -0.011016405715
O    6.277840854689  1.812256559791  1.923950643124  0.000002056883 -0.000001285552 -0.011020519480
Zn   6.277840854689  3.624513119581  2.536881954268  0.000007970420  0.000004627986  0.011023604804
Zn   4.708380405597  4.530640928638  0.003210173761 -0.000000000000 -0.000005656427  0.011016662825
O    6.277840854689  3.624513119581  4.457621481956  0.000001799772  0.000001028441 -0.011015634384
O    4.708380405597  4.530640928638  1.923950643124 -0.000000000000  0.000002313993 -0.011020519480
Zn   4.708380405597  6.342897488429  2.536881954268  0.000000000000  0.000005656427  0.011027718569
Zn   3.138919956506  7.249026239162  0.003210173761  0.000006684868  0.000003856655  0.011008178185
O    4.708380405597  6.342897488429  4.457621481956  0.000000000000 -0.000005913537 -0.011016405715
O    3.138919956506  7.249026239162  1.923950643124 -0.000004370875 -0.000002571103 -0.011021290811