# total energy = -14745.195092774653 eV

CRYSTAL
PRIMVEC
9.02439601993466 0.0 0.0
-1.50406901145445 2.605117521054638 0.0
0.0 0.0 4.661957861918146
PRIMCOORD
12 1
Zn   1.530233442835  0.996260832775  2.521028198941  2.558740525955 -1.909128172328 -0.586929115665
Zn  -0.060154818990  1.742350066404  0.059087232941 -1.946836742623 -3.346596211469  1.347203549127
O    1.314523304771  0.745686745567  4.353922737932  1.712138475641  3.160765873832 -2.462122068699
O    0.090842277655  1.709746728464  1.888078720653 -1.707009124834  2.663798115118 -0.020849332645
Zn   4.274021638011  0.797252144425  2.471337167136 -0.435634092802  0.720294293524 -8.852531098951
Zn   2.913703133198  1.818673895743 -0.097338940350 -0.122631336381 -1.482696314851 -12.586358072218
O    4.673371918004  0.796627656220  4.019456962883  1.652514079110  3.586165176280  5.908375010030
O    2.978158076891  1.626962334014  1.388293230036  0.998067537319 -1.624952367441  16.619060618476
Zn   7.699588513460  0.675208017530  2.450236324363  1.755062271587  5.893951892626 -19.389379280456
Zn   6.295539590413  1.719636564062 -0.025020137965 -1.876684964198 -1.458003182980  3.365907767314
O    7.511944247017  0.679827605853  3.880539922750 -1.555529496763  1.634877339865  21.104566827335
O    6.018745120569  1.766516496506  1.895217017905 -1.032196874902 -7.838476442176 -4.446944803647