# total energy = -14753.941595236533 eV

CRYSTAL
PRIMVEC
3.1389040422972423 0.0 0.0
-4.708356063445864 8.155111258595449 0.0
0.0 0.0 4.560585877846636
PRIMCOORD
12 1
Zn   1.603975571148  0.949688915284  2.081340725682 -0.528788502769 -0.628240315709  0.664798574449
Zn   0.010375333421  1.750918969423 -0.084134870059  3.388800098531  2.375801908044  0.310190483783
O    1.715679121521  0.908107225655  4.099919378928 -3.656729102541 -1.495436902346 -0.798076077690
O    0.007375482828  1.963686127135  1.858029675400  0.910086958242  0.009977165817  0.029713982125
Zn  -0.101896986363  3.806428712069  2.380662848470  7.984125836718 -4.200101930882  0.191026280015
Zn  -1.572803742885  4.428218294383  0.008220475796 -7.294926721937  3.453370269103  1.684308597912
O   -0.138689963986  3.858855629055  4.182374935325  7.670047587845 -4.414575643287 -0.066913731103
O   -1.449331185696  4.494868527255  1.892581789427 -8.244284452755  2.347005038417 -2.395469047456
Zn  -1.412724031193  6.250854943364  2.269499189593 -0.678705157228  1.711613713485 -1.016771798596
Zn  -3.053656116865  7.128215662254 -0.025956853087 -0.809890039606  1.633908548193 -0.504042663283
O   -1.512927892717  6.389993142847  4.084951201112  0.676120941441 -1.566774730659  0.979276886975
O   -3.033154051222  7.214204682931  1.827380160770  0.584143068280  0.773452622714  0.921957998648