# total energy = -29521.379802716423 eV

CRYSTAL
PRIMVEC
6.539417421088225 0.0 0.0
-1.6348543552720562 2.8316527557576756 0.0
0.0 0.0 15.202026732785692
PRIMCOORD
24 1
Zn   1.634854355272  0.943883815958  2.536881976085  0.000218543769  0.000126241165 -0.465796218207
Zn  -0.000000000000  1.887766977974  0.003210853954 -0.000211858900 -0.000122384510 -0.465768450293
O    1.634854355272  0.943883815958  4.457621350638 -0.000022368598 -0.000012855516  0.465760479873
O   -0.000000000000  1.887766977974  1.923950228507  0.000025711032  0.000014912398  0.465752252343
Zn   1.634854355272  0.943883815958  7.604224220347  0.000222914644  0.000128812268 -0.465738111276
Zn  -0.000000000000  1.887766977974  5.070553098216 -0.000199774716 -0.000115185422 -0.465786448015
O    1.634854355272  0.943883815958  9.524963594900 -0.000031367459 -0.000017997722  0.465760736984
O   -0.000000000000  1.887766977974  6.991292472769  0.000026482363  0.000015426619  0.465770764286
Zn   1.634854355272  0.943883815958  12.671566464608  0.000219315100  0.000126755386 -0.465739653938
Zn  -0.000000000000  1.887766977974  10.137895342478 -0.000202602929 -0.000116985194 -0.465679747234
O    1.634854355272  0.943883815958  14.592305839162 -0.000027767914 -0.000015940840  0.465750195461
O   -0.000000000000  1.887766977974  12.058634717031  0.000026225252  0.000015169509  0.465750966792
Zn   4.904563065816  0.943883815958  2.536881976085  0.000199774716  0.000115185422 -0.465812416157
Zn   3.269708710544  1.887766977974  0.003210853954 -0.000210830459 -0.000121613180 -0.465787219346
O    4.904563065816  0.943883815958  4.457621350638 -0.000030853238 -0.000017740612  0.465755594777
O    3.269708710544  1.887766977974  1.923950228507  0.000030081907  0.000017226391  0.465756108998
Zn   4.904563065816  0.943883815958  7.604224220347  0.000198232054  0.000114414091 -0.465755594777
Zn   3.269708710544  1.887766977974  5.070553098216 -0.000209802018 -0.000121098959 -0.465796989538
O    4.904563065816  0.943883815958  9.524963594900 -0.000026739473 -0.000015426619  0.465760479873
O    3.269708710544  1.887766977974  6.991292472769  0.000024939701  0.000014398178  0.465768707403
Zn   4.904563065816  0.943883815958  12.671566464608  0.000201060267  0.000115956753 -0.465723713098
Zn   3.269708710544  1.887766977974  10.137895342478 -0.000220343541 -0.000127269606 -0.465697744956
O    4.904563065816  0.943883815958  14.592305839162 -0.000028025024 -0.000016197950  0.465748138578
O    3.269708710544  1.887766977974  12.058634717031  0.000029310576  0.000016969281  0.465747367247