# total energy = -9839.420360053593 eV

CRYSTAL
PRIMVEC
6.147052100650782 0.0 0.0
-1.5367630251626956 2.661753471259097 0.0
0.0 0.0 5.358717256950722
PRIMCOORD
8 1
Zn   1.540001906915  0.947885269204  2.601343316740  0.198240538376 -0.250679215791  1.130528201085
Zn   0.001434721960  1.752046927947 -0.016352387998  0.357051410001  0.604553256505  1.039472582628
O    1.513593556385  0.884983714468  4.696073646374  0.729839771121  0.062964002427 -1.026530163535
O   -0.035958410673  1.780883978762  2.029701894871  0.903358124159  0.784205490356 -1.106596372860
Zn   4.631377152425  0.899000222668  2.643592620533  0.170463625373 -0.990941724907  1.717683573828
Zn   3.103754179030  1.704970344140  0.000384805462 -0.663263625862  0.858320881414  0.442417948493
O    4.640533186528  0.932819459210  4.707185672456 -0.387080609373 -1.523605394361 -1.205825014046
O    3.157172676490  1.756103982334  2.015087893207 -1.308609233793  0.455182447247 -0.991151012704