# total energy = -19668.242270044175 eV

CRYSTAL
PRIMVEC
2.9427380511605845 0.0 0.0
-2.9427380511605845 5.0969723842507415 0.0
0.0 0.0 10.451393149645318
PRIMCOORD
16 1
Zn   1.532967889836  0.821458852958  2.500041661232 -2.960577210592  4.253833358968  2.704018653201
Zn   0.160889788840  1.507476715742 -0.037591124413 -9.270443348993  4.779187382134  6.320545729603
O    1.315444812928  0.806799897630  4.560786972080  5.600490034452 -0.460504630791 -4.243143226244
O   -0.087602663319  1.789513438946  2.060076426489  2.821495956185 -1.648232421015 -4.206545629625
Zn   1.565638167680  0.737697934165  7.693148000686  0.599842738403  3.598919904842  1.891023749418
Zn   0.143605028349  1.717903674114  5.177647547923 -5.969329181116  4.865602673605  3.144292815878
O    1.397617241721  0.864163867556  9.748711738373  9.480192402229 -4.148261806283 -4.901865512592
O    0.071336384467  1.692195914499  7.350015327159  0.065834381996  1.175601696385 -2.420702882322
Zn   0.060043627196  3.374178173770  2.645416746519  1.295361110534  2.531811562775 -0.952620974950
Zn  -1.439324079572  4.188628896059 -0.228680173956  3.156873737867  1.410569414978  3.596820599111
O   -0.096782240396  3.402368721478  4.375278530977 -0.225006236505  0.773376003840  5.822814096139
O   -1.394715407728  4.333697936588  2.190321129812 -0.865780165905 -5.375200719489 -4.421172065558
Zn  -0.161581038008  3.410037202566  7.995142961900 -1.196481368047 -1.988575774233 -0.965900722778
Zn  -1.425128311213  4.455012607021  5.413227559788  0.255832220747 -5.296614694254  0.638057044690
O    0.146857048169  3.302428628880  9.743355660846 -3.053392492052 -1.902553090214  1.693077859465
O   -1.654246658865  4.204916656898  7.404217619323  0.265086906576 -2.568958861249 -3.698699790546