# total energy = -14759.62392403526 eV

CRYSTAL
PRIMVEC
9.220578415564779 0.0 0.0
-1.536766142786935 2.6617504741131626 0.0
0.0 0.0 5.457946202103675
PRIMCOORD
12 1
Zn   1.536763376613  0.887250158038  2.732432662073 -0.000311617703 -0.000179977221  0.961344985086
Zn  -0.000000000000  1.774501238133  0.003457716906 -0.000305961276 -0.000176634787  0.962128143109
O    1.536763376613  0.887250158038  4.801229867670 -0.000119813407 -0.000069162675 -0.961744020297
O   -0.000000000000  1.774501238133  2.072254922502  0.000079961308  0.000046279857 -0.961736049877
Zn   4.610289207782  0.887250158038  2.732432662073  0.000184605207  0.000106443671  0.961615979360
Zn   3.073525831169  1.774501238133  0.003457716906 -0.000286163782 -0.000165321933  0.962057694883
O    4.610289207782  0.887250158038  4.801229867670 -0.000116985194 -0.000067362903 -0.961781044183
O    3.073525831169  1.774501238133  2.072254922502  0.000134211585  0.000077390205 -0.961809840538
Zn   7.683815038951  0.887250158038  2.732432662073  0.000552272959  0.000318816792  0.961387408289
Zn   6.147052584396  1.774501238133  0.003457716906  0.000161979499  0.000093588155  0.962043810926
O    7.683815038951  0.887250158038  4.801229867670 -0.000102072796 -0.000058878262 -0.961736564098
O    6.147052584396  1.774501238133  2.072254922502  0.000129583599  0.000074819102 -0.961770245549