# total energy = -19677.99266998194 eV

CRYSTAL
PRIMVEC
3.4004969742975235 0.0 0.0
-3.4004969742975235 5.889834184829 0.0
0.0 0.0 11.198826080981265
PRIMCOORD
16 1
Zn   1.726365324060  0.795001167472  2.956526729134 -0.188744425960  0.904146938609 -0.469928495208
Zn   0.068110594196  1.695038925784 -0.141369880862 -0.986552080480  1.532356401080  1.458039178424
O    1.520308809406  1.033676609303  4.976478040067  1.189294877601 -0.797294205219 -0.217786835939
O    0.177599795775  2.085069807842  2.250317978457 -0.236086919799 -2.689763428834 -1.202928666334
Zn   1.785142234162  1.194493592311  8.481367551078 -0.309296768324 -0.687755440356 -0.937309284294
Zn  -0.007024066550  2.028967728660  5.618121214644 -0.605470626113 -0.154017564001  0.027447811798
O    1.674657707119  0.908823962394  10.513458976259  1.088673984053  0.120835420823 -0.609213123875
O    0.052495852140  1.979596933239  7.714763253739 -0.165638693180  0.349218544220  0.589155948113
Zn   0.097350107480  3.787331389199  2.921179243186  0.012334867416  1.193251034035 -1.242654781279
Zn  -1.753445861815  4.910134004049  0.176832643657  0.052809944712 -0.699277324953 -2.472184338031
O   -0.018370504804  3.869548264994  4.780673003641 -0.240391717822  0.788676124532  1.865238412924
O   -1.699268463921  4.909441322815  1.945393374473  0.151575787329  0.344177125141  3.757650558049
Zn  -0.080191539797  4.001795632623  8.629732254216  0.135714137707  0.321211517484 -1.225210617661
Zn  -1.733634566442  4.863707018859  5.696951875552 -0.036379567070  0.177676083961 -1.544241582554
O   -0.022763946895  4.012399742387  10.591229362210 -0.115338916484 -0.590494978640 -0.494196623727
O   -1.822075371849  4.906829741139  7.533516084910  0.253496116415 -0.112946762103  2.718122696703