# total energy = -59035.20261541876 eV

CRYSTAL
PRIMVEC
6.147052100650782 0.0 0.0
-3.073526050325391 5.323500795466094 0.0
0.0 0.0 15.183021982940213
PRIMCOORD
48 1
Zn   1.536763025163  0.887250747283  2.533710376003  0.000013626847  0.000007970420  0.362100799499
Zn  -0.000000000000  1.774500879861  0.003206302376 -0.000000000000 -0.000013883957  0.362083315998
O    1.536763025163  0.887250747283  4.452049201492 -0.000001028441 -0.000000771331 -0.362108769919
O   -0.000000000000  1.774500879861  1.921545127865  0.000000000000 -0.000000257110 -0.362106970147
Zn   1.536763025163  0.887250747283  7.594718523256 -0.000017740612 -0.000010284413  0.362119311442
Zn  -0.000000000000  1.774500879861  5.064214449629  0.000000000000  0.000001285552  0.362126510531
O    1.536763025163  0.887250747283  9.513057348746  0.000001542662  0.000001028441 -0.362104913264
O   -0.000000000000  1.774500879861  6.982553275119  0.000000000000  0.000000257110 -0.362109027029
Zn   1.536763025163  0.887250747283  12.655726055805  0.000001799772  0.000001028441  0.362094628851
Zn  -0.000000000000  1.774500879861  10.125222596883  0.000000000000 -0.000036252555  0.362109027029
O    1.536763025163  0.887250747283  14.574064881294 -0.000000000000 -0.000000000000 -0.362104399043
O   -0.000000000000  1.774500879861  12.043561422373 -0.000000000000  0.000002828213 -0.362099256837
Zn  -0.000000000000  3.549002374426  2.533710376003  0.000000000000 -0.000000000000  0.362107998588
Zn  -1.536763025163  4.436252507004  0.003206302376 -0.000012084185  0.000006941979  0.362083315998
O   -0.000000000000  3.549002374426  4.452049201492  0.000000000000  0.000000000000 -0.362108769919
O   -1.536763025163  4.436252507004  1.921545127865 -0.000000257110  0.000000257110 -0.362106970147
Zn  -0.000000000000  3.549002374426  7.594718523256  0.000000000000 -0.000000000000  0.362090515086
Zn  -1.536763025163  4.436252507004  5.064214449629  0.000001285552 -0.000000771331  0.362126510531
O   -0.000000000000  3.549002374426  9.513057348746  0.000000000000  0.000000000000 -0.362102085051
O   -1.536763025163  4.436252507004  6.982553275119  0.000000257110 -0.000000000000 -0.362109027029
Zn  -0.000000000000  3.549002374426  12.655726055805  0.000000000000 -0.000000000000  0.362110312581
Zn  -1.536763025163  4.436252507004  10.125222596883 -0.000031367459  0.000018254832  0.362109027029
O   -0.000000000000  3.549002374426  14.574064881294  0.000000000000  0.000000000000 -0.362099771058
O   -1.536763025163  4.436252507004  12.043561422373  0.000002571103 -0.000001542662 -0.362099256837
Zn   4.610289075488  0.887250747283  2.533710376003 -0.000013626847  0.000007970420  0.362100799499
Zn   3.073526050325  1.774500879861  0.003206302376  0.000000000000  0.000000000000  0.362098999727
O    4.610289075488  0.887250747283  4.452049201492  0.000001028441 -0.000000771331 -0.362108769919
O    3.073526050325  1.774500879861  1.921545127865  0.000000000000  0.000000000000 -0.362108255698
Zn   4.610289075488  0.887250747283  7.594718523256  0.000017740612 -0.000010284413  0.362119311442
Zn   3.073526050325  1.774500879861  5.064214449629  0.000000000000  0.000000000000  0.362112626574
O    4.610289075488  0.887250747283  9.513057348746 -0.000001542662  0.000001028441 -0.362104913264
O    3.073526050325  1.774500879861  6.982553275119  0.000000000000 -0.000000000000 -0.362108255698
Zn   4.610289075488  0.887250747283  12.655726055805 -0.000001799772  0.000001028441  0.362094628851
Zn   3.073526050325  1.774500879861  10.125222596883  0.000000000000  0.000000000000  0.362103627713
O    4.610289075488  0.887250747283  14.574064881294  0.000000000000 -0.000000000000 -0.362104399043
O    3.073526050325  1.774500879861  12.043561422373  0.000000000000  0.000000000000 -0.362098228396
Zn   3.073526050325  3.549002374426  2.533710376003  0.000000000000 -0.000015683729  0.362100799499
Zn   1.536763025163  4.436252507004  0.003206302376  0.000012084185  0.000006941979  0.362083315998
O    3.073526050325  3.549002374426  4.452049201492 -0.000000000000  0.000001285552 -0.362108769919
O    1.536763025163  4.436252507004  1.921545127865  0.000000257110  0.000000257110 -0.362106970147
Zn   3.073526050325  3.549002374426  7.594718523256 -0.000000000000  0.000020311715  0.362119311442
Zn   1.536763025163  4.436252507004  5.064214449629 -0.000001285552 -0.000000771331  0.362126510531
O    3.073526050325  3.549002374426  9.513057348746  0.000000000000 -0.000001799772 -0.362104913264
O    1.536763025163  4.436252507004  6.982553275119 -0.000000257110 -0.000000000000 -0.362109027029
Zn   3.073526050325  3.549002374426  12.655726055805  0.000000000000 -0.000002056883  0.362094628851
Zn   1.536763025163  4.436252507004  10.125222596883  0.000031367459  0.000018254832  0.362109027029
O    3.073526050325  3.549002374426  14.574064881294  0.000000000000  0.000000000000 -0.362104399043
O    1.536763025163  4.436252507004  12.043561422373 -0.000002571103 -0.000001542662 -0.362099256837