# total energy = -9838.807618601588 eV

CRYSTAL
PRIMVEC
3.138920446790701 0.0 0.0
-1.5694602233953505 2.718383579931917 0.0
0.0 0.0 9.72929737141816
PRIMCOORD
8 1
Zn   1.546203647913  0.856507177770  2.451436287779  0.076205440818  0.195389956301 -1.188081316909
Zn   0.012689713690  1.790302110350 -0.012656441134  0.137440376369 -0.696219511963 -0.856384840733
O    1.555823811298  0.922537194397  4.268947816130  0.915521756105 -0.046094223255  0.674574937110
O   -0.017596788025  1.786477021893  1.816803701790 -0.056972560730 -0.273049098846  0.865268002156
Zn   1.592594380980  0.869171780097  7.308504480609  0.043081918791  0.363221286257 -2.610118109097
Zn   0.062177619562  1.834024447145  4.856769367604 -0.839681926156  0.105608319460 -1.880417948878
O    1.596759100629  0.823947469868  9.073113271534 -0.125594532774  0.693705230181  2.360229250417
O    0.029015552826  1.801016501403  6.624439861532 -0.150000472422 -0.342561701025  2.634930025934