# total energy = -29512.683012323563 eV

CRYSTAL
PRIMVEC
3.59667936992764 0.0 0.0
-3.59667936992764 6.229632099362539 0.0
0.0 0.0 18.115747457092798
PRIMCOORD
24 1
Zn   1.798339684964  1.038271776782  3.023117270473  0.000000000000  0.000018254832 -0.146449007626
Zn   0.000000000000  2.076543913232  0.003825787846  0.000000000000 -0.000203374260 -0.146999737923
O    1.798339684964  1.038271776782  5.311998703335  0.000000000000  0.000276393590  0.146795335221
O    0.000000000000  2.076543913232  2.292707220708  0.000000000000 -0.000252482330  0.146749055365
Zn   1.798339684964  1.038271776782  9.061699876060  0.000000000000  0.000481053401 -0.146581162328
Zn   0.000000000000  2.076543913232  6.042408393433  0.000000000000 -0.000453542598 -0.145992379704
O    1.798339684964  1.038271776782  11.350581308922  0.000000000000  0.000279478914  0.146726429657
O    0.000000000000  2.076543913232  8.331289826295  0.000000000000 -0.000265594957  0.146754968902
Zn   1.798339684964  1.038271776782  15.100282481647  0.000000000000  0.000153494859 -0.147299528551
Zn   0.000000000000  2.076543913232  12.080990999020  0.000000000000 -0.000318045461 -0.146987653738
O    1.798339684964  1.038271776782  17.389163914509  0.000000000000  0.000255310544  0.146617929103
O    0.000000000000  2.076543913232  14.369872431882  0.000000000000 -0.000259681419  0.146615358000
Zn   0.000000000000  4.153087466795  3.023117270473  0.000000000000  0.000608323008 -0.146722830112
Zn  -1.798339684964  5.191359603245  0.003825787846  0.000000000000 -0.000409319623 -0.146807676517
O    0.000000000000  4.153087466795  5.311998703335  0.000000000000  0.000282307127  0.146825417128
O   -1.798339684964  5.191359603245  2.292707220708  0.000000000000 -0.000262252522  0.146740313614
Zn   0.000000000000  4.153087466795  9.061699876060  0.000000000000  0.000077904426 -0.146555708407
Zn  -1.798339684964  5.191359603245  6.042408393433  0.000000000000 -0.000176377677 -0.146092138507
O    0.000000000000  4.153087466795  11.350581308922  0.000000000000  0.000282564237  0.146717687906
O   -1.798339684964  5.191359603245  8.331289826295  0.000000000000 -0.000268166060  0.146748026923
Zn   0.000000000000  4.153087466795  15.100282481647  0.000000000000  0.000386436805 -0.147230622987
Zn  -1.798339684964  5.191359603245  12.080990999020  0.000000000000 -0.000254539213 -0.146904349995
O    0.000000000000  4.153087466795  17.389163914509  0.000000000000  0.000301590401  0.146658295423
O   -1.798339684964  5.191359603245  14.369872431882  0.000000000000 -0.000279221803  0.146674493373