# total energy = -19667.73906760975 eV

CRYSTAL
PRIMVEC
2.9427380511605845 0.0 0.0
-2.9427380511605845 5.0969723842507415 0.0
0.0 0.0 9.311241062675354
PRIMCOORD
16 1
Zn   1.533684740825  0.872392645969  2.344573572977 -1.870302200600 -1.033577557300 -4.141322655961
Zn   0.034149003715  1.747858393284  0.001813903735  1.001190399218 -0.107617122360 -0.577590611873
O    1.466379318941  0.831298486179  4.015141539895 -0.637793506616  1.077954026533  3.715174648273
O   -0.034276424272  1.756710737890  1.773547025102  2.157196947080 -2.944569779420 -0.531281444394
Zn   1.510781999121  0.850540461748  7.000386265110 -1.998403044736 -0.158562760170  0.431013563310
Zn  -0.015771604585  1.670935514901  4.642131020111  0.300877176802 -0.149295475935  0.637056371339
O    1.534735298310  0.879677982562  8.806659480078 -0.853931236987 -0.789779899120  0.093469627215
O   -0.037227696264  1.718516646450  6.464002806668  2.010140387777 -1.232199904495 -1.336170174131
Zn  -0.031289545150  3.339981497699  2.338729589481  1.359076132195  2.727467114032  1.066750701618
Zn  -1.544546975520  4.228929987943  0.004555947051  1.049648494720  1.147403122463  0.333634059518
O    0.034189907774  3.392933420465  4.149383658587  0.340828520384 -0.618867616245  0.043730608119
O   -1.447631723364  4.209300453773  1.807621283270 -1.393933349083  1.373131581846  0.023812529039
Zn   0.000183332581  3.366374032458  6.969209132553  1.176766663227  1.710639008277 -0.776010870360
Zn  -1.430334309100  4.271151510680  4.589163500833 -0.190023549782 -0.418957146366  1.449357848600
O   -0.026116211656  3.437593884498  8.732243814514 -1.233624295646 -0.119114324366  0.482843917718
O   -1.425547062838  4.276195069426  6.441789254215 -1.217713023732 -0.464053010264 -0.914468375140