# total energy = -9839.481236681293 eV

CRYSTAL
PRIMVEC
3.531285238050934 0.0 0.0
-3.531285238050934 6.116366127851358 0.0
0.0 0.0 5.358714754886579
PRIMCOORD
8 1
Zn   1.768480712971  0.902236315752  2.722689425471 -0.014405891013  1.141292124470 -0.290056946258
Zn  -0.088156770325  2.080021643656 -0.006733807820  0.071539659911 -0.340599435092  0.275251248704
O    1.738261386418  1.015880843540  4.719995656225 -0.150786715769 -0.149869346161  0.219640344208
O   -0.084951422715  2.094036608509  2.082453286671  0.095323135484 -0.041526144268 -0.257494438941
Zn  -0.075299713902  4.163880381852  2.679849285477  0.062061802328 -0.658758281793 -0.334677156070
Zn  -1.814058305282  5.056949481126 -0.034438506156 -0.048087085315  0.331937645652 -0.074398726627
O   -0.088901518382  4.056628892859  4.693874739319  0.193201176179  0.325586249513  0.197976743191
O   -1.768694002600  5.179473778774  1.984481309027 -0.208846081806 -0.608062812320  0.263758931793