# total energy = -9837.006781870658 eV

CRYSTAL
PRIMVEC
3.138920446790701 0.0 0.0
-3.138920446790701 5.436770298784281 0.0
0.0 0.0 4.560609712312486
PRIMCOORD
8 1
Zn   1.569460223395  0.906128173869  2.283193604643  0.000000000000 -0.000451999936 -3.087231552089
Zn   0.000000000000  1.812256661631  0.002889690163  0.000000000000  0.000146295770 -3.086550981082
O    1.569460223395  0.906128173869  4.011859559208  0.000000000000  0.000072247999  3.086695219969
O    0.000000000000  1.812256661631  1.731555330836  0.000000000000 -0.000106700781  3.086984211965
Zn   0.000000000000  3.624513009369  2.283193604643  0.000000000000 -0.000691626750 -3.087279374608
Zn  -1.569460223395  4.530641497131  0.002889690163  0.000000000000  0.000997330916 -3.086545324655
O    0.000000000000  3.624513009369  4.011859559208  0.000000000000  0.000025968142  3.087034091366
O   -1.569460223395  4.530641497131  1.731555330836  0.000000000000  0.000008484640  3.086893966244