# total energy = -9840.306948709407 eV

CRYSTAL
PRIMVEC
3.335102842420818 0.0 0.0
-3.335102842420818 5.77656821331782 0.0
0.0 0.0 5.599414220534111
PRIMCOORD
8 1
Zn   1.667551421210  0.962761146546  2.803254325650  0.000000000000  0.000056307159  0.095377385761
Zn   0.000000000000  1.925522626603  0.003547548893  0.000000000000  0.000299276408  0.094929499590
O    1.667551421210  0.962761146546  4.925671752271  0.000000000000  0.000142182005 -0.095160641764
O    0.000000000000  1.925522626603  2.125964975514  0.000000000000 -0.000094873707 -0.095167583743
Zn   0.000000000000  3.851044919695  2.803254325650  0.000000000000 -0.000111842988  0.095484600763
Zn  -1.667551421210  4.813806399751  0.003547548893  0.000000000000 -0.000198489164  0.094865479121
O    0.000000000000  3.851044919695  4.925671752271  0.000000000000  0.000052450504 -0.095170154846
O   -1.667551421210  4.813806399751  2.125964975514  0.000000000000 -0.000145267329 -0.095158327771