# total energy = -9837.79539212927 eV

CRYSTAL
PRIMVEC
3.59667936992764 0.0 0.0
-3.59667936992764 6.229632099362539 0.0
0.0 0.0 5.9224576977738685
PRIMCOORD
8 1
Zn   1.839304424316  1.163898751822  2.921819313695 -0.145620083966 -0.600649550575  0.118811705524
Zn  -0.025600084751  2.070194335472  0.021211056916  0.043581227025 -0.064189904414 -0.238319922895
O    1.800807007012  1.004989184896  5.154161306529  0.074183525292  0.282975871041  0.370096930331
O   -0.005437100204  2.049901870467  2.293924337006  0.105830976994  0.281160157989 -0.261740615812
Zn  -0.025186466624  4.158554779105  3.052604286620  0.019546811784  0.352883651776 -0.417756955411
Zn  -1.757936027594  5.216969039363 -0.055815428470 -0.035010711747 -0.007337928422  0.246055600976
O    0.031939591809  4.145184123548  5.186594003080 -0.096341292336 -0.099445642293  0.031414509756
O   -1.769715871866  5.204534239777  2.216197218479  0.033829289845 -0.145396655102  0.151438490420