# total energy = -9836.864025372564 eV

CRYSTAL
PRIMVEC
7.193359269032489 0.0 0.0
-1.7983398172581222 3.114818077161565 0.0
0.0 0.0 6.270839716216148
PRIMCOORD
8 1
Zn   1.798339817258  1.038272212830  3.139391311761 -0.000309303710 -0.000178691670 -0.365102048219
Zn  -0.000000000000  2.076543706324  0.003972892324 -0.000290277547 -0.000167635926 -0.365646093648
O    1.798339817258  1.038272212830  5.516306682410 -0.000327815653 -0.000189233193  0.365352730777
O   -0.000000000000  2.076543706324  2.380888262973  0.000357640450  0.000206459584  0.365354787660
Zn   5.395019451774  1.038272212830  3.139391311761 -0.000413176278 -0.000238598373 -0.364796601164
Zn   3.596679634516  2.076543706324  0.003972892324  0.000969820112  0.000559986269 -0.365941513401
O    5.395019451774  1.038272212830  5.516306682410 -0.000302875952 -0.000174835015  0.365428835431
O    3.596679634516  2.076543706324  2.380888262973  0.000315731468  0.000182291214  0.365349645454