# total energy = -14760.940212279633 eV

CRYSTAL
PRIMVEC
9.809126131632336 0.0 0.0
-1.6348576249807667 2.8316494860489647 0.0
0.0 0.0 5.3840527693826195
PRIMCOORD
12 1
Zn   1.634854682243  0.943883162016  2.695437017847  0.000121098959  0.000069934006  0.124419024409
Zn  -0.000000000000  1.887767304945  0.003411614069 -0.000153237748 -0.000088445949  0.124413110871
O    1.634854682243  0.943883162016  4.736222766796 -0.000075590433 -0.000043708754 -0.124419795740
O   -0.000000000000  1.887767304945  2.044197363017  0.000073276440  0.000042423202 -0.124420567071
Zn   4.904563065816  0.943883162016  2.695437017847  0.000102844126  0.000059392483  0.124447306544
Zn   3.269708383573  1.887767304945  0.003411614069 -0.000130354930 -0.000075076212  0.124407197334
O    4.904563065816  0.943883162016  4.736222766796 -0.000077390205 -0.000044737195 -0.124421595512
O    3.269708383573  1.887767304945  2.044197363017  0.000078932867  0.000045508526 -0.124416967526
Zn   8.174271449389  0.943883162016  2.695437017847  0.000168664367  0.000097444810  0.124459133618
Zn   6.539417748059  1.887767304945  0.003411614069 -0.000106700781 -0.000061706476  0.124372744552
O    8.174271449389  0.943883162016  4.736222766796 -0.000077647315 -0.000044737195 -0.124416710416
O    6.539417748059  1.887767304945  2.044197363017  0.000076104654  0.000043965864 -0.124422366843