# total energy = -14757.919603905992 eV

CRYSTAL
PRIMVEC
3.138920446790701 0.0 0.0
-1.5694602233953505 2.718383579931917 0.0
0.0 0.0 14.289907083730645
PRIMCOORD
12 1
Zn   1.569460223395  0.906128173869  2.384668938739  0.000000000000  0.000000000000 -1.391092022980
Zn  -0.000000000000  1.812256661631  0.003018072010  0.000000000000  0.000000000000 -1.391076853471
O    1.569460223395  0.906128173869  4.190164365728  0.000000000000 -0.000000000000  1.390800716991
O   -0.000000000000  1.812256661631  1.808513498998  0.000000000000  0.000000000000  1.390881963851
Zn   1.569460223395  0.906128173869  7.147970672199  0.000000000000 -0.000000000000 -1.390714070815
Zn  -0.000000000000  1.812256661631  4.766319805469  0.000000000000  0.000000000000 -1.390549263102
O    1.569460223395  0.906128173869  8.953466099187  0.000000000000  0.000000000000  1.390859081033
O   -0.000000000000  1.812256661631  6.571815232457  0.000000000000 -0.000000000000  1.390873736321
Zn   1.569460223395  0.906128173869  11.911272719550  0.000000000000  0.000000000000 -1.390795574785
Zn  -0.000000000000  1.812256661631  9.529621852821  0.000000000000  0.000000000000 -1.390939556562
O    1.569460223395  0.906128173869  13.716768146539  0.000000000000 -0.000000000000  1.390854195937
O   -0.000000000000  1.812256661631  11.335117279809  0.000000000000  0.000000000000  1.390897647581