# total energy = -9838.34616768188 eV

CRYSTAL
PRIMVEC
3.2043145786674065 0.0 0.0
-1.6021572893337033 2.775016532990441 0.0
0.0 0.0 9.311241496847789
PRIMCOORD
8 1
Zn   1.646792750552  0.967025931087  2.307464418579  0.664382569958 -0.537390642616 -0.163578725327
Zn  -0.037440813694  1.846124829273  0.024761020475  0.831961931804  0.558132503149 -1.532370285038
O    1.559049645307  0.852447972972  4.166987768831  0.210358661795  2.118349120975 -0.015494496091
O    0.087021173170  1.836992212292  1.836597440736 -0.566737728319  0.629303466867  1.077836784228
Zn   1.639685580816  0.885570972772  6.988332922863 -0.193763219331  0.768788384470 -1.972762461349
Zn  -0.008041227435  1.912735800302  4.662011112988 -0.193658832542 -2.062848773914 -3.403612480953
O    1.641723845320  0.965280540936  8.786156234608 -0.937744314948 -0.444651722919  1.700059690099
O    0.012335329402  1.890774069043  6.385358463570  0.185201188693 -1.029682593121  4.309921717321