# total energy = -14756.645502286368 eV

CRYSTAL
PRIMVEC
3.5312667168486422 0.0 0.0
-5.296900075272964 9.174499306643252 0.0
0.0 0.0 6.1567882396926255
PRIMCOORD
12 1
Zn   1.712219064939  1.024770423089  3.067444368011  0.131357403400 -0.117503271126 -0.210457906377
Zn   0.017147124924  2.115706190652  0.013230243881  0.003531153082 -0.384923453821 -0.352605458414
O    1.740970285421  1.028357483820  5.401385666778  0.030206862601  0.162471608306  0.321120243322
O    0.006905038938  2.040583788152  2.357096874009 -0.024657393537  0.104239721247  0.186708883587
Zn   0.034797808481  4.048715941429  3.129468596005 -0.048642186488  0.152521696182 -0.388971398638
Zn  -1.737656191607  5.086401266282  0.001056555002 -0.063418830576  0.227102971133 -0.256538245675
O    0.014380377451  4.122057879251  5.409267454090 -0.009640608414 -0.193318675594  0.376810594905
O   -1.758250892226  5.077833000720  2.384672182675  0.034560768694  0.000168407257  0.213836850152
Zn  -1.777472636346  7.129817483467  3.087999518443  0.007091102519 -0.000776987375 -0.368638343507
Zn  -3.500291857715  8.146392895886 -0.030500963140 -0.078383679416  0.143173422198 -0.157571085681
O   -1.795828513867  7.138344786335  5.411880591460  0.152705272948 -0.082082211314  0.208990834914
O   -3.488730843611  8.157752980915  2.301281319156 -0.134709864812 -0.011073484205  0.427315288523