# total energy = -9838.437072479846 eV

CRYSTAL
PRIMVEC
7.062571005279078 0.0 0.0
-1.7656427513197694 3.058185058708909 0.0
0.0 0.0 5.928788231517607
PRIMCOORD
8 1
Zn   1.765642751320  1.019394548732  2.968151403534 -0.000151952197 -0.000087674618 -0.103609029642
Zn  -0.000000000000  2.038788391206  0.003756581518  0.000186919200  0.000107986333 -0.103652995506
O    1.765642751320  1.019394548732  5.215417003216 -0.000193604068 -0.000111842988  0.103627284474
O   -0.000000000000  2.038788391206  2.251022181200  0.000190775855  0.000110300326  0.103629084247
Zn   5.296928253959  1.019394548732  2.968151403534 -0.000202602929 -0.000116985194 -0.103609029642
Zn   3.531285502640  2.038788391206  0.003756581518  0.000171235471  0.000098730361 -0.103644767976
O    5.296928253959  1.019394548732  5.215417003216 -0.000192832737 -0.000111328767  0.103630112688
O    3.531285502640  2.038788391206  2.251022181200  0.000192061406  0.000111071657  0.103629341357