# total energy = -19679.924160267707 eV

CRYSTAL
PRIMVEC
3.335102842420818 0.0 0.0
-3.335102842420818 5.77656821331782 0.0
0.0 0.0 11.19882510596538
PRIMCOORD
16 1
Zn   1.648472631890  1.025958343817  2.852618850372  0.529278297921 -0.571471129239  0.381583333704
Zn  -0.046907887968  1.877058579648  0.038237287599  0.707552677588  0.415525752087 -0.315326005237
O    1.620573496082  0.972503982480  4.981650786461  0.362022895073  0.202967511538 -0.986714059979
O    0.051098111180  1.869614296593  2.185040986203 -0.618056947419  0.621306564704 -0.646897782910
Zn   1.661953784600  0.883599812499  8.372304769376  0.222081863770  1.419453861952  0.153137218279
Zn  -0.015273770487  1.961395993306  5.478141543427 -0.138221734620 -0.227638274811  1.042393355819
O    1.768112442646  0.961098597779  10.494498410596 -0.966896253922 -0.292462984596  0.078572398388
O    0.064873419960  1.901812379965  7.638596484986 -0.381829131166  0.403112980245  0.369066946404
Zn   0.049891804481  3.818767794386  2.694792112071 -0.151739566601  0.472084879429  0.733678942361
Zn  -1.758196848385  4.802195906226  0.051147137191  0.254828719183  0.122052581059 -0.304090798643
O    0.026719509932  3.766414350496  4.877106985211 -0.040113580191  1.453406050527 -0.351452575757
O   -1.649686275814  4.900185896880  2.157176201955  0.068725844611 -0.630618586134 -0.379007345446
Zn  -0.068517686836  3.910288686057  8.293152773617  0.355310001829 -0.845054760432  0.211401501238
Zn  -1.562875216378  4.940805781949  5.594146092084 -0.118421926285 -1.342284514559 -0.348201415809
O   -0.059408520442  3.874486690554  10.497051765332  0.070139180019 -0.203230792501  0.156243882229
O   -1.667525740919  4.895757880836  7.613474155805 -0.154660082681 -0.997149396380  0.205612405360