# total energy = -59025.374942497896 eV

CRYSTAL
PRIMVEC
7.193359269032489 0.0 0.0
-3.5966796345162444 6.229628960963861 0.0
0.0 0.0 18.11574878977215
PRIMCOORD
48 1
Zn   1.798339817258  1.038272212830  3.023117133200  0.000187947641  0.000108500553 -0.146109879119
Zn  -0.000000000000  2.076543706324  0.003826147795  0.000000000000  0.000288477775 -0.145864081656
O    1.798339817258  1.038272212830  5.311998734443 -0.000000514221 -0.000000257110  0.146328422887
O   -0.000000000000  2.076543706324  2.292707749038 -0.000000000000 -0.000002828213  0.146323537791
Zn   1.798339817258  1.038272212830  9.061700542681  0.000051936284  0.000030081907 -0.146357219243
Zn  -0.000000000000  2.076543706324  6.042408837941 -0.000000000000  0.000237827042 -0.146645954128
O    1.798339817258  1.038272212830  11.350582143924 -0.000001542662 -0.000000771331  0.146331765321
O   -0.000000000000  2.076543706324  8.331290439183 -0.000000000000  0.000002828213  0.146335364866
Zn   1.798339817258  1.038272212830  15.100283232827 -0.000127012496 -0.000073276440 -0.146738770952
Zn  -0.000000000000  2.076543706324  12.080992247422  0.000000000000 -0.000431945331 -0.146241776711
O    1.798339817258  1.038272212830  17.389164834069 -0.000000257110 -0.000000257110  0.146307082731
O   -0.000000000000  2.076543706324  14.369873848665  0.000000000000  0.000000514221  0.146333307983
Zn  -0.000000000000  4.153088131984  3.023117133200  0.000000000000  0.000000000000 -0.145918846154
Zn  -1.798339817258  5.191359625478  0.003826147795  0.000249654117 -0.000144238887 -0.145864081656
O   -0.000000000000  4.153088131984  5.311998734443  0.000000000000  0.000000000000  0.146341278403
O   -1.798339817258  5.191359625478  2.292707749038 -0.000002571103  0.000001542662  0.146323537791
Zn  -0.000000000000  4.153088131984  9.061700542681  0.000000000000 -0.000000000000 -0.146806905186
Zn  -1.798339817258  5.191359625478  6.042408837941  0.000205945363 -0.000118784966 -0.146645954128
O   -0.000000000000  4.153088131984  11.350582143924  0.000000000000 -0.000000000000  0.146313253379
O   -1.798339817258  5.191359625478  8.331290439183  0.000002571103 -0.000001542662  0.146335364866
Zn  -0.000000000000  4.153088131984  15.100283232827  0.000000000000  0.000000000000 -0.146518684521
Zn  -1.798339817258  5.191359625478  12.080992247422 -0.000374095510  0.000215972666 -0.146241776711
O   -0.000000000000  4.153088131984  17.389164834069  0.000000000000  0.000000000000  0.146330222660
O   -1.798339817258  5.191359625478  14.369873848665  0.000000514221 -0.000000257110  0.146333307983
Zn   5.395019451774  1.038272212830  3.023117133200 -0.000187947641  0.000108500553 -0.146109879119
Zn   3.596679634516  2.076543706324  0.003826147795  0.000000000000  0.000000000000 -0.145614941760
O    5.395019451774  1.038272212830  5.311998734443  0.000000514221 -0.000000257110  0.146328422887
O    3.596679634516  2.076543706324  2.292707749038  0.000000000000  0.000000000000  0.146319938247
Zn   5.395019451774  1.038272212830  9.061700542681 -0.000051936284  0.000030081907 -0.146357219243
Zn   3.596679634516  2.076543706324  6.042408837941  0.000000000000  0.000000000000 -0.146579876776
O    5.395019451774  1.038272212830  11.350582143924  0.000001542662 -0.000000771331  0.146331765321
O    3.596679634516  2.076543706324  8.331290439183  0.000000000000  0.000000000000  0.146330736880
Zn   5.395019451774  1.038272212830  15.100283232827  0.000127012496 -0.000073276440 -0.146738770952
Zn   3.596679634516  2.076543706324  12.080992247422  0.000000000000  0.000000000000 -0.146538224905
O    5.395019451774  1.038272212830  17.389164834069  0.000000257110 -0.000000257110  0.146307082731
O    3.596679634516  2.076543706324  14.369873848665  0.000000000000  0.000000000000  0.146336136197
Zn   3.596679634516  4.153088131984  3.023117133200  0.000000000000 -0.000217258217 -0.146109879119
Zn   1.798339817258  5.191359625478  0.003826147795 -0.000249654117 -0.000144238887 -0.145864081656
O    3.596679634516  4.153088131984  5.311998734443 -0.000000000000  0.000000514221  0.146328422887
O    1.798339817258  5.191359625478  2.292707749038  0.000002571103  0.000001542662  0.146323537791
Zn   3.596679634516  4.153088131984  9.061700542681  0.000000000000 -0.000060163814 -0.146357219243
Zn   1.798339817258  5.191359625478  6.042408837941 -0.000205945363 -0.000118784966 -0.146645954128
O    3.596679634516  4.153088131984  11.350582143924  0.000000000000  0.000001542662  0.146331765321
O    1.798339817258  5.191359625478  8.331290439183 -0.000002571103 -0.000001542662  0.146335364866
Zn   3.596679634516  4.153088131984  15.100283232827  0.000000000000  0.000146552880 -0.146738770952
Zn   1.798339817258  5.191359625478  12.080992247422  0.000374095510  0.000215972666 -0.146241776711
O    3.596679634516  4.153088131984  17.389164834069 -0.000000000000  0.000000257110  0.146307082731
O    1.798339817258  5.191359625478  14.369873848665 -0.000000514221 -0.000000257110  0.146333307983