# total energy = -19680.93823956315 eV

CRYSTAL
PRIMVEC
3.335102842420818 0.0 0.0
-3.335102842420818 5.77656821331782 0.0
0.0 0.0 10.122017116130129
PRIMCOORD
16 1
Zn   1.667551421210  0.962761146546  2.533710646905  0.000000000000 -0.000289506216 -0.624677795169
Zn   0.000000000000  1.925522626603  0.003206701383  0.000000000000  0.000321645005 -0.624926163735
O    1.667551421210  0.962761146546  4.452049461985  0.000000000000  0.000021854377  0.624754414043
O    0.000000000000  1.925522626603  1.921545516463  0.000000000000 -0.000016712171  0.624731788336
Zn   1.667551421210  0.962761146546  7.594718537950  0.000000000000 -0.000220343541 -0.624827176263
Zn   0.000000000000  1.925522626603  5.064214592427  0.000000000000  0.000278964693 -0.624650541476
O    1.667551421210  0.962761146546  9.513057353030  0.000000000000  0.000030596128  0.624756470926
O    0.000000000000  1.925522626603  6.982553407507  0.000000000000 -0.000018511943  0.624786038612
Zn   0.000000000000  3.851044919695  2.533710646905  0.000000000000 -0.000158637065 -0.624558753093
Zn  -1.667551421210  4.813806399751  0.003206701383  0.000000000000  0.000110043215 -0.624937990809
O    0.000000000000  3.851044919695  4.452049461985  0.000000000000  0.000028025024  0.624737701873
O   -1.667551421210  4.813806399751  1.921545516463  0.000000000000 -0.000022368598  0.624724846357
Zn   0.000000000000  3.851044919695  7.594718537950  0.000000000000 -0.000221114872 -0.624695792891
Zn  -1.667551421210  4.813806399751  5.064214592427  0.000000000000  0.000142953336 -0.624731788336
O    0.000000000000  3.851044919695  9.513057353030  0.000000000000  0.000017997722  0.624740787197
O   -1.667551421210  4.813806399751  6.982553407507  0.000000000000 -0.000004627986  0.624774211538