# total energy = -14745.430568525786 eV

CRYSTAL
PRIMVEC
8.828213624304544 0.0 0.0
-1.4713718801219655 2.5484845679961143 0.0
0.0 0.0 5.130684083823448
PRIMCOORD
12 1
Zn   1.370681689630  0.899248902343  2.530065383090  14.264095958892 -5.263043800277  3.856276789764
Zn  -0.000659467558  1.860308542376 -0.095941494383  5.758685383980 -8.558598214678  3.980921557030
O    1.508297649248  0.798663767593  4.796481463219 -4.358469287212  8.393773532759 -3.937034111619
O    0.039858501692  1.430088504751  2.100499516095 -11.709969534669  6.930551524582 -4.292876588913
Zn   4.312330751384  1.007505754732  2.455827169081 -0.415004846587 -4.032473460966  5.509592281729
Zn   2.780904948083  1.725092091220 -0.180741783173  4.595385130671 -2.790478938978  1.867364458128
O    4.773563420650  0.635502489031  4.750041528270 -0.642495025856  6.136290192652 -4.417899565454
O    3.055296421383  1.881302034374  1.875786166502 -6.537568176571 -0.298930851709 -1.508764472693
Zn   7.267747412286  0.822945769166  2.676714370889 -1.496768219563  0.350967922811  1.390890191381
Zn   5.902118992135  1.783216166901  0.115798795289  1.177595586886  2.654528259781 -1.091146613963
O    7.509357962756  1.018262050212  4.847797220553 -6.566667407930 -5.573421203260 -3.436179102035
O    5.718160207917  1.684126531540  1.873968437317  5.931181209292  2.050835294393  2.078854662424