# total energy = -4919.5798371579385 eV

CRYSTAL
PRIMVEC
3.138920446790701 0.0 0.0
-1.5694602233953505 2.718383579931917 0.0
0.0 0.0 4.86464868570908
PRIMCOORD
4 1
Zn   1.569460223395  0.906128173869  2.435406448841  0.000000000000 -0.000000000000 -0.797963463372
Zn  -0.000000000000  1.812256661631  0.003082105987  0.000000000000  0.000000000000 -0.797963463372
O    1.569460223395  0.906128173869  4.279316925934  0.000000000000  0.000000000000  0.797963463372
O   -0.000000000000  1.812256661631  1.846992269187  0.000000000000  0.000000000000  0.797963463372