# total energy = -29509.526409344664 eV

CRYSTAL
PRIMVEC
3.59667936992764 0.0 0.0
-3.59667936992764 6.229632099362539 0.0
0.0 0.0 19.16088853180322
PRIMCOORD
24 1
Zn   1.798339684964  1.038271776782  3.197527806148  0.000000000000  0.000554329842 -0.491567670744
Zn   0.000000000000  2.076543913232  0.004046623959  0.000000000000 -0.000243226359 -0.491916055223
O    1.798339684964  1.038271776782  5.618460243073  0.000000000000  0.000410348065  0.491942794696
O    0.000000000000  2.076543913232  2.424979060884  0.000000000000 -0.000410348065  0.491919911877
Zn   1.798339684964  1.038271776782  9.584490170525  0.000000000000  0.000543531208 -0.492035611520
Zn   0.000000000000  2.076543913232  6.391008988336  0.000000000000 -0.000331158087 -0.491918112105
O    1.798339684964  1.038271776782  12.005422607450  0.000000000000  0.000411376506  0.491932253173
O    0.000000000000  2.076543913232  8.811941425261  0.000000000000 -0.000407519851  0.491939966482
Zn   1.798339684964  1.038271776782  15.971452534902  0.000000000000  0.000481567622 -0.492056180345
Zn   0.000000000000  2.076543913232  12.777971352713  0.000000000000 -0.000462027238 -0.492047695705
O    1.798339684964  1.038271776782  18.392384971827  0.000000000000  0.000413433388  0.491885459095
O    0.000000000000  2.076543913232  15.198903789638  0.000000000000 -0.000407005630  0.491915798112
Zn   0.000000000000  4.153087466795  3.197527806148  0.000000000000  0.000377437944 -0.491519848226
Zn  -1.798339684964  5.191359603245  0.004046623959  0.000000000000 -0.000702682494 -0.492131513668
O    0.000000000000  4.153087466795  5.618460243073  0.000000000000  0.000409576734  0.491934052945
O   -1.798339684964  5.191359603245  2.424979060884  0.000000000000 -0.000408034072  0.491935852717
Zn   0.000000000000  4.153087466795  9.584490170525  0.000000000000  0.000383351481 -0.492076234950
Zn  -1.798339684964  5.191359603245  6.391008988336  0.000000000000 -0.000612693883 -0.492057723007
O    0.000000000000  4.153087466795  12.005422607450  0.000000000000  0.000411890726  0.491915798112
O   -1.798339684964  5.191359603245  8.811941425261  0.000000000000 -0.000410090954  0.491942023365
Zn   0.000000000000  4.153087466795  15.971452534902  0.000000000000  0.000463055679 -0.491768731012
Zn  -1.798339684964  5.191359603245  12.777971352713  0.000000000000 -0.000452514156 -0.492017870908
O    0.000000000000  4.153087466795  18.392384971827  0.000000000000  0.000397492549  0.491943823137
O   -1.798339684964  5.191359603245  15.198903789638  0.000000000000 -0.000410348065  0.491905770810