# total energy = -14743.159078937528 eV

CRYSTAL
PRIMVEC
2.942722175844334 0.0 0.0
-4.414083263766501 7.645415859728944 0.0
0.0 0.0 4.370560402785763
PRIMCOORD
12 1
Zn   1.410725414672  0.806677836264  2.097389623895  1.086775224369  3.146976019137  2.611238338744
Zn   0.033628840481  1.753324781462  0.088852553377 -1.265188186495 -0.945316470869 -9.357330437895
O    1.454848590977  0.926231221558  3.953936565391  1.528454494923 -2.436809558076 -1.868183354485
O   -0.027513275255  1.734423088382  1.647963262406 -1.242768938260 -0.887195398356  10.294625324011
Zn  -0.043235945569  3.394238164351  2.187499896730  4.160261658957 -1.038150007162 -0.872209209360
Zn  -1.516206113977  4.240082161414 -0.053716156326  3.850136995415  1.913328583563 -0.615104292548
O    0.079065647965  3.391104753778  3.892688805928 -3.726350205274  0.218560223770  0.897410905437
O   -1.367211676130  4.216229044001  1.680378818534 -4.396737329554  1.268673316830 -0.100220572786
Zn  -1.412880664394  5.902946486102  2.165990068986 -1.700337112130  0.258832183916 -9.515442226570
Zn  -2.845564966214  6.731447255750 -0.028746570119 -3.857018295916  2.663877047986 -3.056978152521
O   -1.557613451985  5.949547728751  3.712536531412  3.687836622579 -1.296693970413  8.683516290210
O   -3.050525860034  6.863292980116  1.608319203525  1.874935328497 -2.866081970325  2.898677130653