# total energy = -44265.64936326325 eV

CRYSTAL
PRIMVEC
2.9427380511605845 0.0 0.0
-4.414107076740876 7.645457105007086 0.0
0.0 0.0 15.107016623721046
PRIMCOORD
36 1
Zn   1.471369025580  0.849495201193  2.521026326275  0.000000000000 -0.000399292321  1.394366065745
Zn  -0.000000000000  1.698990696659  0.003190516595  0.000000000000  0.000365353759  1.394223112409
O    1.471369025580  0.849495201193  4.429761560352  0.000000000000  0.000049622291 -1.394259364964
O   -0.000000000000  1.698990696659  1.911925750672  0.000000000000 -0.000058106931 -1.394243167014
Zn   1.471369025580  0.849495201193  7.556698239908  0.000000000000 -0.000395178556  1.394307701703
Zn  -0.000000000000  1.698990696659  5.038862430228  0.000000000000  0.000426288904  1.394390748336
O    1.471369025580  0.849495201193  9.465433473985  0.000000000000  0.000067362903 -1.394158577720
O   -0.000000000000  1.698990696659  6.947597664305  0.000000000000 -0.000065563131 -1.394223626630
Zn   1.471369025580  0.849495201193  12.592369859267  0.000000000000 -0.000457656363  1.393945690378
Zn  -0.000000000000  1.698990696659  10.074534049588  0.000000000000  0.000340156948  1.394026680128
O    1.471369025580  0.849495201193  14.501105387618  0.000000000000  0.000071990889 -1.394189688068
O   -0.000000000000  1.698990696659  11.983269283665  0.000000000000 -0.000042680312 -1.394139808667
Zn   0.000000000000  3.397981099044  2.521026326275  0.000000000000 -0.000401606314  1.394369665290
Zn  -1.471369025580  4.247476594511  0.003190516595  0.000000000000  0.000402377645  1.394179403656
O    0.000000000000  3.397981099044  4.429761560352  0.000000000000  0.000074819102 -1.394270677818
O   -1.471369025580  4.247476594511  1.911925750672  0.000000000000 -0.000059135373 -1.394239567470
Zn   0.000000000000  3.397981099044  7.556698239908  0.000000000000 -0.000410862285  1.394231597050
Zn  -1.471369025580  4.247476594511  5.038862430228  0.000000000000  0.000284621120  1.394494620903
O    0.000000000000  3.397981099044  9.465433473985  0.000000000000  0.000076361764 -1.394169633464
O   -1.471369025580  4.247476594511  6.947597664305  0.000000000000 -0.000052450504 -1.394233139712
Zn   0.000000000000  3.397981099044  12.592369859267  0.000000000000 -0.000332700749  1.394017938377
Zn  -1.471369025580  4.247476594511  10.074534049588  0.000000000000  0.000417804264  1.394071160213
O    0.000000000000  3.397981099044  14.501105387618  0.000000000000  0.000066848682 -1.394179660766
O   -1.471369025580  4.247476594511  11.983269283665  0.000000000000 -0.000070191116 -1.394154463955
Zn  -1.471369025580  5.946466996896  2.521026326275  0.000000000000 -0.000359440222  1.394289446871
Zn  -2.942738051161  6.795962492362  0.003190516595  0.000000000000  0.000374352620  1.394155492396
O   -1.471369025580  5.946466996896  4.429761560352  0.000000000000  0.000059649593 -1.394261678957
O   -2.942738051161  6.795962492362  1.911925750672  0.000000000000 -0.000066077351 -1.394236996367
Zn  -1.471369025580  5.946466996896  7.556698239908  0.000000000000 -0.000354298016  1.394296903070
Zn  -2.942738051161  6.795962492362  5.038862430228  0.000000000000  0.000421660918  1.394417230698
O   -1.471369025580  5.946466996896  9.465433473985  0.000000000000  0.000055535828 -1.394165262588
O   -2.942738051161  6.795962492362  6.947597664305  0.000000000000 -0.000058621152 -1.394243167014
Zn  -1.471369025580  5.946466996896  12.592369859267  0.000000000000 -0.000364582428  1.393905838279
Zn  -2.942738051161  6.795962492362  10.074534049588  0.000000000000  0.000377695054  1.394010482178
O   -1.471369025580  5.946466996896  14.501105387618  0.000000000000  0.000064534689 -1.394186602745
O   -2.942738051161  6.795962492362  11.983269283665  0.000000000000 -0.000048593850 -1.394144950873