# total energy = -19669.18284418078 eV

CRYSTAL
PRIMVEC
3.0735263149139955 0.0 0.0
-3.0735263149139955 5.323504327273101 0.0
0.0 0.0 8.931191074561259
PRIMCOORD
16 1
Zn   1.510453464849  0.894234182803  2.205017240014  1.687362811358 -0.852261048373 -1.945514938487
Zn  -0.015230552301  1.802169531213  0.043293384319  0.113469981596 -1.556465892534 -3.814327184805
O    1.569709208084  0.897083956402  3.940192196083  0.593430150009  0.233530729036  2.468035091749
O    0.053505790206  1.744788946382  1.746455719703 -1.642814335323  0.569862389991  2.574345579483
Zn   1.513152635658  0.973060912202  6.697689314719  0.840631434554 -1.587435601443 -4.073741980697
Zn   0.052610779343  1.760108323593  4.488781605095 -0.377894571998  0.539342624136 -2.374986354122
O    1.564488208933  0.809017899549  8.359347058098 -0.127453440360  0.415188937573  5.376949840969
O    0.013426085001  1.770338555933  6.238837038818 -1.086547167518  0.393956510557  0.939454869882
Zn   0.006251245172  3.509054521669  2.237066128310 -0.203392772000  1.024843776971 -4.013562482994
Zn  -1.588877869653  4.363561532736 -0.011310269486  0.603023964345  0.326361437116 -5.055771490716
O    0.052551152932  3.570172821851  3.921173522599 -0.547626204301 -0.578803401235  3.807998414374
O   -1.522111042809  4.476772415725  1.637336929649  0.370283078200 -0.744928032912  5.805291770985
Zn   0.024751414767  3.530606702894  6.698581866760 -0.160735856562  1.412850754813 -4.530352932861
Zn  -1.518945925409  4.446588543197  4.468405969743  0.659280987065  0.020314028967 -5.729128496259
O   -0.004368402951  3.512270352252  8.376528070198 -0.934619139056  0.015265153689  3.900484337519
O   -1.526678610265  4.441137029572  6.106165816613  0.213601337102  0.368377633647  6.664825955980