# total energy = -4920.135691851405 eV

CRYSTAL
PRIMVEC
3.2043145786674065 0.0 0.0
-1.6021572893337033 2.775016532990441 0.0
0.0 0.0 5.0694531697869225
PRIMCOORD
4 1
Zn   1.602157289334  0.925005831428  2.537938910259  0.000000000000  0.000000000000 -0.258505910925
Zn  -0.000000000000  1.850011983288  0.003212004934  0.000000000000 -0.000000000000 -0.258505910925
O    1.602157289334  0.925005831428  4.459478885297  0.000000000000  0.000000000000  0.258505910925
O   -0.000000000000  1.850011983288  1.924751979973  0.000000000000 -0.000000000000  0.258505910925