# total energy = -19677.002059824797 eV

CRYSTAL
PRIMVEC
3.138920446790701 0.0 0.0
-3.138920446790701 5.436770298784281 0.0
0.0 0.0 11.148152191776493
PRIMCOORD
16 1
Zn   1.621941089913  0.886585569060  2.928876446173 -0.759629857899  0.408789718915 -1.565547800231
Zn   0.111888702678  1.650654992485 -0.027297621666 -4.010174797469  3.196302119066  2.862264910572
O    1.425573993467  0.903502153024  4.824612697086  2.113737847455 -1.102015952578  0.650839541166
O   -0.063640670383  1.846310181774  2.203637352027  1.111982319762 -0.192319544905 -0.884725596660
Zn   1.659048779651  1.045876051081  8.502250365558 -2.227278020168 -1.687503450701  1.464510387971
Zn   0.011570688551  1.656169134033  5.609765935260 -2.019251606050  1.764808295230  0.986760082725
O    1.506902794459  0.909555247213  10.551445298194  4.011507400237 -2.475758171425 -2.406930768239
O   -0.042127765208  1.767038315350  7.779389945326  2.499962279475  0.390164390505 -2.231299996843
Zn   0.126377959461  3.665362606172  2.924566708400  0.497287089727 -0.047845658728 -2.656664332287
Zn  -1.230228301733  4.540026555375  0.009358063528 -2.095048755686  0.268273017614  1.528468121770
O    0.025754214482  3.456689058222  4.709453553195 -0.230421236873  0.995965403374  3.990712060758
O   -1.377539721654  4.576585247926  2.102315825033 -0.719005656619 -0.201534892856 -0.550353887645
Zn  -0.040818521490  3.636740673970  8.158330152316  5.371066385605 -2.630555808126  3.003016353592
Zn  -1.635357463687  4.608196060178  5.647789875877  0.271991347005 -1.684144304420 -0.218503402390
O   -0.049051595930  3.484781454544  10.388457481778  2.101693771806 -0.797667272287 -1.308881770728
O   -1.355892470684  4.529296469719  7.746759925606 -5.918418510309  3.795042111323 -2.663663903533