# total energy = -14759.804811301337 eV

CRYSTAL
PRIMVEC
3.138920446790701 0.0 0.0
-4.7083806701860516 8.155153878716197 0.0
0.0 0.0 5.067341334640142
PRIMCOORD
12 1
Zn   1.569460223395  0.906128173869  2.536881782937  0.000000000000 -0.000290534657  0.011220037086
Zn   0.000000000000  1.812256661631  0.003210487833  0.000000000000  0.000295933974  0.011292285084
O    1.569460223395  0.906128173869  4.457621732453  0.000000000000  0.000084332184 -0.011228264616
O    0.000000000000  1.812256661631  1.923950437349  0.000000000000 -0.000113642760 -0.011240348801
Zn   0.000000000000  3.624513009369  2.536881782937  0.000000000000 -0.000108243443  0.011149074638
Zn  -1.569460223395  4.530641497131  0.003210487833  0.000000000000  0.000369724635  0.011272744700
O    0.000000000000  3.624513009369  4.457621732453  0.000000000000  0.000097444810 -0.011203067805
O   -1.569460223395  4.530641497131  1.923950437349  0.000000000000 -0.000059906704 -0.011222608189
Zn  -1.569460223395  6.342897844870  2.536881782937  0.000000000000 -0.000407005630  0.011211552445
Zn  -3.138920446791  7.249026332631  0.003210487833  0.000000000000  0.000143724667  0.011228264616
O   -1.569460223395  6.342897844870  4.457621732453  0.000000000000  0.000088703059 -0.011238549028
O   -3.138920446791  7.249026332631  1.923950437349  0.000000000000 -0.000100787244 -0.011241377242