# total energy = -29517.052147492544 eV

CRYSTAL
PRIMVEC
10.593856243330013 0.0 0.0
-3.531281883157923 6.116362902086583 0.0
0.0 0.0 5.700755327804504
PRIMCOORD
24 1
Zn   1.765643060350  1.019393817014  2.853992287652 -0.000019540384 -0.000018511943 -0.002802245335
Zn  -0.000000000000  2.038788693414  0.003611445593  0.000006941979 -0.000009770192 -0.002809958645
O    1.765643060350  1.019393817014  5.014824323761 -0.000012598405 -0.000008227530  0.002807387542
O   -0.000000000000  2.038788693414  2.164444541088  0.000007713309  0.000003342434  0.002808930204
Zn  -0.000000000000  4.077577386829  2.853992287652 -0.000031110348 -0.000006941979 -0.002801988225
Zn  -1.765643060350  5.096971203843  0.003611445593 -0.000004370875  0.000014912398 -0.002808158873
O   -0.000000000000  4.077577386829  5.014824323761 -0.000013112626 -0.000008741751  0.002805844880
O   -1.765643060350  5.096971203843  2.164444541088  0.000006941979  0.000007456199  0.002808673093
Zn   5.296928121665  1.019393817014  2.853992287652 -0.000010284413  0.000003599544 -0.002805330659
Zn   3.531285061315  2.038788693414  0.003611445593  0.000025196811  0.000006427758 -0.002809187314
O    5.296928121665  1.019393817014  5.014824323761 -0.000009513082 -0.000004885096  0.002807644652
O    3.531285061315  2.038788693414  2.164444541088  0.000012341295  0.000005656427  0.002808930204
Zn   3.531285061315  4.077577386829  2.853992287652  0.000012341295 -0.000006684868 -0.002809187314
Zn   1.765643060350  5.096971203843  0.003611445593  0.000021854377  0.000023139928 -0.002810215755
O    3.531285061315  4.077577386829  5.014824323761 -0.000007199089 -0.000006170648  0.002806616211
O    1.765643060350  5.096971203843  2.164444541088  0.000011055744  0.000007970420  0.002806873321
Zn   8.828213182980  1.019393817014  2.853992287652 -0.000011312854 -0.000029053466 -0.002802245335
Zn   7.062571182015  2.038788693414  0.003611445593  0.000015683729  0.000003085324 -0.002816643513
O    8.828213182980  1.019393817014  5.014824323761 -0.000009513082 -0.000007713309  0.002806359101
O    7.062571182015  2.038788693414  2.164444541088  0.000010284413  0.000005142206  0.002808930204
Zn   7.062571182015  4.077577386829  2.853992287652 -0.000023654149  0.000005913537 -0.002807901762
Zn   5.296928121665  5.096971203843  0.003611445593  0.000020568825  0.000018511943 -0.002810987086
O    7.062571182015  4.077577386829  5.014824323761 -0.000009770192 -0.000004885096  0.002806873321
O    5.296928121665  5.096971203843  2.164444541088  0.000011569964  0.000007199089  0.002810472866