# total energy = -29505.281098081326 eV

CRYSTAL
PRIMVEC
2.9427380511605845 0.0 0.0
-4.414107076740876 7.645457105007086 0.0
0.0 0.0 9.501268372329049
PRIMCOORD
24 1
Zn   1.471369025580  0.849495201193  2.378326778424  0.000000000000 -0.000407262741  0.046856555342
Zn  -0.000000000000  1.698990696659  0.003009832479  0.000000000000  0.000381808819  0.046922632693
O    1.471369025580  0.849495201193  4.179020562048  0.000000000000  0.000063506248 -0.046878409719
O   -0.000000000000  1.698990696659  1.803703616102  0.000000000000 -0.000059649593 -0.046871210630
Zn   1.471369025580  0.849495201193  7.128960670315  0.000000000000 -0.000464084121  0.046800762404
Zn  -0.000000000000  1.698990696659  4.753643724369  0.000000000000  0.000367153531  0.046955799924
O    1.471369025580  0.849495201193  8.929654159665  0.000000000000  0.000064020469 -0.046890236794
O   -0.000000000000  1.698990696659  6.554337213719  0.000000000000 -0.000059135373 -0.046879438160
Zn   0.000000000000  3.397981099044  2.378326778424  0.000000000000 -0.000386436805  0.046830330090
Zn  -1.471369025580  4.247476594511  0.003009832479  0.000000000000  0.000444543737  0.046904634971
O    0.000000000000  3.397981099044  4.179020562048  0.000000000000  0.000063249138 -0.046885351698
O   -1.471369025580  4.247476594511  1.803703616102  0.000000000000 -0.000052964725 -0.046882523484
Zn   0.000000000000  3.397981099044  7.128960670315  0.000000000000 -0.000355069347  0.046796391528
Zn  -1.471369025580  4.247476594511  4.753643724369  0.000000000000  0.000516277515  0.046966855668
O    0.000000000000  3.397981099044  8.929654159665  0.000000000000  0.000059649593 -0.046886380139
O   -1.471369025580  4.247476594511  6.554337213719  0.000000000000 -0.000066591572 -0.046884066146
Zn  -1.471369025580  5.946466996896  2.378326778424  0.000000000000 -0.000445572178  0.046891008125
Zn  -2.942738051161  6.795962492362  0.003009832479  0.000000000000  0.000349412920  0.046877124168
O   -1.471369025580  5.946466996896  4.179020562048  0.000000000000  0.000061192255 -0.046882009264
O   -2.942738051161  6.795962492362  1.803703616102  0.000000000000 -0.000060163814 -0.046887151470
Zn  -1.471369025580  5.946466996896  7.128960670315  0.000000000000 -0.000378466385  0.046777108255
Zn  -2.942738051161  6.795962492362  4.753643724369  0.000000000000  0.000365353759  0.047023419937
O   -1.471369025580  5.946466996896  8.929654159665  0.000000000000  0.000064534689 -0.046891265235
O   -2.942738051161  6.795962492362  6.554337213719  0.000000000000 -0.000064534689 -0.046885094587