# total energy = -44281.87859165488 eV

CRYSTAL
PRIMVEC
10.20149092289257 0.0 0.0
-5.100745461446285 8.834746176498038 0.0
0.0 0.0 5.270039203311687
PRIMCOORD
36 1
Zn   1.700248827198  0.981638464055  2.638356509337 -0.000007199089 -0.000004113765 -0.223957483526
Zn   0.000000000000  1.963277948260  0.003338947979  0.000000000000 -0.000008484640 -0.223981651895
O    1.700248827198  0.981638464055  4.635926769334 -0.000004113765 -0.000002313993  0.223974967027
O    0.000000000000  1.963277948260  2.000908187827  0.000000000000 -0.000007456199  0.223966739497
Zn   0.000000000000  3.926555896520  2.638356509337  0.000000000000  0.000017997722 -0.223962625732
Zn  -1.700248827198  4.908194360575  0.003338947979 -0.000008998861 -0.000005142206 -0.223956455084
O    0.000000000000  3.926555896520  4.635926769334 -0.000000000000  0.000000514221  0.223970081931
O   -1.700248827198  4.908194360575  2.000908187827 -0.000004627986 -0.000002828213  0.223957483526
Zn  -1.700248827198  6.871472308835  2.638356509337  0.000015426619 -0.000008998861 -0.223962625732
Zn  -3.400496634248  7.853111793039  0.003338947979 -0.000007199089  0.000004113765 -0.223981651895
O   -1.700248827198  6.871472308835  4.635926769334  0.000000514221 -0.000000257110  0.223970081931
O   -3.400496634248  7.853111793039  2.000908187827 -0.000006427758  0.000003856655  0.223966739497
Zn   5.100745461446  0.981638464055  2.638356509337  0.000000000000 -0.000009513082 -0.223971367483
Zn   3.400496634248  1.963277948260  0.003338947979  0.000003856655  0.000002056883 -0.223978052351
O    5.100745461446  0.981638464055  4.635926769334  0.000000000000  0.000007199089  0.223973938586
O    3.400496634248  1.963277948260  2.000908187827  0.000001542662  0.000001028441  0.223964682615
Zn   3.400496634248  3.926555896520  2.638356509337 -0.000008227530  0.000004885096 -0.223971367483
Zn   1.700248827198  4.908194360575  0.003338947979  0.000008998861 -0.000005142206 -0.223956455084
O    3.400496634248  3.926555896520  4.635926769334  0.000006170648 -0.000003599544  0.223973938586
O    1.700248827198  4.908194360575  2.000908187827  0.000004627986 -0.000002828213  0.223957483526
Zn   1.700248827198  6.871472308835  2.638356509337 -0.000015426619 -0.000008998861 -0.223962625732
Zn  -0.000000000000  7.853111793039  0.003338947979  0.000000000000  0.000010284413 -0.223956455084
O    1.700248827198  6.871472308835  4.635926769334 -0.000000514221 -0.000000257110  0.223970081931
O   -0.000000000000  7.853111793039  2.000908187827  0.000000000000  0.000005399317  0.223957483526
Zn   8.501242095694  0.981638464055  2.638356509337  0.000007199089 -0.000004113765 -0.223957483526
Zn   6.800994288645  1.963277948260  0.003338947979 -0.000003856655  0.000002056883 -0.223978052351
O    8.501242095694  0.981638464055  4.635926769334  0.000004113765 -0.000002313993  0.223974967027
O    6.800994288645  1.963277948260  2.000908187827 -0.000001542662  0.000001028441  0.223964682615
Zn   6.800994288645  3.926555896520  2.638356509337  0.000008227530  0.000004885096 -0.223971367483
Zn   5.100745461446  4.908194360575  0.003338947979 -0.000000000000 -0.000004370875 -0.223978052351
O    6.800994288645  3.926555896520  4.635926769334 -0.000006170648 -0.000003599544  0.223973938586
O    5.100745461446  4.908194360575  2.000908187827 -0.000000000000 -0.000001799772  0.223964682615
Zn   5.100745461446  6.871472308835  2.638356509337  0.000000000000  0.000008227530 -0.223957483526
Zn   3.400496634248  7.853111793039  0.003338947979  0.000007199089  0.000004113765 -0.223981651895
O    5.100745461446  6.871472308835  4.635926769334  0.000000000000  0.000004885096  0.223974967027
O    3.400496634248  7.853111793039  2.000908187827  0.000006427758  0.000003856655  0.223966739497