# total energy = -9840.011651860155 eV

CRYSTAL
PRIMVEC
3.2043145786674065 0.0 0.0
-1.6021572893337033 2.775016532990441 0.0
0.0 0.0 9.931990929970976
PRIMCOORD
8 1
Zn   1.602157289334  0.925005831428  2.486144048978  0.000000000000  0.000000000000 -0.619128326106
Zn  -0.000000000000  1.850011983288  0.003146316485  0.000000000000  0.000000000000 -0.618503548038
O    1.602157289334  0.925005831428  4.368469301771  0.000000000000  0.000000000000  0.618855532060
O   -0.000000000000  1.850011983288  1.885471248847  0.000000000000  0.000000000000  0.618815937072
Zn   1.602157289334  0.925005831428  7.452139834394  0.000000000000  0.000000000000 -0.618373450218
Zn  -0.000000000000  1.850011983288  4.969141781470  0.000000000000  0.000000000000 -0.619320901733
O    1.602157289334  0.925005831428  9.334464766757  0.000000000000 -0.000000000000  0.618782769841
O   -0.000000000000  1.850011983288  6.851467034264  0.000000000000 -0.000000000000  0.618871987121