# total energy = -19679.079766808223 eV

CRYSTAL
PRIMVEC
3.335102842420818 0.0 0.0
-3.335102842420818 5.77656821331782 0.0
0.0 0.0 11.844911233907668
PRIMCOORD
16 1
Zn   1.705854410335  0.894668351812  2.946738787688 -0.041097284261  0.924170432919  0.033337952030
Zn  -0.013886367705  1.881964849439 -0.000514272858  0.070800210642  0.431352691817  0.129770261418
O    1.699178868486  0.964949641031  5.203863686197 -0.217459020286 -0.032437294593  0.140492532932
O    0.011136575411  1.978655150516  2.145307571469 -0.057803027051 -0.515713928973  0.351373385779
Zn   1.732463528363  0.945778469362  8.885198229142 -0.037285109604 -0.048863815580  0.026902480818
Zn  -0.023183633899  1.891875107536  5.992658197746  0.248487093236  0.364917957233 -0.429645222208
O    1.663251806626  1.012696307365  11.087285926503  0.046311738582 -0.364105231524 -0.074226462715
O    0.091784698306  2.002017545927  8.175734141354 -0.293602497517 -1.188814595531 -0.208301522156
Zn  -0.032930471956  3.809694313593  2.958282579157 -0.005139892330  0.223950027327  0.153363732468
Zn  -1.671361442698  4.814193271681 -0.006439416568  0.043055179318  0.092347597795 -0.022703612245
O   -0.012401579920  3.809945780347  5.193716302288 -0.036314775271  0.195627012012  0.160373073906
O   -1.717115385082  4.866745821210  2.286983740746  0.148858388398 -0.723141533165 -0.299076633258
Zn   0.033012515486  3.771743844839  8.881494263925 -0.160373588126  1.177513054475  0.165864436038
Zn  -1.697416600144  4.848204650468  5.939013068525  0.043957636528 -0.456255368596 -0.247767184351
O    0.009162528039  3.889133461707  11.169964460008 -0.112057160409 -0.165217289372 -0.215467443777
O   -1.716781541288  4.827283216827  8.114142462591  0.359661851040  0.084670026646  0.335710482431