# total energy = -44276.05687308653 eV

CRYSTAL
PRIMVEC
3.2043145786674065 0.0 0.0
-4.806471868001109 8.325052803285901 0.0
0.0 0.0 14.277236961833278
PRIMCOORD
36 1
Zn   1.602157289334  0.925005831428  2.382554967278  0.000000000000  0.000433230883 -1.709037468118
Zn   0.000000000000  1.850011983288  0.003015260019  0.000000000000  0.000714509569 -1.708671343028
O    1.602157289334  0.925005831428  4.186449493856  0.000000000000 -0.000000771331  1.708843092719
O    0.000000000000  1.850011983288  1.806910107027  0.000000000000 -0.000035481224  1.708797069972
Zn   1.602157289334  0.925005831428  7.141633740935  0.000000000000  0.000332957859 -1.708552300951
Zn   0.000000000000  1.850011983288  4.762094354107  0.000000000000  0.000827895218 -1.709011499976
O    1.602157289334  0.925005831428  8.945528587944  0.000000000000 -0.000011055744  1.708784728677
O    0.000000000000  1.850011983288  6.565989201116  0.000000000000 -0.000032910120  1.708781129133
Zn   1.602157289334  0.925005831428  11.900712835023  0.000000000000  0.000022368598 -1.709019470396
Zn   0.000000000000  1.850011983288  9.521173448195  0.000000000000  0.000656145527 -1.708581868638
O    1.602157289334  0.925005831428  13.704607682032  0.000000000000  0.000004370875  1.708834093858
O    0.000000000000  1.850011983288  11.325068295204  0.000000000000 -0.000046536967  1.708796812862
Zn   0.000000000000  3.700023646145  2.382554967278  0.000000000000 -0.000784957795 -1.708846949373
Zn  -1.602157289334  4.625029798004  0.003015260019  0.000000000000 -0.000037280996 -1.709108687675
O    0.000000000000  3.700023646145  4.186449493856  0.000000000000  0.000010284413  1.708822523893
O   -1.602157289334  4.625029798004  1.806910107027  0.000000000000  0.000022625708  1.708823552335
Zn   0.000000000000  3.700023646145  7.141633740935  0.000000000000 -0.000674657470 -1.708679827668
Zn  -1.602157289334  4.625029798004  4.762094354107  0.000000000000  0.000213401562 -1.709030011919
O    0.000000000000  3.700023646145  8.945528587944  0.000000000000  0.000019797494  1.708775472706
O   -1.602157289334  4.625029798004  6.565989201116  0.000000000000  0.000016712171  1.708815839025
Zn   0.000000000000  3.700023646145  11.900712835023  0.000000000000 -0.000464341231 -1.708987588716
Zn  -1.602157289334  4.625029798004  9.521173448195  0.000000000000  0.000082789522 -1.708422460242
O    0.000000000000  3.700023646145  13.704607682032  0.000000000000  0.000021597267  1.708836922071
O   -1.602157289334  4.625029798004  11.325068295204  0.000000000000  0.000002571103  1.708807097274
Zn  -1.602157289334  6.475041460861  2.382554967278  0.000000000000 -0.000600866809 -1.708573126887
Zn  -3.204314578667  7.400047612721  0.003015260019  0.000000000000  0.000235255939 -1.709245470363
O   -1.602157289334  6.475041460861  4.186449493856  0.000000000000  0.000049108070  1.708800669517
O   -3.204314578667  7.400047612721  1.806910107027  0.000000000000 -0.000046279857  1.708839493174
Zn  -1.602157289334  6.475041460861  7.141633740935  0.000000000000 -0.000595210382 -1.708681370330
Zn  -3.204314578667  7.400047612721  4.762094354107  0.000000000000 -0.000088188838 -1.708937709315
O   -1.602157289334  6.475041460861  8.945528587944  0.000000000000  0.000041651871  1.708772901602
O   -3.204314578667  7.400047612721  6.565989201116  0.000000000000 -0.000034195672  1.708819181459
Zn  -1.602157289334  6.475041460861  11.900712835023  0.000000000000 -0.000469483437 -1.708870089302
Zn  -3.204314578667  7.400047612721  9.521173448195  0.000000000000  0.000187176310 -1.708327329425
O   -1.602157289334  6.475041460861  13.704607682032  0.000000000000  0.000036766775  1.708840778726
O   -3.204314578667  7.400047612721  11.325068295204  0.000000000000 -0.000009513082  1.708793213317