# total energy = -9836.728968063424 eV

CRYSTAL
PRIMVEC
3.00813218303729 0.0 0.0
-3.00813218303729 5.210238355761922 0.0
0.0 0.0 4.856202254743713
PRIMCOORD
8 1
Zn   1.574579417208  0.808782061019  2.358692087007 -0.213414932123  0.636110976707  0.823422783985
Zn   0.050785092393  1.700514269424 -0.029128646368 -2.085684797972  1.078923332424  0.264058722422
O    1.476115128900  0.907836845674  4.280959243074  2.235286235184 -1.908202060969 -1.354969052005
O    0.054106070323  1.754778266687  1.814890072914  0.337359330888 -1.088849076178  0.497983344463
Zn  -0.055246453234  3.444649463635  2.429557063348  2.502985125462 -0.943984125211  1.992810895360
Zn  -1.626108420690  4.311734841812  0.035782033130  1.849360565351  1.563328938203  0.625617019154
O   -0.048676090920  3.495493214606  4.366937677130 -1.914052349103 -0.817829349058 -1.435014692505
O   -1.465853186771  4.253994045372  1.938931305922 -2.711839177687  1.480501106972 -1.413909020874