# total energy = -9839.645189214734 eV

CRYSTAL
PRIMVEC
3.531285238050934 0.0 0.0
-1.765642619025467 3.0581812982830603 0.0
0.0 0.0 10.489396765526019
PRIMCOORD
8 1
Zn   1.750430548477  1.050020249835  2.575171750294  0.057021154580 -0.100527819613  0.257059665396
Zn   0.066454197509  2.072361579718 -0.057603737317 -0.224767895242  0.004867355395  0.492642906086
O    1.753273233094  0.967852539274  4.585991856526  0.067520768560  0.143842423241  0.527227586040
O   -0.001226415363  2.040892884448  2.037407505918 -0.012749843467  0.072192977224 -0.759400258386
Zn   1.801254924394  1.017736533932  7.881058478019 -0.006548342641  0.199478781658 -0.816087683776
Zn   0.027433495629  2.009449614431  5.284904537098 -0.044370555696 -0.009643436627 -1.202478209061
O    1.748659255802  1.045132244809  9.833559761673  0.209088279723 -0.015178764623  0.521413293351
O    0.041439632269  2.127188667453  7.215550696414 -0.045193822928 -0.295031773765  0.979622443239