# total energy = -14751.358543194314 eV

CRYSTAL
PRIMVEC
8.828213624304544 0.0 0.0
-1.4713718801219655 2.5484845679961143 0.0
0.0 0.0 4.655620252272371
PRIMCOORD
12 1
Zn   1.471369231658  0.849494855999  2.330760515129  0.000760275205  0.000438887310 -0.663648005785
Zn  -0.000000000000  1.698990594819  0.002949506172 -0.000392350342 -0.000226514189 -0.663207318703
O    1.471369231658  0.849494855999  4.095440081884 -0.000067620013 -0.000039080768  0.663330474544
O   -0.000000000000  1.698990594819  1.767629072926  0.000026996583  0.000015683729  0.663354385804
Zn   4.414106812152  0.849494855999  2.330760515129  0.000294648422  0.000170207029 -0.663406064977
Zn   2.942737580494  1.698990594819  0.002949506172 -0.000304161504 -0.000175606346 -0.663265939855
O    4.414106812152  0.849494855999  4.095440081884 -0.000055535828 -0.000032138790  0.663335616751
O    2.942737580494  1.698990594819  1.767629072926  0.000016969281  0.000009770192  0.663342301619
Zn   7.356844392647  0.849494855999  2.330760515129  0.000273565376  0.000157865734 -0.663324818117
Zn   5.885476043810  1.698990594819  0.002949506172 -0.000571813343 -0.000330129646 -0.663213489351
O    7.356844392647  0.849494855999  4.095440081884 -0.000015426619 -0.000008741751  0.663351814701
O    5.885476043810  1.698990594819  1.767629072926  0.000034452782  0.000019797494  0.663351300480