# total energy = -44280.87588726212 eV

CRYSTAL
PRIMVEC
9.416760811194894 0.0 0.0
-4.708380405597447 8.15515028151506 0.0
0.0 0.0 5.270033687420356
PRIMCOORD
36 1
Zn   1.569460449091  0.906127809057  2.638356968770  0.000002313993  0.000001285552  0.446164817130
Zn   0.000000000000  1.812256559791  0.003339183384  0.000000000000 -0.000011312854  0.446175872873
O    1.569460449091  0.906127809057  4.635925964564 -0.000002571103 -0.000001542662 -0.446164817130
O    0.000000000000  1.812256559791  2.000908179178  0.000000000000 -0.000003085324 -0.446178186866
Zn   0.000000000000  3.624513119581  2.638356968770  0.000000000000  0.000003342434  0.446155818268
Zn  -1.569460449091  4.530640928638  0.003339183384  0.000000514221  0.000000257110  0.446187957058
O    0.000000000000  3.624513119581  4.635925964564  0.000000000000  0.000000257110 -0.446168159564
O   -1.569460449091  4.530640928638  2.000908179178 -0.000003599544 -0.000002056883 -0.446175358652
Zn  -1.569460449091  6.342897488429  2.638356968770  0.000002828213 -0.000001542662  0.446155818268
Zn  -3.138919956506  7.249026239162  0.003339183384 -0.000009770192  0.000005656427  0.446175872873
O   -1.569460449091  6.342897488429  4.635925964564  0.000000257110 -0.000000257110 -0.446168159564
O   -3.138919956506  7.249026239162  2.000908179178 -0.000002571103  0.000001542662 -0.446178186866
Zn   4.708380405597  0.906127809057  2.638356968770  0.000000000000  0.000010027302  0.446181272190
Zn   3.138919956506  1.812256559791  0.003339183384  0.000004885096  0.000002828213  0.446168930895
O    4.708380405597  0.906127809057  4.635925964564 -0.000000000000 -0.000004370875 -0.446166102681
O    3.138919956506  1.812256559791  2.000908179178 -0.000002571103 -0.000001542662 -0.446181786410
Zn   3.138919956506  3.624513119581  2.638356968770  0.000008741751 -0.000005142206  0.446181272190
Zn   1.569460449091  4.530640928638  0.003339183384 -0.000000514221  0.000000257110  0.446187957058
O    3.138919956506  3.624513119581  4.635925964564 -0.000003856655  0.000002056883 -0.446166102681
O    1.569460449091  4.530640928638  2.000908179178  0.000003599544 -0.000002056883 -0.446175358652
Zn   1.569460449091  6.342897488429  2.638356968770 -0.000002828213 -0.000001542662  0.446155818268
Zn  -0.000000000000  7.249026239162  0.003339183384  0.000000000000 -0.000000514221  0.446187957058
O    1.569460449091  6.342897488429  4.635925964564 -0.000000257110 -0.000000257110 -0.446168159564
O   -0.000000000000  7.249026239162  2.000908179178 -0.000000000000  0.000004113765 -0.446175358652
Zn   7.847300362104  0.906127809057  2.638356968770 -0.000002313993  0.000001285552  0.446164817130
Zn   6.277840854689  1.812256559791  0.003339183384 -0.000004885096  0.000002828213  0.446168930895
O    7.847300362104  0.906127809057  4.635925964564  0.000002571103 -0.000001542662 -0.446164817130
O    6.277840854689  1.812256559791  2.000908179178  0.000002571103 -0.000001542662 -0.446181786410
Zn   6.277840854689  3.624513119581  2.638356968770 -0.000008741751 -0.000005142206  0.446181272190
Zn   4.708380405597  4.530640928638  0.003339183384  0.000000000000 -0.000005656427  0.446168930895
O    6.277840854689  3.624513119581  4.635925964564  0.000003856655  0.000002056883 -0.446166102681
O    4.708380405597  4.530640928638  2.000908179178  0.000000000000  0.000002828213 -0.446181786410
Zn   4.708380405597  6.342897488429  2.638356968770  0.000000000000 -0.000002571103  0.446164817130
Zn   3.138919956506  7.249026239162  0.003339183384  0.000009770192  0.000005656427  0.446175872873
O    4.708380405597  6.342897488429  4.635925964564  0.000000000000  0.000003085324 -0.446164817130
O    3.138919956506  7.249026239162  2.000908179178  0.000002571103  0.000001542662 -0.446178186866