# total energy = -9828.63878962229 eV

CRYSTAL
PRIMVEC
5.88547557314396 0.0 0.0
-1.47136889328599 2.5484874343537856 0.0
0.0 0.0 4.275568470341734
PRIMCOORD
8 1
Zn   1.471368893286  0.849495419086  2.140493908125  0.000444800847  0.000256853206 -5.560475698843
Zn  -0.000000000000  1.698990249625  0.002709084406 -0.000360725774 -0.000208259356 -5.560528663568
O    1.471368893286  0.849495419086  3.761117873398 -0.000020568825 -0.000011827075  5.560505266529
O   -0.000000000000  1.698990249625  1.623333049680  0.000000257110  0.000000257110  5.560516065162
Zn   4.414106679858  0.849495419086  2.140493908125  0.000369981745  0.000213658673 -5.560388024225
Zn   2.942737786572  1.698990249625  0.002709084406 -0.000398520990 -0.000230113733 -5.560627136819
O    4.414106679858  0.849495419086  3.761117873398 -0.000021597267 -0.000012598405  5.560486754586
O    2.942737786572  1.698990249625  1.623333049680 -0.000013626847 -0.000007970420  5.560511437177