# total energy = -9838.51294734205 eV

CRYSTAL
PRIMVEC
3.59667936992764 0.0 0.0
-3.59667936992764 6.229632099362539 0.0
0.0 0.0 5.6902021274607915
PRIMCOORD
8 1
Zn   1.798339684964  1.038271776782  2.848706734799  0.000000000000  0.000012598405  0.027482521691
Zn   0.000000000000  2.076543913232  0.003605311400  0.000000000000 -0.000151437976  0.027495634317
O    1.798339684964  1.038271776782  5.005537163598  0.000000000000  0.000167121705 -0.027500262303
O    0.000000000000  2.076543913232  2.160435740199  0.000000000000 -0.000152723528 -0.027493834545
Zn   0.000000000000  4.153087466795  2.848706734799  0.000000000000  0.000280250245  0.027439327158
Zn  -1.798339684964  5.191359603245  0.003605311400  0.000000000000 -0.000141924895  0.027584337376
O    0.000000000000  4.153087466795  5.005537163598  0.000000000000  0.000146295770 -0.027496405648
O   -1.798339684964  5.191359603245  2.160435740199  0.000000000000 -0.000160179727 -0.027511060936