# total energy = -39353.62181303986 eV

CRYSTAL
PRIMVEC
6.147052100650782 0.0 0.0
-3.073526050325391 5.323500795466094 0.0
0.0 0.0 9.725072863928684
PRIMCOORD
32 1
Zn   1.536763025163  0.887250747283  2.434349425848 -0.000075076212 -0.000043451643 -0.430569276684
Zn  -0.000000000000  1.774500879861  0.003080902513  0.000000000000 -0.000111585877 -0.430521454165
O    1.536763025163  0.887250747283  4.277459398319 -0.000008484640 -0.000004885096  0.430539194777
O   -0.000000000000  1.774500879861  1.846190874984  0.000000000000 -0.000011827075  0.430516054849
Zn   1.536763025163  0.887250747283  7.296886472517 -0.000078932867 -0.000045508526 -0.430482373397
Zn  -0.000000000000  1.774500879861  4.865617949182 -0.000000000000 -0.000047308298 -0.430501913781
O    1.536763025163  0.887250747283  9.139996444989 -0.000008227530 -0.000004885096  0.430526853482
O   -0.000000000000  1.774500879861  6.708727921654 -0.000000000000 -0.000006427758  0.430533024130
Zn  -0.000000000000  3.549002374426  2.434349425848  0.000000000000  0.000000000000 -0.430552050293
Zn  -1.536763025163  4.436252507004  0.003080902513 -0.000096673479  0.000055792939 -0.430521454165
O   -0.000000000000  3.549002374426  4.277459398319  0.000000000000 -0.000000000000  0.430531995688
O   -1.536763025163  4.436252507004  1.846190874984 -0.000010284413  0.000005913537  0.430516054849
Zn  -0.000000000000  3.549002374426  7.296886472517  0.000000000000  0.000000000000 -0.430566705581
Zn  -1.536763025163  4.436252507004  4.865617949182 -0.000041137651  0.000023654149 -0.430501913781
O   -0.000000000000  3.549002374426  9.139996444989  0.000000000000 -0.000000000000  0.430521454165
O   -1.536763025163  4.436252507004  6.708727921654 -0.000005656427  0.000003342434  0.430533024130
Zn   4.610289075488  0.887250747283  2.434349425848  0.000075076212 -0.000043451643 -0.430569276684
Zn   3.073526050325  1.774500879861  0.003080902513  0.000000000000  0.000000000000 -0.430566705581
O    4.610289075488  0.887250747283  4.277459398319  0.000008484640 -0.000004885096  0.430539194777
O    3.073526050325  1.774500879861  1.846190874984  0.000000000000  0.000000000000  0.430520682834
Zn   4.610289075488  0.887250747283  7.296886472517  0.000078932867 -0.000045508526 -0.430482373397
Zn   3.073526050325  1.774500879861  4.865617949182  0.000000000000  0.000000000000 -0.430538937667
O    4.610289075488  0.887250747283  9.139996444989  0.000008227530 -0.000004885096  0.430526853482
O    3.073526050325  1.774500879861  6.708727921654  0.000000000000  0.000000000000  0.430529681695
Zn   3.073526050325  3.549002374426  2.434349425848  0.000000000000  0.000086646177 -0.430569276684
Zn   1.536763025163  4.436252507004  0.003080902513  0.000096673479  0.000055792939 -0.430521454165
O    3.073526050325  3.549002374426  4.277459398319  0.000000000000  0.000009770192  0.430539194777
O    1.536763025163  4.436252507004  1.846190874984  0.000010284413  0.000005913537  0.430516054849
Zn   3.073526050325  3.549002374426  7.296886472517  0.000000000000  0.000091017052 -0.430482373397
Zn   1.536763025163  4.436252507004  4.865617949182  0.000041137651  0.000023654149 -0.430501913781
O    3.073526050325  3.549002374426  9.139996444989  0.000000000000  0.000009513082  0.430526853482
O    1.536763025163  4.436252507004  6.708727921654  0.000005656427  0.000003342434  0.430533024130