# total energy = -39360.924961795616 eV

CRYSTAL
PRIMVEC
6.539417421088225 0.0 0.0
-3.2697087105441125 5.66329897209793 0.0
0.0 0.0 9.92354631824912
PRIMCOORD
32 1
Zn   1.634854355272  0.943883815958  2.484029750546 -0.000002313993 -0.000001285552 -0.841525150013
Zn  -0.000000000000  1.887766977974  0.003143497954 -0.000000000000  0.000001542662 -0.841493525444
O    1.634854355272  0.943883815958  4.364754429899 -0.000001542662 -0.000000771331  0.841510237614
O   -0.000000000000  1.887766977974  1.883868177308  0.000000000000 -0.000001028441  0.841509209173
Zn   1.634854355272  0.943883815958  7.445802909670  0.000006941979  0.000004113765 -0.841499696091
Zn  -0.000000000000  1.887766977974  4.964916657079  0.000000000000  0.000012855516 -0.841524892902
O    1.634854355272  0.943883815958  9.326526935082  0.000000771331  0.000000514221  0.841509466283
O   -0.000000000000  1.887766977974  6.845640682491  0.000000000000  0.000000514221  0.841513580048
Zn   0.000000000000  3.775534609891  2.484029750546  0.000000000000  0.000000000000 -0.841508952063
Zn  -1.634854355272  4.719417771907  0.003143497954  0.000001285552 -0.000000771331 -0.841493525444
O    0.000000000000  3.775534609891  4.364754429899  0.000000000000  0.000000000000  0.841510751835
O   -1.634854355272  4.719417771907  1.883868177308 -0.000000771331  0.000000514221  0.841509209173
Zn   0.000000000000  3.775534609891  7.445802909670  0.000000000000 -0.000000000000 -0.841508952063
Zn  -1.634854355272  4.719417771907  4.964916657079  0.000011055744 -0.000006427758 -0.841524892902
O    0.000000000000  3.775534609891  9.326526935082  0.000000000000 -0.000000000000  0.841509466283
O   -1.634854355272  4.719417771907  6.845640682491  0.000000257110 -0.000000257110  0.841513580048
Zn   4.904563065816  0.943883815958  2.484029750546  0.000002313993 -0.000001285552 -0.841525150013
Zn   3.269708710544  1.887766977974  0.003143497954  0.000000000000 -0.000000000000 -0.841496610768
O    4.904563065816  0.943883815958  4.364754429899  0.000001542662 -0.000000771331  0.841510237614
O    3.269708710544  1.887766977974  1.883868177308  0.000000000000  0.000000000000  0.841505866739
Zn   4.904563065816  0.943883815958  7.445802909670 -0.000006941979  0.000004113765 -0.841499696091
Zn   3.269708710544  1.887766977974  4.964916657079  0.000000000000  0.000000000000 -0.841521550468
O    4.904563065816  0.943883815958  9.326526935082 -0.000000771331  0.000000514221  0.841509466283
O    3.269708710544  1.887766977974  6.845640682491 -0.000000000000 -0.000000000000  0.841511780276
Zn   3.269708710544  3.775534609891  2.484029750546  0.000000000000  0.000002571103 -0.841525150013
Zn   1.634854355272  4.719417771907  0.003143497954 -0.000001285552 -0.000000771331 -0.841493525444
O    3.269708710544  3.775534609891  4.364754429899  0.000000000000  0.000001799772  0.841510237614
O    1.634854355272  4.719417771907  1.883868177308  0.000000771331  0.000000514221  0.841509209173
Zn   3.269708710544  3.775534609891  7.445802909670  0.000000000000 -0.000007970420 -0.841499696091
Zn   1.634854355272  4.719417771907  4.964916657079 -0.000011055744 -0.000006427758 -0.841524892902
O    3.269708710544  3.775534609891  9.326526935082  0.000000000000 -0.000001028441  0.841509466283
O    1.634854355272  4.719417771907  6.845640682491 -0.000000257110 -0.000000257110  0.841513580048