# total energy = -9840.413399507033 eV

CRYSTAL
PRIMVEC
3.2043145786674065 0.0 0.0
-1.6021572893337033 2.775016532990441 0.0
0.0 0.0 11.173489796217348
PRIMCOORD
8 1
Zn   1.602157289334  0.925005831428  2.796912255369  0.000000000000  0.000000000000  0.387295296487
Zn  -0.000000000000  1.850011983288  0.003539806315  0.000000000000  0.000000000000  0.386973908592
O    1.602157289334  0.925005831428  4.914527764223  0.000000000000  0.000000000000 -0.387083951807
O   -0.000000000000  1.850011983288  2.121155315169  0.000000000000 -0.000000000000 -0.387089865344
Zn   1.602157289334  0.925005831428  8.383657153478  0.000000000000  0.000000000000  0.387007590043
Zn  -0.000000000000  1.850011983288  5.590284704424  0.000000000000 -0.000000000000  0.387140258966
O    1.602157289334  0.925005831428  10.501272662332  0.000000000000  0.000000000000 -0.387122004134
O   -0.000000000000  1.850011983288  7.707900213277  0.000000000000 -0.000000000000 -0.387121232803