# total energy = -19665.908092366393 eV

CRYSTAL
PRIMVEC
2.9427380511605845 0.0 0.0
-2.9427380511605845 5.0969723842507415 0.0
0.0 0.0 9.121216695759712
PRIMCOORD
16 1
Zn   1.450749848603  0.838357526217  2.247977607900 -1.160572569966  0.324872768386 -1.480499050090
Zn   0.034783752312  1.645568818626 -0.039057490784  0.268451709283  0.585441989597 -1.810598099871
O    1.486949646466  0.851473603984  3.986685262941  0.960830250234  0.507504910800  1.072500716727
O   -0.076847838563  1.731773681370  1.690523556464  0.907739283946  0.165782417847  1.845002031272
Zn   1.418442410361  0.869084419852  6.796081378979 -0.017376543605 -0.438925876179 -0.944704548316
Zn   0.049941207466  1.662584907133  4.562224793891 -0.807417666806  1.863869814711 -0.662738092376
O    1.505578355425  0.760853457068  8.548621079955  0.045930701094  1.777741201242  0.657480186411
O   -0.049900303407  1.730087786741  6.336462773888 -0.230166183440  0.680291527879 -0.055310856757
Zn   0.041914006610  3.431876733013  2.272887296956 -1.854697661293 -0.997882675001 -0.046579133311
Zn  -1.435088302421  4.226973067139 -0.003459482853 -0.155853074548 -1.275099274961 -1.975539252764
O   -0.004678364954  3.490472827361  4.045809873043 -1.154999446753 -2.971558649304  0.007858576812
O   -1.505596894675  4.237539556659  1.687936006896  1.756689779888  0.527955208234  2.670489153985
Zn  -0.038487188150  3.446389728533  6.899283496707 -0.722349890501 -0.259175169077 -3.839988337017
Zn  -1.501278720858  4.251636743293  4.541689190675  1.031055562209  0.600218633686  0.362063261393
O    0.020906093937  3.403552879270  8.559405626365  0.580212879988 -1.564245793590  4.048207326761
O   -1.526852291618  4.237191430748  6.310856244462  0.552522613161  0.473208965732  0.152355860028