# total energy = -9833.199156600987 eV

CRYSTAL
PRIMVEC
2.9427380511605845 0.0 0.0
-1.4713690255802923 2.5484847207563455 0.0
0.0 0.0 9.121216695759712
PRIMCOORD
8 1
Zn   1.471369025580  0.849495201193  2.283193648432  0.000000000000  0.000000000000 -1.544318715649
Zn  -0.000000000000  1.698990696659  0.002889474492  0.000000000000  0.000000000000 -1.544444956814
O    1.471369025580  0.849495201193  4.011859798421  0.000000000000  0.000000000000  1.544027923881
O   -0.000000000000  1.698990696659  1.731555330207  0.000000000000  0.000000000000  1.544163163907
Zn   1.471369025580  0.849495201193  6.843802290586  0.000000000000  0.000000000000 -1.543026993420
Zn  -0.000000000000  1.698990696659  4.563497822372  0.000000000000  0.000000000000 -1.544554485809
O    1.471369025580  0.849495201193  8.572468146301  0.000000000000  0.000000000000  1.544052863582
O   -0.000000000000  1.698990696659  6.292163972361  0.000000000000  0.000000000000  1.544101200321