# total energy = -29520.46002800925 eV

CRYSTAL
PRIMVEC
3.465891106174229 0.0 0.0
-5.198836659261343 9.004648501564716 0.0
0.0 0.0 10.295148793710947
PRIMCOORD
24 1
Zn   1.732945553087  1.000516461664  2.577049121842  0.000000000000 -0.000414204719 -0.517963644239
Zn  -0.000000000000  2.001033269917  0.003261403531  0.000000000000 -0.000021854377 -0.518060574829
O    1.732945553087  1.000516461664  4.528200247192  0.000000000000  0.000120327628  0.517736358720
O   -0.000000000000  2.001033269917  1.954412875470  0.000000000000  0.000023911259  0.517803721623
Zn   1.732945553087  1.000516461664  7.724623865287  0.000000000000 -0.000231142174 -0.517789580555
Zn  -0.000000000000  2.001033269917  5.150836493565  0.000000000000 -0.000124441393 -0.517440681856
O    1.732945553087  1.000516461664  9.675775337226  0.000000000000  0.000034195672  0.517847687487
O   -0.000000000000  2.001033269917  7.101987965503  0.000000000000  0.000032653010  0.517801664740
Zn   0.000000000000  4.002066193245  2.577049121842  0.000000000000 -0.000014655288 -0.517722474763
Zn  -1.732945553087  5.002583001498  0.003261403531  0.000000000000 -0.000329101205 -0.517688793311
O    0.000000000000  4.002066193245  4.528200247192  0.000000000000 -0.000045251416  0.517802436071
O   -1.732945553087  5.002583001498  1.954412875470  0.000000000000 -0.000058364042  0.517702934379
Zn   0.000000000000  4.002066193245  7.724623865287  0.000000000000 -0.000597524375 -0.517775182378
Zn  -1.732945553087  5.002583001498  5.150836493565  0.000000000000  0.000423974911 -0.518017380295
O    0.000000000000  4.002066193245  9.675775337226  0.000000000000  0.000120584738  0.517833803530
O   -1.732945553087  5.002583001498  7.101987965503  0.000000000000 -0.000057592711  0.517942561193
Zn  -1.732945553087  7.003615924826  2.577049121842  0.000000000000  0.000031624569 -0.517373576064
Zn  -3.465891106174  8.004132733079  0.003261403531  0.000000000000  0.000709367362 -0.517810920712
O   -1.732945553087  7.003615924826  4.528200247192  0.000000000000  0.000045765636  0.517744843360
O   -3.465891106174  8.004132733079  1.954412875470  0.000000000000 -0.000070191116  0.517688536201
Zn  -1.732945553087  7.003615924826  7.724623865287  0.000000000000  0.000439915751 -0.518433899008
Zn  -3.465891106174  8.004132733079  5.150836493565  0.000000000000  0.000104643899 -0.517621687519
O   -1.732945553087  7.003615924826  9.675775337226  0.000000000000 -0.000054507387  0.517882397379
O   -3.465891106174  8.004132733079  7.101987965503  0.000000000000 -0.000067877123  0.517911450845