
     Program PWSCF v.7.2 starts on 24Sep2025 at 16:20:18 

     This program is part of the open-source Quantum ESPRESSO suite
     for quantum simulation of materials; please cite
         "P. Giannozzi et al., J. Phys.:Condens. Matter 21 395502 (2009);
         "P. Giannozzi et al., J. Phys.:Condens. Matter 29 465901 (2017);
         "P. Giannozzi et al., J. Chem. Phys. 152 154105 (2020);
          URL http://www.quantum-espresso.org", 
     in publications or presentations arising from this work. More details at
     http://www.quantum-espresso.org/quote

     Parallel version (MPI), running on    16 processors

     MPI processes distributed on     1 nodes
     112008 MiB available memory on the printing compute node when the environment starts

     Reading input from /home/jvc/QEspresso7.2/ZnO_database/scripts/random_1x2x1.in/ZnO-3.40-1.45-121-0.04-1.in
Warning: card &CELL ignored
Warning: card / ignored
Warning: card &FCP ignored
Warning: card / ignored
Warning: card &RISM ignored
Warning: card / ignored

     Current dimensions of program PWSCF are:
     Max number of different atomic species (ntypx) = 10
     Max number of k-points (npk) =  40000
     Max angular momentum in pseudopotentials (lmaxx) =  4
     file Zn.upf: wavefunction(s)  3D renormalized

     K-points division:     npool     =       4
     R & G space division:  proc/nbgrp/npool/nimage =       4
     Subspace diagonalization in iterative solution of the eigenvalue problem:
     a serial algorithm will be used


     Parallelization info
     --------------------
     sticks:   dense  smooth     PW     G-vecs:    dense   smooth      PW
     Min         569     283     86                22575     7979    1382
     Max         570     284     87                22578     7982    1385
     Sum        2279    1135    347                90309    31925    5537

     Using Slab Decomposition



     bravais-lattice index     =            0
     lattice parameter (alat)  =       6.4260  a.u.
     unit-cell volume          =     667.7700 (a.u.)^3
     number of atoms/cell      =            8
     number of atomic types    =            2
     number of electrons       =        72.00
     number of Kohn-Sham states=           36
     kinetic-energy cutoff     =      50.0000  Ry
     charge density cutoff     =     400.0000  Ry
     scf convergence threshold =      1.0E-08
     mixing beta               =       0.3000
     number of iterations used =            8  plain     mixing
     Exchange-correlation= PBE
                           (   1   4   3   4   0   0   0)

     celldm(1)=   6.426008  celldm(2)=   0.000000  celldm(3)=   0.000000
     celldm(4)=   0.000000  celldm(5)=   0.000000  celldm(6)=   0.000000

     crystal axes: (cart. coord. in units of alat)
               a(1) = (   1.000000   0.000000   0.000000 )  
               a(2) = (  -1.000000   1.732051   0.000000 )  
               a(3) = (   0.000000   0.000000   1.452923 )  

     reciprocal axes: (cart. coord. in units 2 pi/alat)
               b(1) = (  1.000000  0.577350 -0.000000 )  
               b(2) = (  0.000000  0.577350  0.000000 )  
               b(3) = (  0.000000 -0.000000  0.688268 )  


     PseudoPot. # 1 for Zn read from file:
     /home/jvc/QEspresso7.2/ZnO_database/pseudos/Zn.upf
     MD5 check sum: 7f56cabf9682ed8c977c2f7d0c5985c5
     Pseudo is Ultrasoft + core correction, Zval = 12.0
     Generated using &quot;atomic&quot; code by A. Dal Corso  v.6.2.2
     Using radial grid of 1201 points,  6 beta functions with: 
                l(1) =   0
                l(2) =   0
                l(3) =   1
                l(4) =   1
                l(5) =   2
                l(6) =   2
     Q(r) pseudized with 0 coefficients 


     PseudoPot. # 2 for O  read from file:
     /home/jvc/QEspresso7.2/ZnO_database/pseudos/O.upf
     MD5 check sum: 91400c9766925bcf19f520983a725ff0
     Pseudo is Ultrasoft + core correction, Zval =  6.0
     Generated using &quot;atomic&quot; code by A. Dal Corso  v.6.3MaX
     Using radial grid of 1095 points,  4 beta functions with: 
                l(1) =   0
                l(2) =   0
                l(3) =   1
                l(4) =   1
     Q(r) pseudized with 0 coefficients 


     atomic species   valence    mass     pseudopotential
        Zn            12.00    65.38000     Zn( 1.00)
        O              6.00    15.99900     O ( 1.00)

     No symmetry found


                                    s                        frac. trans.

      isym =  1     identity                                     

 cryst.   s( 1) = (     1          0          0      )
                  (     0          1          0      )
                  (     0          0          1      )

 cart.    s( 1) = (  1.0000000  0.0000000  0.0000000 )
                  (  0.0000000  1.0000000  0.0000000 )
                  (  0.0000000  0.0000000  1.0000000 )


   Cartesian axes

     site n.     atom                  positions (alat units)
         1           Zn  tau(   1) = (   0.4983033   0.2731055   0.7242592  )
         2           Zn  tau(   2) = (   0.0238506   0.5819776   0.0155011  )
         3           O   tau(   3) = (   0.5044676   0.2872459   1.3019117  )
         4           O   tau(   4) = (   0.0077380   0.5679429   0.5481732  )
         5           Zn  tau(   5) = (   0.0018870   1.1570439   0.7350651  )
         6           Zn  tau(   6) = (  -0.5001502   1.4348288   0.0150265  )
         7           O   tau(   7) = (   0.0000134   1.1461346   1.2767996  )
         8           O   tau(   8) = (  -0.4942347   1.4214776   0.5455325  )

   Crystallographic axes

     site n.     atom                  positions (cryst. coord.)
         1           Zn  tau(   1) = (  0.6559808  0.1576775  0.4984844  )
         2           Zn  tau(   2) = (  0.3598555  0.3360049  0.0106689  )
         3           O   tau(   3) = (  0.6703091  0.1658415  0.8960641  )
         4           O   tau(   4) = (  0.3356400  0.3279020  0.3772900  )
         5           Zn  tau(   5) = (  0.6699066  0.6680196  0.5059218  )
         6           Zn  tau(   6) = (  0.3282486  0.8283988  0.0103423  )
         7           O   tau(   7) = (  0.6617345  0.6617211  0.8787802  )
         8           O   tau(   8) = (  0.3264558  0.8206905  0.3754725  )

     number of k points=   112
                       cart. coord. in units 2pi/alat
        k(    1) = (   0.0000000   0.0000000   0.0000000), wk =   0.0092593
        k(    2) = (   0.0000000   0.0000000   0.1147113), wk =   0.0185185
        k(    3) = (   0.0000000   0.0000000   0.2294226), wk =   0.0185185
        k(    4) = (   0.0000000   0.0000000  -0.3441340), wk =   0.0092593
        k(    5) = (   0.0000000   0.0962250   0.0000000), wk =   0.0185185
        k(    6) = (   0.0000000   0.0962250   0.1147113), wk =   0.0185185
        k(    7) = (   0.0000000   0.0962250   0.2294226), wk =   0.0185185
        k(    8) = (   0.0000000   0.0962250  -0.3441340), wk =   0.0185185
        k(    9) = (   0.0000000   0.1924501   0.0000000), wk =   0.0185185
        k(   10) = (   0.0000000   0.1924501   0.1147113), wk =   0.0185185
        k(   11) = (   0.0000000   0.1924501   0.2294226), wk =   0.0185185
        k(   12) = (   0.0000000   0.1924501  -0.3441340), wk =   0.0185185
        k(   13) = (   0.0000000  -0.2886751   0.0000000), wk =   0.0092593
        k(   14) = (   0.0000000  -0.2886751   0.1147113), wk =   0.0185185
        k(   15) = (   0.0000000  -0.2886751   0.2294226), wk =   0.0185185
        k(   16) = (   0.0000000  -0.2886751  -0.3441340), wk =   0.0092593
        k(   17) = (   0.1666667   0.0962250   0.0000000), wk =   0.0185185
        k(   18) = (   0.1666667   0.0962250   0.1147113), wk =   0.0185185
        k(   19) = (   0.1666667   0.0962250   0.2294226), wk =   0.0185185
        k(   20) = (   0.1666667   0.0962250  -0.3441340), wk =   0.0185185
        k(   21) = (   0.1666667   0.1924501   0.0000000), wk =   0.0185185
        k(   22) = (   0.1666667   0.1924501   0.1147113), wk =   0.0185185
        k(   23) = (   0.1666667   0.1924501   0.2294226), wk =   0.0185185
        k(   24) = (   0.1666667   0.1924501  -0.3441340), wk =   0.0185185
        k(   25) = (   0.1666667   0.2886751   0.0000000), wk =   0.0185185
        k(   26) = (   0.1666667   0.2886751   0.1147113), wk =   0.0185185
        k(   27) = (   0.1666667   0.2886751   0.2294226), wk =   0.0185185
        k(   28) = (   0.1666667   0.2886751  -0.3441340), wk =   0.0185185
        k(   29) = (   0.1666667   0.0000000   0.0000000), wk =   0.0185185
        k(   30) = (   0.1666667   0.0000000   0.1147113), wk =   0.0185185
        k(   31) = (   0.1666667   0.0000000   0.2294226), wk =   0.0185185
        k(   32) = (   0.1666667   0.0000000  -0.3441340), wk =   0.0185185
        k(   33) = (   0.3333333   0.1924501   0.0000000), wk =   0.0185185
        k(   34) = (   0.3333333   0.1924501   0.1147113), wk =   0.0185185
        k(   35) = (   0.3333333   0.1924501   0.2294226), wk =   0.0185185
        k(   36) = (   0.3333333   0.1924501  -0.3441340), wk =   0.0185185
        k(   37) = (   0.3333333   0.2886751   0.0000000), wk =   0.0185185
        k(   38) = (   0.3333333   0.2886751   0.1147113), wk =   0.0185185
        k(   39) = (   0.3333333   0.2886751   0.2294226), wk =   0.0185185
        k(   40) = (   0.3333333   0.2886751  -0.3441340), wk =   0.0185185
        k(   41) = (   0.3333333  -0.0962250   0.0000000), wk =   0.0185185
        k(   42) = (   0.3333333  -0.0962250   0.1147113), wk =   0.0185185
        k(   43) = (   0.3333333  -0.0962250   0.2294226), wk =   0.0185185
        k(   44) = (   0.3333333  -0.0962250  -0.3441340), wk =   0.0185185
        k(   45) = (   0.3333333  -0.0000000   0.0000000), wk =   0.0185185
        k(   46) = (   0.3333333  -0.0000000   0.1147113), wk =   0.0185185
        k(   47) = (   0.3333333  -0.0000000   0.2294226), wk =   0.0185185
        k(   48) = (   0.3333333  -0.0000000  -0.3441340), wk =   0.0185185
        k(   49) = (  -0.5000000  -0.2886751   0.0000000), wk =   0.0092593
        k(   50) = (  -0.5000000  -0.2886751   0.1147113), wk =   0.0185185
        k(   51) = (  -0.5000000  -0.2886751   0.2294226), wk =   0.0185185
        k(   52) = (  -0.5000000  -0.2886751  -0.3441340), wk =   0.0092593
        k(   53) = (  -0.5000000  -0.1924501   0.0000000), wk =   0.0185185
        k(   54) = (  -0.5000000  -0.1924501   0.1147113), wk =   0.0185185
        k(   55) = (  -0.5000000  -0.1924501   0.2294226), wk =   0.0185185
        k(   56) = (  -0.5000000  -0.1924501  -0.3441340), wk =   0.0185185
        k(   57) = (  -0.5000000  -0.0962250   0.0000000), wk =   0.0185185
        k(   58) = (  -0.5000000  -0.0962250   0.1147113), wk =   0.0185185
        k(   59) = (  -0.5000000  -0.0962250   0.2294226), wk =   0.0185185
        k(   60) = (  -0.5000000  -0.0962250  -0.3441340), wk =   0.0185185
        k(   61) = (  -0.5000000  -0.5773503   0.0000000), wk =   0.0092593
        k(   62) = (  -0.5000000  -0.5773503   0.1147113), wk =   0.0185185
        k(   63) = (  -0.5000000  -0.5773503   0.2294226), wk =   0.0185185
        k(   64) = (  -0.5000000  -0.5773503  -0.3441340), wk =   0.0092593
        k(   65) = (   0.0000000  -0.0962250   0.1147113), wk =   0.0185185
        k(   66) = (   0.0000000  -0.0962250   0.2294226), wk =   0.0185185
        k(   67) = (   0.0000000  -0.1924501   0.1147113), wk =   0.0185185
        k(   68) = (   0.0000000  -0.1924501   0.2294226), wk =   0.0185185
        k(   69) = (  -0.1666667   0.0962250   0.0000000), wk =   0.0185185
        k(   70) = (  -0.1666667  -0.0962250   0.1147113), wk =   0.0185185
        k(   71) = (  -0.1666667   0.0962250  -0.1147113), wk =   0.0185185
        k(   72) = (   0.1666667  -0.0962250  -0.1147113), wk =   0.0185185
        k(   73) = (  -0.1666667  -0.0962250   0.2294226), wk =   0.0185185
        k(   74) = (  -0.1666667   0.0962250  -0.2294226), wk =   0.0185185
        k(   75) = (   0.1666667  -0.0962250  -0.2294226), wk =   0.0185185
        k(   76) = (  -0.1666667   0.0962250   0.3441340), wk =   0.0185185
        k(   77) = (  -0.1666667   0.1924501   0.0000000), wk =   0.0185185
        k(   78) = (  -0.1666667  -0.1924501   0.1147113), wk =   0.0185185
        k(   79) = (  -0.1666667   0.1924501  -0.1147113), wk =   0.0185185
        k(   80) = (   0.1666667  -0.1924501  -0.1147113), wk =   0.0185185
        k(   81) = (  -0.1666667  -0.1924501   0.2294226), wk =   0.0185185
        k(   82) = (  -0.1666667   0.1924501  -0.2294226), wk =   0.0185185
        k(   83) = (   0.1666667  -0.1924501  -0.2294226), wk =   0.0185185
        k(   84) = (  -0.1666667   0.1924501   0.3441340), wk =   0.0185185
        k(   85) = (  -0.1666667  -0.2886751   0.1147113), wk =   0.0185185
        k(   86) = (  -0.1666667  -0.2886751   0.2294226), wk =   0.0185185
        k(   87) = (  -0.1666667  -0.0000000   0.1147113), wk =   0.0185185
        k(   88) = (  -0.1666667  -0.0000000   0.2294226), wk =   0.0185185
        k(   89) = (  -0.3333333   0.1924501   0.0000000), wk =   0.0185185
        k(   90) = (  -0.3333333  -0.1924501   0.1147113), wk =   0.0185185
        k(   91) = (  -0.3333333   0.1924501  -0.1147113), wk =   0.0185185
        k(   92) = (   0.3333333  -0.1924501  -0.1147113), wk =   0.0185185
        k(   93) = (  -0.3333333  -0.1924501   0.2294226), wk =   0.0185185
        k(   94) = (  -0.3333333   0.1924501  -0.2294226), wk =   0.0185185
        k(   95) = (   0.3333333  -0.1924501  -0.2294226), wk =   0.0185185
        k(   96) = (  -0.3333333   0.1924501   0.3441340), wk =   0.0185185
        k(   97) = (  -0.3333333  -0.2886751   0.1147113), wk =   0.0185185
        k(   98) = (  -0.3333333  -0.2886751   0.2294226), wk =   0.0185185
        k(   99) = (  -0.3333333  -0.0962250   0.0000000), wk =   0.0185185
        k(  100) = (  -0.3333333   0.0962250   0.1147113), wk =   0.0185185
        k(  101) = (  -0.3333333  -0.0962250  -0.1147113), wk =   0.0185185
        k(  102) = (   0.3333333   0.0962250  -0.1147113), wk =   0.0185185
        k(  103) = (  -0.3333333   0.0962250   0.2294226), wk =   0.0185185
        k(  104) = (  -0.3333333  -0.0962250  -0.2294226), wk =   0.0185185
        k(  105) = (   0.3333333   0.0962250  -0.2294226), wk =   0.0185185
        k(  106) = (  -0.3333333  -0.0962250   0.3441340), wk =   0.0185185
        k(  107) = (  -0.3333333   0.0000000   0.1147113), wk =   0.0185185
        k(  108) = (  -0.3333333   0.0000000   0.2294226), wk =   0.0185185
        k(  109) = (   0.5000000   0.1924501   0.1147113), wk =   0.0185185
        k(  110) = (   0.5000000   0.1924501   0.2294226), wk =   0.0185185
        k(  111) = (   0.5000000   0.0962250   0.1147113), wk =   0.0185185
        k(  112) = (   0.5000000   0.0962250   0.2294226), wk =   0.0185185

                       cryst. coord.
        k(    1) = (   0.0000000   0.0000000   0.0000000), wk =   0.0092593
        k(    2) = (   0.0000000   0.0000000   0.1666667), wk =   0.0185185
        k(    3) = (   0.0000000   0.0000000   0.3333333), wk =   0.0185185
        k(    4) = (   0.0000000   0.0000000  -0.5000000), wk =   0.0092593
        k(    5) = (   0.0000000   0.1666667   0.0000000), wk =   0.0185185
        k(    6) = (   0.0000000   0.1666667   0.1666667), wk =   0.0185185
        k(    7) = (   0.0000000   0.1666667   0.3333333), wk =   0.0185185
        k(    8) = (   0.0000000   0.1666667  -0.5000000), wk =   0.0185185
        k(    9) = (   0.0000000   0.3333333   0.0000000), wk =   0.0185185
        k(   10) = (   0.0000000   0.3333333   0.1666667), wk =   0.0185185
        k(   11) = (   0.0000000   0.3333333   0.3333333), wk =   0.0185185
        k(   12) = (   0.0000000   0.3333333  -0.5000000), wk =   0.0185185
        k(   13) = (   0.0000000  -0.5000000   0.0000000), wk =   0.0092593
        k(   14) = (   0.0000000  -0.5000000   0.1666667), wk =   0.0185185
        k(   15) = (   0.0000000  -0.5000000   0.3333333), wk =   0.0185185
        k(   16) = (   0.0000000  -0.5000000  -0.5000000), wk =   0.0092593
        k(   17) = (   0.1666667   0.0000000   0.0000000), wk =   0.0185185
        k(   18) = (   0.1666667   0.0000000   0.1666667), wk =   0.0185185
        k(   19) = (   0.1666667   0.0000000   0.3333333), wk =   0.0185185
        k(   20) = (   0.1666667   0.0000000  -0.5000000), wk =   0.0185185
        k(   21) = (   0.1666667   0.1666667   0.0000000), wk =   0.0185185
        k(   22) = (   0.1666667   0.1666667   0.1666667), wk =   0.0185185
        k(   23) = (   0.1666667   0.1666667   0.3333333), wk =   0.0185185
        k(   24) = (   0.1666667   0.1666667  -0.5000000), wk =   0.0185185
        k(   25) = (   0.1666667   0.3333333   0.0000000), wk =   0.0185185
        k(   26) = (   0.1666667   0.3333333   0.1666667), wk =   0.0185185
        k(   27) = (   0.1666667   0.3333333   0.3333333), wk =   0.0185185
        k(   28) = (   0.1666667   0.3333333  -0.5000000), wk =   0.0185185
        k(   29) = (   0.1666667  -0.1666667   0.0000000), wk =   0.0185185
        k(   30) = (   0.1666667  -0.1666667   0.1666667), wk =   0.0185185
        k(   31) = (   0.1666667  -0.1666667   0.3333333), wk =   0.0185185
        k(   32) = (   0.1666667  -0.1666667  -0.5000000), wk =   0.0185185
        k(   33) = (   0.3333333   0.0000000   0.0000000), wk =   0.0185185
        k(   34) = (   0.3333333   0.0000000   0.1666667), wk =   0.0185185
        k(   35) = (   0.3333333   0.0000000   0.3333333), wk =   0.0185185
        k(   36) = (   0.3333333   0.0000000  -0.5000000), wk =   0.0185185
        k(   37) = (   0.3333333   0.1666667   0.0000000), wk =   0.0185185
        k(   38) = (   0.3333333   0.1666667   0.1666667), wk =   0.0185185
        k(   39) = (   0.3333333   0.1666667   0.3333333), wk =   0.0185185
        k(   40) = (   0.3333333   0.1666667  -0.5000000), wk =   0.0185185
        k(   41) = (   0.3333333  -0.5000000   0.0000000), wk =   0.0185185
        k(   42) = (   0.3333333  -0.5000000   0.1666667), wk =   0.0185185
        k(   43) = (   0.3333333  -0.5000000   0.3333333), wk =   0.0185185
        k(   44) = (   0.3333333  -0.5000000  -0.5000000), wk =   0.0185185
        k(   45) = (   0.3333333  -0.3333333   0.0000000), wk =   0.0185185
        k(   46) = (   0.3333333  -0.3333333   0.1666667), wk =   0.0185185
        k(   47) = (   0.3333333  -0.3333333   0.3333333), wk =   0.0185185
        k(   48) = (   0.3333333  -0.3333333  -0.5000000), wk =   0.0185185
        k(   49) = (  -0.5000000   0.0000000   0.0000000), wk =   0.0092593
        k(   50) = (  -0.5000000   0.0000000   0.1666667), wk =   0.0185185
        k(   51) = (  -0.5000000   0.0000000   0.3333333), wk =   0.0185185
        k(   52) = (  -0.5000000   0.0000000  -0.5000000), wk =   0.0092593
        k(   53) = (  -0.5000000   0.1666667   0.0000000), wk =   0.0185185
        k(   54) = (  -0.5000000   0.1666667   0.1666667), wk =   0.0185185
        k(   55) = (  -0.5000000   0.1666667   0.3333333), wk =   0.0185185
        k(   56) = (  -0.5000000   0.1666667  -0.5000000), wk =   0.0185185
        k(   57) = (  -0.5000000   0.3333333   0.0000000), wk =   0.0185185
        k(   58) = (  -0.5000000   0.3333333   0.1666667), wk =   0.0185185
        k(   59) = (  -0.5000000   0.3333333   0.3333333), wk =   0.0185185
        k(   60) = (  -0.5000000   0.3333333  -0.5000000), wk =   0.0185185
        k(   61) = (  -0.5000000  -0.5000000   0.0000000), wk =   0.0092593
        k(   62) = (  -0.5000000  -0.5000000   0.1666667), wk =   0.0185185
        k(   63) = (  -0.5000000  -0.5000000   0.3333333), wk =   0.0185185
        k(   64) = (  -0.5000000  -0.5000000  -0.5000000), wk =   0.0092593
        k(   65) = (   0.0000000  -0.1666667   0.1666667), wk =   0.0185185
        k(   66) = (   0.0000000  -0.1666667   0.3333333), wk =   0.0185185
        k(   67) = (   0.0000000  -0.3333333   0.1666667), wk =   0.0185185
        k(   68) = (   0.0000000  -0.3333333   0.3333333), wk =   0.0185185
        k(   69) = (  -0.1666667   0.3333333   0.0000000), wk =   0.0185185
        k(   70) = (  -0.1666667   0.0000000   0.1666667), wk =   0.0185185
        k(   71) = (  -0.1666667   0.3333333  -0.1666667), wk =   0.0185185
        k(   72) = (   0.1666667  -0.3333333  -0.1666667), wk =   0.0185185
        k(   73) = (  -0.1666667   0.0000000   0.3333333), wk =   0.0185185
        k(   74) = (  -0.1666667   0.3333333  -0.3333333), wk =   0.0185185
        k(   75) = (   0.1666667  -0.3333333  -0.3333333), wk =   0.0185185
        k(   76) = (  -0.1666667   0.3333333   0.5000000), wk =   0.0185185
        k(   77) = (  -0.1666667   0.5000000   0.0000000), wk =   0.0185185
        k(   78) = (  -0.1666667  -0.1666667   0.1666667), wk =   0.0185185
        k(   79) = (  -0.1666667   0.5000000  -0.1666667), wk =   0.0185185
        k(   80) = (   0.1666667  -0.5000000  -0.1666667), wk =   0.0185185
        k(   81) = (  -0.1666667  -0.1666667   0.3333333), wk =   0.0185185
        k(   82) = (  -0.1666667   0.5000000  -0.3333333), wk =   0.0185185
        k(   83) = (   0.1666667  -0.5000000  -0.3333333), wk =   0.0185185
        k(   84) = (  -0.1666667   0.5000000   0.5000000), wk =   0.0185185
        k(   85) = (  -0.1666667  -0.3333333   0.1666667), wk =   0.0185185
        k(   86) = (  -0.1666667  -0.3333333   0.3333333), wk =   0.0185185
        k(   87) = (  -0.1666667   0.1666667   0.1666667), wk =   0.0185185
        k(   88) = (  -0.1666667   0.1666667   0.3333333), wk =   0.0185185
        k(   89) = (  -0.3333333   0.6666667   0.0000000), wk =   0.0185185
        k(   90) = (  -0.3333333   0.0000000   0.1666667), wk =   0.0185185
        k(   91) = (  -0.3333333   0.6666667  -0.1666667), wk =   0.0185185
        k(   92) = (   0.3333333  -0.6666667  -0.1666667), wk =   0.0185185
        k(   93) = (  -0.3333333   0.0000000   0.3333333), wk =   0.0185185
        k(   94) = (  -0.3333333   0.6666667  -0.3333333), wk =   0.0185185
        k(   95) = (   0.3333333  -0.6666667  -0.3333333), wk =   0.0185185
        k(   96) = (  -0.3333333   0.6666667   0.5000000), wk =   0.0185185
        k(   97) = (  -0.3333333  -0.1666667   0.1666667), wk =   0.0185185
        k(   98) = (  -0.3333333  -0.1666667   0.3333333), wk =   0.0185185
        k(   99) = (  -0.3333333   0.1666667   0.0000000), wk =   0.0185185
        k(  100) = (  -0.3333333   0.5000000   0.1666667), wk =   0.0185185
        k(  101) = (  -0.3333333   0.1666667  -0.1666667), wk =   0.0185185
        k(  102) = (   0.3333333  -0.1666667  -0.1666667), wk =   0.0185185
        k(  103) = (  -0.3333333   0.5000000   0.3333333), wk =   0.0185185
        k(  104) = (  -0.3333333   0.1666667  -0.3333333), wk =   0.0185185
        k(  105) = (   0.3333333  -0.1666667  -0.3333333), wk =   0.0185185
        k(  106) = (  -0.3333333   0.1666667   0.5000000), wk =   0.0185185
        k(  107) = (  -0.3333333   0.3333333   0.1666667), wk =   0.0185185
        k(  108) = (  -0.3333333   0.3333333   0.3333333), wk =   0.0185185
        k(  109) = (   0.5000000  -0.1666667   0.1666667), wk =   0.0185185
        k(  110) = (   0.5000000  -0.1666667   0.3333333), wk =   0.0185185
        k(  111) = (   0.5000000  -0.3333333   0.1666667), wk =   0.0185185
        k(  112) = (   0.5000000  -0.3333333   0.3333333), wk =   0.0185185

     Dense  grid:    90309 G-vectors     FFT dimensions: (  45,  81,  60)

     Smooth grid:    31925 G-vectors     FFT dimensions: (  30,  60,  45)

     Dynamical RAM for                 wfc:       0.55 MB

     Dynamical RAM for     wfc (w. buffer):      15.87 MB

     Dynamical RAM for           str. fact:       0.69 MB

     Dynamical RAM for           local pot:       0.00 MB

     Dynamical RAM for          nlocal pot:       1.58 MB

     Dynamical RAM for                qrad:       3.21 MB

     Dynamical RAM for          rho,v,vnew:       2.28 MB

     Dynamical RAM for               rhoin:       0.76 MB

     Dynamical RAM for            rho*nmix:       5.51 MB

     Dynamical RAM for           G-vectors:       1.35 MB

     Dynamical RAM for          h,s,v(r/c):       0.24 MB

     Dynamical RAM for          <psi|beta>:       0.06 MB

     Dynamical RAM for                 psi:       1.09 MB

     Dynamical RAM for                hpsi:       1.09 MB

     Dynamical RAM for                spsi:       1.09 MB

     Dynamical RAM for      wfcinit/wfcrot:       1.64 MB

     Dynamical RAM for           addusdens:      16.62 MB

     Dynamical RAM for          addusforce:      17.07 MB

     Estimated static dynamical RAM per process >      28.87 MB

     Estimated max dynamical RAM per process >      51.45 MB

     Estimated total dynamical RAM >     756.98 MB

     Check: negative core charge=   -0.000002

     Initial potential from superposition of free atoms

     starting charge      71.9851, renormalised to      72.0000
     Starting wfcs are   52 randomized atomic wfcs

     total cpu time spent up to now is        4.7 secs

     Self-consistent Calculation

     iteration #  1     ecut=    50.00 Ry     beta= 0.30
     Davidson diagonalization with overlap

---- Real-time Memory Report at c_bands before calling an iterative solver
            63 MiB given to the printing process from OS
             0 MiB allocation reported by mallinfo(arena+hblkhd)
        111366 MiB available memory on the node where the printing process lives
------------------
     ethr =  1.00E-02,  avg # of iterations =  2.0

     total cpu time spent up to now is        9.9 secs

     total energy              =    -722.88923120 Ry
     estimated scf accuracy    <       1.44541553 Ry

     iteration #  2     ecut=    50.00 Ry     beta= 0.30
     Davidson diagonalization with overlap

---- Real-time Memory Report at c_bands before calling an iterative solver
            81 MiB given to the printing process from OS
             0 MiB allocation reported by mallinfo(arena+hblkhd)
        111125 MiB available memory on the node where the printing process lives
------------------
     ethr =  2.01E-03,  avg # of iterations =  2.0

     total cpu time spent up to now is       16.4 secs

     total energy              =    -723.08920713 Ry
     estimated scf accuracy    <       0.18968710 Ry

     iteration #  3     ecut=    50.00 Ry     beta= 0.30
     Davidson diagonalization with overlap

---- Real-time Memory Report at c_bands before calling an iterative solver
            81 MiB given to the printing process from OS
             0 MiB allocation reported by mallinfo(arena+hblkhd)
        111126 MiB available memory on the node where the printing process lives
------------------
     ethr =  2.63E-04,  avg # of iterations =  6.6

     total cpu time spent up to now is       27.5 secs

     total energy              =    -723.16076759 Ry
     estimated scf accuracy    <       0.14378812 Ry

     iteration #  4     ecut=    50.00 Ry     beta= 0.30
     Davidson diagonalization with overlap

---- Real-time Memory Report at c_bands before calling an iterative solver
            81 MiB given to the printing process from OS
             0 MiB allocation reported by mallinfo(arena+hblkhd)
        111124 MiB available memory on the node where the printing process lives
------------------
     ethr =  2.00E-04,  avg # of iterations =  6.3

     total cpu time spent up to now is       38.6 secs

     total energy              =    -723.24165611 Ry
     estimated scf accuracy    <       0.13133172 Ry

     iteration #  5     ecut=    50.00 Ry     beta= 0.30
     Davidson diagonalization with overlap

---- Real-time Memory Report at c_bands before calling an iterative solver
            81 MiB given to the printing process from OS
             0 MiB allocation reported by mallinfo(arena+hblkhd)
        111140 MiB available memory on the node where the printing process lives
------------------
     ethr =  1.82E-04,  avg # of iterations =  1.0

     total cpu time spent up to now is       43.4 secs

     total energy              =    -723.18403200 Ry
     estimated scf accuracy    <       0.09659192 Ry

     iteration #  6     ecut=    50.00 Ry     beta= 0.30
     Davidson diagonalization with overlap

---- Real-time Memory Report at c_bands before calling an iterative solver
            82 MiB given to the printing process from OS
             0 MiB allocation reported by mallinfo(arena+hblkhd)
        111140 MiB available memory on the node where the printing process lives
------------------
     ethr =  1.34E-04,  avg # of iterations =  4.3

     total cpu time spent up to now is       51.7 secs

     total energy              =    -723.21939440 Ry
     estimated scf accuracy    <       0.01567921 Ry

     iteration #  7     ecut=    50.00 Ry     beta= 0.30
     Davidson diagonalization with overlap

---- Real-time Memory Report at c_bands before calling an iterative solver
            82 MiB given to the printing process from OS
             0 MiB allocation reported by mallinfo(arena+hblkhd)
        111141 MiB available memory on the node where the printing process lives
------------------
     ethr =  2.18E-05,  avg # of iterations =  3.3

     total cpu time spent up to now is       58.2 secs

     total energy              =    -723.21774690 Ry
     estimated scf accuracy    <       0.01056248 Ry

     iteration #  8     ecut=    50.00 Ry     beta= 0.30
     Davidson diagonalization with overlap

---- Real-time Memory Report at c_bands before calling an iterative solver
            82 MiB given to the printing process from OS
             0 MiB allocation reported by mallinfo(arena+hblkhd)
        111134 MiB available memory on the node where the printing process lives
------------------
     ethr =  1.47E-05,  avg # of iterations =  2.0

     total cpu time spent up to now is       64.2 secs

     total energy              =    -723.21813925 Ry
     estimated scf accuracy    <       0.00203612 Ry

     iteration #  9     ecut=    50.00 Ry     beta= 0.30
     Davidson diagonalization with overlap

---- Real-time Memory Report at c_bands before calling an iterative solver
            83 MiB given to the printing process from OS
             0 MiB allocation reported by mallinfo(arena+hblkhd)
        111140 MiB available memory on the node where the printing process lives
------------------
     ethr =  2.83E-06,  avg # of iterations =  5.9

     total cpu time spent up to now is       74.5 secs

     total energy              =    -723.21947456 Ry
     estimated scf accuracy    <       0.00046060 Ry

     iteration # 10     ecut=    50.00 Ry     beta= 0.30
     Davidson diagonalization with overlap

---- Real-time Memory Report at c_bands before calling an iterative solver
            83 MiB given to the printing process from OS
             0 MiB allocation reported by mallinfo(arena+hblkhd)
        111141 MiB available memory on the node where the printing process lives
------------------
     ethr =  6.40E-07,  avg # of iterations =  2.2

     total cpu time spent up to now is       80.3 secs

     total energy              =    -723.21949769 Ry
     estimated scf accuracy    <       0.00021194 Ry

     iteration # 11     ecut=    50.00 Ry     beta= 0.30
     Davidson diagonalization with overlap

---- Real-time Memory Report at c_bands before calling an iterative solver
            83 MiB given to the printing process from OS
             0 MiB allocation reported by mallinfo(arena+hblkhd)
        111141 MiB available memory on the node where the printing process lives
------------------
     ethr =  2.94E-07,  avg # of iterations =  2.0

     total cpu time spent up to now is       85.8 secs

     total energy              =    -723.21944160 Ry
     estimated scf accuracy    <       0.00015845 Ry

     iteration # 12     ecut=    50.00 Ry     beta= 0.30
     Davidson diagonalization with overlap

---- Real-time Memory Report at c_bands before calling an iterative solver
            83 MiB given to the printing process from OS
             0 MiB allocation reported by mallinfo(arena+hblkhd)
        111599 MiB available memory on the node where the printing process lives
------------------
     ethr =  2.20E-07,  avg # of iterations =  4.3

     total cpu time spent up to now is       93.9 secs

     total energy              =    -723.21949345 Ry
     estimated scf accuracy    <       0.00000049 Ry

     iteration # 13     ecut=    50.00 Ry     beta= 0.30
     Davidson diagonalization with overlap

---- Real-time Memory Report at c_bands before calling an iterative solver
            83 MiB given to the printing process from OS
             0 MiB allocation reported by mallinfo(arena+hblkhd)
        111120 MiB available memory on the node where the printing process lives
------------------
     c_bands:  1 eigenvalues not converged
     ethr =  6.86E-10,  avg # of iterations = 12.0

     total cpu time spent up to now is      113.7 secs

     total energy              =    -723.21949956 Ry
     estimated scf accuracy    <       0.00000213 Ry

     iteration # 14     ecut=    50.00 Ry     beta= 0.30
     Davidson diagonalization with overlap

---- Real-time Memory Report at c_bands before calling an iterative solver
            83 MiB given to the printing process from OS
             0 MiB allocation reported by mallinfo(arena+hblkhd)
        111133 MiB available memory on the node where the printing process lives
------------------
     ethr =  6.86E-10,  avg # of iterations =  5.9

     total cpu time spent up to now is      124.0 secs

     total energy              =    -723.21950067 Ry
     estimated scf accuracy    <       0.00000024 Ry

     iteration # 15     ecut=    50.00 Ry     beta= 0.30
     Davidson diagonalization with overlap

---- Real-time Memory Report at c_bands before calling an iterative solver
            83 MiB given to the printing process from OS
             0 MiB allocation reported by mallinfo(arena+hblkhd)
        111144 MiB available memory on the node where the printing process lives
------------------
     c_bands:  1 eigenvalues not converged
     c_bands:  1 eigenvalues not converged
     ethr =  3.30E-10,  avg # of iterations = 12.8

     total cpu time spent up to now is      144.7 secs

     total energy              =    -723.21949840 Ry
     estimated scf accuracy    <       0.00001630 Ry

     iteration # 16     ecut=    50.00 Ry     beta= 0.30
     Davidson diagonalization with overlap

---- Real-time Memory Report at c_bands before calling an iterative solver
            83 MiB given to the printing process from OS
             0 MiB allocation reported by mallinfo(arena+hblkhd)
        111116 MiB available memory on the node where the printing process lives
------------------
     ethr =  3.30E-10,  avg # of iterations = 11.0

     total cpu time spent up to now is      162.7 secs

     total energy              =    -723.21949965 Ry
     estimated scf accuracy    <       0.00000092 Ry

     iteration # 17     ecut=    50.00 Ry     beta= 0.30
     Davidson diagonalization with overlap

---- Real-time Memory Report at c_bands before calling an iterative solver
            83 MiB given to the printing process from OS
             0 MiB allocation reported by mallinfo(arena+hblkhd)
        111122 MiB available memory on the node where the printing process lives
------------------
     ethr =  3.30E-10,  avg # of iterations =  8.2

     total cpu time spent up to now is      175.8 secs

     total energy              =    -723.21949990 Ry
     estimated scf accuracy    <       0.00000008 Ry

     iteration # 18     ecut=    50.00 Ry     beta= 0.30
     Davidson diagonalization with overlap

---- Real-time Memory Report at c_bands before calling an iterative solver
            83 MiB given to the printing process from OS
             0 MiB allocation reported by mallinfo(arena+hblkhd)
        111122 MiB available memory on the node where the printing process lives
------------------
     ethr =  1.08E-10,  avg # of iterations =  5.7

     total cpu time spent up to now is      185.2 secs

     total energy              =    -723.21949992 Ry
     estimated scf accuracy    <       0.00000003 Ry

     iteration # 19     ecut=    50.00 Ry     beta= 0.30
     Davidson diagonalization with overlap

---- Real-time Memory Report at c_bands before calling an iterative solver
            83 MiB given to the printing process from OS
             0 MiB allocation reported by mallinfo(arena+hblkhd)
        111122 MiB available memory on the node where the printing process lives
------------------
     ethr =  3.68E-11,  avg # of iterations =  2.1

     total cpu time spent up to now is      191.1 secs

     End of self-consistent calculation

          k = 0.0000 0.0000 0.0000 (  3995 PWs)   bands (ev):

   -11.2238 -10.6062 -10.4347 -10.0862   0.8931   1.0717   1.1063   1.1742
     1.3397   1.3778   1.4440   1.4811   1.5439   1.6126   1.8159   1.9988
     2.1624   2.1749   2.2327   2.3551   2.4326   2.4641   2.5285   2.5496
     2.6178   3.0918   3.6394   4.0068   4.2041   5.5264   5.5566   5.6603
     6.0591   6.6284   6.6538   6.7508

     occupation numbers 
     1.0000   1.0000   1.0000   1.0000   1.0000   1.0000   1.0000   1.0000
     1.0000   1.0000   1.0000   1.0000   1.0000   1.0000   1.0000   1.0000
     1.0000   1.0000   1.0000   1.0000   1.0000   1.0000   1.0000   1.0000
     1.0000   1.0000   1.0000   1.0000   1.0000   1.0000   1.0000   1.0000
     1.0000   1.0000   1.0000   1.0000

          k = 0.0000 0.0000 0.1147 (  3959 PWs)   bands (ev):

   -11.1767 -10.5935 -10.4654 -10.1084   0.8177   0.9917   1.1023   1.1172
     1.2121   1.2719   1.3882   1.4494   1.4909   1.5943   1.7276   1.9435
     2.1907   2.2055   2.3056   2.3512   2.4254   2.4588   2.5286   2.5463
     3.0237   3.1083   3.5418   4.3559   4.3712   5.5994   5.6769   5.7749
     5.9557   6.1875   6.5712   6.5884

     occupation numbers 
     1.0000   1.0000   1.0000   1.0000   1.0000   1.0000   1.0000   1.0000
     1.0000   1.0000   1.0000   1.0000   1.0000   1.0000   1.0000   1.0000
     1.0000   1.0000   1.0000   1.0000   1.0000   1.0000   1.0000   1.0000
     1.0000   1.0000   1.0000   1.0000   1.0000   1.0000   1.0000   1.0000
     1.0000   1.0000   1.0000   1.0000

          k = 0.0000 0.0000 0.2294 (  3991 PWs)   bands (ev):

   -11.0568 -10.6080 -10.5120 -10.1536   0.6574   0.7793   0.8896   1.0259
     1.1344   1.2184   1.3668   1.3997   1.4578   1.5694   1.6375   1.8138
     2.2566   2.2710   2.3433   2.4024   2.4059   2.4389   2.5135   2.5497
     3.0487   3.3769   3.9028   4.7423   5.0655   5.4692   5.6350   5.8114
     5.8678   5.9576   6.4077   6.4130

     occupation numbers 
     1.0000   1.0000   1.0000   1.0000   1.0000   1.0000   1.0000   1.0000
     1.0000   1.0000   1.0000   1.0000   1.0000   1.0000   1.0000   1.0000
     1.0000   1.0000   1.0000   1.0000   1.0000   1.0000   1.0000   1.0000
     1.0000   1.0000   1.0000   1.0000   1.0000   1.0000   1.0000   1.0000
     1.0000   1.0000   1.0000   1.0000

          k = 0.0000 0.0000-0.3441 (  4042 PWs)   bands (ev):

   -10.9651 -10.6772 -10.5043 -10.1772   0.5736   0.6801   0.8015   0.9398
     1.1500   1.2293   1.3248   1.3692   1.4925   1.5569   1.6033   1.7293
     2.3033   2.3154   2.3387   2.3806   2.4099   2.4479   2.5059   2.5500
     3.0850   3.2953   4.6240   4.8006   5.1369   5.2866   5.6725   5.7099
     6.0099   6.0501   6.2314   6.2599

     occupation numbers 
     1.0000   1.0000   1.0000   1.0000   1.0000   1.0000   1.0000   1.0000
     1.0000   1.0000   1.0000   1.0000   1.0000   1.0000   1.0000   1.0000
     1.0000   1.0000   1.0000   1.0000   1.0000   1.0000   1.0000   1.0000
     1.0000   1.0000   1.0000   1.0000   1.0000   1.0000   1.0000   1.0000
     1.0000   1.0000   1.0000   1.0000

          k = 0.0000 0.0962 0.0000 (  3995 PWs)   bands (ev):

   -11.1987 -10.6483 -10.4235 -10.0834   0.8861   1.0519   1.1146   1.1770
     1.3267   1.3767   1.4435   1.4902   1.5350   1.6611   1.8453   1.9577
     2.1541   2.1738   2.2341   2.3274   2.4355   2.4629   2.5401   2.6209
     2.6381   2.9694   3.6355   4.1598   4.3066   5.3505   5.5102   5.7160
     6.0999   6.1773   6.6148   6.7177

     occupation numbers 
     1.0000   1.0000   1.0000   1.0000   1.0000   1.0000   1.0000   1.0000
     1.0000   1.0000   1.0000   1.0000   1.0000   1.0000   1.0000   1.0000
     1.0000   1.0000   1.0000   1.0000   1.0000   1.0000   1.0000   1.0000
     1.0000   1.0000   1.0000   1.0000   1.0000   1.0000   1.0000   1.0000
     1.0000   1.0000   1.0000   1.0000

          k = 0.0000 0.0962 0.1147 (  3986 PWs)   bands (ev):

   -11.1536 -10.6273 -10.4586 -10.1076   0.7989   0.9980   1.0922   1.1299
     1.2352   1.2845   1.3879   1.4590   1.4991   1.5499   1.7370   1.9097
     2.1855   2.2041   2.2634   2.3213   2.4271   2.4514   2.5325   2.5958
     3.0566   3.1091   3.6888   4.3627   4.4498   5.4316   5.5836   5.8320
     5.9180   6.0022   6.5456   6.6101

     occupation numbers 
     1.0000   1.0000   1.0000   1.0000   1.0000   1.0000   1.0000   1.0000
     1.0000   1.0000   1.0000   1.0000   1.0000   1.0000   1.0000   1.0000
     1.0000   1.0000   1.0000   1.0000   1.0000   1.0000   1.0000   1.0000
     1.0000   1.0000   1.0000   1.0000   1.0000   1.0000   1.0000   1.0000
     1.0000   1.0000   1.0000   1.0000

          k = 0.0000 0.0962 0.2294 (  3995 PWs)   bands (ev):

   -11.0385 -10.6068 -10.5274 -10.1609   0.6454   0.7997   0.8795   1.0267
     1.1489   1.2226   1.3817   1.4036   1.4503   1.5156   1.6263   1.7905
     2.2550   2.2694   2.3240   2.3508   2.4024   2.4392   2.5143   2.5468
     3.1914   3.5444   3.9057   4.8100   5.0283   5.3367   5.6567   5.7062
     5.8021   5.9873   6.3573   6.3733

     occupation numbers 
     1.0000   1.0000   1.0000   1.0000   1.0000   1.0000   1.0000   1.0000
     1.0000   1.0000   1.0000   1.0000   1.0000   1.0000   1.0000   1.0000
     1.0000   1.0000   1.0000   1.0000   1.0000   1.0000   1.0000   1.0000
     1.0000   1.0000   1.0000   1.0000   1.0000   1.0000   1.0000   1.0000
     1.0000   1.0000   1.0000   1.0000

          k = 0.0000 0.0962-0.3441 (  3998 PWs)   bands (ev):

   -10.9510 -10.6641 -10.5201 -10.1917   0.5764   0.6816   0.7994   0.9237
     1.1661   1.2421   1.3305   1.3788   1.4751   1.5281   1.5709   1.7096
     2.3054   2.3158   2.3324   2.3749   2.3930   2.4524   2.4901   2.5065
     3.2744   3.4354   4.5971   4.7444   5.1988   5.3460   5.6428   5.7141
     5.9357   5.9859   6.1238   6.1874

     occupation numbers 
     1.0000   1.0000   1.0000   1.0000   1.0000   1.0000   1.0000   1.0000
     1.0000   1.0000   1.0000   1.0000   1.0000   1.0000   1.0000   1.0000
     1.0000   1.0000   1.0000   1.0000   1.0000   1.0000   1.0000   1.0000
     1.0000   1.0000   1.0000   1.0000   1.0000   1.0000   1.0000   1.0000
     1.0000   1.0000   1.0000   1.0000

          k = 0.0000 0.1925 0.0000 (  4003 PWs)   bands (ev):

   -11.1367 -10.7374 -10.4068 -10.0790   0.8838   1.0079   1.1330   1.1754
     1.3150   1.3822   1.4312   1.4662   1.5862   1.7605   1.8534   1.9280
     2.1318   2.1778   2.2201   2.2702   2.4270   2.4439   2.5366   2.5988
     2.7161   2.9460   3.7051   4.5383   4.5662   4.8253   5.2771   5.5883
     6.0071   6.2163   6.5201   6.5706

     occupation numbers 
     1.0000   1.0000   1.0000   1.0000   1.0000   1.0000   1.0000   1.0000
     1.0000   1.0000   1.0000   1.0000   1.0000   1.0000   1.0000   1.0000
     1.0000   1.0000   1.0000   1.0000   1.0000   1.0000   1.0000   1.0000
     1.0000   1.0000   1.0000   1.0000   1.0000   1.0000   1.0000   1.0000
     1.0000   1.0000   1.0000   1.0000

          k = 0.0000 0.1925 0.1147 (  3998 PWs)   bands (ev):

   -11.0960 -10.7063 -10.4426 -10.1082   0.7971   0.9782   1.0714   1.1482
     1.2431   1.3214   1.3801   1.4202   1.5415   1.5909   1.7327   1.8164
     2.1705   2.2009   2.2069   2.2745   2.4313   2.4501   2.5305   2.6038
     3.1452   3.2326   3.9013   4.5311   4.6778   4.9247   5.3426   5.4251
     6.0946   6.1213   6.4431   6.5443

     occupation numbers 
     1.0000   1.0000   1.0000   1.0000   1.0000   1.0000   1.0000   1.0000
     1.0000   1.0000   1.0000   1.0000   1.0000   1.0000   1.0000   1.0000
     1.0000   1.0000   1.0000   1.0000   1.0000   1.0000   1.0000   1.0000
     1.0000   1.0000   1.0000   1.0000   1.0000   1.0000   1.0000   1.0000
     1.0000   1.0000   1.0000   1.0000

          k = 0.0000 0.1925 0.2294 (  3992 PWs)   bands (ev):

   -10.9938 -10.6387 -10.5291 -10.1780   0.6499   0.8100   0.8620   1.0000
     1.1796   1.2578   1.3763   1.4096   1.4517   1.4856   1.5719   1.7219
     2.2532   2.2645   2.2908   2.3006   2.3991   2.4400   2.5095   2.5410
     3.4951   3.8745   3.9677   4.8942   4.9832   5.0620   5.3146   5.6012
     5.8496   6.0812   6.2380   6.3059

     occupation numbers 
     1.0000   1.0000   1.0000   1.0000   1.0000   1.0000   1.0000   1.0000
     1.0000   1.0000   1.0000   1.0000   1.0000   1.0000   1.0000   1.0000
     1.0000   1.0000   1.0000   1.0000   1.0000   1.0000   1.0000   1.0000
     1.0000   1.0000   1.0000   1.0000   1.0000   1.0000   1.0000   1.0000
     1.0000   1.0000   1.0000   1.0000

          k = 0.0000 0.1925-0.3441 (  3974 PWs)   bands (ev):

   -10.9192 -10.6350 -10.5554 -10.2234   0.5835   0.6869   0.7909   0.8917
     1.2039   1.2736   1.3367   1.4146   1.4329   1.4732   1.5036   1.6610
     2.3085   2.3186   2.3222   2.3612   2.3665   2.4113   2.4777   2.4967
     3.6787   3.7831   4.4723   4.5364   5.3593   5.4960   5.5935   5.7003
     5.8023   5.8381   5.8904   6.0381

     occupation numbers 
     1.0000   1.0000   1.0000   1.0000   1.0000   1.0000   1.0000   1.0000
     1.0000   1.0000   1.0000   1.0000   1.0000   1.0000   1.0000   1.0000
     1.0000   1.0000   1.0000   1.0000   1.0000   1.0000   1.0000   1.0000
     1.0000   1.0000   1.0000   1.0000   1.0000   1.0000   1.0000   1.0000
     1.0000   1.0000   1.0000   1.0000

          k = 0.0000-0.2887 0.0000 (  3978 PWs)   bands (ev):

   -11.0942 -10.7915 -10.3997 -10.0775   0.8971   0.9718   1.1429   1.1763
     1.3158   1.3861   1.4227   1.4436   1.6543   1.7589   1.8464   1.9820
     2.1415   2.1483   2.1909   2.2365   2.3811   2.4453   2.5350   2.5539
     2.8166   2.8937   4.1359   4.1984   4.7752   4.9970   5.0531   5.1302
     6.2715   6.3277   6.3664   6.4207

     occupation numbers 
     1.0000   1.0000   1.0000   1.0000   1.0000   1.0000   1.0000   1.0000
     1.0000   1.0000   1.0000   1.0000   1.0000   1.0000   1.0000   1.0000
     1.0000   1.0000   1.0000   1.0000   1.0000   1.0000   1.0000   1.0000
     1.0000   1.0000   1.0000   1.0000   1.0000   1.0000   1.0000   1.0000
     1.0000   1.0000   1.0000   1.0000

          k = 0.0000-0.2887 0.1147 (  3986 PWs)   bands (ev):

   -11.0568 -10.7560 -10.4337 -10.1095   0.8228   0.9301   1.0744   1.1568
     1.2486   1.3005   1.3899   1.4031   1.6079   1.6207   1.7246   1.7500
     2.1546   2.1916   2.2115   2.2525   2.4335   2.4542   2.5261   2.5711
     3.1830   3.3165   4.2665   4.3464   4.8761   4.9109   4.9553   5.1809
     6.2348   6.3020   6.3541   6.3909

     occupation numbers 
     1.0000   1.0000   1.0000   1.0000   1.0000   1.0000   1.0000   1.0000
     1.0000   1.0000   1.0000   1.0000   1.0000   1.0000   1.0000   1.0000
     1.0000   1.0000   1.0000   1.0000   1.0000   1.0000   1.0000   1.0000
     1.0000   1.0000   1.0000   1.0000   1.0000   1.0000   1.0000   1.0000
     1.0000   1.0000   1.0000   1.0000

          k = 0.0000-0.2887 0.2294 (  3964 PWs)   bands (ev):

   -10.9648 -10.6710 -10.5188 -10.1881   0.6697   0.7879   0.8621   0.9790
     1.1965   1.2877   1.3430   1.4070   1.4836   1.5073   1.5345   1.6658
     2.2486   2.2616   2.2848   2.2939   2.3970   2.4378   2.5046   2.5282
     3.7474   3.8288   4.3855   4.4828   4.9908   5.0932   5.1969   5.4149
     5.9736   6.1155   6.1862   6.2341

     occupation numbers 
     1.0000   1.0000   1.0000   1.0000   1.0000   1.0000   1.0000   1.0000
     1.0000   1.0000   1.0000   1.0000   1.0000   1.0000   1.0000   1.0000
     1.0000   1.0000   1.0000   1.0000   1.0000   1.0000   1.0000   1.0000
     1.0000   1.0000   1.0000   1.0000   1.0000   1.0000   1.0000   1.0000
     1.0000   1.0000   1.0000   1.0000

          k = 0.0000-0.2887-0.3441 (  3960 PWs)   bands (ev):

   -10.9008 -10.6181 -10.5763 -10.2410   0.5881   0.6922   0.7824   0.8766
     1.2283   1.2958   1.3436   1.4017   1.4334   1.4578   1.4639   1.6274
     2.3088   2.3182   2.3278   2.3427   2.3556   2.3967   2.4787   2.4936
     4.0992   4.1533   4.1843   4.2178   5.5152   5.5535   5.6212   5.6793
     5.6893   5.7607   5.7937   5.9142

     occupation numbers 
     1.0000   1.0000   1.0000   1.0000   1.0000   1.0000   1.0000   1.0000
     1.0000   1.0000   1.0000   1.0000   1.0000   1.0000   1.0000   1.0000
     1.0000   1.0000   1.0000   1.0000   1.0000   1.0000   1.0000   1.0000
     1.0000   1.0000   1.0000   1.0000   1.0000   1.0000   1.0000   1.0000
     1.0000   1.0000   1.0000   1.0000

          k = 0.1667 0.0962 0.0000 (  4006 PWs)   bands (ev):

   -11.1154 -10.6065 -10.4060 -10.0768   0.9763   1.0105   1.1548   1.1987
     1.2866   1.4033   1.4805   1.5450   1.5893   1.7813   1.9236   2.0420
     2.1382   2.1719   2.2168   2.2945   2.4352   2.4776   2.5289   2.6265
     2.7053   2.9693   3.4859   3.9736   4.2495   4.8767   5.2236   5.5339
     5.5902   5.8036   6.5176   6.5721

     occupation numbers 
     1.0000   1.0000   1.0000   1.0000   1.0000   1.0000   1.0000   1.0000
     1.0000   1.0000   1.0000   1.0000   1.0000   1.0000   1.0000   1.0000
     1.0000   1.0000   1.0000   1.0000   1.0000   1.0000   1.0000   1.0000
     1.0000   1.0000   1.0000   1.0000   1.0000   1.0000   1.0000   1.0000
     1.0000   1.0000   1.0000   1.0000

          k = 0.1667 0.0962 0.1147 (  4002 PWs)   bands (ev):

   -11.0745 -10.5906 -10.4334 -10.0966   0.8805   0.9761   1.0909   1.1941
     1.2563   1.2876   1.4087   1.5101   1.5269   1.6052   1.8081   1.9638
     2.1778   2.1870   2.2196   2.3370   2.4494   2.4640   2.5382   2.6268
     3.0498   3.1606   3.5862   3.9648   4.5571   4.9653   5.3141   5.3970
     5.6519   5.7588   6.4403   6.5527

     occupation numbers 
     1.0000   1.0000   1.0000   1.0000   1.0000   1.0000   1.0000   1.0000
     1.0000   1.0000   1.0000   1.0000   1.0000   1.0000   1.0000   1.0000
     1.0000   1.0000   1.0000   1.0000   1.0000   1.0000   1.0000   1.0000
     1.0000   1.0000   1.0000   1.0000   1.0000   1.0000   1.0000   1.0000
     1.0000   1.0000   1.0000   1.0000

          k = 0.1667 0.0962 0.2294 (  3982 PWs)   bands (ev):

   -10.9725 -10.5769 -10.4874 -10.1391   0.7100   0.8228   0.8989   1.0167
     1.2066   1.2587   1.3673   1.4275   1.4681   1.5324   1.6829   1.8083
     2.2500   2.2634   2.2685   2.3622   2.4363   2.4484   2.5326   2.6004
     3.1871   3.5227   3.8935   4.2820   4.9163   5.1643   5.3293   5.4299
     5.5579   5.9452   6.2322   6.3229

     occupation numbers 
     1.0000   1.0000   1.0000   1.0000   1.0000   1.0000   1.0000   1.0000
     1.0000   1.0000   1.0000   1.0000   1.0000   1.0000   1.0000   1.0000
     1.0000   1.0000   1.0000   1.0000   1.0000   1.0000   1.0000   1.0000
     1.0000   1.0000   1.0000   1.0000   1.0000   1.0000   1.0000   1.0000
     1.0000   1.0000   1.0000   1.0000

          k = 0.1667 0.0962-0.3441 (  3970 PWs)   bands (ev):

   -10.8991 -10.6140 -10.4906 -10.1626   0.6294   0.7139   0.8231   0.9099
     1.2213   1.2850   1.3636   1.3947   1.4218   1.5322   1.6186   1.7363
     2.2832   2.3067   2.3268   2.3557   2.4086   2.4405   2.5284   2.5876
     3.2751   3.4248   4.4411   4.5479   4.7200   4.8788   5.6874   5.7703
     5.7832   5.8541   5.9438   6.0487

     occupation numbers 
     1.0000   1.0000   1.0000   1.0000   1.0000   1.0000   1.0000   1.0000
     1.0000   1.0000   1.0000   1.0000   1.0000   1.0000   1.0000   1.0000
     1.0000   1.0000   1.0000   1.0000   1.0000   1.0000   1.0000   1.0000
     1.0000   1.0000   1.0000   1.0000   1.0000   1.0000   1.0000   1.0000
     1.0000   1.0000   1.0000   1.0000

          k = 0.1667 0.1925 0.0000 (  3989 PWs)   bands (ev):

   -11.0618 -10.6837 -10.3917 -10.0716   0.9616   1.0072   1.1097   1.1755
     1.2924   1.3844   1.4535   1.5300   1.6611   1.8394   1.9226   2.0283
     2.1231   2.1580   2.2160   2.2421   2.4271   2.4643   2.5348   2.6575
     2.7700   2.9263   3.7712   4.0834   4.4144   4.6350   4.8345   5.3232
     5.8641   5.9579   6.3879   6.4387

     occupation numbers 
     1.0000   1.0000   1.0000   1.0000   1.0000   1.0000   1.0000   1.0000
     1.0000   1.0000   1.0000   1.0000   1.0000   1.0000   1.0000   1.0000
     1.0000   1.0000   1.0000   1.0000   1.0000   1.0000   1.0000   1.0000
     1.0000   1.0000   1.0000   1.0000   1.0000   1.0000   1.0000   1.0000
     1.0000   1.0000   1.0000   1.0000

          k = 0.1667 0.1925 0.1147 (  3981 PWs)   bands (ev):

   -11.0253 -10.6572 -10.4213 -10.0953   0.8651   0.9574   1.0765   1.1423
     1.2600   1.3206   1.4316   1.4537   1.5841   1.6382   1.7965   1.8743
     2.1493   2.1716   2.2249   2.3092   2.4487   2.4693   2.5337   2.6290
     3.1397   3.2248   3.8612   4.3469   4.4280   4.6948   4.9106   5.2254
     5.8378   5.9900   6.3090   6.4600

     occupation numbers 
     1.0000   1.0000   1.0000   1.0000   1.0000   1.0000   1.0000   1.0000
     1.0000   1.0000   1.0000   1.0000   1.0000   1.0000   1.0000   1.0000
     1.0000   1.0000   1.0000   1.0000   1.0000   1.0000   1.0000   1.0000
     1.0000   1.0000   1.0000   1.0000   1.0000   1.0000   1.0000   1.0000
     1.0000   1.0000   1.0000   1.0000

          k = 0.1667 0.1925 0.2294 (  3985 PWs)   bands (ev):

   -10.9357 -10.6010 -10.4915 -10.1517   0.6997   0.8035   0.8899   0.9742
     1.2339   1.2726   1.3949   1.4249   1.4582   1.5174   1.6374   1.7503
     2.2408   2.2690   2.2756   2.3375   2.4237   2.4515   2.5167   2.5595
     3.4304   3.8230   3.8669   4.5702   4.6694   5.0525   5.1971   5.3507
     5.5370   6.0207   6.1080   6.2982

     occupation numbers 
     1.0000   1.0000   1.0000   1.0000   1.0000   1.0000   1.0000   1.0000
     1.0000   1.0000   1.0000   1.0000   1.0000   1.0000   1.0000   1.0000
     1.0000   1.0000   1.0000   1.0000   1.0000   1.0000   1.0000   1.0000
     1.0000   1.0000   1.0000   1.0000   1.0000   1.0000   1.0000   1.0000
     1.0000   1.0000   1.0000   1.0000

          k = 0.1667 0.1925-0.3441 (  3968 PWs)   bands (ev):

   -10.8738 -10.5911 -10.5183 -10.1872   0.6241   0.6931   0.8145   0.8682
     1.2527   1.2962   1.3797   1.3880   1.4299   1.5101   1.5567   1.6911
     2.2981   2.3148   2.3344   2.3584   2.3937   2.4225   2.4942   2.5207
     3.6044   3.7000   4.2919   4.3427   4.9597   5.1191   5.5730   5.6651
     5.7211   5.8035   5.8262   5.9348

     occupation numbers 
     1.0000   1.0000   1.0000   1.0000   1.0000   1.0000   1.0000   1.0000
     1.0000   1.0000   1.0000   1.0000   1.0000   1.0000   1.0000   1.0000
     1.0000   1.0000   1.0000   1.0000   1.0000   1.0000   1.0000   1.0000
     1.0000   1.0000   1.0000   1.0000   1.0000   1.0000   1.0000   1.0000
     1.0000   1.0000   1.0000   1.0000

          k = 0.1667 0.2887 0.0000 (  3970 PWs)   bands (ev):

   -11.0249 -10.7312 -10.3854 -10.0692   0.9433   1.0062   1.0923   1.1643
     1.3123   1.3798   1.4597   1.5011   1.7579   1.7827   1.9347   2.0521
     2.0914   2.1087   2.2284   2.2347   2.4053   2.4579   2.5550   2.5849
     2.8614   2.9562   4.1259   4.1924   4.2442   4.3889   4.9579   5.0154
     6.1207   6.1362   6.1883   6.2645

     occupation numbers 
     1.0000   1.0000   1.0000   1.0000   1.0000   1.0000   1.0000   1.0000
     1.0000   1.0000   1.0000   1.0000   1.0000   1.0000   1.0000   1.0000
     1.0000   1.0000   1.0000   1.0000   1.0000   1.0000   1.0000   1.0000
     1.0000   1.0000   1.0000   1.0000   1.0000   1.0000   1.0000   1.0000
     1.0000   1.0000   1.0000   1.0000

          k = 0.1667 0.2887 0.1147 (  3976 PWs)   bands (ev):

   -10.9916 -10.7000 -10.4141 -10.0954   0.8564   0.9610   1.0606   1.0972
     1.2828   1.3456   1.4049   1.4583   1.6034   1.6995   1.7597   1.8120
     2.1350   2.1659   2.2621   2.2781   2.4459   2.4802   2.5316   2.5859
     3.2002   3.3054   4.2454   4.3325   4.4111   4.4651   4.8819   4.9567
     6.0325   6.0922   6.2158   6.3232

     occupation numbers 
     1.0000   1.0000   1.0000   1.0000   1.0000   1.0000   1.0000   1.0000
     1.0000   1.0000   1.0000   1.0000   1.0000   1.0000   1.0000   1.0000
     1.0000   1.0000   1.0000   1.0000   1.0000   1.0000   1.0000   1.0000
     1.0000   1.0000   1.0000   1.0000   1.0000   1.0000   1.0000   1.0000
     1.0000   1.0000   1.0000   1.0000

          k = 0.1667 0.2887 0.2294 (  3974 PWs)   bands (ev):

   -10.9119 -10.6260 -10.4849 -10.1592   0.6995   0.7874   0.8963   0.9329
     1.2561   1.3001   1.3775   1.4164   1.4516   1.5502   1.6202   1.6950
     2.2348   2.2713   2.3009   2.3181   2.4205   2.4500   2.5088   2.5376
     3.6755   3.7197   4.2212   4.2874   4.9068   4.9818   5.0492   5.1351
     5.7466   5.8378   6.1555   6.2634

     occupation numbers 
     1.0000   1.0000   1.0000   1.0000   1.0000   1.0000   1.0000   1.0000
     1.0000   1.0000   1.0000   1.0000   1.0000   1.0000   1.0000   1.0000
     1.0000   1.0000   1.0000   1.0000   1.0000   1.0000   1.0000   1.0000
     1.0000   1.0000   1.0000   1.0000   1.0000   1.0000   1.0000   1.0000
     1.0000   1.0000   1.0000   1.0000

          k = 0.1667 0.2887-0.3441 (  3964 PWs)   bands (ev):

   -10.8593 -10.5776 -10.5344 -10.2010   0.6216   0.6793   0.8158   0.8438
     1.2682   1.3087   1.3668   1.3928   1.4414   1.5001   1.5445   1.6462
     2.3049   2.3229   2.3385   2.3538   2.3855   2.4092   2.4853   2.5023
     3.9577   3.9987   4.0398   4.0603   5.2252   5.2977   5.4060   5.5533
     5.6439   5.7404   5.7895   5.8939

     occupation numbers 
     1.0000   1.0000   1.0000   1.0000   1.0000   1.0000   1.0000   1.0000
     1.0000   1.0000   1.0000   1.0000   1.0000   1.0000   1.0000   1.0000
     1.0000   1.0000   1.0000   1.0000   1.0000   1.0000   1.0000   1.0000
     1.0000   1.0000   1.0000   1.0000   1.0000   1.0000   1.0000   1.0000
     1.0000   1.0000   1.0000   1.0000

          k = 0.1667 0.0000 0.0000 (  4013 PWs)   bands (ev):

   -11.1367 -10.5712 -10.4151 -10.0798   0.9785   1.0108   1.1601   1.2187
     1.3107   1.4064   1.5002   1.5497   1.6033   1.7300   1.8743   2.0790
     2.1457   2.1657   2.2051   2.3277   2.4342   2.4828   2.5224   2.5372
     2.6865   3.1100   3.4737   3.6506   4.3869   5.0242   5.2623   5.3993
     5.7086   5.7966   6.5238   6.6134

     occupation numbers 
     1.0000   1.0000   1.0000   1.0000   1.0000   1.0000   1.0000   1.0000
     1.0000   1.0000   1.0000   1.0000   1.0000   1.0000   1.0000   1.0000
     1.0000   1.0000   1.0000   1.0000   1.0000   1.0000   1.0000   1.0000
     1.0000   1.0000   1.0000   1.0000   1.0000   1.0000   1.0000   1.0000
     1.0000   1.0000   1.0000   1.0000

          k = 0.1667 0.0000 0.1147 (  3996 PWs)   bands (ev):

   -11.0941 -10.5638 -10.4373 -10.0980   0.8902   0.9950   1.0819   1.2043
     1.2527   1.3134   1.3607   1.4828   1.5541   1.6575   1.7720   1.9954
     2.1792   2.1963   2.2547   2.3430   2.4479   2.4704   2.5323   2.5705
     3.0641   3.1527   3.5472   3.7025   4.6826   5.1214   5.3142   5.5178
     5.5884   5.6920   6.4520   6.5838

     occupation numbers 
     1.0000   1.0000   1.0000   1.0000   1.0000   1.0000   1.0000   1.0000
     1.0000   1.0000   1.0000   1.0000   1.0000   1.0000   1.0000   1.0000
     1.0000   1.0000   1.0000   1.0000   1.0000   1.0000   1.0000   1.0000
     1.0000   1.0000   1.0000   1.0000   1.0000   1.0000   1.0000   1.0000
     1.0000   1.0000   1.0000   1.0000

          k = 0.1667 0.0000 0.2294 (  3997 PWs)   bands (ev):

   -10.9875 -10.5768 -10.4759 -10.1338   0.7199   0.8262   0.9082   1.0171
     1.2038   1.2682   1.3513   1.3936   1.4751   1.6012   1.6766   1.8254
     2.2515   2.2616   2.2799   2.3652   2.4350   2.4616   2.5483   2.6229
     3.0833   3.3976   3.9035   4.1590   5.0374   5.2022   5.2943   5.4688
     5.6346   5.9015   6.2592   6.3460

     occupation numbers 
     1.0000   1.0000   1.0000   1.0000   1.0000   1.0000   1.0000   1.0000
     1.0000   1.0000   1.0000   1.0000   1.0000   1.0000   1.0000   1.0000
     1.0000   1.0000   1.0000   1.0000   1.0000   1.0000   1.0000   1.0000
     1.0000   1.0000   1.0000   1.0000   1.0000   1.0000   1.0000   1.0000
     1.0000   1.0000   1.0000   1.0000

          k = 0.1667 0.0000-0.3441 (  3976 PWs)   bands (ev):

   -10.9104 -10.6242 -10.4784 -10.1516   0.6315   0.7218   0.8297   0.9300
     1.2078   1.2846   1.3402   1.4056   1.4186   1.5570   1.6463   1.7452
     2.2727   2.3052   2.3215   2.3563   2.4110   2.4490   2.5559   2.6474
     3.1280   3.3150   4.4841   4.6017   4.6384   4.7918   5.7159   5.7878
     5.8332   5.8803   5.9943   6.0888

     occupation numbers 
     1.0000   1.0000   1.0000   1.0000   1.0000   1.0000   1.0000   1.0000
     1.0000   1.0000   1.0000   1.0000   1.0000   1.0000   1.0000   1.0000
     1.0000   1.0000   1.0000   1.0000   1.0000   1.0000   1.0000   1.0000
     1.0000   1.0000   1.0000   1.0000   1.0000   1.0000   1.0000   1.0000
     1.0000   1.0000   1.0000   1.0000

          k = 0.3333 0.1925 0.0000 (  3995 PWs)   bands (ev):

   -10.8872 -10.5918 -10.3535 -10.0679   0.8840   1.0023   1.2148   1.2916
     1.3116   1.4172   1.4894   1.6118   1.7908   1.8359   1.9655   2.0561
     2.1984   2.2325   2.2523   2.3103   2.4798   2.5187   2.5752   2.6213
     2.8820   2.9703   3.4673   3.7195   3.9771   4.2852   4.5464   4.5849
     5.4883   5.7834   6.0237   6.2440

     occupation numbers 
     1.0000   1.0000   1.0000   1.0000   1.0000   1.0000   1.0000   1.0000
     1.0000   1.0000   1.0000   1.0000   1.0000   1.0000   1.0000   1.0000
     1.0000   1.0000   1.0000   1.0000   1.0000   1.0000   1.0000   1.0000
     1.0000   1.0000   1.0000   1.0000   1.0000   1.0000   1.0000   1.0000
     1.0000   1.0000   1.0000   1.0000

          k = 0.3333 0.1925 0.1147 (  3990 PWs)   bands (ev):

   -10.8636 -10.5741 -10.3691 -10.0781   0.8192   0.9381   1.1244   1.2372
     1.3215   1.3486   1.4075   1.5656   1.6610   1.7764   1.8641   1.9674
     2.2000   2.2219   2.2704   2.3407   2.4722   2.5091   2.5715   2.6356
     2.9628   3.1874   3.5736   3.8945   4.0147   4.5144   4.5873   4.7166
     5.5903   5.7327   6.1116   6.1727

     occupation numbers 
     1.0000   1.0000   1.0000   1.0000   1.0000   1.0000   1.0000   1.0000
     1.0000   1.0000   1.0000   1.0000   1.0000   1.0000   1.0000   1.0000
     1.0000   1.0000   1.0000   1.0000   1.0000   1.0000   1.0000   1.0000
     1.0000   1.0000   1.0000   1.0000   1.0000   1.0000   1.0000   1.0000
     1.0000   1.0000   1.0000   1.0000

          k = 0.3333 0.1925 0.2294 (  3992 PWs)   bands (ev):

   -10.8107 -10.5322 -10.4096 -10.1012   0.6822   0.7609   0.9292   0.9694
     1.3202   1.3542   1.4093   1.4946   1.5694   1.6591   1.7206   1.8062
     2.2627   2.2894   2.2977   2.3584   2.4627   2.4972   2.5319   2.6098
     3.1270   3.4641   3.5162   3.9343   4.3026   4.9818   5.0385   5.2051
     5.3413   5.8375   5.9442   6.1657

     occupation numbers 
     1.0000   1.0000   1.0000   1.0000   1.0000   1.0000   1.0000   1.0000
     1.0000   1.0000   1.0000   1.0000   1.0000   1.0000   1.0000   1.0000
     1.0000   1.0000   1.0000   1.0000   1.0000   1.0000   1.0000   1.0000
     1.0000   1.0000   1.0000   1.0000   1.0000   1.0000   1.0000   1.0000
     1.0000   1.0000   1.0000   1.0000

          k = 0.3333 0.1925-0.3441 (  3984 PWs)   bands (ev):

   -10.7802 -10.5002 -10.4432 -10.1144   0.6144   0.6512   0.8386   0.8565
     1.3347   1.3720   1.4573   1.4855   1.5086   1.5965   1.6402   1.7417
     2.2766   2.3217   2.3473   2.3916   2.4325   2.4590   2.5353   2.5855
     3.2750   3.3643   3.7114   3.7428   4.6950   4.8909   5.3417   5.5661
     5.6453   5.6747   5.8194   5.9208

     occupation numbers 
     1.0000   1.0000   1.0000   1.0000   1.0000   1.0000   1.0000   1.0000
     1.0000   1.0000   1.0000   1.0000   1.0000   1.0000   1.0000   1.0000
     1.0000   1.0000   1.0000   1.0000   1.0000   1.0000   1.0000   1.0000
     1.0000   1.0000   1.0000   1.0000   1.0000   1.0000   1.0000   1.0000
     1.0000   1.0000   1.0000   1.0000

          k = 0.3333 0.2887 0.0000 (  3996 PWs)   bands (ev):

   -10.8676 -10.6156 -10.3513 -10.0659   0.8813   0.9549   1.2264   1.2729
     1.3316   1.3943   1.4936   1.5782   1.7697   1.8952   1.9483   1.9696
     2.2140   2.2402   2.2529   2.3082   2.4711   2.5161   2.6392   2.6709
     2.8264   2.9843   3.5923   3.6901   4.2528   4.2993   4.3399   4.3819
     5.7228   5.8478   6.0188   6.1237

     occupation numbers 
     1.0000   1.0000   1.0000   1.0000   1.0000   1.0000   1.0000   1.0000
     1.0000   1.0000   1.0000   1.0000   1.0000   1.0000   1.0000   1.0000
     1.0000   1.0000   1.0000   1.0000   1.0000   1.0000   1.0000   1.0000
     1.0000   1.0000   1.0000   1.0000   1.0000   1.0000   1.0000   1.0000
     1.0000   1.0000   1.0000   1.0000

          k = 0.3333 0.2887 0.1147 (  3980 PWs)   bands (ev):

   -10.8466 -10.5938 -10.3673 -10.0771   0.8150   0.8902   1.1101   1.2268
     1.3049   1.3758   1.4267   1.5382   1.6353   1.8243   1.8561   1.9016
     2.2025   2.2416   2.3159   2.3291   2.4622   2.5081   2.5883   2.6237
     2.9946   3.1247   3.7611   3.8189   4.3237   4.4144   4.4649   4.5302
     5.8438   5.9064   5.9641   6.0724

     occupation numbers 
     1.0000   1.0000   1.0000   1.0000   1.0000   1.0000   1.0000   1.0000
     1.0000   1.0000   1.0000   1.0000   1.0000   1.0000   1.0000   1.0000
     1.0000   1.0000   1.0000   1.0000   1.0000   1.0000   1.0000   1.0000
     1.0000   1.0000   1.0000   1.0000   1.0000   1.0000   1.0000   1.0000
     1.0000   1.0000   1.0000   1.0000

          k = 0.3333 0.2887 0.2294 (  3984 PWs)   bands (ev):

   -10.8005 -10.5401 -10.4094 -10.1035   0.6759   0.7256   0.8982   0.9482
     1.3318   1.3925   1.4291   1.4833   1.5331   1.6719   1.7212   1.7767
     2.2655   2.3166   2.3346   2.3671   2.4525   2.4729   2.5351   2.5601
     3.2347   3.3256   3.6922   3.7391   4.6880   4.7769   5.0684   5.1016
     5.6192   5.6756   5.9977   6.1321

     occupation numbers 
     1.0000   1.0000   1.0000   1.0000   1.0000   1.0000   1.0000   1.0000
     1.0000   1.0000   1.0000   1.0000   1.0000   1.0000   1.0000   1.0000
     1.0000   1.0000   1.0000   1.0000   1.0000   1.0000   1.0000   1.0000
     1.0000   1.0000   1.0000   1.0000   1.0000   1.0000   1.0000   1.0000
     1.0000   1.0000   1.0000   1.0000

          k = 0.3333 0.2887-0.3441 (  3988 PWs)   bands (ev):

   -10.7747 -10.4950 -10.4488 -10.1193   0.6124   0.6209   0.8118   0.8244
     1.3534   1.3807   1.4657   1.5059   1.5217   1.5931   1.6244   1.7065
     2.3043   2.3320   2.3627   2.4092   2.4348   2.4605   2.5011   2.5250
     3.4446   3.4593   3.5262   3.5915   5.0482   5.1253   5.2573   5.3700
     5.6359   5.6971   5.7840   5.9102

     occupation numbers 
     1.0000   1.0000   1.0000   1.0000   1.0000   1.0000   1.0000   1.0000
     1.0000   1.0000   1.0000   1.0000   1.0000   1.0000   1.0000   1.0000
     1.0000   1.0000   1.0000   1.0000   1.0000   1.0000   1.0000   1.0000
     1.0000   1.0000   1.0000   1.0000   1.0000   1.0000   1.0000   1.0000
     1.0000   1.0000   1.0000   1.0000

          k = 0.3333-0.0962 0.0000 (  3993 PWs)   bands (ev):

   -10.9140 -10.5606 -10.3551 -10.0711   0.8952   1.0833   1.1880   1.2803
     1.3453   1.4239   1.4644   1.7499   1.8301   1.8769   2.0250   2.1059
     2.1499   2.1812   2.2457   2.2718   2.4498   2.4934   2.5235   2.5795
     2.8812   3.0397   3.1971   3.6566   3.9183   4.4620   4.5942   4.8133
     5.2771   5.5298   6.1068   6.2081

     occupation numbers 
     1.0000   1.0000   1.0000   1.0000   1.0000   1.0000   1.0000   1.0000
     1.0000   1.0000   1.0000   1.0000   1.0000   1.0000   1.0000   1.0000
     1.0000   1.0000   1.0000   1.0000   1.0000   1.0000   1.0000   1.0000
     1.0000   1.0000   1.0000   1.0000   1.0000   1.0000   1.0000   1.0000
     1.0000   1.0000   1.0000   1.0000

          k = 0.3333-0.0962 0.1147 (  3990 PWs)   bands (ev):

   -10.8865 -10.5517 -10.3669 -10.0803   0.8387   1.0139   1.1426   1.2197
     1.2879   1.3610   1.4405   1.6134   1.6979   1.7729   1.8993   1.9924
     2.1604   2.2049   2.2695   2.3285   2.4639   2.5168   2.5458   2.6144
     3.1254   3.2162   3.2921   3.5802   4.1071   4.5702   4.7673   4.8637
     5.3599   5.5241   6.1099   6.2030

     occupation numbers 
     1.0000   1.0000   1.0000   1.0000   1.0000   1.0000   1.0000   1.0000
     1.0000   1.0000   1.0000   1.0000   1.0000   1.0000   1.0000   1.0000
     1.0000   1.0000   1.0000   1.0000   1.0000   1.0000   1.0000   1.0000
     1.0000   1.0000   1.0000   1.0000   1.0000   1.0000   1.0000   1.0000
     1.0000   1.0000   1.0000   1.0000

          k = 0.3333-0.0962 0.2294 (  3979 PWs)   bands (ev):

   -10.8251 -10.5285 -10.4026 -10.0982   0.7069   0.7867   1.0048   1.0414
     1.2475   1.3591   1.4046   1.4556   1.5833   1.6706   1.7457   1.8063
     2.2112   2.2806   2.3022   2.3473   2.4473   2.4972   2.5918   2.6769
     3.1594   3.4093   3.5844   3.8233   4.1646   4.9259   4.9616   5.1105
     5.4202   5.8206   5.8767   6.1871

     occupation numbers 
     1.0000   1.0000   1.0000   1.0000   1.0000   1.0000   1.0000   1.0000
     1.0000   1.0000   1.0000   1.0000   1.0000   1.0000   1.0000   1.0000
     1.0000   1.0000   1.0000   1.0000   1.0000   1.0000   1.0000   1.0000
     1.0000   1.0000   1.0000   1.0000   1.0000   1.0000   1.0000   1.0000
     1.0000   1.0000   1.0000   1.0000

          k = 0.3333-0.0962-0.3441 (  3968 PWs)   bands (ev):

   -10.7897 -10.5083 -10.4341 -10.1069   0.6419   0.6687   0.9124   0.9416
     1.2964   1.3415   1.3885   1.4792   1.4982   1.6148   1.6710   1.7481
     2.2322   2.3168   2.3310   2.3560   2.4281   2.4666   2.6154   2.6907
     3.2238   3.3220   3.8628   3.9167   4.2967   4.5396   5.3266   5.5106
     5.6797   5.7163   5.8583   5.9687

     occupation numbers 
     1.0000   1.0000   1.0000   1.0000   1.0000   1.0000   1.0000   1.0000
     1.0000   1.0000   1.0000   1.0000   1.0000   1.0000   1.0000   1.0000
     1.0000   1.0000   1.0000   1.0000   1.0000   1.0000   1.0000   1.0000
     1.0000   1.0000   1.0000   1.0000   1.0000   1.0000   1.0000   1.0000
     1.0000   1.0000   1.0000   1.0000

          k = 0.3333-0.0000 0.0000 (  4016 PWs)   bands (ev):

   -10.9283 -10.5414 -10.3577 -10.0733   0.9254   1.1278   1.1413   1.2763
     1.3573   1.3924   1.4917   1.7588   1.8685   1.9640   2.0772   2.1121
     2.1367   2.2115   2.2308   2.3437   2.4242   2.4495   2.4895   2.5474
     2.7500   2.8899   3.3096   3.4576   4.1757   4.3277   4.8526   4.9275
     4.9843   5.4076   6.1624   6.1888

     occupation numbers 
     1.0000   1.0000   1.0000   1.0000   1.0000   1.0000   1.0000   1.0000
     1.0000   1.0000   1.0000   1.0000   1.0000   1.0000   1.0000   1.0000
     1.0000   1.0000   1.0000   1.0000   1.0000   1.0000   1.0000   1.0000
     1.0000   1.0000   1.0000   1.0000   1.0000   1.0000   1.0000   1.0000
     1.0000   1.0000   1.0000   1.0000

          k = 0.3333-0.0000 0.1147 (  4004 PWs)   bands (ev):

   -10.8995 -10.5361 -10.3684 -10.0815   0.8655   1.0455   1.1431   1.2422
     1.2669   1.3426   1.4232   1.6236   1.7345   1.8740   1.9139   1.9768
     2.1432   2.1778   2.2522   2.3491   2.4634   2.5124   2.5383   2.6019
     3.0582   3.2243   3.2656   3.4024   4.3191   4.4351   4.8757   5.1191
     5.2211   5.2602   6.0770   6.2625

     occupation numbers 
     1.0000   1.0000   1.0000   1.0000   1.0000   1.0000   1.0000   1.0000
     1.0000   1.0000   1.0000   1.0000   1.0000   1.0000   1.0000   1.0000
     1.0000   1.0000   1.0000   1.0000   1.0000   1.0000   1.0000   1.0000
     1.0000   1.0000   1.0000   1.0000   1.0000   1.0000   1.0000   1.0000
     1.0000   1.0000   1.0000   1.0000

          k = 0.3333-0.0000 0.2294 (  3982 PWs)   bands (ev):

   -10.8338 -10.5232 -10.4016 -10.0961   0.7254   0.8115   1.0385   1.0882
     1.2187   1.3069   1.3708   1.4719   1.6236   1.6852   1.7653   1.8255
     2.1729   2.2630   2.2843   2.3374   2.4577   2.4965   2.6196   2.7022
     3.1791   3.3258   3.6122   3.6891   4.2445   4.8253   4.9875   5.0675
     5.5857   5.6711   5.8268   6.2254

     occupation numbers 
     1.0000   1.0000   1.0000   1.0000   1.0000   1.0000   1.0000   1.0000
     1.0000   1.0000   1.0000   1.0000   1.0000   1.0000   1.0000   1.0000
     1.0000   1.0000   1.0000   1.0000   1.0000   1.0000   1.0000   1.0000
     1.0000   1.0000   1.0000   1.0000   1.0000   1.0000   1.0000   1.0000
     1.0000   1.0000   1.0000   1.0000

          k = 0.3333-0.0000-0.3441 (  3962 PWs)   bands (ev):

   -10.7948 -10.5131 -10.4290 -10.1023   0.6569   0.6884   0.9428   0.9906
     1.2777   1.3150   1.3664   1.4633   1.4928   1.5905   1.7273   1.7982
     2.1830   2.3023   2.3225   2.3471   2.4288   2.4639   2.6525   2.7422
     3.1591   3.3044   3.9458   4.0184   4.1357   4.3876   5.2766   5.4887
     5.6998   5.7291   5.8799   5.9732

     occupation numbers 
     1.0000   1.0000   1.0000   1.0000   1.0000   1.0000   1.0000   1.0000
     1.0000   1.0000   1.0000   1.0000   1.0000   1.0000   1.0000   1.0000
     1.0000   1.0000   1.0000   1.0000   1.0000   1.0000   1.0000   1.0000
     1.0000   1.0000   1.0000   1.0000   1.0000   1.0000   1.0000   1.0000
     1.0000   1.0000   1.0000   1.0000

          k =-0.5000-0.2887 0.0000 (  4000 PWs)   bands (ev):

   -10.7699 -10.5764 -10.3183 -10.0772   0.8955   0.9134   1.3113   1.3426
     1.3731   1.3815   1.4867   1.5712   1.6807   1.8446   1.9744   2.0396
     2.2277   2.2400   2.3308   2.3832   2.4852   2.5162   2.5478   2.5692
     3.0552   3.1652   3.5115   3.5901   3.9525   4.0717   4.2120   4.2336
     5.4627   5.6187   6.0009   6.1151

     occupation numbers 
     1.0000   1.0000   1.0000   1.0000   1.0000   1.0000   1.0000   1.0000
     1.0000   1.0000   1.0000   1.0000   1.0000   1.0000   1.0000   1.0000
     1.0000   1.0000   1.0000   1.0000   1.0000   1.0000   1.0000   1.0000
     1.0000   1.0000   1.0000   1.0000   1.0000   1.0000   1.0000   1.0000
     1.0000   1.0000   1.0000   1.0000

          k =-0.5000-0.2887 0.1147 (  3964 PWs)   bands (ev):

   -10.7605 -10.5554 -10.3301 -10.0772   0.8220   0.8424   1.1565   1.1826
     1.3448   1.3990   1.4893   1.5446   1.6619   1.7721   1.9173   1.9862
     2.2978   2.3056   2.3473   2.3792   2.4607   2.5065   2.5443   2.5687
     3.0101   3.0970   3.4183   3.5087   4.2925   4.3568   4.4268   4.4632
     5.6454   5.7736   5.9021   6.0179

     occupation numbers 
     1.0000   1.0000   1.0000   1.0000   1.0000   1.0000   1.0000   1.0000
     1.0000   1.0000   1.0000   1.0000   1.0000   1.0000   1.0000   1.0000
     1.0000   1.0000   1.0000   1.0000   1.0000   1.0000   1.0000   1.0000
     1.0000   1.0000   1.0000   1.0000   1.0000   1.0000   1.0000   1.0000
     1.0000   1.0000   1.0000   1.0000

          k =-0.5000-0.2887 0.2294 (  3992 PWs)   bands (ev):

   -10.7412 -10.5017 -10.3653 -10.0774   0.6585   0.6797   0.8966   0.9165
     1.4000   1.4357   1.4832   1.5238   1.6207   1.6852   1.7731   1.8482
     2.3236   2.3558   2.4033   2.4097   2.4431   2.4838   2.5516   2.5748
     3.0109   3.0858   3.2645   3.3755   4.7046   4.7584   5.1048   5.1446
     5.6179   5.6805   5.8892   5.9992

     occupation numbers 
     1.0000   1.0000   1.0000   1.0000   1.0000   1.0000   1.0000   1.0000
     1.0000   1.0000   1.0000   1.0000   1.0000   1.0000   1.0000   1.0000
     1.0000   1.0000   1.0000   1.0000   1.0000   1.0000   1.0000   1.0000
     1.0000   1.0000   1.0000   1.0000   1.0000   1.0000   1.0000   1.0000
     1.0000   1.0000   1.0000   1.0000

          k =-0.5000-0.2887-0.3441 (  3984 PWs)   bands (ev):

   -10.7314 -10.4529 -10.4049 -10.0776   0.5728   0.5899   0.8001   0.8059
     1.4154   1.4437   1.5315   1.5752   1.5960   1.6393   1.6650   1.7499
     2.3262   2.3544   2.4070   2.4338   2.4651   2.4755   2.5568   2.5781
     3.0690   3.1064   3.1709   3.3058   5.0370   5.1464   5.3012   5.3547
     5.6183   5.6530   5.7906   5.8932

     occupation numbers 
     1.0000   1.0000   1.0000   1.0000   1.0000   1.0000   1.0000   1.0000
     1.0000   1.0000   1.0000   1.0000   1.0000   1.0000   1.0000   1.0000
     1.0000   1.0000   1.0000   1.0000   1.0000   1.0000   1.0000   1.0000
     1.0000   1.0000   1.0000   1.0000   1.0000   1.0000   1.0000   1.0000
     1.0000   1.0000   1.0000   1.0000

          k =-0.5000-0.1925 0.0000 (  4000 PWs)   bands (ev):

   -10.7709 -10.5786 -10.3167 -10.0769   0.9111   0.9375   1.2962   1.3458
     1.3905   1.4083   1.5018   1.5556   1.7214   1.8579   1.9896   2.0458
     2.2202   2.2322   2.3134   2.3630   2.4831   2.5369   2.5592   2.5853
     2.9987   3.1360   3.5272   3.6204   3.9064   3.9373   4.2446   4.2911
     5.4539   5.6058   5.9211   6.0355

     occupation numbers 
     1.0000   1.0000   1.0000   1.0000   1.0000   1.0000   1.0000   1.0000
     1.0000   1.0000   1.0000   1.0000   1.0000   1.0000   1.0000   1.0000
     1.0000   1.0000   1.0000   1.0000   1.0000   1.0000   1.0000   1.0000
     1.0000   1.0000   1.0000   1.0000   1.0000   1.0000   1.0000   1.0000
     1.0000   1.0000   1.0000   1.0000

          k =-0.5000-0.1925 0.1147 (  3990 PWs)   bands (ev):

   -10.7613 -10.5573 -10.3289 -10.0770   0.8427   0.8706   1.1767   1.1912
     1.3226   1.3833   1.5257   1.5579   1.6686   1.7739   1.9249   1.9912
     2.2804   2.2932   2.3388   2.3626   2.4609   2.5190   2.5728   2.5925
     2.9614   3.0548   3.5133   3.5858   4.1066   4.1314   4.5264   4.5766
     5.6291   5.7561   5.8410   5.9226

     occupation numbers 
     1.0000   1.0000   1.0000   1.0000   1.0000   1.0000   1.0000   1.0000
     1.0000   1.0000   1.0000   1.0000   1.0000   1.0000   1.0000   1.0000
     1.0000   1.0000   1.0000   1.0000   1.0000   1.0000   1.0000   1.0000
     1.0000   1.0000   1.0000   1.0000   1.0000   1.0000   1.0000   1.0000
     1.0000   1.0000   1.0000   1.0000

          k =-0.5000-0.1925 0.2294 (  3984 PWs)   bands (ev):

   -10.7418 -10.5029 -10.3649 -10.0776   0.6774   0.7072   0.9248   0.9428
     1.3688   1.4071   1.5112   1.5298   1.6131   1.6705   1.7759   1.8472
     2.3098   2.3320   2.3781   2.3914   2.4660   2.4953   2.5738   2.5957
     3.0158   3.0872   3.3555   3.4495   4.5362   4.5796   5.1687   5.2008
     5.5033   5.5887   5.9055   5.9943

     occupation numbers 
     1.0000   1.0000   1.0000   1.0000   1.0000   1.0000   1.0000   1.0000
     1.0000   1.0000   1.0000   1.0000   1.0000   1.0000   1.0000   1.0000
     1.0000   1.0000   1.0000   1.0000   1.0000   1.0000   1.0000   1.0000
     1.0000   1.0000   1.0000   1.0000   1.0000   1.0000   1.0000   1.0000
     1.0000   1.0000   1.0000   1.0000

          k =-0.5000-0.1925-0.3441 (  3988 PWs)   bands (ev):

   -10.7318 -10.4532 -10.4053 -10.0780   0.5932   0.6125   0.8308   0.8392
     1.3925   1.4219   1.5117   1.5621   1.5910   1.6392   1.6774   1.7455
     2.3100   2.3226   2.3862   2.4312   2.4702   2.4929   2.5679   2.5939
     3.1306   3.1645   3.2231   3.3391   4.9037   5.0107   5.1591   5.2005
     5.6636   5.6932   5.8217   5.9236

     occupation numbers 
     1.0000   1.0000   1.0000   1.0000   1.0000   1.0000   1.0000   1.0000
     1.0000   1.0000   1.0000   1.0000   1.0000   1.0000   1.0000   1.0000
     1.0000   1.0000   1.0000   1.0000   1.0000   1.0000   1.0000   1.0000
     1.0000   1.0000   1.0000   1.0000   1.0000   1.0000   1.0000   1.0000
     1.0000   1.0000   1.0000   1.0000

          k =-0.5000-0.0962 0.0000 (  3998 PWs)   bands (ev):

   -10.7729 -10.5828 -10.3136 -10.0761   0.9523   1.0033   1.2435   1.3077
     1.4002   1.4502   1.5131   1.5980   1.8606   1.9329   2.0178   2.0584
     2.1995   2.2136   2.2548   2.2974   2.4804   2.5361   2.6129   2.6411
     2.9148   3.0658   3.4582   3.5184   3.9031   3.9407   4.2463   4.3151
     5.4535   5.5884   5.7559   5.8700

     occupation numbers 
     1.0000   1.0000   1.0000   1.0000   1.0000   1.0000   1.0000   1.0000
     1.0000   1.0000   1.0000   1.0000   1.0000   1.0000   1.0000   1.0000
     1.0000   1.0000   1.0000   1.0000   1.0000   1.0000   1.0000   1.0000
     1.0000   1.0000   1.0000   1.0000   1.0000   1.0000   1.0000   1.0000
     1.0000   1.0000   1.0000   1.0000

          k =-0.5000-0.0962 0.1147 (  3994 PWs)   bands (ev):

   -10.7631 -10.5611 -10.3263 -10.0766   0.8914   0.9366   1.1910   1.2051
     1.3123   1.3691   1.5219   1.5857   1.7398   1.8115   1.9291   1.9927
     2.2068   2.2461   2.3001   2.3471   2.4732   2.5208   2.6336   2.6458
     2.9538   3.0580   3.5765   3.6390   3.9039   3.9596   4.5651   4.6127
     5.5620   5.6576   5.7417   5.8161

     occupation numbers 
     1.0000   1.0000   1.0000   1.0000   1.0000   1.0000   1.0000   1.0000
     1.0000   1.0000   1.0000   1.0000   1.0000   1.0000   1.0000   1.0000
     1.0000   1.0000   1.0000   1.0000   1.0000   1.0000   1.0000   1.0000
     1.0000   1.0000   1.0000   1.0000   1.0000   1.0000   1.0000   1.0000
     1.0000   1.0000   1.0000   1.0000

          k =-0.5000-0.0962 0.2294 (  3982 PWs)   bands (ev):

   -10.7429 -10.5053 -10.3639 -10.0780   0.7232   0.7601   0.9947   1.0092
     1.3156   1.3492   1.5005   1.5237   1.6364   1.6720   1.7721   1.8285
     2.2711   2.2855   2.3387   2.3578   2.4975   2.5150   2.6100   2.6267
     3.1035   3.1776   3.4926   3.5593   4.2514   4.3063   5.1890   5.1965
     5.3159   5.4151   5.9227   6.0071

     occupation numbers 
     1.0000   1.0000   1.0000   1.0000   1.0000   1.0000   1.0000   1.0000
     1.0000   1.0000   1.0000   1.0000   1.0000   1.0000   1.0000   1.0000
     1.0000   1.0000   1.0000   1.0000   1.0000   1.0000   1.0000   1.0000
     1.0000   1.0000   1.0000   1.0000   1.0000   1.0000   1.0000   1.0000
     1.0000   1.0000   1.0000   1.0000

          k =-0.5000-0.0962-0.3441 (  3980 PWs)   bands (ev):

   -10.7326 -10.4540 -10.4061 -10.0789   0.6362   0.6600   0.9007   0.9184
     1.3372   1.3838   1.4487   1.5245   1.6048   1.6456   1.6875   1.7345
     2.2825   2.2909   2.3530   2.3833   2.5053   2.5319   2.5807   2.6137
     3.2664   3.2949   3.3526   3.4203   4.6357   4.7442   4.8980   4.9363
     5.7087   5.7295   5.8647   5.9646

     occupation numbers 
     1.0000   1.0000   1.0000   1.0000   1.0000   1.0000   1.0000   1.0000
     1.0000   1.0000   1.0000   1.0000   1.0000   1.0000   1.0000   1.0000
     1.0000   1.0000   1.0000   1.0000   1.0000   1.0000   1.0000   1.0000
     1.0000   1.0000   1.0000   1.0000   1.0000   1.0000   1.0000   1.0000
     1.0000   1.0000   1.0000   1.0000

          k =-0.5000-0.5774 0.0000 (  3986 PWs)   bands (ev):

   -10.7739 -10.5849 -10.3121 -10.0757   0.9805   1.0594   1.1938   1.2756
     1.3963   1.4529   1.5188   1.6369   1.9852   2.0106   2.0641   2.1105
     2.1369   2.1500   2.2095   2.2437   2.4795   2.5298   2.6452   2.6849
     2.8827   3.0250   3.3881   3.3916   3.9746   4.0089   4.2222   4.2910
     5.4694   5.5824   5.6702   5.7772

     occupation numbers 
     1.0000   1.0000   1.0000   1.0000   1.0000   1.0000   1.0000   1.0000
     1.0000   1.0000   1.0000   1.0000   1.0000   1.0000   1.0000   1.0000
     1.0000   1.0000   1.0000   1.0000   1.0000   1.0000   1.0000   1.0000
     1.0000   1.0000   1.0000   1.0000   1.0000   1.0000   1.0000   1.0000
     1.0000   1.0000   1.0000   1.0000

          k =-0.5000-0.5774 0.1147 (  4004 PWs)   bands (ev):

   -10.7639 -10.5630 -10.3250 -10.0764   0.9186   0.9803   1.1659   1.2135
     1.3364   1.3847   1.4892   1.5659   1.8353   1.8739   1.9232   1.9578
     2.1479   2.1787   2.2974   2.3475   2.4800   2.5218   2.6545   2.6756
     2.9892   3.1105   3.5082   3.5417   3.9320   3.9586   4.5601   4.5943
     5.5062   5.5793   5.7005   5.8111

     occupation numbers 
     1.0000   1.0000   1.0000   1.0000   1.0000   1.0000   1.0000   1.0000
     1.0000   1.0000   1.0000   1.0000   1.0000   1.0000   1.0000   1.0000
     1.0000   1.0000   1.0000   1.0000   1.0000   1.0000   1.0000   1.0000
     1.0000   1.0000   1.0000   1.0000   1.0000   1.0000   1.0000   1.0000
     1.0000   1.0000   1.0000   1.0000

          k =-0.5000-0.5774 0.2294 (  3984 PWs)   bands (ev):

   -10.7435 -10.5066 -10.3633 -10.0782   0.7501   0.7839   1.0403   1.0612
     1.2915   1.3136   1.4615   1.4905   1.6846   1.7017   1.7655   1.7970
     2.2329   2.2562   2.3269   2.3609   2.5056   2.5252   2.6243   2.6412
     3.1808   3.2725   3.5318   3.5909   4.1267   4.1871   5.0903   5.1270
     5.3096   5.3692   5.9269   6.0177

     occupation numbers 
     1.0000   1.0000   1.0000   1.0000   1.0000   1.0000   1.0000   1.0000
     1.0000   1.0000   1.0000   1.0000   1.0000   1.0000   1.0000   1.0000
     1.0000   1.0000   1.0000   1.0000   1.0000   1.0000   1.0000   1.0000
     1.0000   1.0000   1.0000   1.0000   1.0000   1.0000   1.0000   1.0000
     1.0000   1.0000   1.0000   1.0000

          k =-0.5000-0.5774-0.3441 (  3980 PWs)   bands (ev):

   -10.7330 -10.4543 -10.4065 -10.0793   0.6589   0.6851   0.9427   0.9685
     1.3039   1.3570   1.4128   1.5060   1.6103   1.6509   1.6893   1.7278
     2.2706   2.2808   2.3389   2.3639   2.5188   2.5489   2.5857   2.6209
     3.3442   3.3724   3.4401   3.4713   4.4884   4.6032   4.7608   4.8085
     5.7236   5.7391   5.8806   5.9794

     occupation numbers 
     1.0000   1.0000   1.0000   1.0000   1.0000   1.0000   1.0000   1.0000
     1.0000   1.0000   1.0000   1.0000   1.0000   1.0000   1.0000   1.0000
     1.0000   1.0000   1.0000   1.0000   1.0000   1.0000   1.0000   1.0000
     1.0000   1.0000   1.0000   1.0000   1.0000   1.0000   1.0000   1.0000
     1.0000   1.0000   1.0000   1.0000

          k = 0.0000-0.0962 0.1147 (  3986 PWs)   bands (ev):

   -11.1528 -10.6323 -10.4535 -10.1085   0.8305   0.9587   1.1111   1.1272
     1.1818   1.2850   1.3955   1.4431   1.4984   1.6030   1.7438   1.8997
     2.1838   2.2011   2.3022   2.3353   2.4285   2.4760   2.5224   2.5970
     2.9429   3.1330   3.7318   4.3244   4.4610   5.4255   5.5773   5.8709
     5.9015   6.0030   6.5491   6.6081

     occupation numbers 
     1.0000   1.0000   1.0000   1.0000   1.0000   1.0000   1.0000   1.0000
     1.0000   1.0000   1.0000   1.0000   1.0000   1.0000   1.0000   1.0000
     1.0000   1.0000   1.0000   1.0000   1.0000   1.0000   1.0000   1.0000
     1.0000   1.0000   1.0000   1.0000   1.0000   1.0000   1.0000   1.0000
     1.0000   1.0000   1.0000   1.0000

          k = 0.0000-0.0962 0.2294 (  3995 PWs)   bands (ev):

   -11.0371 -10.6193 -10.5152 -10.1620   0.6738   0.7595   0.8975   0.9949
     1.1476   1.2365   1.3702   1.4040   1.4560   1.5520   1.6171   1.7797
     2.2543   2.2670   2.3384   2.3869   2.4007   2.4466   2.5047   2.5363
     3.1131   3.5869   3.9216   4.8215   5.0005   5.3147   5.6351   5.7135
     5.8217   6.0008   6.3662   6.3696

     occupation numbers 
     1.0000   1.0000   1.0000   1.0000   1.0000   1.0000   1.0000   1.0000
     1.0000   1.0000   1.0000   1.0000   1.0000   1.0000   1.0000   1.0000
     1.0000   1.0000   1.0000   1.0000   1.0000   1.0000   1.0000   1.0000
     1.0000   1.0000   1.0000   1.0000   1.0000   1.0000   1.0000   1.0000
     1.0000   1.0000   1.0000   1.0000

          k = 0.0000-0.1925 0.1147 (  3998 PWs)   bands (ev):

   -11.0949 -10.7103 -10.4389 -10.1090   0.8363   0.9238   1.0953   1.1458
     1.2068   1.2915   1.4013   1.4259   1.5509   1.5903   1.7695   1.8050
     2.1654   2.2002   2.2519   2.2880   2.4323   2.4757   2.5181   2.5601
     3.0961   3.2365   3.9506   4.4747   4.6922   4.9014   5.3483   5.4465
     6.1070   6.1264   6.4491   6.5310

     occupation numbers 
     1.0000   1.0000   1.0000   1.0000   1.0000   1.0000   1.0000   1.0000
     1.0000   1.0000   1.0000   1.0000   1.0000   1.0000   1.0000   1.0000
     1.0000   1.0000   1.0000   1.0000   1.0000   1.0000   1.0000   1.0000
     1.0000   1.0000   1.0000   1.0000   1.0000   1.0000   1.0000   1.0000
     1.0000   1.0000   1.0000   1.0000

          k = 0.0000-0.1925 0.2294 (  3992 PWs)   bands (ev):

   -10.9918 -10.6502 -10.5184 -10.1793   0.6819   0.7588   0.8880   0.9722
     1.1779   1.2634   1.3627   1.4150   1.4738   1.4958   1.5795   1.7086
     2.2500   2.2611   2.3132   2.3299   2.3974   2.4348   2.5005   2.5226
     3.4382   3.9138   4.0030   4.8995   4.9160   5.0298   5.3829   5.5660
     5.8591   6.1150   6.2473   6.2826

     occupation numbers 
     1.0000   1.0000   1.0000   1.0000   1.0000   1.0000   1.0000   1.0000
     1.0000   1.0000   1.0000   1.0000   1.0000   1.0000   1.0000   1.0000
     1.0000   1.0000   1.0000   1.0000   1.0000   1.0000   1.0000   1.0000
     1.0000   1.0000   1.0000   1.0000   1.0000   1.0000   1.0000   1.0000
     1.0000   1.0000   1.0000   1.0000

          k =-0.1667 0.0962 0.0000 (  4006 PWs)   bands (ev):

   -11.1139 -10.6096 -10.4049 -10.0765   0.9616   1.0082   1.1597   1.1931
     1.3444   1.3909   1.4470   1.5468   1.6171   1.7616   1.9258   2.0437
     2.1281   2.1739   2.2040   2.2658   2.4309   2.4826   2.5177   2.6424
     2.7197   3.0079   3.4804   3.9795   4.2747   4.7850   5.2884   5.5553
     5.5801   5.8020   6.4973   6.5575

     occupation numbers 
     1.0000   1.0000   1.0000   1.0000   1.0000   1.0000   1.0000   1.0000
     1.0000   1.0000   1.0000   1.0000   1.0000   1.0000   1.0000   1.0000
     1.0000   1.0000   1.0000   1.0000   1.0000   1.0000   1.0000   1.0000
     1.0000   1.0000   1.0000   1.0000   1.0000   1.0000   1.0000   1.0000
     1.0000   1.0000   1.0000   1.0000

          k =-0.1667-0.0962 0.1147 (  4002 PWs)   bands (ev):

   -11.0740 -10.5948 -10.4285 -10.0979   0.9035   0.9908   1.0492   1.1586
     1.2412   1.3193   1.4065   1.4888   1.5335   1.6436   1.8180   1.9483
     2.1848   2.1930   2.2470   2.3330   2.4504   2.4705   2.5173   2.6464
     2.9533   3.1983   3.6220   3.9729   4.5319   4.9670   5.3065   5.4018
     5.6387   5.7801   6.4462   6.5372

     occupation numbers 
     1.0000   1.0000   1.0000   1.0000   1.0000   1.0000   1.0000   1.0000
     1.0000   1.0000   1.0000   1.0000   1.0000   1.0000   1.0000   1.0000
     1.0000   1.0000   1.0000   1.0000   1.0000   1.0000   1.0000   1.0000
     1.0000   1.0000   1.0000   1.0000   1.0000   1.0000   1.0000   1.0000
     1.0000   1.0000   1.0000   1.0000

          k =-0.1667 0.0962-0.1147 (  4002 PWs)   bands (ev):

   -11.0724 -10.5978 -10.4279 -10.0972   0.8837   0.9941   1.0613   1.1661
     1.2540   1.3407   1.3701   1.4727   1.5608   1.6407   1.8006   1.9528
     2.1703   2.1910   2.2496   2.3201   2.4481   2.4812   2.5234   2.6501
     2.9970   3.1806   3.6395   3.9521   4.5584   4.8894   5.3421   5.4109
     5.6346   5.7893   6.4270   6.5410

     occupation numbers 
     1.0000   1.0000   1.0000   1.0000   1.0000   1.0000   1.0000   1.0000
     1.0000   1.0000   1.0000   1.0000   1.0000   1.0000   1.0000   1.0000
     1.0000   1.0000   1.0000   1.0000   1.0000   1.0000   1.0000   1.0000
     1.0000   1.0000   1.0000   1.0000   1.0000   1.0000   1.0000   1.0000
     1.0000   1.0000   1.0000   1.0000

          k = 0.1667-0.0962-0.1147 (  4002 PWs)   bands (ev):

   -11.0734 -10.5928 -10.4322 -10.0968   0.8802   0.9690   1.0932   1.1818
     1.2530   1.3229   1.3882   1.5110   1.5359   1.6202   1.7858   1.9503
     2.1652   2.1873   2.2156   2.3292   2.4543   2.4720   2.5335   2.6357
     3.0806   3.1614   3.6095   3.9661   4.5747   4.8750   5.3686   5.4130
     5.6393   5.7679   6.4258   6.5322

     occupation numbers 
     1.0000   1.0000   1.0000   1.0000   1.0000   1.0000   1.0000   1.0000
     1.0000   1.0000   1.0000   1.0000   1.0000   1.0000   1.0000   1.0000
     1.0000   1.0000   1.0000   1.0000   1.0000   1.0000   1.0000   1.0000
     1.0000   1.0000   1.0000   1.0000   1.0000   1.0000   1.0000   1.0000
     1.0000   1.0000   1.0000   1.0000

          k =-0.1667-0.0962 0.2294 (  3982 PWs)   bands (ev):

   -10.9716 -10.5856 -10.4782 -10.1406   0.7288   0.8060   0.9003   0.9866
     1.2100   1.2888   1.3693   1.4097   1.4484   1.5651   1.6831   1.7999
     2.2531   2.2646   2.2907   2.3605   2.4314   2.4501   2.5170   2.6205
     3.1252   3.5497   3.9138   4.2989   4.9291   5.1487   5.2934   5.4148
     5.5621   5.9670   6.2385   6.3136

     occupation numbers 
     1.0000   1.0000   1.0000   1.0000   1.0000   1.0000   1.0000   1.0000
     1.0000   1.0000   1.0000   1.0000   1.0000   1.0000   1.0000   1.0000
     1.0000   1.0000   1.0000   1.0000   1.0000   1.0000   1.0000   1.0000
     1.0000   1.0000   1.0000   1.0000   1.0000   1.0000   1.0000   1.0000
     1.0000   1.0000   1.0000   1.0000

          k =-0.1667 0.0962-0.2294 (  3982 PWs)   bands (ev):

   -10.9703 -10.5872 -10.4782 -10.1403   0.7207   0.8066   0.9059   0.9845
     1.2213   1.2861   1.3632   1.3976   1.4801   1.5662   1.6555   1.7886
     2.2467   2.2623   2.3002   2.3547   2.4345   2.4584   2.5274   2.6176
     3.1527   3.5815   3.9031   4.2662   4.9216   5.1835   5.2555   5.3553
     5.6077   5.9818   6.2299   6.3164

     occupation numbers 
     1.0000   1.0000   1.0000   1.0000   1.0000   1.0000   1.0000   1.0000
     1.0000   1.0000   1.0000   1.0000   1.0000   1.0000   1.0000   1.0000
     1.0000   1.0000   1.0000   1.0000   1.0000   1.0000   1.0000   1.0000
     1.0000   1.0000   1.0000   1.0000   1.0000   1.0000   1.0000   1.0000
     1.0000   1.0000   1.0000   1.0000

          k = 0.1667-0.0962-0.2294 (  3982 PWs)   bands (ev):

   -10.9720 -10.5766 -10.4876 -10.1399   0.7099   0.8209   0.8908   1.0202
     1.2027   1.2695   1.3618   1.4135   1.4763   1.5673   1.6645   1.7744
     2.2489   2.2587   2.2728   2.3654   2.4416   2.4535   2.5264   2.6114
     3.2175   3.5364   3.9008   4.2777   4.8778   5.1831   5.2983   5.4193
     5.6021   5.9472   6.2320   6.2960

     occupation numbers 
     1.0000   1.0000   1.0000   1.0000   1.0000   1.0000   1.0000   1.0000
     1.0000   1.0000   1.0000   1.0000   1.0000   1.0000   1.0000   1.0000
     1.0000   1.0000   1.0000   1.0000   1.0000   1.0000   1.0000   1.0000
     1.0000   1.0000   1.0000   1.0000   1.0000   1.0000   1.0000   1.0000
     1.0000   1.0000   1.0000   1.0000

          k =-0.1667 0.0962 0.3441 (  3970 PWs)   bands (ev):

   -10.8987 -10.6133 -10.4912 -10.1634   0.6272   0.7096   0.8227   0.9117
     1.2231   1.2930   1.3448   1.4124   1.4245   1.5515   1.5999   1.7012
     2.2917   2.3103   2.3210   2.3565   2.4125   2.4450   2.5301   2.5921
     3.3072   3.4437   4.4350   4.5313   4.7019   4.8722   5.6858   5.7642
     5.8059   5.8427   5.9322   6.0526

     occupation numbers 
     1.0000   1.0000   1.0000   1.0000   1.0000   1.0000   1.0000   1.0000
     1.0000   1.0000   1.0000   1.0000   1.0000   1.0000   1.0000   1.0000
     1.0000   1.0000   1.0000   1.0000   1.0000   1.0000   1.0000   1.0000
     1.0000   1.0000   1.0000   1.0000   1.0000   1.0000   1.0000   1.0000
     1.0000   1.0000   1.0000   1.0000

          k =-0.1667 0.1925 0.0000 (  3989 PWs)   bands (ev):

   -11.0596 -10.6870 -10.3909 -10.0713   0.9419   1.0101   1.1173   1.1738
     1.3302   1.3965   1.4300   1.5158   1.6794   1.8318   1.9328   2.0197
     2.1076   2.1384   2.1976   2.2298   2.4182   2.4707   2.5285   2.6802
     2.8037   2.9560   3.7403   4.1408   4.4292   4.5238   4.8719   5.3471
     5.8835   5.9553   6.3671   6.4180

     occupation numbers 
     1.0000   1.0000   1.0000   1.0000   1.0000   1.0000   1.0000   1.0000
     1.0000   1.0000   1.0000   1.0000   1.0000   1.0000   1.0000   1.0000
     1.0000   1.0000   1.0000   1.0000   1.0000   1.0000   1.0000   1.0000
     1.0000   1.0000   1.0000   1.0000   1.0000   1.0000   1.0000   1.0000
     1.0000   1.0000   1.0000   1.0000

          k =-0.1667-0.1925 0.1147 (  3981 PWs)   bands (ev):

   -11.0245 -10.6605 -10.4175 -10.0965   0.8916   0.9702   1.0285   1.1111
     1.2731   1.3146   1.4302   1.4798   1.5785   1.6417   1.8105   1.8665
     2.1577   2.1802   2.2354   2.3192   2.4460   2.4696   2.5206   2.6252
     3.0685   3.2768   3.9031   4.3399   4.3830   4.7147   4.8803   5.2493
     5.8273   6.0143   6.3082   6.4433

     occupation numbers 
     1.0000   1.0000   1.0000   1.0000   1.0000   1.0000   1.0000   1.0000
     1.0000   1.0000   1.0000   1.0000   1.0000   1.0000   1.0000   1.0000
     1.0000   1.0000   1.0000   1.0000   1.0000   1.0000   1.0000   1.0000
     1.0000   1.0000   1.0000   1.0000   1.0000   1.0000   1.0000   1.0000
     1.0000   1.0000   1.0000   1.0000

          k =-0.1667 0.1925-0.1147 (  3981 PWs)   bands (ev):

   -11.0224 -10.6637 -10.4173 -10.0959   0.8653   0.9832   1.0437   1.1132
     1.2783   1.3453   1.4046   1.4653   1.5702   1.6539   1.8081   1.8579
     2.1475   2.1721   2.2387   2.3123   2.4455   2.4900   2.5269   2.6151
     3.1235   3.2550   3.8897   4.3733   4.4256   4.6114   4.8675   5.2834
     5.8232   6.0348   6.2902   6.4378

     occupation numbers 
     1.0000   1.0000   1.0000   1.0000   1.0000   1.0000   1.0000   1.0000
     1.0000   1.0000   1.0000   1.0000   1.0000   1.0000   1.0000   1.0000
     1.0000   1.0000   1.0000   1.0000   1.0000   1.0000   1.0000   1.0000
     1.0000   1.0000   1.0000   1.0000   1.0000   1.0000   1.0000   1.0000
     1.0000   1.0000   1.0000   1.0000

          k = 0.1667-0.1925-0.1147 (  3981 PWs)   bands (ev):

   -11.0237 -10.6597 -10.4203 -10.0956   0.8670   0.9470   1.0804   1.1356
     1.2571   1.3634   1.3870   1.4697   1.5916   1.6662   1.7609   1.8537
     2.1448   2.1612   2.2245   2.3079   2.4497   2.4704   2.5400   2.6364
     3.1679   3.2492   3.8521   4.3826   4.4643   4.5760   4.9096   5.2773
     5.8298   6.0074   6.2919   6.4343

     occupation numbers 
     1.0000   1.0000   1.0000   1.0000   1.0000   1.0000   1.0000   1.0000
     1.0000   1.0000   1.0000   1.0000   1.0000   1.0000   1.0000   1.0000
     1.0000   1.0000   1.0000   1.0000   1.0000   1.0000   1.0000   1.0000
     1.0000   1.0000   1.0000   1.0000   1.0000   1.0000   1.0000   1.0000
     1.0000   1.0000   1.0000   1.0000

          k =-0.1667-0.1925 0.2294 (  3985 PWs)   bands (ev):

   -10.9344 -10.6099 -10.4824 -10.1533   0.7241   0.7800   0.8973   0.9416
     1.2366   1.3011   1.3899   1.4192   1.4413   1.5498   1.6242   1.7486
     2.2473   2.2673   2.2909   2.3477   2.4236   2.4377   2.5062   2.5648
     3.3852   3.8587   3.8908   4.5741   4.6698   5.0125   5.2011   5.3391
     5.5412   6.0468   6.1138   6.2773

     occupation numbers 
     1.0000   1.0000   1.0000   1.0000   1.0000   1.0000   1.0000   1.0000
     1.0000   1.0000   1.0000   1.0000   1.0000   1.0000   1.0000   1.0000
     1.0000   1.0000   1.0000   1.0000   1.0000   1.0000   1.0000   1.0000
     1.0000   1.0000   1.0000   1.0000   1.0000   1.0000   1.0000   1.0000
     1.0000   1.0000   1.0000   1.0000

          k =-0.1667 0.1925-0.2294 (  3985 PWs)   bands (ev):

   -10.9328 -10.6116 -10.4826 -10.1530   0.7107   0.7870   0.9021   0.9416
     1.2459   1.3049   1.3828   1.4214   1.4359   1.5599   1.6163   1.7279
     2.2381   2.2666   2.3002   2.3471   2.4263   2.4511   2.5138   2.5542
     3.4294   3.8432   3.9190   4.5485   4.6413   5.0491   5.1186   5.3773
     5.5344   6.0566   6.1164   6.2770

     occupation numbers 
     1.0000   1.0000   1.0000   1.0000   1.0000   1.0000   1.0000   1.0000
     1.0000   1.0000   1.0000   1.0000   1.0000   1.0000   1.0000   1.0000
     1.0000   1.0000   1.0000   1.0000   1.0000   1.0000   1.0000   1.0000
     1.0000   1.0000   1.0000   1.0000   1.0000   1.0000   1.0000   1.0000
     1.0000   1.0000   1.0000   1.0000

          k = 0.1667-0.1925-0.2294 (  3985 PWs)   bands (ev):

   -10.9350 -10.6017 -10.4908 -10.1526   0.7025   0.7959   0.8855   0.9759
     1.2217   1.2913   1.3799   1.4309   1.4640   1.5519   1.6156   1.7166
     2.2428   2.2597   2.2804   2.3408   2.4265   2.4530   2.5173   2.5694
     3.4792   3.7972   3.9077   4.5743   4.6059   5.0672   5.1572   5.4113
     5.5191   6.0393   6.1073   6.2615

     occupation numbers 
     1.0000   1.0000   1.0000   1.0000   1.0000   1.0000   1.0000   1.0000
     1.0000   1.0000   1.0000   1.0000   1.0000   1.0000   1.0000   1.0000
     1.0000   1.0000   1.0000   1.0000   1.0000   1.0000   1.0000   1.0000
     1.0000   1.0000   1.0000   1.0000   1.0000   1.0000   1.0000   1.0000
     1.0000   1.0000   1.0000   1.0000

          k =-0.1667 0.1925 0.3441 (  3968 PWs)   bands (ev):

   -10.8733 -10.5902 -10.5189 -10.1880   0.6223   0.6882   0.8139   0.8707
     1.2503   1.3080   1.3598   1.4013   1.4433   1.5227   1.5458   1.6539
     2.3036   2.3189   2.3301   2.3580   2.3981   2.4275   2.4944   2.5246
     3.6537   3.7295   4.2795   4.3030   4.9355   5.1047   5.6002   5.6683
     5.7129   5.7827   5.8506   5.9199

     occupation numbers 
     1.0000   1.0000   1.0000   1.0000   1.0000   1.0000   1.0000   1.0000
     1.0000   1.0000   1.0000   1.0000   1.0000   1.0000   1.0000   1.0000
     1.0000   1.0000   1.0000   1.0000   1.0000   1.0000   1.0000   1.0000
     1.0000   1.0000   1.0000   1.0000   1.0000   1.0000   1.0000   1.0000
     1.0000   1.0000   1.0000   1.0000

          k =-0.1667-0.2887 0.1147 (  3976 PWs)   bands (ev):

   -10.9919 -10.6997 -10.4137 -10.0958   0.8728   0.9438   1.0500   1.1031
     1.2768   1.3361   1.4226   1.4606   1.6205   1.6994   1.7608   1.7886
     2.1389   2.1614   2.2608   2.2800   2.4459   2.4646   2.5407   2.5939
     3.1823   3.3366   4.2445   4.3428   4.3968   4.4493   4.8825   4.9807
     6.0311   6.0961   6.2194   6.3042

     occupation numbers 
     1.0000   1.0000   1.0000   1.0000   1.0000   1.0000   1.0000   1.0000
     1.0000   1.0000   1.0000   1.0000   1.0000   1.0000   1.0000   1.0000
     1.0000   1.0000   1.0000   1.0000   1.0000   1.0000   1.0000   1.0000
     1.0000   1.0000   1.0000   1.0000   1.0000   1.0000   1.0000   1.0000
     1.0000   1.0000   1.0000   1.0000

          k =-0.1667-0.2887 0.2294 (  3974 PWs)   bands (ev):

   -10.9123 -10.6256 -10.4843 -10.1598   0.7098   0.7762   0.8924   0.9343
     1.2429   1.3071   1.3757   1.4259   1.4623   1.5473   1.6187   1.6867
     2.2412   2.2651   2.2994   2.3184   2.4198   2.4435   2.5106   2.5459
     3.6483   3.7580   4.2268   4.2691   4.9073   4.9665   5.0419   5.1780
     5.7394   5.8459   6.1700   6.2299

     occupation numbers 
     1.0000   1.0000   1.0000   1.0000   1.0000   1.0000   1.0000   1.0000
     1.0000   1.0000   1.0000   1.0000   1.0000   1.0000   1.0000   1.0000
     1.0000   1.0000   1.0000   1.0000   1.0000   1.0000   1.0000   1.0000
     1.0000   1.0000   1.0000   1.0000   1.0000   1.0000   1.0000   1.0000
     1.0000   1.0000   1.0000   1.0000

          k =-0.1667-0.0000 0.1147 (  3996 PWs)   bands (ev):

   -11.0943 -10.5632 -10.4373 -10.0984   0.8980   0.9913   1.0730   1.2058
     1.2441   1.3057   1.3873   1.4845   1.5365   1.6690   1.7724   1.9874
     2.1803   2.1992   2.2469   2.3448   2.4534   2.4727   2.5259   2.5665
     3.0519   3.1678   3.5449   3.7226   4.6796   5.1104   5.3197   5.5133
     5.6007   5.6919   6.4546   6.5701

     occupation numbers 
     1.0000   1.0000   1.0000   1.0000   1.0000   1.0000   1.0000   1.0000
     1.0000   1.0000   1.0000   1.0000   1.0000   1.0000   1.0000   1.0000
     1.0000   1.0000   1.0000   1.0000   1.0000   1.0000   1.0000   1.0000
     1.0000   1.0000   1.0000   1.0000   1.0000   1.0000   1.0000   1.0000
     1.0000   1.0000   1.0000   1.0000

          k =-0.1667-0.0000 0.2294 (  3997 PWs)   bands (ev):

   -10.9879 -10.5757 -10.4762 -10.1343   0.7227   0.8261   0.9005   1.0230
     1.1982   1.2702   1.3523   1.3989   1.4594   1.6138   1.6855   1.8119
     2.2514   2.2648   2.2744   2.3713   2.4357   2.4617   2.5410   2.6243
     3.0877   3.3892   3.9094   4.1754   5.0232   5.1910   5.2992   5.4985
     5.6330   5.8903   6.2635   6.3323

     occupation numbers 
     1.0000   1.0000   1.0000   1.0000   1.0000   1.0000   1.0000   1.0000
     1.0000   1.0000   1.0000   1.0000   1.0000   1.0000   1.0000   1.0000
     1.0000   1.0000   1.0000   1.0000   1.0000   1.0000   1.0000   1.0000
     1.0000   1.0000   1.0000   1.0000   1.0000   1.0000   1.0000   1.0000
     1.0000   1.0000   1.0000   1.0000

          k =-0.3333 0.1925 0.0000 (  3995 PWs)   bands (ev):

   -10.8838 -10.5974 -10.3520 -10.0674   0.8694   1.0122   1.2110   1.2704
     1.3657   1.4184   1.4611   1.6128   1.8025   1.8756   1.9457   2.0290
     2.2035   2.2136   2.2503   2.2879   2.4636   2.5126   2.5538   2.6524
     2.8878   3.0524   3.4561   3.7173   3.9792   4.2493   4.5172   4.6116
     5.5659   5.7873   5.9796   6.2051

     occupation numbers 
     1.0000   1.0000   1.0000   1.0000   1.0000   1.0000   1.0000   1.0000
     1.0000   1.0000   1.0000   1.0000   1.0000   1.0000   1.0000   1.0000
     1.0000   1.0000   1.0000   1.0000   1.0000   1.0000   1.0000   1.0000
     1.0000   1.0000   1.0000   1.0000   1.0000   1.0000   1.0000   1.0000
     1.0000   1.0000   1.0000   1.0000

          k =-0.3333-0.1925 0.1147 (  3990 PWs)   bands (ev):

   -10.8634 -10.5755 -10.3669 -10.0791   0.8325   0.9206   1.1200   1.2128
     1.3141   1.3643   1.4415   1.5637   1.6546   1.7752   1.8334   1.9949
     2.1888   2.2414   2.2876   2.3498   2.4677   2.5047   2.5408   2.6331
     2.9804   3.2023   3.5714   3.8402   4.0539   4.5063   4.6007   4.7031
     5.6157   5.7258   6.1001   6.1625

     occupation numbers 
     1.0000   1.0000   1.0000   1.0000   1.0000   1.0000   1.0000   1.0000
     1.0000   1.0000   1.0000   1.0000   1.0000   1.0000   1.0000   1.0000
     1.0000   1.0000   1.0000   1.0000   1.0000   1.0000   1.0000   1.0000
     1.0000   1.0000   1.0000   1.0000   1.0000   1.0000   1.0000   1.0000
     1.0000   1.0000   1.0000   1.0000

          k =-0.3333 0.1925-0.1147 (  3990 PWs)   bands (ev):

   -10.8600 -10.5804 -10.3664 -10.0781   0.8108   0.9389   1.1207   1.2196
     1.3150   1.3831   1.4394   1.5371   1.6369   1.8115   1.8606   1.9385
     2.1914   2.2315   2.2940   2.3342   2.4615   2.5089   2.5538   2.6394
     3.0613   3.1448   3.5898   3.8851   4.0115   4.4611   4.5626   4.7396
     5.6383   5.7782   6.0687   6.1267

     occupation numbers 
     1.0000   1.0000   1.0000   1.0000   1.0000   1.0000   1.0000   1.0000
     1.0000   1.0000   1.0000   1.0000   1.0000   1.0000   1.0000   1.0000
     1.0000   1.0000   1.0000   1.0000   1.0000   1.0000   1.0000   1.0000
     1.0000   1.0000   1.0000   1.0000   1.0000   1.0000   1.0000   1.0000
     1.0000   1.0000   1.0000   1.0000

          k = 0.3333-0.1925-0.1147 (  3990 PWs)   bands (ev):

   -10.8611 -10.5779 -10.3676 -10.0783   0.8122   0.9432   1.1325   1.2188
     1.3177   1.3651   1.3910   1.5900   1.6852   1.7807   1.8375   1.9310
     2.1849   2.2206   2.2744   2.3295   2.4776   2.5030   2.5791   2.6491
     3.0211   3.1755   3.6086   3.8979   3.9807   4.4843   4.5739   4.7453
     5.6180   5.7792   6.0585   6.1336

     occupation numbers 
     1.0000   1.0000   1.0000   1.0000   1.0000   1.0000   1.0000   1.0000
     1.0000   1.0000   1.0000   1.0000   1.0000   1.0000   1.0000   1.0000
     1.0000   1.0000   1.0000   1.0000   1.0000   1.0000   1.0000   1.0000
     1.0000   1.0000   1.0000   1.0000   1.0000   1.0000   1.0000   1.0000
     1.0000   1.0000   1.0000   1.0000

          k =-0.3333-0.1925 0.2294 (  3992 PWs)   bands (ev):

   -10.8104 -10.5350 -10.4060 -10.1023   0.6994   0.7345   0.9325   0.9652
     1.3063   1.3968   1.4369   1.4667   1.5414   1.6579   1.6995   1.8357
     2.2439   2.3056   2.3223   2.3792   2.4409   2.4746   2.5305   2.6128
     3.1443   3.4395   3.5191   3.9643   4.2866   4.9703   5.0261   5.2162
     5.3443   5.8632   5.9496   6.1293

     occupation numbers 
     1.0000   1.0000   1.0000   1.0000   1.0000   1.0000   1.0000   1.0000
     1.0000   1.0000   1.0000   1.0000   1.0000   1.0000   1.0000   1.0000
     1.0000   1.0000   1.0000   1.0000   1.0000   1.0000   1.0000   1.0000
     1.0000   1.0000   1.0000   1.0000   1.0000   1.0000   1.0000   1.0000
     1.0000   1.0000   1.0000   1.0000

          k =-0.3333 0.1925-0.2294 (  3992 PWs)   bands (ev):

   -10.8083 -10.5371 -10.4064 -10.1019   0.6809   0.7458   0.9268   0.9848
     1.3034   1.4005   1.4466   1.4574   1.5117   1.6817   1.7360   1.7698
     2.2512   2.3065   2.3227   2.3751   2.4380   2.4869   2.5407   2.6101
     3.2016   3.4133   3.5405   3.9428   4.2791   4.9549   5.0127   5.2241
     5.3398   5.8396   5.9697   6.1331

     occupation numbers 
     1.0000   1.0000   1.0000   1.0000   1.0000   1.0000   1.0000   1.0000
     1.0000   1.0000   1.0000   1.0000   1.0000   1.0000   1.0000   1.0000
     1.0000   1.0000   1.0000   1.0000   1.0000   1.0000   1.0000   1.0000
     1.0000   1.0000   1.0000   1.0000   1.0000   1.0000   1.0000   1.0000
     1.0000   1.0000   1.0000   1.0000

          k = 0.3333-0.1925-0.2294 (  3992 PWs)   bands (ev):

   -10.8098 -10.5329 -10.4090 -10.1022   0.6804   0.7572   0.9457   0.9553
     1.3076   1.3421   1.4277   1.5076   1.5930   1.6433   1.7289   1.7517
     2.2709   2.2828   2.2965   2.3614   2.4607   2.5056   2.5353   2.6190
     3.1766   3.4328   3.5729   3.8952   4.2951   4.9713   5.0162   5.2561
     5.3328   5.8250   5.9722   6.1145

     occupation numbers 
     1.0000   1.0000   1.0000   1.0000   1.0000   1.0000   1.0000   1.0000
     1.0000   1.0000   1.0000   1.0000   1.0000   1.0000   1.0000   1.0000
     1.0000   1.0000   1.0000   1.0000   1.0000   1.0000   1.0000   1.0000
     1.0000   1.0000   1.0000   1.0000   1.0000   1.0000   1.0000   1.0000
     1.0000   1.0000   1.0000   1.0000

          k =-0.3333 0.1925 0.3441 (  3984 PWs)   bands (ev):

   -10.7796 -10.4993 -10.4440 -10.1154   0.6179   0.6370   0.8461   0.8602
     1.3383   1.3636   1.4446   1.5037   1.5132   1.5990   1.6475   1.6930
     2.2900   2.3243   2.3539   2.3812   2.4316   2.4668   2.5363   2.5923
     3.3412   3.3869   3.6678   3.7249   4.6841   4.9065   5.3382   5.5312
     5.6249   5.6872   5.8141   5.9377

     occupation numbers 
     1.0000   1.0000   1.0000   1.0000   1.0000   1.0000   1.0000   1.0000
     1.0000   1.0000   1.0000   1.0000   1.0000   1.0000   1.0000   1.0000
     1.0000   1.0000   1.0000   1.0000   1.0000   1.0000   1.0000   1.0000
     1.0000   1.0000   1.0000   1.0000   1.0000   1.0000   1.0000   1.0000
     1.0000   1.0000   1.0000   1.0000

          k =-0.3333-0.2887 0.1147 (  3980 PWs)   bands (ev):

   -10.8470 -10.5933 -10.3667 -10.0777   0.8252   0.8800   1.1163   1.2058
     1.3137   1.3674   1.4267   1.5592   1.6538   1.7813   1.8578   1.9128
     2.1971   2.2404   2.3155   2.3296   2.4661   2.5034   2.5869   2.6302
     2.9894   3.1409   3.7532   3.8213   4.3096   4.4369   4.4811   4.5191
     5.8709   5.9082   5.9240   6.0706

     occupation numbers 
     1.0000   1.0000   1.0000   1.0000   1.0000   1.0000   1.0000   1.0000
     1.0000   1.0000   1.0000   1.0000   1.0000   1.0000   1.0000   1.0000
     1.0000   1.0000   1.0000   1.0000   1.0000   1.0000   1.0000   1.0000
     1.0000   1.0000   1.0000   1.0000   1.0000   1.0000   1.0000   1.0000
     1.0000   1.0000   1.0000   1.0000

          k =-0.3333-0.2887 0.2294 (  3984 PWs)   bands (ev):

   -10.8010 -10.5396 -10.4086 -10.1042   0.6867   0.7149   0.9097   0.9322
     1.3216   1.3898   1.4412   1.4891   1.5623   1.6331   1.7160   1.7876
     2.2654   2.3119   2.3329   2.3673   2.4550   2.4724   2.5310   2.5690
     3.2285   3.3359   3.6721   3.7626   4.6755   4.7739   5.0532   5.1451
     5.6226   5.6763   6.0109   6.0961

     occupation numbers 
     1.0000   1.0000   1.0000   1.0000   1.0000   1.0000   1.0000   1.0000
     1.0000   1.0000   1.0000   1.0000   1.0000   1.0000   1.0000   1.0000
     1.0000   1.0000   1.0000   1.0000   1.0000   1.0000   1.0000   1.0000
     1.0000   1.0000   1.0000   1.0000   1.0000   1.0000   1.0000   1.0000
     1.0000   1.0000   1.0000   1.0000

          k =-0.3333-0.0962 0.0000 (  3993 PWs)   bands (ev):

   -10.9167 -10.5554 -10.3568 -10.0716   0.9086   1.0726   1.2001   1.2543
     1.3439   1.4248   1.4877   1.7365   1.7949   1.8756   2.0423   2.1118
     2.1582   2.1897   2.2405   2.3294   2.4684   2.4887   2.5108   2.5545
     2.8902   3.0080   3.1578   3.6227   3.9747   4.4962   4.5881   4.8309
     5.1937   5.5296   6.1390   6.2332

     occupation numbers 
     1.0000   1.0000   1.0000   1.0000   1.0000   1.0000   1.0000   1.0000
     1.0000   1.0000   1.0000   1.0000   1.0000   1.0000   1.0000   1.0000
     1.0000   1.0000   1.0000   1.0000   1.0000   1.0000   1.0000   1.0000
     1.0000   1.0000   1.0000   1.0000   1.0000   1.0000   1.0000   1.0000
     1.0000   1.0000   1.0000   1.0000

          k =-0.3333 0.0962 0.1147 (  3990 PWs)   bands (ev):

   -10.8874 -10.5489 -10.3685 -10.0805   0.8412   1.0177   1.1450   1.2287
     1.2959   1.3568   1.3893   1.6552   1.7354   1.7822   1.8445   1.9730
     2.1542   2.1955   2.2524   2.3347   2.4767   2.5190   2.5486   2.6237
     3.0957   3.2220   3.3298   3.6013   4.0773   4.5678   4.7940   4.8835
     5.3478   5.5144   6.0974   6.2078

     occupation numbers 
     1.0000   1.0000   1.0000   1.0000   1.0000   1.0000   1.0000   1.0000
     1.0000   1.0000   1.0000   1.0000   1.0000   1.0000   1.0000   1.0000
     1.0000   1.0000   1.0000   1.0000   1.0000   1.0000   1.0000   1.0000
     1.0000   1.0000   1.0000   1.0000   1.0000   1.0000   1.0000   1.0000
     1.0000   1.0000   1.0000   1.0000

          k =-0.3333-0.0962-0.1147 (  3990 PWs)   bands (ev):

   -10.8894 -10.5457 -10.3698 -10.0803   0.8456   1.0126   1.1426   1.2375
     1.3187   1.3356   1.3955   1.6298   1.7192   1.7482   1.9152   2.0001
     2.1652   2.1894   2.2489   2.3502   2.4743   2.5059   2.5583   2.5968
     3.0697   3.2249   3.2962   3.5802   4.1304   4.5626   4.8155   4.8828
     5.3317   5.4688   6.1213   6.2451

     occupation numbers 
     1.0000   1.0000   1.0000   1.0000   1.0000   1.0000   1.0000   1.0000
     1.0000   1.0000   1.0000   1.0000   1.0000   1.0000   1.0000   1.0000
     1.0000   1.0000   1.0000   1.0000   1.0000   1.0000   1.0000   1.0000
     1.0000   1.0000   1.0000   1.0000   1.0000   1.0000   1.0000   1.0000
     1.0000   1.0000   1.0000   1.0000

          k = 0.3333 0.0962-0.1147 (  3990 PWs)   bands (ev):

   -10.8893 -10.5470 -10.3676 -10.0813   0.8600   0.9924   1.1350   1.2240
     1.3013   1.3289   1.4626   1.6179   1.7018   1.7530   1.8813   2.0420
     2.1610   2.2061   2.2664   2.3506   2.4674   2.4993   2.5402   2.5983
     3.0800   3.2391   3.2873   3.5613   4.1383   4.5707   4.8047   4.8720
     5.3418   5.4748   6.1354   6.2173

     occupation numbers 
     1.0000   1.0000   1.0000   1.0000   1.0000   1.0000   1.0000   1.0000
     1.0000   1.0000   1.0000   1.0000   1.0000   1.0000   1.0000   1.0000
     1.0000   1.0000   1.0000   1.0000   1.0000   1.0000   1.0000   1.0000
     1.0000   1.0000   1.0000   1.0000   1.0000   1.0000   1.0000   1.0000
     1.0000   1.0000   1.0000   1.0000

          k =-0.3333 0.0962 0.2294 (  3979 PWs)   bands (ev):

   -10.8264 -10.5239 -10.4057 -10.0984   0.7093   0.7943   1.0018   1.0405
     1.2515   1.3083   1.3923   1.5072   1.6178   1.6812   1.7305   1.7691
     2.2251   2.2590   2.2830   2.3540   2.4595   2.5094   2.5801   2.6818
     3.1758   3.3688   3.6277   3.8397   4.1208   4.9367   5.0117   5.0793
     5.4633   5.7770   5.8844   6.1753

     occupation numbers 
     1.0000   1.0000   1.0000   1.0000   1.0000   1.0000   1.0000   1.0000
     1.0000   1.0000   1.0000   1.0000   1.0000   1.0000   1.0000   1.0000
     1.0000   1.0000   1.0000   1.0000   1.0000   1.0000   1.0000   1.0000
     1.0000   1.0000   1.0000   1.0000   1.0000   1.0000   1.0000   1.0000
     1.0000   1.0000   1.0000   1.0000

          k =-0.3333-0.0962-0.2294 (  3979 PWs)   bands (ev):

   -10.8271 -10.5240 -10.4056 -10.0975   0.7079   0.8028   0.9926   1.0422
     1.2688   1.3138   1.3777   1.4972   1.6092   1.6470   1.7713   1.8170
     2.2100   2.2649   2.2802   2.3476   2.4654   2.4970   2.5825   2.6731
     3.1314   3.3480   3.6206   3.8626   4.1425   4.9289   5.0364   5.0705
     5.4634   5.7600   5.8797   6.2128

     occupation numbers 
     1.0000   1.0000   1.0000   1.0000   1.0000   1.0000   1.0000   1.0000
     1.0000   1.0000   1.0000   1.0000   1.0000   1.0000   1.0000   1.0000
     1.0000   1.0000   1.0000   1.0000   1.0000   1.0000   1.0000   1.0000
     1.0000   1.0000   1.0000   1.0000   1.0000   1.0000   1.0000   1.0000
     1.0000   1.0000   1.0000   1.0000

          k = 0.3333 0.0962-0.2294 (  3979 PWs)   bands (ev):

   -10.8270 -10.5261 -10.4026 -10.0986   0.7247   0.7767   1.0033   1.0246
     1.2625   1.3412   1.4112   1.4668   1.5876   1.6453   1.7406   1.8636
     2.1973   2.2797   2.3036   2.3477   2.4492   2.4890   2.5820   2.6757
     3.1201   3.3674   3.6200   3.8315   4.1793   4.9327   4.9899   5.0980
     5.4369   5.7959   5.8923   6.1814

     occupation numbers 
     1.0000   1.0000   1.0000   1.0000   1.0000   1.0000   1.0000   1.0000
     1.0000   1.0000   1.0000   1.0000   1.0000   1.0000   1.0000   1.0000
     1.0000   1.0000   1.0000   1.0000   1.0000   1.0000   1.0000   1.0000
     1.0000   1.0000   1.0000   1.0000   1.0000   1.0000   1.0000   1.0000
     1.0000   1.0000   1.0000   1.0000

          k =-0.3333-0.0962 0.3441 (  3968 PWs)   bands (ev):

   -10.7903 -10.5092 -10.4334 -10.1060   0.6393   0.6821   0.9034   0.9368
     1.2919   1.3515   1.4006   1.4636   1.5016   1.5845   1.7027   1.7856
     2.2148   2.3137   2.3215   2.3608   2.4298   2.4611   2.6147   2.6877
     3.1742   3.3007   3.8818   3.9344   4.3137   4.5317   5.3313   5.5342
     5.6875   5.7141   5.8642   5.9533

     occupation numbers 
     1.0000   1.0000   1.0000   1.0000   1.0000   1.0000   1.0000   1.0000
     1.0000   1.0000   1.0000   1.0000   1.0000   1.0000   1.0000   1.0000
     1.0000   1.0000   1.0000   1.0000   1.0000   1.0000   1.0000   1.0000
     1.0000   1.0000   1.0000   1.0000   1.0000   1.0000   1.0000   1.0000
     1.0000   1.0000   1.0000   1.0000

          k =-0.3333 0.0000 0.1147 (  4004 PWs)   bands (ev):

   -10.8999 -10.5352 -10.3683 -10.0821   0.8764   1.0319   1.1415   1.2328
     1.2672   1.3422   1.4359   1.6417   1.7248   1.8616   1.9019   1.9827
     2.1456   2.1761   2.2546   2.3551   2.4616   2.5196   2.5286   2.5989
     3.0579   3.2188   3.2729   3.4212   4.2931   4.4478   4.8914   5.1298
     5.2036   5.2637   6.0795   6.2495

     occupation numbers 
     1.0000   1.0000   1.0000   1.0000   1.0000   1.0000   1.0000   1.0000
     1.0000   1.0000   1.0000   1.0000   1.0000   1.0000   1.0000   1.0000
     1.0000   1.0000   1.0000   1.0000   1.0000   1.0000   1.0000   1.0000
     1.0000   1.0000   1.0000   1.0000   1.0000   1.0000   1.0000   1.0000
     1.0000   1.0000   1.0000   1.0000

          k =-0.3333 0.0000 0.2294 (  3982 PWs)   bands (ev):

   -10.8344 -10.5216 -10.4019 -10.0967   0.7384   0.7976   1.0364   1.0864
     1.2167   1.3032   1.3760   1.4850   1.6176   1.6806   1.7559   1.8324
     2.1734   2.2603   2.2877   2.3413   2.4540   2.5000   2.6148   2.7030
     3.1844   3.3182   3.6023   3.7154   4.2320   4.8270   5.0064   5.0580
     5.6123   5.6436   5.8393   6.2048

     occupation numbers 
     1.0000   1.0000   1.0000   1.0000   1.0000   1.0000   1.0000   1.0000
     1.0000   1.0000   1.0000   1.0000   1.0000   1.0000   1.0000   1.0000
     1.0000   1.0000   1.0000   1.0000   1.0000   1.0000   1.0000   1.0000
     1.0000   1.0000   1.0000   1.0000   1.0000   1.0000   1.0000   1.0000
     1.0000   1.0000   1.0000   1.0000

          k = 0.5000 0.1925 0.1147 (  3990 PWs)   bands (ev):

   -10.7613 -10.5574 -10.3287 -10.0770   0.8392   0.8633   1.2029   1.2314
     1.3326   1.3766   1.4690   1.5160   1.7048   1.7898   1.9181   1.9828
     2.2626   2.2852   2.3133   2.3798   2.4719   2.5221   2.5529   2.5875
     2.9970   3.1197   3.4623   3.5476   4.1369   4.1801   4.5095   4.5573
     5.6296   5.7366   5.8168   5.9641

     occupation numbers 
     1.0000   1.0000   1.0000   1.0000   1.0000   1.0000   1.0000   1.0000
     1.0000   1.0000   1.0000   1.0000   1.0000   1.0000   1.0000   1.0000
     1.0000   1.0000   1.0000   1.0000   1.0000   1.0000   1.0000   1.0000
     1.0000   1.0000   1.0000   1.0000   1.0000   1.0000   1.0000   1.0000
     1.0000   1.0000   1.0000   1.0000

          k = 0.5000 0.1925 0.2294 (  3984 PWs)   bands (ev):

   -10.7418 -10.5031 -10.3647 -10.0775   0.6808   0.6989   0.9307   0.9601
     1.3691   1.4059   1.4679   1.5071   1.6527   1.7083   1.7599   1.8333
     2.3020   2.3100   2.3606   2.4178   2.4729   2.4930   2.5676   2.5906
     3.0459   3.1539   3.3145   3.4030   4.5536   4.6096   5.1599   5.1995
     5.4977   5.5604   5.8982   6.0232

     occupation numbers 
     1.0000   1.0000   1.0000   1.0000   1.0000   1.0000   1.0000   1.0000
     1.0000   1.0000   1.0000   1.0000   1.0000   1.0000   1.0000   1.0000
     1.0000   1.0000   1.0000   1.0000   1.0000   1.0000   1.0000   1.0000
     1.0000   1.0000   1.0000   1.0000   1.0000   1.0000   1.0000   1.0000
     1.0000   1.0000   1.0000   1.0000

          k = 0.5000 0.0962 0.1147 (  3994 PWs)   bands (ev):

   -10.7631 -10.5612 -10.3262 -10.0766   0.8843   0.9268   1.2133   1.2613
     1.3281   1.3787   1.4781   1.4934   1.7952   1.8371   1.9175   1.9709
     2.1902   2.2124   2.3039   2.3622   2.4795   2.5263   2.6141   2.6418
     2.9741   3.1196   3.5265   3.6116   3.9464   3.9794   4.5608   4.6001
     5.5783   5.6220   5.7180   5.8584

     occupation numbers 
     1.0000   1.0000   1.0000   1.0000   1.0000   1.0000   1.0000   1.0000
     1.0000   1.0000   1.0000   1.0000   1.0000   1.0000   1.0000   1.0000
     1.0000   1.0000   1.0000   1.0000   1.0000   1.0000   1.0000   1.0000
     1.0000   1.0000   1.0000   1.0000   1.0000   1.0000   1.0000   1.0000
     1.0000   1.0000   1.0000   1.0000

          k = 0.5000 0.0962 0.2294 (  3982 PWs)   bands (ev):

   -10.7429 -10.5055 -10.3637 -10.0780   0.7261   0.7493   1.0029   1.0388
     1.3148   1.3478   1.4469   1.4873   1.6938   1.7284   1.7465   1.8029
     2.2468   2.2684   2.3363   2.3847   2.4966   2.5198   2.6054   2.6246
     3.1185   3.2391   3.4458   3.5184   4.2806   4.3302   5.1696   5.1959
     5.3274   5.3954   5.9154   6.0257

     occupation numbers 
     1.0000   1.0000   1.0000   1.0000   1.0000   1.0000   1.0000   1.0000
     1.0000   1.0000   1.0000   1.0000   1.0000   1.0000   1.0000   1.0000
     1.0000   1.0000   1.0000   1.0000   1.0000   1.0000   1.0000   1.0000
     1.0000   1.0000   1.0000   1.0000   1.0000   1.0000   1.0000   1.0000
     1.0000   1.0000   1.0000   1.0000

     highest occupied level (ev):     6.7508

!    total energy              =    -723.21949992 Ry
     estimated scf accuracy    <          6.5E-09 Ry

     The total energy is the sum of the following terms:
     one-electron contribution =    -316.10621975 Ry
     hartree contribution      =     239.67537547 Ry
     xc contribution           =    -219.09317315 Ry
     ewald contribution        =    -427.69548249 Ry

     convergence has been achieved in  19 iterations

     Forces acting on atoms (cartesian axes, Ry/au):

     atom    1 type  1   force =     0.00669997    0.00767086   -0.00670458
     atom    2 type  1   force =    -0.01094786   -0.00452555   -0.08270886
     atom    3 type  2   force =     0.01019720   -0.01017416   -0.00462740
     atom    4 type  2   force =    -0.00750185   -0.00284624    0.09214040
     atom    5 type  1   force =     0.00229210   -0.01467427   -0.05441705
     atom    6 type  1   force =     0.00011404    0.00648527   -0.09253860
     atom    7 type  2   force =     0.00186689    0.00752815    0.05866657
     atom    8 type  2   force =    -0.00272048    0.01053595    0.09018952
     The non-local contrib.  to forces
     atom    1 type  1   force =     0.03412265   -0.06637532   -0.22759171
     atom    2 type  1   force =    -0.05190719    0.03408849   -0.37313610
     atom    3 type  2   force =    -0.10687702   -0.03750767   -0.25232301
     atom    4 type  2   force =     0.05879862   -0.05111754   -0.25942577
     atom    5 type  1   force =     0.01774096   -0.00100127   -0.35910410
     atom    6 type  1   force =    -0.00832149   -0.01216597   -0.38897787
     atom    7 type  2   force =     0.03408317   -0.00275629   -0.24627699
     atom    8 type  2   force =     0.00011886    0.03803938   -0.23596178
     The ionic contribution  to forces
     atom    1 type  1   force =     0.45414308    0.13475617    0.12881621
     atom    2 type  1   force =    -0.57125816   -0.39646328   -3.85097787
     atom    3 type  2   force =     0.85597573   -0.09263522    0.63584553
     atom    4 type  2   force =    -0.56493161    0.06999930    3.54668788
     atom    5 type  1   force =     0.03231151   -0.55726200   -1.50852097
     atom    6 type  1   force =     0.02981192    0.60063866   -3.89060880
     atom    7 type  2   force =    -0.23537863    0.17955762    1.89708676
     atom    8 type  2   force =    -0.00067383    0.06140874    3.04167125
     The local contribution  to forces
     atom    1 type  1   force =    -0.47871198   -0.06353347    0.07800921
     atom    2 type  1   force =     0.60755275    0.35881469    4.11054852
     atom    3 type  2   force =    -0.73978848    0.11955674   -0.39044410
     atom    4 type  2   force =     0.49908942   -0.02219274   -3.19673201
     atom    5 type  1   force =    -0.04640947    0.54133491    1.78675718
     atom    6 type  1   force =    -0.02184567   -0.58176307    4.15421067
     atom    7 type  2   force =     0.20347164   -0.16927079   -1.59390264
     atom    8 type  2   force =    -0.00217735   -0.08852903   -2.71696215
     The core correction contribution to forces
     atom    1 type  1   force =    -0.00284676    0.00284142    0.01408573
     atom    2 type  1   force =     0.00466447   -0.00096396    0.03084095
     atom    3 type  2   force =     0.00089044    0.00042972    0.00230403
     atom    4 type  2   force =    -0.00046179    0.00047872    0.00161385
     atom    5 type  1   force =    -0.00135292    0.00223841    0.02645038
     atom    6 type  1   force =     0.00046923   -0.00022587    0.03285127
     atom    7 type  2   force =    -0.00031105   -0.00002076    0.00177461
     atom    8 type  2   force =     0.00001297   -0.00039739    0.00144283
     The Hubbard contrib.    to forces
     atom    1 type  1   force =     0.00000000    0.00000000    0.00000000
     atom    2 type  1   force =     0.00000000    0.00000000    0.00000000
     atom    3 type  2   force =     0.00000000    0.00000000    0.00000000
     atom    4 type  2   force =     0.00000000    0.00000000    0.00000000
     atom    5 type  1   force =     0.00000000    0.00000000    0.00000000
     atom    6 type  1   force =     0.00000000    0.00000000    0.00000000
     atom    7 type  2   force =     0.00000000    0.00000000    0.00000000
     atom    8 type  2   force =     0.00000000    0.00000000    0.00000000
     The SCF correction term to forces
     atom    1 type  1   force =    -0.00000714   -0.00001787   -0.00002436
     atom    2 type  1   force =     0.00000013   -0.00000143    0.00001530
     atom    3 type  2   force =    -0.00000361   -0.00001767   -0.00001020
     atom    4 type  2   force =     0.00000339   -0.00001390   -0.00000389
     atom    5 type  1   force =     0.00000189    0.00001575    0.00000012
     atom    6 type  1   force =    -0.00000008    0.00000159   -0.00001421
     atom    7 type  2   force =     0.00000163    0.00001843   -0.00001551
     atom    8 type  2   force =    -0.00000126    0.00001432   -0.00000098

     Total force =     0.198632     Total SCF correction =     0.000056

     init_run     :      4.15s CPU      4.34s WALL (       1 calls)
     electrons    :    177.59s CPU    186.38s WALL (       1 calls)
     forces       :      1.28s CPU      1.30s WALL (       1 calls)

     Called by init_run:
     wfcinit      :      2.53s CPU      2.66s WALL (       1 calls)
     wfcinit:atom :      0.04s CPU      0.04s WALL (      28 calls)
     wfcinit:wfcr :      2.30s CPU      2.43s WALL (      28 calls)
     potinit      :      0.66s CPU      0.67s WALL (       1 calls)
     hinit0       :      0.86s CPU      0.88s WALL (       1 calls)

     Called by electrons:
     c_bands      :    160.01s CPU    167.67s WALL (      19 calls)
     sum_band     :     15.19s CPU     16.22s WALL (      19 calls)
     v_of_rho     :      1.14s CPU      1.21s WALL (      20 calls)
     v_h          :      0.07s CPU      0.07s WALL (      20 calls)
     v_xc         :      1.13s CPU      1.19s WALL (      21 calls)
     newd         :      1.07s CPU      1.10s WALL (      20 calls)
     mix_rho      :      0.15s CPU      0.17s WALL (      19 calls)

     Called by c_bands:
     init_us_2    :      1.22s CPU      1.24s WALL (    1120 calls)
     init_us_2:cp :      1.21s CPU      1.24s WALL (    1120 calls)
     cegterg      :    145.83s CPU    153.44s WALL (     532 calls)

     Called by sum_band:
     sum_band:wei :      0.00s CPU      0.00s WALL (      19 calls)
     sum_band:loo :     13.91s CPU     14.86s WALL (      19 calls)
     sum_band:buf :      0.10s CPU      0.11s WALL (     532 calls)
     sum_band:ini :      0.55s CPU      0.56s WALL (     532 calls)
     sum_band:cal :      1.53s CPU      1.58s WALL (     532 calls)
     sum_band:bec :      0.04s CPU      0.04s WALL (     532 calls)
     addusdens    :      1.14s CPU      1.19s WALL (      19 calls)
                                        0.00s GPU  (      19 calls)
     addusd:skk   :      0.01s CPU      0.01s WALL (      38 calls)
                                        0.00s GPU  (      38 calls)

     Called by *egterg:
     cdiaghg      :     13.16s CPU     13.19s WALL (    3483 calls)
     cegterg:over :      6.72s CPU      6.93s WALL (    2951 calls)
     cegterg:upda :      4.32s CPU      4.33s WALL (    2951 calls)
     cegterg:last :     10.00s CPU     10.02s WALL (    2056 calls)
     h_psi        :    103.92s CPU    111.31s WALL (    3511 calls)
     s_psi        :      6.95s CPU      6.98s WALL (    3511 calls)
     g_psi        :      0.64s CPU      0.64s WALL (    2951 calls)

     Called by h_psi:
     h_psi:calbec :      6.74s CPU      7.08s WALL (    3511 calls)
     vloc_psi     :     89.65s CPU     96.65s WALL (    3511 calls)
     add_vuspsi   :      7.17s CPU      7.21s WALL (    3511 calls)

     General routines
     calbec       :      8.56s CPU      8.96s WALL (    4155 calls)
     fft          :      0.75s CPU      0.84s WALL (     269 calls)
     ffts         :      0.19s CPU      0.19s WALL (      39 calls)
     fftw         :     88.13s CPU     95.20s WALL (  174316 calls)
     interpolate  :      0.23s CPU      0.23s WALL (      20 calls)

     Parallel routines

     PWSCF        :   3m 3.39s CPU   3m12.40s WALL


   This run was terminated on:  16:23:31  24Sep2025            

=------------------------------------------------------------------------------=
   JOB DONE.
=------------------------------------------------------------------------------=
Note: The following floating-point exceptions are signalling: IEEE_INVALID_FLAG
Note: The following floating-point exceptions are signalling: IEEE_INVALID_FLAG
Note: The following floating-point exceptions are signalling: IEEE_INVALID_FLAG
Note: The following floating-point exceptions are signalling: IEEE_INVALID_FLAG
