
     Program PWSCF v.7.0 starts on  1Oct2025 at 22:22:51 

     This program is part of the open-source Quantum ESPRESSO suite
     for quantum simulation of materials; please cite
         "P. Giannozzi et al., J. Phys.:Condens. Matter 21 395502 (2009);
         "P. Giannozzi et al., J. Phys.:Condens. Matter 29 465901 (2017);
         "P. Giannozzi et al., J. Chem. Phys. 152 154105 (2020);
          URL http://www.quantum-espresso.org", 
     in publications or presentations arising from this work. More details at
     http://www.quantum-espresso.org/quote

     Parallel version (MPI & OpenMP), running on      64 processor cores
     Number of MPI processes:                32
     Threads/MPI process:                     2

     MPI processes distributed on     1 nodes
     K-points division:     npool     =       8
     R & G space division:  proc/nbgrp/npool/nimage =       4
     104860 MiB available memory on the printing compute node when the environment starts

     Reading input from /home/jvc/QEspresso7.2/ZnO_database/scripts/random_1x2x2.in/ZnO-3.01-1.61-122-0.06-2.in
Warning: card &CELL ignored
Warning: card / ignored
Warning: card &FCP ignored
Warning: card / ignored
Warning: card &RISM ignored
Warning: card / ignored

     Current dimensions of program PWSCF are:
     Max number of different atomic species (ntypx) = 10
     Max number of k-points (npk) =  40000
     Max angular momentum in pseudopotentials (lmaxx) =  4
     file Zn.upf: wavefunction(s)  3D renormalized

     Subspace diagonalization in iterative solution of the eigenvalue problem:
     one sub-group per band group will be used
     scalapack distributed-memory algorithm (size of sub-group:  2*  2 procs)


     Parallelization info
     --------------------
     sticks:   dense  smooth     PW     G-vecs:    dense   smooth      PW
     Min         445     222     69                34667    12274    2155
     Max         446     223     70                34672    12279    2162
     Sum        1783     889    279               138679    49103    8637

     Using Slab Decomposition



     bravais-lattice index     =            0
     lattice parameter (alat)  =       5.6845  a.u.
     unit-cell volume          =    1027.2540 (a.u.)^3
     number of atoms/cell      =           16
     number of atomic types    =            2
     number of electrons       =       144.00
     number of Kohn-Sham states=           72
     kinetic-energy cutoff     =      50.0000  Ry
     charge density cutoff     =     400.0000  Ry
     scf convergence threshold =      1.0E-08
     mixing beta               =       0.3000
     number of iterations used =            8  plain     mixing
     Exchange-correlation= PBE
                           (   1   4   3   4   0   0   0)

     celldm(1)=   5.684546  celldm(2)=   0.000000  celldm(3)=   0.000000
     celldm(4)=   0.000000  celldm(5)=   0.000000  celldm(6)=   0.000000

     crystal axes: (cart. coord. in units of alat)
               a(1) = (   1.000000   0.000000   0.000000 )  
               a(2) = (  -1.000000   1.732051   0.000000 )  
               a(3) = (   0.000000   0.000000   3.228717 )  

     reciprocal axes: (cart. coord. in units 2 pi/alat)
               b(1) = (  1.000000  0.577350 -0.000000 )  
               b(2) = (  0.000000  0.577350  0.000000 )  
               b(3) = (  0.000000 -0.000000  0.309721 )  


     PseudoPot. # 1 for Zn read from file:
     /home/jvc/QEspresso7.2/ZnO_database/pseudos/Zn.upf
     MD5 check sum: 7f56cabf9682ed8c977c2f7d0c5985c5
     Pseudo is Ultrasoft + core correction, Zval = 12.0
     Generated using &quot;atomic&quot; code by A. Dal Corso  v.6.2.2
     Using radial grid of 1201 points,  6 beta functions with: 
                l(1) =   0
                l(2) =   0
                l(3) =   1
                l(4) =   1
                l(5) =   2
                l(6) =   2
     Q(r) pseudized with 0 coefficients 


     PseudoPot. # 2 for O  read from file:
     /home/jvc/QEspresso7.2/ZnO_database/pseudos/O.upf
     MD5 check sum: 91400c9766925bcf19f520983a725ff0
     Pseudo is Ultrasoft + core correction, Zval =  6.0
     Generated using &quot;atomic&quot; code by A. Dal Corso  v.6.3MaX
     Using radial grid of 1095 points,  4 beta functions with: 
                l(1) =   0
                l(2) =   0
                l(3) =   1
                l(4) =   1
     Q(r) pseudized with 0 coefficients 


     atomic species   valence    mass     pseudopotential
        Zn            12.00    65.38000     Zn( 1.00)
        O              6.00    15.99900     O ( 1.00)

     No symmetry found


                                    s                        frac. trans.

      isym =  1     identity                                     

 cryst.   s( 1) = (     1          0          0      )
                  (     0          1          0      )
                  (     0          0          1      )

 cart.    s( 1) = (  1.0000000  0.0000000  0.0000000 )
                  (  0.0000000  1.0000000  0.0000000 )
                  (  0.0000000  0.0000000  1.0000000 )


   Cartesian axes

     site n.     atom                  positions (alat units)
         1           Zn  tau(   1) = (   0.5368676   0.3015564   0.7655937  )
         2           Zn  tau(   2) = (   0.0162599   0.5678855   0.0011095  )
         3           O   tau(   3) = (   0.4883270   0.3110758   1.3961732  )
         4           O   tau(   4) = (   0.0151780   0.5619149   0.6074348  )
         5           Zn  tau(   5) = (   0.4897235   0.3057284   2.4002655  )
         6           Zn  tau(   6) = (  -0.0231484   0.6099943   1.6355232  )
         7           O   tau(   7) = (   0.5321344   0.2614316   3.0420224  )
         8           O   tau(   8) = (   0.0142609   0.5700981   2.2335222  )
         9           Zn  tau(   9) = (  -0.0025536   1.1793494   0.8227234  )
        10           Zn  tau(  10) = (  -0.4959684   1.4304256   0.0324770  )
        11           O   tau(  11) = (   0.0180094   1.1679904   1.4067243  )
        12           O   tau(  12) = (  -0.4834987   1.4519828   0.5987654  )
        13           Zn  tau(  13) = (   0.0137310   1.1564273   2.4344240  )
        14           Zn  tau(  14) = (  -0.5008877   1.4647679   1.5974100  )
        15           O   tau(  15) = (   0.0212499   1.1673755   3.0420449  )
        16           O   tau(  16) = (  -0.4981714   1.4413484   2.2419642  )

   Crystallographic axes

     site n.     atom                  positions (cryst. coord.)
         1           Zn  tau(   1) = (  0.7109713  0.1741037  0.2371201  )
         2           Zn  tau(   2) = (  0.3441288  0.3278689  0.0003436  )
         3           O   tau(   3) = (  0.6679267  0.1795997  0.4324236  )
         4           O   tau(   4) = (  0.3395997  0.3244217  0.1881351  )
         5           Zn  tau(   5) = (  0.6662359  0.1765124  0.7434116  )
         6           Zn  tau(   6) = (  0.3290319  0.3521804  0.5065552  )
         7           O   tau(   7) = (  0.6830720  0.1509376  0.9421769  )
         8           O   tau(   8) = (  0.3434072  0.3291463  0.6917678  )
         9           Zn  tau(   9) = (  0.6783441  0.6808977  0.2548144  )
        10           Zn  tau(  10) = (  0.3298882  0.8258566  0.0100588  )
        11           O   tau(  11) = (  0.6923490  0.6743396  0.4356915  )
        12           O   tau(  12) = (  0.3548040  0.8383027  0.1854500  )
        13           Zn  tau(  13) = (  0.6813946  0.6676636  0.7539912  )
        14           Zn  tau(  14) = (  0.3447964  0.8456841  0.4947508  )
        15           O   tau(  15) = (  0.6952345  0.6739846  0.9421839  )
        16           O   tau(  16) = (  0.3339915  0.8321629  0.6943824  )

     number of k points=   112
                       cart. coord. in units 2pi/alat
        k(    1) = (   0.0000000   0.0000000   0.0000000), wk =   0.0092593
        k(    2) = (   0.0000000   0.0000000   0.0516201), wk =   0.0185185
        k(    3) = (   0.0000000   0.0000000   0.1032402), wk =   0.0185185
        k(    4) = (   0.0000000   0.0000000  -0.1548603), wk =   0.0092593
        k(    5) = (   0.0000000   0.0962250   0.0000000), wk =   0.0185185
        k(    6) = (   0.0000000   0.0962250   0.0516201), wk =   0.0185185
        k(    7) = (   0.0000000   0.0962250   0.1032402), wk =   0.0185185
        k(    8) = (   0.0000000   0.0962250  -0.1548603), wk =   0.0185185
        k(    9) = (   0.0000000   0.1924501   0.0000000), wk =   0.0185185
        k(   10) = (   0.0000000   0.1924501   0.0516201), wk =   0.0185185
        k(   11) = (   0.0000000   0.1924501   0.1032402), wk =   0.0185185
        k(   12) = (   0.0000000   0.1924501  -0.1548603), wk =   0.0185185
        k(   13) = (   0.0000000  -0.2886751   0.0000000), wk =   0.0092593
        k(   14) = (   0.0000000  -0.2886751   0.0516201), wk =   0.0185185
        k(   15) = (   0.0000000  -0.2886751   0.1032402), wk =   0.0185185
        k(   16) = (   0.0000000  -0.2886751  -0.1548603), wk =   0.0092593
        k(   17) = (   0.1666667   0.0962250   0.0000000), wk =   0.0185185
        k(   18) = (   0.1666667   0.0962250   0.0516201), wk =   0.0185185
        k(   19) = (   0.1666667   0.0962250   0.1032402), wk =   0.0185185
        k(   20) = (   0.1666667   0.0962250  -0.1548603), wk =   0.0185185
        k(   21) = (   0.1666667   0.1924501   0.0000000), wk =   0.0185185
        k(   22) = (   0.1666667   0.1924501   0.0516201), wk =   0.0185185
        k(   23) = (   0.1666667   0.1924501   0.1032402), wk =   0.0185185
        k(   24) = (   0.1666667   0.1924501  -0.1548603), wk =   0.0185185
        k(   25) = (   0.1666667   0.2886751   0.0000000), wk =   0.0185185
        k(   26) = (   0.1666667   0.2886751   0.0516201), wk =   0.0185185
        k(   27) = (   0.1666667   0.2886751   0.1032402), wk =   0.0185185
        k(   28) = (   0.1666667   0.2886751  -0.1548603), wk =   0.0185185
        k(   29) = (   0.1666667   0.0000000   0.0000000), wk =   0.0185185
        k(   30) = (   0.1666667   0.0000000   0.0516201), wk =   0.0185185
        k(   31) = (   0.1666667   0.0000000   0.1032402), wk =   0.0185185
        k(   32) = (   0.1666667   0.0000000  -0.1548603), wk =   0.0185185
        k(   33) = (   0.3333333   0.1924501   0.0000000), wk =   0.0185185
        k(   34) = (   0.3333333   0.1924501   0.0516201), wk =   0.0185185
        k(   35) = (   0.3333333   0.1924501   0.1032402), wk =   0.0185185
        k(   36) = (   0.3333333   0.1924501  -0.1548603), wk =   0.0185185
        k(   37) = (   0.3333333   0.2886751   0.0000000), wk =   0.0185185
        k(   38) = (   0.3333333   0.2886751   0.0516201), wk =   0.0185185
        k(   39) = (   0.3333333   0.2886751   0.1032402), wk =   0.0185185
        k(   40) = (   0.3333333   0.2886751  -0.1548603), wk =   0.0185185
        k(   41) = (   0.3333333  -0.0962250   0.0000000), wk =   0.0185185
        k(   42) = (   0.3333333  -0.0962250   0.0516201), wk =   0.0185185
        k(   43) = (   0.3333333  -0.0962250   0.1032402), wk =   0.0185185
        k(   44) = (   0.3333333  -0.0962250  -0.1548603), wk =   0.0185185
        k(   45) = (   0.3333333  -0.0000000   0.0000000), wk =   0.0185185
        k(   46) = (   0.3333333  -0.0000000   0.0516201), wk =   0.0185185
        k(   47) = (   0.3333333  -0.0000000   0.1032402), wk =   0.0185185
        k(   48) = (   0.3333333  -0.0000000  -0.1548603), wk =   0.0185185
        k(   49) = (  -0.5000000  -0.2886751   0.0000000), wk =   0.0092593
        k(   50) = (  -0.5000000  -0.2886751   0.0516201), wk =   0.0185185
        k(   51) = (  -0.5000000  -0.2886751   0.1032402), wk =   0.0185185
        k(   52) = (  -0.5000000  -0.2886751  -0.1548603), wk =   0.0092593
        k(   53) = (  -0.5000000  -0.1924501   0.0000000), wk =   0.0185185
        k(   54) = (  -0.5000000  -0.1924501   0.0516201), wk =   0.0185185
        k(   55) = (  -0.5000000  -0.1924501   0.1032402), wk =   0.0185185
        k(   56) = (  -0.5000000  -0.1924501  -0.1548603), wk =   0.0185185
        k(   57) = (  -0.5000000  -0.0962250   0.0000000), wk =   0.0185185
        k(   58) = (  -0.5000000  -0.0962250   0.0516201), wk =   0.0185185
        k(   59) = (  -0.5000000  -0.0962250   0.1032402), wk =   0.0185185
        k(   60) = (  -0.5000000  -0.0962250  -0.1548603), wk =   0.0185185
        k(   61) = (  -0.5000000  -0.5773503   0.0000000), wk =   0.0092593
        k(   62) = (  -0.5000000  -0.5773503   0.0516201), wk =   0.0185185
        k(   63) = (  -0.5000000  -0.5773503   0.1032402), wk =   0.0185185
        k(   64) = (  -0.5000000  -0.5773503  -0.1548603), wk =   0.0092593
        k(   65) = (   0.0000000  -0.0962250   0.0516201), wk =   0.0185185
        k(   66) = (   0.0000000  -0.0962250   0.1032402), wk =   0.0185185
        k(   67) = (   0.0000000  -0.1924501   0.0516201), wk =   0.0185185
        k(   68) = (   0.0000000  -0.1924501   0.1032402), wk =   0.0185185
        k(   69) = (  -0.1666667   0.0962250   0.0000000), wk =   0.0185185
        k(   70) = (  -0.1666667  -0.0962250   0.0516201), wk =   0.0185185
        k(   71) = (  -0.1666667   0.0962250  -0.0516201), wk =   0.0185185
        k(   72) = (   0.1666667  -0.0962250  -0.0516201), wk =   0.0185185
        k(   73) = (  -0.1666667  -0.0962250   0.1032402), wk =   0.0185185
        k(   74) = (  -0.1666667   0.0962250  -0.1032402), wk =   0.0185185
        k(   75) = (   0.1666667  -0.0962250  -0.1032402), wk =   0.0185185
        k(   76) = (  -0.1666667   0.0962250   0.1548603), wk =   0.0185185
        k(   77) = (  -0.1666667   0.1924501   0.0000000), wk =   0.0185185
        k(   78) = (  -0.1666667  -0.1924501   0.0516201), wk =   0.0185185
        k(   79) = (  -0.1666667   0.1924501  -0.0516201), wk =   0.0185185
        k(   80) = (   0.1666667  -0.1924501  -0.0516201), wk =   0.0185185
        k(   81) = (  -0.1666667  -0.1924501   0.1032402), wk =   0.0185185
        k(   82) = (  -0.1666667   0.1924501  -0.1032402), wk =   0.0185185
        k(   83) = (   0.1666667  -0.1924501  -0.1032402), wk =   0.0185185
        k(   84) = (  -0.1666667   0.1924501   0.1548603), wk =   0.0185185
        k(   85) = (  -0.1666667  -0.2886751   0.0516201), wk =   0.0185185
        k(   86) = (  -0.1666667  -0.2886751   0.1032402), wk =   0.0185185
        k(   87) = (  -0.1666667  -0.0000000   0.0516201), wk =   0.0185185
        k(   88) = (  -0.1666667  -0.0000000   0.1032402), wk =   0.0185185
        k(   89) = (  -0.3333333   0.1924501   0.0000000), wk =   0.0185185
        k(   90) = (  -0.3333333  -0.1924501   0.0516201), wk =   0.0185185
        k(   91) = (  -0.3333333   0.1924501  -0.0516201), wk =   0.0185185
        k(   92) = (   0.3333333  -0.1924501  -0.0516201), wk =   0.0185185
        k(   93) = (  -0.3333333  -0.1924501   0.1032402), wk =   0.0185185
        k(   94) = (  -0.3333333   0.1924501  -0.1032402), wk =   0.0185185
        k(   95) = (   0.3333333  -0.1924501  -0.1032402), wk =   0.0185185
        k(   96) = (  -0.3333333   0.1924501   0.1548603), wk =   0.0185185
        k(   97) = (  -0.3333333  -0.2886751   0.0516201), wk =   0.0185185
        k(   98) = (  -0.3333333  -0.2886751   0.1032402), wk =   0.0185185
        k(   99) = (  -0.3333333  -0.0962250   0.0000000), wk =   0.0185185
        k(  100) = (  -0.3333333   0.0962250   0.0516201), wk =   0.0185185
        k(  101) = (  -0.3333333  -0.0962250  -0.0516201), wk =   0.0185185
        k(  102) = (   0.3333333   0.0962250  -0.0516201), wk =   0.0185185
        k(  103) = (  -0.3333333   0.0962250   0.1032402), wk =   0.0185185
        k(  104) = (  -0.3333333  -0.0962250  -0.1032402), wk =   0.0185185
        k(  105) = (   0.3333333   0.0962250  -0.1032402), wk =   0.0185185
        k(  106) = (  -0.3333333  -0.0962250   0.1548603), wk =   0.0185185
        k(  107) = (  -0.3333333   0.0000000   0.0516201), wk =   0.0185185
        k(  108) = (  -0.3333333   0.0000000   0.1032402), wk =   0.0185185
        k(  109) = (   0.5000000   0.1924501   0.0516201), wk =   0.0185185
        k(  110) = (   0.5000000   0.1924501   0.1032402), wk =   0.0185185
        k(  111) = (   0.5000000   0.0962250   0.0516201), wk =   0.0185185
        k(  112) = (   0.5000000   0.0962250   0.1032402), wk =   0.0185185

                       cryst. coord.
        k(    1) = (   0.0000000   0.0000000   0.0000000), wk =   0.0092593
        k(    2) = (   0.0000000   0.0000000   0.1666667), wk =   0.0185185
        k(    3) = (   0.0000000   0.0000000   0.3333333), wk =   0.0185185
        k(    4) = (   0.0000000   0.0000000  -0.5000000), wk =   0.0092593
        k(    5) = (   0.0000000   0.1666667   0.0000000), wk =   0.0185185
        k(    6) = (   0.0000000   0.1666667   0.1666667), wk =   0.0185185
        k(    7) = (   0.0000000   0.1666667   0.3333333), wk =   0.0185185
        k(    8) = (   0.0000000   0.1666667  -0.5000000), wk =   0.0185185
        k(    9) = (   0.0000000   0.3333333   0.0000000), wk =   0.0185185
        k(   10) = (   0.0000000   0.3333333   0.1666667), wk =   0.0185185
        k(   11) = (   0.0000000   0.3333333   0.3333333), wk =   0.0185185
        k(   12) = (   0.0000000   0.3333333  -0.5000000), wk =   0.0185185
        k(   13) = (   0.0000000  -0.5000000   0.0000000), wk =   0.0092593
        k(   14) = (   0.0000000  -0.5000000   0.1666667), wk =   0.0185185
        k(   15) = (   0.0000000  -0.5000000   0.3333333), wk =   0.0185185
        k(   16) = (   0.0000000  -0.5000000  -0.5000000), wk =   0.0092593
        k(   17) = (   0.1666667   0.0000000   0.0000000), wk =   0.0185185
        k(   18) = (   0.1666667   0.0000000   0.1666667), wk =   0.0185185
        k(   19) = (   0.1666667   0.0000000   0.3333333), wk =   0.0185185
        k(   20) = (   0.1666667   0.0000000  -0.5000000), wk =   0.0185185
        k(   21) = (   0.1666667   0.1666667   0.0000000), wk =   0.0185185
        k(   22) = (   0.1666667   0.1666667   0.1666667), wk =   0.0185185
        k(   23) = (   0.1666667   0.1666667   0.3333333), wk =   0.0185185
        k(   24) = (   0.1666667   0.1666667  -0.5000000), wk =   0.0185185
        k(   25) = (   0.1666667   0.3333333   0.0000000), wk =   0.0185185
        k(   26) = (   0.1666667   0.3333333   0.1666667), wk =   0.0185185
        k(   27) = (   0.1666667   0.3333333   0.3333333), wk =   0.0185185
        k(   28) = (   0.1666667   0.3333333  -0.5000000), wk =   0.0185185
        k(   29) = (   0.1666667  -0.1666667   0.0000000), wk =   0.0185185
        k(   30) = (   0.1666667  -0.1666667   0.1666667), wk =   0.0185185
        k(   31) = (   0.1666667  -0.1666667   0.3333333), wk =   0.0185185
        k(   32) = (   0.1666667  -0.1666667  -0.5000000), wk =   0.0185185
        k(   33) = (   0.3333333   0.0000000   0.0000000), wk =   0.0185185
        k(   34) = (   0.3333333   0.0000000   0.1666667), wk =   0.0185185
        k(   35) = (   0.3333333   0.0000000   0.3333333), wk =   0.0185185
        k(   36) = (   0.3333333   0.0000000  -0.5000000), wk =   0.0185185
        k(   37) = (   0.3333333   0.1666667   0.0000000), wk =   0.0185185
        k(   38) = (   0.3333333   0.1666667   0.1666667), wk =   0.0185185
        k(   39) = (   0.3333333   0.1666667   0.3333333), wk =   0.0185185
        k(   40) = (   0.3333333   0.1666667  -0.5000000), wk =   0.0185185
        k(   41) = (   0.3333333  -0.5000000   0.0000000), wk =   0.0185185
        k(   42) = (   0.3333333  -0.5000000   0.1666667), wk =   0.0185185
        k(   43) = (   0.3333333  -0.5000000   0.3333333), wk =   0.0185185
        k(   44) = (   0.3333333  -0.5000000  -0.5000000), wk =   0.0185185
        k(   45) = (   0.3333333  -0.3333333   0.0000000), wk =   0.0185185
        k(   46) = (   0.3333333  -0.3333333   0.1666667), wk =   0.0185185
        k(   47) = (   0.3333333  -0.3333333   0.3333333), wk =   0.0185185
        k(   48) = (   0.3333333  -0.3333333  -0.5000000), wk =   0.0185185
        k(   49) = (  -0.5000000   0.0000000   0.0000000), wk =   0.0092593
        k(   50) = (  -0.5000000   0.0000000   0.1666667), wk =   0.0185185
        k(   51) = (  -0.5000000   0.0000000   0.3333333), wk =   0.0185185
        k(   52) = (  -0.5000000   0.0000000  -0.5000000), wk =   0.0092593
        k(   53) = (  -0.5000000   0.1666667   0.0000000), wk =   0.0185185
        k(   54) = (  -0.5000000   0.1666667   0.1666667), wk =   0.0185185
        k(   55) = (  -0.5000000   0.1666667   0.3333333), wk =   0.0185185
        k(   56) = (  -0.5000000   0.1666667  -0.5000000), wk =   0.0185185
        k(   57) = (  -0.5000000   0.3333333   0.0000000), wk =   0.0185185
        k(   58) = (  -0.5000000   0.3333333   0.1666667), wk =   0.0185185
        k(   59) = (  -0.5000000   0.3333333   0.3333333), wk =   0.0185185
        k(   60) = (  -0.5000000   0.3333333  -0.5000000), wk =   0.0185185
        k(   61) = (  -0.5000000  -0.5000000   0.0000000), wk =   0.0092593
        k(   62) = (  -0.5000000  -0.5000000   0.1666667), wk =   0.0185185
        k(   63) = (  -0.5000000  -0.5000000   0.3333333), wk =   0.0185185
        k(   64) = (  -0.5000000  -0.5000000  -0.5000000), wk =   0.0092593
        k(   65) = (   0.0000000  -0.1666667   0.1666667), wk =   0.0185185
        k(   66) = (   0.0000000  -0.1666667   0.3333333), wk =   0.0185185
        k(   67) = (   0.0000000  -0.3333333   0.1666667), wk =   0.0185185
        k(   68) = (   0.0000000  -0.3333333   0.3333333), wk =   0.0185185
        k(   69) = (  -0.1666667   0.3333333   0.0000000), wk =   0.0185185
        k(   70) = (  -0.1666667   0.0000000   0.1666667), wk =   0.0185185
        k(   71) = (  -0.1666667   0.3333333  -0.1666667), wk =   0.0185185
        k(   72) = (   0.1666667  -0.3333333  -0.1666667), wk =   0.0185185
        k(   73) = (  -0.1666667   0.0000000   0.3333333), wk =   0.0185185
        k(   74) = (  -0.1666667   0.3333333  -0.3333333), wk =   0.0185185
        k(   75) = (   0.1666667  -0.3333333  -0.3333333), wk =   0.0185185
        k(   76) = (  -0.1666667   0.3333333   0.5000000), wk =   0.0185185
        k(   77) = (  -0.1666667   0.5000000   0.0000000), wk =   0.0185185
        k(   78) = (  -0.1666667  -0.1666667   0.1666667), wk =   0.0185185
        k(   79) = (  -0.1666667   0.5000000  -0.1666667), wk =   0.0185185
        k(   80) = (   0.1666667  -0.5000000  -0.1666667), wk =   0.0185185
        k(   81) = (  -0.1666667  -0.1666667   0.3333333), wk =   0.0185185
        k(   82) = (  -0.1666667   0.5000000  -0.3333333), wk =   0.0185185
        k(   83) = (   0.1666667  -0.5000000  -0.3333333), wk =   0.0185185
        k(   84) = (  -0.1666667   0.5000000   0.5000000), wk =   0.0185185
        k(   85) = (  -0.1666667  -0.3333333   0.1666667), wk =   0.0185185
        k(   86) = (  -0.1666667  -0.3333333   0.3333333), wk =   0.0185185
        k(   87) = (  -0.1666667   0.1666667   0.1666667), wk =   0.0185185
        k(   88) = (  -0.1666667   0.1666667   0.3333333), wk =   0.0185185
        k(   89) = (  -0.3333333   0.6666667   0.0000000), wk =   0.0185185
        k(   90) = (  -0.3333333   0.0000000   0.1666667), wk =   0.0185185
        k(   91) = (  -0.3333333   0.6666667  -0.1666667), wk =   0.0185185
        k(   92) = (   0.3333333  -0.6666667  -0.1666667), wk =   0.0185185
        k(   93) = (  -0.3333333   0.0000000   0.3333333), wk =   0.0185185
        k(   94) = (  -0.3333333   0.6666667  -0.3333333), wk =   0.0185185
        k(   95) = (   0.3333333  -0.6666667  -0.3333333), wk =   0.0185185
        k(   96) = (  -0.3333333   0.6666667   0.5000000), wk =   0.0185185
        k(   97) = (  -0.3333333  -0.1666667   0.1666667), wk =   0.0185185
        k(   98) = (  -0.3333333  -0.1666667   0.3333333), wk =   0.0185185
        k(   99) = (  -0.3333333   0.1666667   0.0000000), wk =   0.0185185
        k(  100) = (  -0.3333333   0.5000000   0.1666667), wk =   0.0185185
        k(  101) = (  -0.3333333   0.1666667  -0.1666667), wk =   0.0185185
        k(  102) = (   0.3333333  -0.1666667  -0.1666667), wk =   0.0185185
        k(  103) = (  -0.3333333   0.5000000   0.3333333), wk =   0.0185185
        k(  104) = (  -0.3333333   0.1666667  -0.3333333), wk =   0.0185185
        k(  105) = (   0.3333333  -0.1666667  -0.3333333), wk =   0.0185185
        k(  106) = (  -0.3333333   0.1666667   0.5000000), wk =   0.0185185
        k(  107) = (  -0.3333333   0.3333333   0.1666667), wk =   0.0185185
        k(  108) = (  -0.3333333   0.3333333   0.3333333), wk =   0.0185185
        k(  109) = (   0.5000000  -0.1666667   0.1666667), wk =   0.0185185
        k(  110) = (   0.5000000  -0.1666667   0.3333333), wk =   0.0185185
        k(  111) = (   0.5000000  -0.3333333   0.1666667), wk =   0.0185185
        k(  112) = (   0.5000000  -0.3333333   0.3333333), wk =   0.0185185

     Dense  grid:   138679 G-vectors     FFT dimensions: (  40,  75, 120)

     Smooth grid:    49103 G-vectors     FFT dimensions: (  25,  54,  90)

     Dynamical RAM for                 wfc:       1.68 MB

     Dynamical RAM for     wfc (w. buffer):      25.26 MB

     Dynamical RAM for           str. fact:       1.06 MB

     Dynamical RAM for           local pot:       0.00 MB

     Dynamical RAM for          nlocal pot:       4.87 MB

     Dynamical RAM for                qrad:       3.21 MB

     Dynamical RAM for          rho,v,vnew:       3.65 MB

     Dynamical RAM for               rhoin:       1.22 MB

     Dynamical RAM for            rho*nmix:       8.46 MB

     Dynamical RAM for           G-vectors:       2.08 MB

     Dynamical RAM for          h,s,v(r/c):       0.24 MB

     Dynamical RAM for          <psi|beta>:       0.23 MB

     Dynamical RAM for                 psi:       3.37 MB

     Dynamical RAM for                hpsi:       3.37 MB

     Dynamical RAM for                spsi:       3.37 MB

     Dynamical RAM for      wfcinit/wfcrot:       5.11 MB

     Dynamical RAM for           addusdens:      13.29 MB

     Dynamical RAM for          addusforce:      14.05 MB

     Estimated static dynamical RAM per process >      46.36 MB

     Estimated max dynamical RAM per process >      68.87 MB

     Estimated total dynamical RAM >       1.92 GB

     Check: negative core charge=   -0.000001

     Initial potential from superposition of free atoms

     starting charge     143.9702, renormalised to     144.0000
     Starting wfcs are  104 randomized atomic wfcs

     total cpu time spent up to now is        8.9 secs

     per-process dynamical memory:    63.8 Mb

     Self-consistent Calculation

     iteration #  1     ecut=    50.00 Ry     beta= 0.30
     Davidson diagonalization with overlap

---- Real-time Memory Report at c_bands before calling an iterative solver
            91 MiB given to the printing process from OS
            62 MiB allocation reported by mallinfo(arena+hblkhd)
        102776 MiB available memory on the node where the printing process lives
------------------
     ethr =  1.00E-02,  avg # of iterations =  2.0

     total cpu time spent up to now is       25.0 secs

     total energy              =   -1445.43505382 Ry
     estimated scf accuracy    <       2.73770105 Ry

     iteration #  2     ecut=    50.00 Ry     beta= 0.30
     Davidson diagonalization with overlap

---- Real-time Memory Report at c_bands before calling an iterative solver
           103 MiB given to the printing process from OS
            73 MiB allocation reported by mallinfo(arena+hblkhd)
        102469 MiB available memory on the node where the printing process lives
------------------
     ethr =  1.90E-03,  avg # of iterations =  2.0

     total cpu time spent up to now is       42.7 secs

     total energy              =   -1445.60623468 Ry
     estimated scf accuracy    <       0.53885589 Ry

     iteration #  3     ecut=    50.00 Ry     beta= 0.30
     Davidson diagonalization with overlap

---- Real-time Memory Report at c_bands before calling an iterative solver
           103 MiB given to the printing process from OS
            74 MiB allocation reported by mallinfo(arena+hblkhd)
        102473 MiB available memory on the node where the printing process lives
------------------
     ethr =  3.74E-04,  avg # of iterations =  6.5

     total cpu time spent up to now is       77.1 secs

     total energy              =   -1445.93533758 Ry
     estimated scf accuracy    <       0.32938629 Ry

     iteration #  4     ecut=    50.00 Ry     beta= 0.30
     Davidson diagonalization with overlap

---- Real-time Memory Report at c_bands before calling an iterative solver
           103 MiB given to the printing process from OS
            74 MiB allocation reported by mallinfo(arena+hblkhd)
        102461 MiB available memory on the node where the printing process lives
------------------
     ethr =  2.29E-04,  avg # of iterations =  2.0

     total cpu time spent up to now is       93.5 secs

     total energy              =   -1445.93189084 Ry
     estimated scf accuracy    <       0.09046273 Ry

     iteration #  5     ecut=    50.00 Ry     beta= 0.30
     Davidson diagonalization with overlap

---- Real-time Memory Report at c_bands before calling an iterative solver
           104 MiB given to the printing process from OS
            74 MiB allocation reported by mallinfo(arena+hblkhd)
        102462 MiB available memory on the node where the printing process lives
------------------
     ethr =  6.28E-05,  avg # of iterations =  9.5

     total cpu time spent up to now is      142.6 secs

     total energy              =   -1446.21364694 Ry
     estimated scf accuracy    <       1.59015769 Ry

     iteration #  6     ecut=    50.00 Ry     beta= 0.30
     Davidson diagonalization with overlap

---- Real-time Memory Report at c_bands before calling an iterative solver
           105 MiB given to the printing process from OS
            75 MiB allocation reported by mallinfo(arena+hblkhd)
        102460 MiB available memory on the node where the printing process lives
------------------
     ethr =  6.28E-05,  avg # of iterations =  2.0

     total cpu time spent up to now is      159.6 secs

     total energy              =   -1445.71025994 Ry
     estimated scf accuracy    <       1.15105513 Ry

     iteration #  7     ecut=    50.00 Ry     beta= 0.30
     Davidson diagonalization with overlap

---- Real-time Memory Report at c_bands before calling an iterative solver
           105 MiB given to the printing process from OS
            75 MiB allocation reported by mallinfo(arena+hblkhd)
        102460 MiB available memory on the node where the printing process lives
------------------
     ethr =  6.28E-05,  avg # of iterations =  8.8

     total cpu time spent up to now is      203.1 secs

     total energy              =   -1445.97773352 Ry
     estimated scf accuracy    <       0.00216232 Ry

     iteration #  8     ecut=    50.00 Ry     beta= 0.30
     Davidson diagonalization with overlap

---- Real-time Memory Report at c_bands before calling an iterative solver
           105 MiB given to the printing process from OS
            76 MiB allocation reported by mallinfo(arena+hblkhd)
        102460 MiB available memory on the node where the printing process lives
------------------
     ethr =  1.50E-06,  avg # of iterations = 10.2

     total cpu time spent up to now is      254.6 secs

     total energy              =   -1445.97215030 Ry
     estimated scf accuracy    <       0.03981541 Ry

     iteration #  9     ecut=    50.00 Ry     beta= 0.30
     Davidson diagonalization with overlap

---- Real-time Memory Report at c_bands before calling an iterative solver
           106 MiB given to the printing process from OS
            76 MiB allocation reported by mallinfo(arena+hblkhd)
        102460 MiB available memory on the node where the printing process lives
------------------
     ethr =  1.50E-06,  avg # of iterations =  8.6

     total cpu time spent up to now is      296.1 secs

     total energy              =   -1445.97477614 Ry
     estimated scf accuracy    <       0.00366069 Ry

     iteration # 10     ecut=    50.00 Ry     beta= 0.30
     Davidson diagonalization with overlap

---- Real-time Memory Report at c_bands before calling an iterative solver
           106 MiB given to the printing process from OS
            76 MiB allocation reported by mallinfo(arena+hblkhd)
        102460 MiB available memory on the node where the printing process lives
------------------
     ethr =  1.50E-06,  avg # of iterations =  2.6

     total cpu time spent up to now is      314.4 secs

     total energy              =   -1445.97433969 Ry
     estimated scf accuracy    <       0.00119210 Ry

     iteration # 11     ecut=    50.00 Ry     beta= 0.30
     Davidson diagonalization with overlap

---- Real-time Memory Report at c_bands before calling an iterative solver
           106 MiB given to the printing process from OS
            76 MiB allocation reported by mallinfo(arena+hblkhd)
        102460 MiB available memory on the node where the printing process lives
------------------
     ethr =  8.28E-07,  avg # of iterations =  7.1

     total cpu time spent up to now is      349.4 secs

     total energy              =   -1445.97522018 Ry
     estimated scf accuracy    <       0.00078032 Ry

     iteration # 12     ecut=    50.00 Ry     beta= 0.30
     Davidson diagonalization with overlap

---- Real-time Memory Report at c_bands before calling an iterative solver
           106 MiB given to the printing process from OS
            76 MiB allocation reported by mallinfo(arena+hblkhd)
        102460 MiB available memory on the node where the printing process lives
------------------
     ethr =  5.42E-07,  avg # of iterations =  1.5

     total cpu time spent up to now is      364.1 secs

     total energy              =   -1445.97515558 Ry
     estimated scf accuracy    <       0.00034330 Ry

     iteration # 13     ecut=    50.00 Ry     beta= 0.30
     Davidson diagonalization with overlap

---- Real-time Memory Report at c_bands before calling an iterative solver
           106 MiB given to the printing process from OS
            76 MiB allocation reported by mallinfo(arena+hblkhd)
        102460 MiB available memory on the node where the printing process lives
------------------
     ethr =  2.38E-07,  avg # of iterations =  2.2

     total cpu time spent up to now is      382.6 secs

     total energy              =   -1445.97518625 Ry
     estimated scf accuracy    <       0.00004690 Ry

     iteration # 14     ecut=    50.00 Ry     beta= 0.30
     Davidson diagonalization with overlap

---- Real-time Memory Report at c_bands before calling an iterative solver
           106 MiB given to the printing process from OS
            76 MiB allocation reported by mallinfo(arena+hblkhd)
        102460 MiB available memory on the node where the printing process lives
------------------
     ethr =  3.26E-08,  avg # of iterations =  8.6

     total cpu time spent up to now is      425.6 secs

     total energy              =   -1445.97521340 Ry
     estimated scf accuracy    <       0.00017501 Ry

     iteration # 15     ecut=    50.00 Ry     beta= 0.30
     Davidson diagonalization with overlap

---- Real-time Memory Report at c_bands before calling an iterative solver
           106 MiB given to the printing process from OS
            76 MiB allocation reported by mallinfo(arena+hblkhd)
        102460 MiB available memory on the node where the printing process lives
------------------
     ethr =  3.26E-08,  avg # of iterations =  5.0

     total cpu time spent up to now is      454.4 secs

     total energy              =   -1445.97523218 Ry
     estimated scf accuracy    <       0.00001275 Ry

     iteration # 16     ecut=    50.00 Ry     beta= 0.30
     Davidson diagonalization with overlap

---- Real-time Memory Report at c_bands before calling an iterative solver
           106 MiB given to the printing process from OS
            76 MiB allocation reported by mallinfo(arena+hblkhd)
        102459 MiB available memory on the node where the printing process lives
------------------
     ethr =  8.86E-09,  avg # of iterations =  3.6

     total cpu time spent up to now is      476.7 secs

     total energy              =   -1445.97523240 Ry
     estimated scf accuracy    <       0.00000508 Ry

     iteration # 17     ecut=    50.00 Ry     beta= 0.30
     Davidson diagonalization with overlap

---- Real-time Memory Report at c_bands before calling an iterative solver
           106 MiB given to the printing process from OS
            76 MiB allocation reported by mallinfo(arena+hblkhd)
        102459 MiB available memory on the node where the printing process lives
------------------
     ethr =  3.53E-09,  avg # of iterations =  5.0

     total cpu time spent up to now is      503.0 secs

     total energy              =   -1445.97523419 Ry
     estimated scf accuracy    <       0.00000011 Ry

     iteration # 18     ecut=    50.00 Ry     beta= 0.30
     Davidson diagonalization with overlap

---- Real-time Memory Report at c_bands before calling an iterative solver
           106 MiB given to the printing process from OS
            76 MiB allocation reported by mallinfo(arena+hblkhd)
        102459 MiB available memory on the node where the printing process lives
------------------
     ethr =  7.87E-11,  avg # of iterations =  8.2

     total cpu time spent up to now is      544.2 secs

     total energy              =   -1445.97523443 Ry
     estimated scf accuracy    <       0.00000003 Ry

     iteration # 19     ecut=    50.00 Ry     beta= 0.30
     Davidson diagonalization with overlap

---- Real-time Memory Report at c_bands before calling an iterative solver
           106 MiB given to the printing process from OS
            76 MiB allocation reported by mallinfo(arena+hblkhd)
        102458 MiB available memory on the node where the printing process lives
------------------
     ethr =  1.99E-11,  avg # of iterations =  4.6

     total cpu time spent up to now is      567.3 secs

     End of self-consistent calculation

          k = 0.0000 0.0000 0.0000 (  6151 PWs)   bands (ev):

    -9.2735  -8.9253  -8.6553  -8.1672  -8.0902  -7.7249  -7.5500  -7.3923
     2.8548   3.0277   3.1277   3.2983   3.3927   3.5249   3.6309   3.7241
     3.7400   3.8904   3.9570   3.9748   4.0349   4.1664   4.2418   4.3925
     4.4559   4.5021   4.5471   4.6558   4.7805   4.8579   4.9977   5.1130
     5.8029   5.8154   5.8726   5.9942   6.0420   6.0686   6.1156   6.1531
     6.1836   6.2393   6.2968   6.3194   6.3592   6.3729   6.4887   6.5398
     6.6509   6.7244   6.7779   6.9810   7.1348   7.5946   8.0745   8.5719
     8.7228   9.0568   9.0966   9.2070   9.4453   9.6500   9.9676  10.0879
    10.1050  10.5103  10.5508  10.6289  10.6800  10.9891  11.1603  11.2209

     occupation numbers 
     1.0000   1.0000   1.0000   1.0000   1.0000   1.0000   1.0000   1.0000
     1.0000   1.0000   1.0000   1.0000   1.0000   1.0000   1.0000   1.0000
     1.0000   1.0000   1.0000   1.0000   1.0000   1.0000   1.0000   1.0000
     1.0000   1.0000   1.0000   1.0000   1.0000   1.0000   1.0000   1.0000
     1.0000   1.0000   1.0000   1.0000   1.0000   1.0000   1.0000   1.0000
     1.0000   1.0000   1.0000   1.0000   1.0000   1.0000   1.0000   1.0000
     1.0000   1.0000   1.0000   1.0000   1.0000   1.0000   1.0000   1.0000
     1.0000   1.0000   1.0000   1.0000   1.0000   1.0000   1.0000   1.0000
     1.0000   1.0000   1.0000   1.0000   1.0000   1.0000   1.0000   1.0000

          k = 0.0000 0.0000 0.0516 (  6117 PWs)   bands (ev):

    -9.2603  -8.9608  -8.6319  -8.1686  -8.0848  -7.7286  -7.5508  -7.3928
     2.8695   3.0432   3.1077   3.2957   3.3855   3.5296   3.6254   3.7232
     3.7417   3.8884   3.9530   3.9780   4.0312   4.1604   4.2361   4.3924
     4.4549   4.5035   4.5470   4.6552   4.7847   4.8735   4.9822   5.1013
     5.8064   5.8264   5.8870   5.9853   6.0347   6.0737   6.1146   6.1525
     6.1898   6.2277   6.2950   6.3132   6.3618   6.3798   6.4869   6.5529
     6.7025   6.7313   6.7854   6.9743   7.1183   7.6903   8.1102   8.1913
     8.8454   8.9432   9.1609   9.3259   9.4928   9.7106   9.9810  10.0718
    10.1115  10.4362  10.4736  10.7134  10.7416  10.8322  11.1482  11.2079

     occupation numbers 
     1.0000   1.0000   1.0000   1.0000   1.0000   1.0000   1.0000   1.0000
     1.0000   1.0000   1.0000   1.0000   1.0000   1.0000   1.0000   1.0000
     1.0000   1.0000   1.0000   1.0000   1.0000   1.0000   1.0000   1.0000
     1.0000   1.0000   1.0000   1.0000   1.0000   1.0000   1.0000   1.0000
     1.0000   1.0000   1.0000   1.0000   1.0000   1.0000   1.0000   1.0000
     1.0000   1.0000   1.0000   1.0000   1.0000   1.0000   1.0000   1.0000
     1.0000   1.0000   1.0000   1.0000   1.0000   1.0000   1.0000   1.0000
     1.0000   1.0000   1.0000   1.0000   1.0000   1.0000   1.0000   1.0000
     1.0000   1.0000   1.0000   1.0000   1.0000   1.0000   1.0000   1.0000

          k = 0.0000 0.0000 0.1032 (  6113 PWs)   bands (ev):

    -9.2255  -9.0307  -8.5947  -8.1717  -8.0729  -7.7368  -7.5523  -7.3939
     2.9087   3.0438   3.1000   3.2862   3.3610   3.5283   3.6247   3.7241
     3.7471   3.8856   3.9442   3.9838   4.0202   4.1467   4.2282   4.3915
     4.4490   4.5104   4.5451   4.6535   4.7956   4.9099   4.9503   5.0712
     5.8145   5.8433   5.9200   5.9686   6.0266   6.0823   6.1083   6.1481
     6.1989   6.2052   6.2902   6.3075   6.3630   6.3910   6.4833   6.5658
     6.7302   6.7605   6.9040   6.9866   7.1021   7.7454   7.9306   8.2215
     8.5895   8.6973   9.4514   9.5118   9.6212   9.8052   9.9981  10.0349
    10.1378  10.3321  10.3846  10.4963  10.8027  10.8416  11.1220  11.1761

     occupation numbers 
     1.0000   1.0000   1.0000   1.0000   1.0000   1.0000   1.0000   1.0000
     1.0000   1.0000   1.0000   1.0000   1.0000   1.0000   1.0000   1.0000
     1.0000   1.0000   1.0000   1.0000   1.0000   1.0000   1.0000   1.0000
     1.0000   1.0000   1.0000   1.0000   1.0000   1.0000   1.0000   1.0000
     1.0000   1.0000   1.0000   1.0000   1.0000   1.0000   1.0000   1.0000
     1.0000   1.0000   1.0000   1.0000   1.0000   1.0000   1.0000   1.0000
     1.0000   1.0000   1.0000   1.0000   1.0000   1.0000   1.0000   1.0000
     1.0000   1.0000   1.0000   1.0000   1.0000   1.0000   1.0000   1.0000
     1.0000   1.0000   1.0000   1.0000   1.0000   1.0000   1.0000   1.0000

          k = 0.0000 0.0000-0.1549 (  6122 PWs)   bands (ev):

    -9.1978  -9.0731  -8.5791  -8.1734  -8.0664  -7.7413  -7.5530  -7.3945
     2.9433   3.0099   3.1225   3.2799   3.3426   3.5210   3.6299   3.7255
     3.7522   3.8854   3.9384   3.9882   4.0112   4.1396   4.2256   4.3910
     4.4452   4.5154   4.5431   4.6524   4.8031   4.9269   4.9404   5.0493
     5.8191   5.8507   5.9353   5.9605   6.0310   6.0866   6.1011   6.1402
     6.1936   6.2061   6.2875   6.3059   6.3634   6.3955   6.4817   6.5697
     6.7341   6.7621   6.9296   7.0781   7.1880   7.4501   8.1794   8.2959
     8.3567   8.5410   9.4922   9.6194   9.7548   9.9404   9.9709  10.0583
    10.1620  10.1977  10.2932  10.3507  10.8398  10.8862  11.1057  11.1554

     occupation numbers 
     1.0000   1.0000   1.0000   1.0000   1.0000   1.0000   1.0000   1.0000
     1.0000   1.0000   1.0000   1.0000   1.0000   1.0000   1.0000   1.0000
     1.0000   1.0000   1.0000   1.0000   1.0000   1.0000   1.0000   1.0000
     1.0000   1.0000   1.0000   1.0000   1.0000   1.0000   1.0000   1.0000
     1.0000   1.0000   1.0000   1.0000   1.0000   1.0000   1.0000   1.0000
     1.0000   1.0000   1.0000   1.0000   1.0000   1.0000   1.0000   1.0000
     1.0000   1.0000   1.0000   1.0000   1.0000   1.0000   1.0000   1.0000
     1.0000   1.0000   1.0000   1.0000   1.0000   1.0000   1.0000   1.0000
     1.0000   1.0000   1.0000   1.0000   1.0000   1.0000   1.0000   1.0000

          k = 0.0000 0.0962 0.0000 (  6136 PWs)   bands (ev):

    -9.2245  -8.8990  -8.6394  -8.2230  -8.0884  -7.7399  -7.5720  -7.4173
     2.8743   3.0269   3.1296   3.3259   3.3773   3.5346   3.6823   3.7312
     3.7813   3.8464   3.9396   3.9922   4.0545   4.1730   4.2397   4.3768
     4.4398   4.4725   4.5557   4.6282   4.7499   4.8317   4.9887   5.0583
     5.7853   5.8035   5.8370   5.9792   5.9987   6.0492   6.0957   6.1444
     6.1669   6.1959   6.2504   6.2776   6.3625   6.3766   6.4596   6.5056
     6.6275   6.6883   7.0384   7.1842   7.2186   7.9344   8.2170   8.5917
     8.7245   9.1090   9.1862   9.2793   9.4264   9.7309   9.8042   9.9249
    10.1670  10.2731  10.4014  10.4946  10.5363  10.7442  10.9500  11.1489

     occupation numbers 
     1.0000   1.0000   1.0000   1.0000   1.0000   1.0000   1.0000   1.0000
     1.0000   1.0000   1.0000   1.0000   1.0000   1.0000   1.0000   1.0000
     1.0000   1.0000   1.0000   1.0000   1.0000   1.0000   1.0000   1.0000
     1.0000   1.0000   1.0000   1.0000   1.0000   1.0000   1.0000   1.0000
     1.0000   1.0000   1.0000   1.0000   1.0000   1.0000   1.0000   1.0000
     1.0000   1.0000   1.0000   1.0000   1.0000   1.0000   1.0000   1.0000
     1.0000   1.0000   1.0000   1.0000   1.0000   1.0000   1.0000   1.0000
     1.0000   1.0000   1.0000   1.0000   1.0000   1.0000   1.0000   1.0000
     1.0000   1.0000   1.0000   1.0000   1.0000   1.0000   1.0000   1.0000

          k = 0.0000 0.0962 0.0516 (  6148 PWs)   bands (ev):

    -9.2134  -8.9246  -8.6297  -8.2190  -8.0787  -7.7526  -7.5656  -7.4201
     2.8884   3.0329   3.1221   3.3167   3.3890   3.5329   3.6606   3.7320
     3.7721   3.8661   3.9417   3.9883   4.0414   4.1681   4.2415   4.3756
     4.4443   4.4747   4.5484   4.6207   4.7638   4.8419   4.9522   5.0500
     5.7925   5.8118   5.8377   5.9724   6.0068   6.0516   6.0909   6.1280
     6.1795   6.1946   6.2397   6.2770   6.3665   6.3958   6.4650   6.5506
     6.6626   6.7270   6.9733   7.1819   7.2922   7.9725   8.1916   8.2833
     8.8106   9.0095   9.1475   9.4141   9.5648   9.7365   9.8546   9.9516
    10.1381  10.2142  10.3485  10.4398  10.6433  10.6751  10.9783  11.1329

     occupation numbers 
     1.0000   1.0000   1.0000   1.0000   1.0000   1.0000   1.0000   1.0000
     1.0000   1.0000   1.0000   1.0000   1.0000   1.0000   1.0000   1.0000
     1.0000   1.0000   1.0000   1.0000   1.0000   1.0000   1.0000   1.0000
     1.0000   1.0000   1.0000   1.0000   1.0000   1.0000   1.0000   1.0000
     1.0000   1.0000   1.0000   1.0000   1.0000   1.0000   1.0000   1.0000
     1.0000   1.0000   1.0000   1.0000   1.0000   1.0000   1.0000   1.0000
     1.0000   1.0000   1.0000   1.0000   1.0000   1.0000   1.0000   1.0000
     1.0000   1.0000   1.0000   1.0000   1.0000   1.0000   1.0000   1.0000
     1.0000   1.0000   1.0000   1.0000   1.0000   1.0000   1.0000   1.0000

          k = 0.0000 0.0962 0.1032 (  6136 PWs)   bands (ev):

    -9.1814  -8.9880  -8.5997  -8.2216  -8.0627  -7.7629  -7.5633  -7.4237
     2.9256   3.0278   3.1240   3.3076   3.3978   3.5198   3.6378   3.7300
     3.7623   3.8705   3.9321   3.9846   4.0405   4.1517   4.2343   4.3773
     4.4461   4.4789   4.5461   4.6164   4.7843   4.8704   4.9090   5.0257
     5.8027   5.8308   5.8625   5.9579   5.9897   6.0513   6.0692   6.1083
     6.1754   6.1943   6.2694   6.2848   6.3673   6.4153   6.4632   6.5454
     6.7461   6.8723   6.9583   7.2234   7.3612   7.7674   8.0908   8.3505
     8.5023   8.7977   9.4994   9.5691   9.6678   9.7737   9.9215   9.9955
    10.0793  10.1305  10.2474  10.2868  10.6765  10.7608  10.9481  11.1001

     occupation numbers 
     1.0000   1.0000   1.0000   1.0000   1.0000   1.0000   1.0000   1.0000
     1.0000   1.0000   1.0000   1.0000   1.0000   1.0000   1.0000   1.0000
     1.0000   1.0000   1.0000   1.0000   1.0000   1.0000   1.0000   1.0000
     1.0000   1.0000   1.0000   1.0000   1.0000   1.0000   1.0000   1.0000
     1.0000   1.0000   1.0000   1.0000   1.0000   1.0000   1.0000   1.0000
     1.0000   1.0000   1.0000   1.0000   1.0000   1.0000   1.0000   1.0000
     1.0000   1.0000   1.0000   1.0000   1.0000   1.0000   1.0000   1.0000
     1.0000   1.0000   1.0000   1.0000   1.0000   1.0000   1.0000   1.0000
     1.0000   1.0000   1.0000   1.0000   1.0000   1.0000   1.0000   1.0000

          k = 0.0000 0.0962-0.1549 (  6132 PWs)   bands (ev):

    -9.1535  -9.0319  -8.5804  -8.2278  -8.0578  -7.7600  -7.5674  -7.4245
     2.9585   3.0012   3.1476   3.3070   3.3691   3.5207   3.6474   3.7335
     3.7605   3.8327   3.9274   3.9902   4.0538   4.1381   4.2271   4.3798
     4.4451   4.4777   4.5520   4.6191   4.7851   4.8959   4.9014   5.0066
     5.8089   5.8361   5.9007   5.9486   5.9683   6.0226   6.0614   6.1060
     6.1763   6.1970   6.2751   6.3096   6.3667   6.4210   6.4598   6.5100
     6.7705   6.8939   7.1837   7.2480   7.3677   7.4734   8.1771   8.3220
     8.4470   8.6689   9.5949   9.6716   9.7778   9.8173   9.9361   9.9946
    10.0534  10.0946  10.1414  10.1981  10.7308  10.7989  10.8966  11.0829

     occupation numbers 
     1.0000   1.0000   1.0000   1.0000   1.0000   1.0000   1.0000   1.0000
     1.0000   1.0000   1.0000   1.0000   1.0000   1.0000   1.0000   1.0000
     1.0000   1.0000   1.0000   1.0000   1.0000   1.0000   1.0000   1.0000
     1.0000   1.0000   1.0000   1.0000   1.0000   1.0000   1.0000   1.0000
     1.0000   1.0000   1.0000   1.0000   1.0000   1.0000   1.0000   1.0000
     1.0000   1.0000   1.0000   1.0000   1.0000   1.0000   1.0000   1.0000
     1.0000   1.0000   1.0000   1.0000   1.0000   1.0000   1.0000   1.0000
     1.0000   1.0000   1.0000   1.0000   1.0000   1.0000   1.0000   1.0000
     1.0000   1.0000   1.0000   1.0000   1.0000   1.0000   1.0000   1.0000

          k = 0.0000 0.1925 0.0000 (  6164 PWs)   bands (ev):

    -9.0951  -8.8563  -8.6135  -8.3372  -8.1030  -7.7440  -7.6317  -7.4725
     2.9286   3.0442   3.1306   3.3228   3.4029   3.5468   3.7097   3.7538
     3.8053   3.8923   3.9491   4.0009   4.0812   4.1988   4.2346   4.3366
     4.3854   4.4453   4.5469   4.6159   4.6846   4.7744   4.8915   4.9367
     5.6689   5.7389   5.7955   5.9258   5.9610   6.0215   6.0599   6.1182
     6.1315   6.1659   6.2023   6.2405   6.3421   6.3833   6.4193   6.4340
     6.6493   6.8537   7.3142   7.6900   7.7547   8.4826   8.5623   8.6378
     8.6918   9.0093   9.1653   9.3559   9.4507   9.5356   9.6690   9.7273
     9.8605  10.0780  10.1562  10.2464  10.2683  10.4415  10.7899  10.9743

     occupation numbers 
     1.0000   1.0000   1.0000   1.0000   1.0000   1.0000   1.0000   1.0000
     1.0000   1.0000   1.0000   1.0000   1.0000   1.0000   1.0000   1.0000
     1.0000   1.0000   1.0000   1.0000   1.0000   1.0000   1.0000   1.0000
     1.0000   1.0000   1.0000   1.0000   1.0000   1.0000   1.0000   1.0000
     1.0000   1.0000   1.0000   1.0000   1.0000   1.0000   1.0000   1.0000
     1.0000   1.0000   1.0000   1.0000   1.0000   1.0000   1.0000   1.0000
     1.0000   1.0000   1.0000   1.0000   1.0000   1.0000   1.0000   1.0000
     1.0000   1.0000   1.0000   1.0000   1.0000   1.0000   1.0000   1.0000
     1.0000   1.0000   1.0000   1.0000   1.0000   1.0000   1.0000   1.0000

          k = 0.0000 0.1925 0.0516 (  6158 PWs)   bands (ev):

    -9.0887  -8.8584  -8.6306  -8.3319  -8.0873  -7.7619  -7.6132  -7.4812
     2.9366   3.0580   3.1340   3.3336   3.3867   3.5416   3.7125   3.7429
     3.8146   3.8521   3.9441   4.0050   4.0790   4.1929   4.2424   4.3366
     4.3986   4.4500   4.5307   4.6162   4.6972   4.7767   4.8477   4.9280
     5.6949   5.7450   5.7995   5.9250   5.9676   6.0189   6.0344   6.0911
     6.1417   6.1787   6.2096   6.2432   6.3715   6.4073   6.4291   6.4472
     6.7177   6.8827   7.3393   7.5930   7.8446   8.2321   8.5105   8.6095
     8.7823   8.9827   9.1229   9.2733   9.5159   9.5775   9.7373   9.7976
     9.8859  10.0346  10.1302  10.2088  10.3284  10.4900  10.7875  10.9556

     occupation numbers 
     1.0000   1.0000   1.0000   1.0000   1.0000   1.0000   1.0000   1.0000
     1.0000   1.0000   1.0000   1.0000   1.0000   1.0000   1.0000   1.0000
     1.0000   1.0000   1.0000   1.0000   1.0000   1.0000   1.0000   1.0000
     1.0000   1.0000   1.0000   1.0000   1.0000   1.0000   1.0000   1.0000
     1.0000   1.0000   1.0000   1.0000   1.0000   1.0000   1.0000   1.0000
     1.0000   1.0000   1.0000   1.0000   1.0000   1.0000   1.0000   1.0000
     1.0000   1.0000   1.0000   1.0000   1.0000   1.0000   1.0000   1.0000
     1.0000   1.0000   1.0000   1.0000   1.0000   1.0000   1.0000   1.0000
     1.0000   1.0000   1.0000   1.0000   1.0000   1.0000   1.0000   1.0000

          k = 0.0000 0.1925 0.1032 (  6160 PWs)   bands (ev):

    -9.0655  -8.8941  -8.6255  -8.3397  -8.0645  -7.7687  -7.5978  -7.4972
     2.9665   3.0599   3.1506   3.3464   3.4082   3.5060   3.6706   3.7179
     3.8139   3.8322   3.9269   4.0010   4.0791   4.1798   4.2410   4.3396
     4.4170   4.4590   4.5271   4.6138   4.7188   4.7757   4.8055   4.9132
     5.7387   5.7655   5.8081   5.9153   5.9333   5.9901   6.0160   6.0730
     6.1498   6.1902   6.2436   6.2646   6.3738   6.4214   6.4259   6.4807
     6.9316   7.0424   7.3499   7.5479   7.8171   7.8514   8.4296   8.5637
     8.6815   9.0613   9.0999   9.2976   9.5039   9.6150   9.7656   9.8554
     9.9580   9.9769  10.1316  10.3069  10.3499  10.5757  10.7285  10.9166

     occupation numbers 
     1.0000   1.0000   1.0000   1.0000   1.0000   1.0000   1.0000   1.0000
     1.0000   1.0000   1.0000   1.0000   1.0000   1.0000   1.0000   1.0000
     1.0000   1.0000   1.0000   1.0000   1.0000   1.0000   1.0000   1.0000
     1.0000   1.0000   1.0000   1.0000   1.0000   1.0000   1.0000   1.0000
     1.0000   1.0000   1.0000   1.0000   1.0000   1.0000   1.0000   1.0000
     1.0000   1.0000   1.0000   1.0000   1.0000   1.0000   1.0000   1.0000
     1.0000   1.0000   1.0000   1.0000   1.0000   1.0000   1.0000   1.0000
     1.0000   1.0000   1.0000   1.0000   1.0000   1.0000   1.0000   1.0000
     1.0000   1.0000   1.0000   1.0000   1.0000   1.0000   1.0000   1.0000

          k = 0.0000 0.1925-0.1549 (  6160 PWs)   bands (ev):

    -9.0421  -8.9314  -8.6067  -8.3521  -8.0588  -7.7583  -7.6011  -7.5026
     2.9995   3.0331   3.1772   3.3446   3.4335   3.4817   3.6415   3.7048
     3.8018   3.8217   3.9268   3.9962   4.0844   4.1708   4.2353   4.3428
     4.4202   4.4616   4.5420   4.6104   4.7146   4.7822   4.8089   4.9030
     5.7647   5.7818   5.8127   5.8879   5.9237   5.9626   6.0126   6.0674
     6.1575   6.1953   6.2500   6.2943   6.3726   6.4148   6.4290   6.4640
     7.1757   7.2353   7.2668   7.4747   7.6360   7.7328   8.4075   8.5146
     8.7371   8.9922   9.0974   9.3118   9.6023   9.6497   9.6960   9.8030
     9.9329  10.0493  10.1777  10.2805  10.4949  10.6027  10.6265  10.8967

     occupation numbers 
     1.0000   1.0000   1.0000   1.0000   1.0000   1.0000   1.0000   1.0000
     1.0000   1.0000   1.0000   1.0000   1.0000   1.0000   1.0000   1.0000
     1.0000   1.0000   1.0000   1.0000   1.0000   1.0000   1.0000   1.0000
     1.0000   1.0000   1.0000   1.0000   1.0000   1.0000   1.0000   1.0000
     1.0000   1.0000   1.0000   1.0000   1.0000   1.0000   1.0000   1.0000
     1.0000   1.0000   1.0000   1.0000   1.0000   1.0000   1.0000   1.0000
     1.0000   1.0000   1.0000   1.0000   1.0000   1.0000   1.0000   1.0000
     1.0000   1.0000   1.0000   1.0000   1.0000   1.0000   1.0000   1.0000
     1.0000   1.0000   1.0000   1.0000   1.0000   1.0000   1.0000   1.0000

          k = 0.0000-0.2887 0.0000 (  6174 PWs)   bands (ev):

    -8.9766  -8.8812  -8.6000  -8.3979  -8.1171  -7.7229  -7.6770  -7.5054
     2.9738   3.0758   3.0982   3.3435   3.4107   3.4838   3.7314   3.7857
     3.8286   3.9316   3.9932   4.0333   4.0515   4.1777   4.2397   4.3172
     4.3899   4.4355   4.5329   4.6269   4.6972   4.7419   4.7545   4.8298
     5.6539   5.6706   5.7949   5.8863   5.9598   6.0134   6.0486   6.1111
     6.1157   6.1609   6.1934   6.2226   6.3245   6.3909   6.4116   6.4356
     6.7119   6.7427   7.9730   8.0745   8.2303   8.3436   8.4020   8.4671
     8.8672   9.0220   9.2380   9.2588   9.3658   9.4041   9.5709   9.6327
     9.7415   9.8267   9.9782  10.0720  10.4642  10.5494  10.6014  10.8029

     occupation numbers 
     1.0000   1.0000   1.0000   1.0000   1.0000   1.0000   1.0000   1.0000
     1.0000   1.0000   1.0000   1.0000   1.0000   1.0000   1.0000   1.0000
     1.0000   1.0000   1.0000   1.0000   1.0000   1.0000   1.0000   1.0000
     1.0000   1.0000   1.0000   1.0000   1.0000   1.0000   1.0000   1.0000
     1.0000   1.0000   1.0000   1.0000   1.0000   1.0000   1.0000   1.0000
     1.0000   1.0000   1.0000   1.0000   1.0000   1.0000   1.0000   1.0000
     1.0000   1.0000   1.0000   1.0000   1.0000   1.0000   1.0000   1.0000
     1.0000   1.0000   1.0000   1.0000   1.0000   1.0000   1.0000   1.0000
     1.0000   1.0000   1.0000   1.0000   1.0000   1.0000   1.0000   1.0000

          k = 0.0000-0.2887 0.0516 (  6160 PWs)   bands (ev):

    -8.9729  -8.8773  -8.6117  -8.4062  -8.1045  -7.7195  -7.6706  -7.5153
     2.9847   3.0788   3.1167   3.3387   3.4213   3.4825   3.7093   3.7646
     3.8249   3.9005   3.9892   4.0108   4.0766   4.1674   4.2421   4.3229
     4.4023   4.4431   4.5319   4.6255   4.6938   4.7269   4.7556   4.8270
     5.6695   5.6884   5.7966   5.8891   5.9482   6.0090   6.0198   6.0791
     6.1329   6.1737   6.2109   6.2310   6.3641   6.3910   6.4128   6.4418
     6.7714   6.8238   7.9595   8.0304   8.1366   8.2155   8.4164   8.5670
     8.8730   8.9238   9.1310   9.2618   9.2862   9.3828   9.6183   9.7301
     9.7998   9.8473  10.0076  10.1839  10.4608  10.5483  10.5841  10.7859

     occupation numbers 
     1.0000   1.0000   1.0000   1.0000   1.0000   1.0000   1.0000   1.0000
     1.0000   1.0000   1.0000   1.0000   1.0000   1.0000   1.0000   1.0000
     1.0000   1.0000   1.0000   1.0000   1.0000   1.0000   1.0000   1.0000
     1.0000   1.0000   1.0000   1.0000   1.0000   1.0000   1.0000   1.0000
     1.0000   1.0000   1.0000   1.0000   1.0000   1.0000   1.0000   1.0000
     1.0000   1.0000   1.0000   1.0000   1.0000   1.0000   1.0000   1.0000
     1.0000   1.0000   1.0000   1.0000   1.0000   1.0000   1.0000   1.0000
     1.0000   1.0000   1.0000   1.0000   1.0000   1.0000   1.0000   1.0000
     1.0000   1.0000   1.0000   1.0000   1.0000   1.0000   1.0000   1.0000

          k = 0.0000-0.2887 0.1032 (  6178 PWs)   bands (ev):

    -8.9653  -8.8687  -8.6354  -8.4220  -8.0801  -7.7206  -7.6438  -7.5420
     3.0099   3.0907   3.1504   3.3280   3.4399   3.4939   3.6268   3.7360
     3.8154   3.8693   3.9548   3.9999   4.0861   4.1742   4.2421   4.3304
     4.4262   4.4577   4.5305   4.6181   4.6835   4.7031   4.7569   4.8206
     5.7081   5.7261   5.8000   5.8898   5.9127   5.9690   6.0027   6.0534
     6.1426   6.1882   6.2347   6.2648   6.3805   6.4032   6.4215   6.4502
     6.9783   7.0593   7.7433   7.7840   8.1041   8.1773   8.4076   8.5247
     8.8622   8.9290   9.0615   9.2022   9.2983   9.3345   9.4847   9.6611
     9.9691  10.0869  10.1425  10.3161  10.4426  10.5287  10.5427  10.7442

     occupation numbers 
     1.0000   1.0000   1.0000   1.0000   1.0000   1.0000   1.0000   1.0000
     1.0000   1.0000   1.0000   1.0000   1.0000   1.0000   1.0000   1.0000
     1.0000   1.0000   1.0000   1.0000   1.0000   1.0000   1.0000   1.0000
     1.0000   1.0000   1.0000   1.0000   1.0000   1.0000   1.0000   1.0000
     1.0000   1.0000   1.0000   1.0000   1.0000   1.0000   1.0000   1.0000
     1.0000   1.0000   1.0000   1.0000   1.0000   1.0000   1.0000   1.0000
     1.0000   1.0000   1.0000   1.0000   1.0000   1.0000   1.0000   1.0000
     1.0000   1.0000   1.0000   1.0000   1.0000   1.0000   1.0000   1.0000
     1.0000   1.0000   1.0000   1.0000   1.0000   1.0000   1.0000   1.0000

          k = 0.0000-0.2887-0.1549 (  6180 PWs)   bands (ev):

    -8.9613  -8.8638  -8.6476  -8.4295  -8.0682  -7.7235  -7.6182  -7.5655
     3.0249   3.0979   3.1667   3.3228   3.4515   3.5171   3.5619   3.7194
     3.8107   3.8585   3.9368   3.9996   4.0848   4.1818   4.2417   4.3333
     4.4389   4.4642   4.5309   4.6105   4.6762   4.6950   4.7582   4.8171
     5.7341   5.7495   5.8021   5.8699   5.9054   5.9431   5.9990   6.0431
     6.1488   6.1953   6.2411   6.2848   6.3789   6.4035   6.4262   6.4545
     7.2241   7.3149   7.4864   7.4971   8.1344   8.1952   8.3574   8.4701
     8.8929   8.9577   9.0654   9.1796   9.2459   9.3711   9.4254   9.5859
    10.0765  10.1676  10.2334  10.3895  10.4118  10.5058  10.5114  10.7170

     occupation numbers 
     1.0000   1.0000   1.0000   1.0000   1.0000   1.0000   1.0000   1.0000
     1.0000   1.0000   1.0000   1.0000   1.0000   1.0000   1.0000   1.0000
     1.0000   1.0000   1.0000   1.0000   1.0000   1.0000   1.0000   1.0000
     1.0000   1.0000   1.0000   1.0000   1.0000   1.0000   1.0000   1.0000
     1.0000   1.0000   1.0000   1.0000   1.0000   1.0000   1.0000   1.0000
     1.0000   1.0000   1.0000   1.0000   1.0000   1.0000   1.0000   1.0000
     1.0000   1.0000   1.0000   1.0000   1.0000   1.0000   1.0000   1.0000
     1.0000   1.0000   1.0000   1.0000   1.0000   1.0000   1.0000   1.0000
     1.0000   1.0000   1.0000   1.0000   1.0000   1.0000   1.0000   1.0000

          k = 0.1667 0.0962 0.0000 (  6159 PWs)   bands (ev):

    -9.0718  -8.7845  -8.5447  -8.1520  -7.9922  -7.6810  -7.5152  -7.3825
     3.0593   3.1536   3.2009   3.3070   3.4253   3.5196   3.6758   3.7250
     3.8451   3.9816   4.0653   4.0972   4.1240   4.2016   4.2912   4.3614
     4.4023   4.4724   4.5560   4.6504   4.7616   4.8631   5.0407   5.1169
     5.7130   5.7362   5.8116   5.8805   5.9943   6.0402   6.0917   6.1289
     6.1584   6.1720   6.2795   6.3698   6.3830   6.4100   6.4881   6.5858
     6.6350   6.8056   7.0939   7.1840   7.2898   7.5715   8.0014   8.4319
     8.5436   8.6013   8.6891   8.9292   9.2243   9.4160   9.4952   9.6283
     9.7159   9.7973   9.8427  10.1276  10.2317  10.2595  10.7589  10.8913

     occupation numbers 
     1.0000   1.0000   1.0000   1.0000   1.0000   1.0000   1.0000   1.0000
     1.0000   1.0000   1.0000   1.0000   1.0000   1.0000   1.0000   1.0000
     1.0000   1.0000   1.0000   1.0000   1.0000   1.0000   1.0000   1.0000
     1.0000   1.0000   1.0000   1.0000   1.0000   1.0000   1.0000   1.0000
     1.0000   1.0000   1.0000   1.0000   1.0000   1.0000   1.0000   1.0000
     1.0000   1.0000   1.0000   1.0000   1.0000   1.0000   1.0000   1.0000
     1.0000   1.0000   1.0000   1.0000   1.0000   1.0000   1.0000   1.0000
     1.0000   1.0000   1.0000   1.0000   1.0000   1.0000   1.0000   1.0000
     1.0000   1.0000   1.0000   1.0000   1.0000   1.0000   1.0000   1.0000

          k = 0.1667 0.0962 0.0516 (  6145 PWs)   bands (ev):

    -9.0618  -8.8058  -8.5378  -8.1502  -7.9822  -7.6907  -7.5108  -7.3847
     3.0726   3.1650   3.2046   3.3257   3.4242   3.5185   3.6228   3.7189
     3.8544   3.9628   4.0684   4.0880   4.1431   4.1949   4.3016   4.3418
     4.4041   4.4700   4.5733   4.6481   4.7678   4.8731   4.9883   5.0883
     5.7211   5.7387   5.8336   5.9263   5.9736   6.0160   6.1062   6.1297
     6.1589   6.1884   6.2795   6.3588   6.3872   6.4131   6.5289   6.6012
     6.7024   6.7990   6.9956   7.2866   7.3329   7.5786   8.0431   8.1952
     8.2636   8.6996   8.9239   8.9578   9.1158   9.3962   9.5229   9.5948
     9.7406   9.7932   9.9068  10.0912  10.1847  10.3834  10.7400  10.8775

     occupation numbers 
     1.0000   1.0000   1.0000   1.0000   1.0000   1.0000   1.0000   1.0000
     1.0000   1.0000   1.0000   1.0000   1.0000   1.0000   1.0000   1.0000
     1.0000   1.0000   1.0000   1.0000   1.0000   1.0000   1.0000   1.0000
     1.0000   1.0000   1.0000   1.0000   1.0000   1.0000   1.0000   1.0000
     1.0000   1.0000   1.0000   1.0000   1.0000   1.0000   1.0000   1.0000
     1.0000   1.0000   1.0000   1.0000   1.0000   1.0000   1.0000   1.0000
     1.0000   1.0000   1.0000   1.0000   1.0000   1.0000   1.0000   1.0000
     1.0000   1.0000   1.0000   1.0000   1.0000   1.0000   1.0000   1.0000
     1.0000   1.0000   1.0000   1.0000   1.0000   1.0000   1.0000   1.0000

          k = 0.1667 0.0962 0.1032 (  6144 PWs)   bands (ev):

    -9.0335  -8.8593  -8.5146  -8.1531  -7.9690  -7.6956  -7.5118  -7.3871
     3.1011   3.1910   3.2177   3.3643   3.4202   3.4943   3.5658   3.6972
     3.8265   3.9451   4.0617   4.0856   4.1569   4.1916   4.2768   4.3531
     4.4128   4.4618   4.5947   4.6439   4.7821   4.8794   4.9333   5.0638
     5.7439   5.7647   5.8511   5.9229   5.9584   5.9973   6.1096   6.1303
     6.1672   6.2061   6.2870   6.3533   6.3887   6.4190   6.5576   6.6442
     6.7809   6.8473   6.9843   7.3722   7.4180   7.6250   7.7943   7.9872
     8.2036   8.5945   8.9566   9.0951   9.2022   9.3658   9.4888   9.6179
     9.7444   9.7792   9.8836   9.9829  10.3470  10.4955  10.6730  10.8427

     occupation numbers 
     1.0000   1.0000   1.0000   1.0000   1.0000   1.0000   1.0000   1.0000
     1.0000   1.0000   1.0000   1.0000   1.0000   1.0000   1.0000   1.0000
     1.0000   1.0000   1.0000   1.0000   1.0000   1.0000   1.0000   1.0000
     1.0000   1.0000   1.0000   1.0000   1.0000   1.0000   1.0000   1.0000
     1.0000   1.0000   1.0000   1.0000   1.0000   1.0000   1.0000   1.0000
     1.0000   1.0000   1.0000   1.0000   1.0000   1.0000   1.0000   1.0000
     1.0000   1.0000   1.0000   1.0000   1.0000   1.0000   1.0000   1.0000
     1.0000   1.0000   1.0000   1.0000   1.0000   1.0000   1.0000   1.0000
     1.0000   1.0000   1.0000   1.0000   1.0000   1.0000   1.0000   1.0000

          k = 0.1667 0.0962-0.1549 (  6136 PWs)   bands (ev):

    -9.0098  -8.8962  -8.4990  -8.1575  -7.9667  -7.6900  -7.5174  -7.3871
     3.1136   3.2015   3.2440   3.3744   3.4255   3.4496   3.5631   3.6897
     3.8033   3.9323   4.0493   4.0954   4.1572   4.1937   4.2558   4.3665
     4.4297   4.4505   4.5967   4.6440   4.7867   4.8680   4.9359   5.0657
     5.7620   5.7816   5.8624   5.9115   5.9267   5.9937   6.0969   6.1350
     6.1761   6.2090   6.2954   6.3576   6.3860   6.4235   6.5519   6.6744
     6.7519   6.8513   7.2144   7.3746   7.4178   7.5329   7.7014   7.8683
     8.3413   8.4310   9.0095   9.1102   9.2465   9.3764   9.5550   9.5985
     9.6735   9.7902   9.8444   9.9455  10.4824  10.5421  10.5881  10.8190

     occupation numbers 
     1.0000   1.0000   1.0000   1.0000   1.0000   1.0000   1.0000   1.0000
     1.0000   1.0000   1.0000   1.0000   1.0000   1.0000   1.0000   1.0000
     1.0000   1.0000   1.0000   1.0000   1.0000   1.0000   1.0000   1.0000
     1.0000   1.0000   1.0000   1.0000   1.0000   1.0000   1.0000   1.0000
     1.0000   1.0000   1.0000   1.0000   1.0000   1.0000   1.0000   1.0000
     1.0000   1.0000   1.0000   1.0000   1.0000   1.0000   1.0000   1.0000
     1.0000   1.0000   1.0000   1.0000   1.0000   1.0000   1.0000   1.0000
     1.0000   1.0000   1.0000   1.0000   1.0000   1.0000   1.0000   1.0000
     1.0000   1.0000   1.0000   1.0000   1.0000   1.0000   1.0000   1.0000

          k = 0.1667 0.1925 0.0000 (  6158 PWs)   bands (ev):

    -8.9592  -8.7515  -8.5264  -8.2477  -8.0024  -7.6791  -7.5644  -7.4257
     3.0452   3.1200   3.1678   3.2618   3.3887   3.4699   3.6675   3.7719
     3.8407   4.0014   4.0689   4.1177   4.1779   4.2288   4.2783   4.3958
     4.4181   4.4889   4.5389   4.6566   4.7496   4.7769   4.9110   5.0335
     5.6389   5.6797   5.8198   5.8870   5.9938   6.0286   6.0848   6.1286
     6.1593   6.1753   6.2088   6.2736   6.3715   6.3906   6.4308   6.5552
     6.6995   6.8815   7.4400   7.6383   7.7265   7.8701   8.3509   8.4686
     8.5363   8.5617   8.7607   8.8767   9.0870   9.2799   9.3907   9.4754
     9.6183   9.7487   9.8784   9.9390  10.0068  10.0731  10.5929  10.6795

     occupation numbers 
     1.0000   1.0000   1.0000   1.0000   1.0000   1.0000   1.0000   1.0000
     1.0000   1.0000   1.0000   1.0000   1.0000   1.0000   1.0000   1.0000
     1.0000   1.0000   1.0000   1.0000   1.0000   1.0000   1.0000   1.0000
     1.0000   1.0000   1.0000   1.0000   1.0000   1.0000   1.0000   1.0000
     1.0000   1.0000   1.0000   1.0000   1.0000   1.0000   1.0000   1.0000
     1.0000   1.0000   1.0000   1.0000   1.0000   1.0000   1.0000   1.0000
     1.0000   1.0000   1.0000   1.0000   1.0000   1.0000   1.0000   1.0000
     1.0000   1.0000   1.0000   1.0000   1.0000   1.0000   1.0000   1.0000
     1.0000   1.0000   1.0000   1.0000   1.0000   1.0000   1.0000   1.0000

          k = 0.1667 0.1925 0.0516 (  6149 PWs)   bands (ev):

    -8.9539  -8.7525  -8.5400  -8.2447  -7.9892  -7.6943  -7.5484  -7.4333
     3.0586   3.1399   3.1787   3.2693   3.3882   3.4595   3.6275   3.7585
     3.8345   3.9914   4.0799   4.1125   4.1814   4.2224   4.2781   4.3882
     4.4055   4.5099   4.5514   4.6727   4.7455   4.7686   4.8499   5.0199
     5.6568   5.6907   5.8288   5.9256   5.9793   6.0089   6.0763   6.1145
     6.1628   6.1809   6.2351   6.2836   6.3830   6.4208   6.4395   6.5784
     6.7471   6.9136   7.4500   7.5779   7.8094   7.9010   8.2101   8.3363
     8.5331   8.5973   8.7127   8.8527   9.0588   9.2191   9.2841   9.6090
     9.7149   9.7648   9.8353   9.9668  10.0517  10.1451  10.5894  10.6593

     occupation numbers 
     1.0000   1.0000   1.0000   1.0000   1.0000   1.0000   1.0000   1.0000
     1.0000   1.0000   1.0000   1.0000   1.0000   1.0000   1.0000   1.0000
     1.0000   1.0000   1.0000   1.0000   1.0000   1.0000   1.0000   1.0000
     1.0000   1.0000   1.0000   1.0000   1.0000   1.0000   1.0000   1.0000
     1.0000   1.0000   1.0000   1.0000   1.0000   1.0000   1.0000   1.0000
     1.0000   1.0000   1.0000   1.0000   1.0000   1.0000   1.0000   1.0000
     1.0000   1.0000   1.0000   1.0000   1.0000   1.0000   1.0000   1.0000
     1.0000   1.0000   1.0000   1.0000   1.0000   1.0000   1.0000   1.0000
     1.0000   1.0000   1.0000   1.0000   1.0000   1.0000   1.0000   1.0000

          k = 0.1667 0.1925 0.1032 (  6150 PWs)   bands (ev):

    -8.9341  -8.7813  -8.5363  -8.2506  -7.9732  -7.6990  -7.5356  -7.4461
     3.0981   3.1741   3.1879   3.3066   3.3900   3.4330   3.5519   3.7266
     3.8009   3.9855   4.0585   4.1119   4.1947   4.2240   4.2787   4.3781
     4.4032   4.5032   4.5798   4.6836   4.7109   4.7707   4.8256   5.0011
     5.6973   5.7207   5.8422   5.9058   5.9578   5.9954   6.0581   6.0958
     6.1681   6.2001   6.2705   6.3160   6.3842   6.4293   6.4754   6.5686
     6.9632   7.0353   7.3436   7.6750   7.8028   7.8945   8.0215   8.2549
     8.4313   8.4708   8.6242   8.8711   9.0080   9.2155   9.4065   9.5333
     9.6443   9.7956   9.9111  10.0339  10.2016  10.2551  10.5502  10.6130

     occupation numbers 
     1.0000   1.0000   1.0000   1.0000   1.0000   1.0000   1.0000   1.0000
     1.0000   1.0000   1.0000   1.0000   1.0000   1.0000   1.0000   1.0000
     1.0000   1.0000   1.0000   1.0000   1.0000   1.0000   1.0000   1.0000
     1.0000   1.0000   1.0000   1.0000   1.0000   1.0000   1.0000   1.0000
     1.0000   1.0000   1.0000   1.0000   1.0000   1.0000   1.0000   1.0000
     1.0000   1.0000   1.0000   1.0000   1.0000   1.0000   1.0000   1.0000
     1.0000   1.0000   1.0000   1.0000   1.0000   1.0000   1.0000   1.0000
     1.0000   1.0000   1.0000   1.0000   1.0000   1.0000   1.0000   1.0000
     1.0000   1.0000   1.0000   1.0000   1.0000   1.0000   1.0000   1.0000

          k = 0.1667 0.1925-0.1549 (  6134 PWs)   bands (ev):

    -8.9145  -8.8122  -8.5213  -8.2592  -7.9711  -7.6889  -7.5394  -7.4496
     3.1244   3.1790   3.2024   3.3436   3.3842   3.4139   3.5060   3.7071
     3.7912   3.9716   4.0421   4.1135   4.2065   4.2298   4.2760   4.3675
     4.4164   4.4890   4.5931   4.6435   4.7304   4.7716   4.8447   4.9949
     5.7270   5.7421   5.8423   5.8855   5.9248   5.9910   6.0557   6.0868
     6.1735   6.2096   6.2793   6.3441   6.3830   6.4213   6.4986   6.5321
     7.1369   7.1931   7.2896   7.4951   7.7865   7.8743   8.1268   8.2146
     8.2794   8.4268   8.6243   8.8166   9.0654   9.2307   9.4391   9.4968
     9.6259   9.7854   9.8987  10.0823  10.2979  10.3375  10.4848  10.5843

     occupation numbers 
     1.0000   1.0000   1.0000   1.0000   1.0000   1.0000   1.0000   1.0000
     1.0000   1.0000   1.0000   1.0000   1.0000   1.0000   1.0000   1.0000
     1.0000   1.0000   1.0000   1.0000   1.0000   1.0000   1.0000   1.0000
     1.0000   1.0000   1.0000   1.0000   1.0000   1.0000   1.0000   1.0000
     1.0000   1.0000   1.0000   1.0000   1.0000   1.0000   1.0000   1.0000
     1.0000   1.0000   1.0000   1.0000   1.0000   1.0000   1.0000   1.0000
     1.0000   1.0000   1.0000   1.0000   1.0000   1.0000   1.0000   1.0000
     1.0000   1.0000   1.0000   1.0000   1.0000   1.0000   1.0000   1.0000
     1.0000   1.0000   1.0000   1.0000   1.0000   1.0000   1.0000   1.0000

          k = 0.1667 0.2887 0.0000 (  6138 PWs)   bands (ev):

    -8.8621  -8.7700  -8.5175  -8.2985  -8.0138  -7.6467  -7.6147  -7.4494
     3.0398   3.1018   3.1727   3.2339   3.3950   3.4442   3.6245   3.7769
     3.8762   4.0133   4.0438   4.1215   4.2047   4.2586   4.2724   4.3788
     4.4330   4.5007   4.5472   4.6859   4.7245   4.7993   4.8327   4.9804
     5.6396   5.6675   5.8265   5.8766   5.9787   6.0273   6.0621   6.1271
     6.1312   6.1773   6.1972   6.2261   6.3286   6.3912   6.4251   6.4894
     6.8015   6.8205   7.8319   7.9299   8.1130   8.1372   8.2178   8.2617
     8.3700   8.5035   8.9347   9.0844   9.1316   9.1799   9.3388   9.4440
     9.4734   9.5407   9.6116   9.6742  10.2565  10.3109  10.3921  10.4319

     occupation numbers 
     1.0000   1.0000   1.0000   1.0000   1.0000   1.0000   1.0000   1.0000
     1.0000   1.0000   1.0000   1.0000   1.0000   1.0000   1.0000   1.0000
     1.0000   1.0000   1.0000   1.0000   1.0000   1.0000   1.0000   1.0000
     1.0000   1.0000   1.0000   1.0000   1.0000   1.0000   1.0000   1.0000
     1.0000   1.0000   1.0000   1.0000   1.0000   1.0000   1.0000   1.0000
     1.0000   1.0000   1.0000   1.0000   1.0000   1.0000   1.0000   1.0000
     1.0000   1.0000   1.0000   1.0000   1.0000   1.0000   1.0000   1.0000
     1.0000   1.0000   1.0000   1.0000   1.0000   1.0000   1.0000   1.0000
     1.0000   1.0000   1.0000   1.0000   1.0000   1.0000   1.0000   1.0000

          k = 0.1667 0.2887 0.0516 (  6160 PWs)   bands (ev):

    -8.8588  -8.7675  -8.5265  -8.3037  -8.0055  -7.6530  -7.5996  -7.4581
     3.0596   3.1168   3.1891   3.2449   3.3876   3.4258   3.6006   3.7580
     3.8489   4.0190   4.0583   4.1254   4.1691   4.2556   4.2800   4.3714
     4.4375   4.5065   4.5709   4.6752   4.7065   4.7853   4.8175   4.9782
     5.6558   5.6772   5.8357   5.9035   5.9668   6.0133   6.0513   6.0791
     6.1502   6.1763   6.2325   6.2512   6.3750   6.3982   6.4280   6.4850
     6.8589   6.8920   7.8313   7.9274   7.9960   8.0296   8.2713   8.3417
     8.4103   8.5299   8.8180   8.8616   9.0162   9.1369   9.2631   9.3315
     9.6391   9.6833   9.7285   9.8512  10.2453  10.3064  10.3840  10.4193

     occupation numbers 
     1.0000   1.0000   1.0000   1.0000   1.0000   1.0000   1.0000   1.0000
     1.0000   1.0000   1.0000   1.0000   1.0000   1.0000   1.0000   1.0000
     1.0000   1.0000   1.0000   1.0000   1.0000   1.0000   1.0000   1.0000
     1.0000   1.0000   1.0000   1.0000   1.0000   1.0000   1.0000   1.0000
     1.0000   1.0000   1.0000   1.0000   1.0000   1.0000   1.0000   1.0000
     1.0000   1.0000   1.0000   1.0000   1.0000   1.0000   1.0000   1.0000
     1.0000   1.0000   1.0000   1.0000   1.0000   1.0000   1.0000   1.0000
     1.0000   1.0000   1.0000   1.0000   1.0000   1.0000   1.0000   1.0000
     1.0000   1.0000   1.0000   1.0000   1.0000   1.0000   1.0000   1.0000

          k = 0.1667 0.2887 0.1032 (  6140 PWs)   bands (ev):

    -8.8524  -8.7615  -8.5442  -8.3141  -7.9894  -7.6613  -7.5693  -7.4802
     3.1064   3.1485   3.2174   3.2741   3.3746   3.3940   3.5398   3.7139
     3.8107   4.0146   4.0629   4.0980   4.1693   4.2510   4.3000   4.3648
     4.4295   4.5007   4.5949   4.6656   4.6937   4.7718   4.8056   4.9696
     5.6907   5.7119   5.8481   5.9122   5.9399   5.9725   6.0339   6.0495
     6.1663   6.1930   6.2484   6.3157   6.3861   6.4258   6.4534   6.4719
     7.0396   7.1206   7.6710   7.7228   7.9907   8.0682   8.3002   8.3977
     8.4314   8.5186   8.6012   8.6901   8.9054   9.0512   9.1528   9.2377
     9.7781   9.8639   9.9270  10.0536  10.2021  10.2971  10.3634  10.4003

     occupation numbers 
     1.0000   1.0000   1.0000   1.0000   1.0000   1.0000   1.0000   1.0000
     1.0000   1.0000   1.0000   1.0000   1.0000   1.0000   1.0000   1.0000
     1.0000   1.0000   1.0000   1.0000   1.0000   1.0000   1.0000   1.0000
     1.0000   1.0000   1.0000   1.0000   1.0000   1.0000   1.0000   1.0000
     1.0000   1.0000   1.0000   1.0000   1.0000   1.0000   1.0000   1.0000
     1.0000   1.0000   1.0000   1.0000   1.0000   1.0000   1.0000   1.0000
     1.0000   1.0000   1.0000   1.0000   1.0000   1.0000   1.0000   1.0000
     1.0000   1.0000   1.0000   1.0000   1.0000   1.0000   1.0000   1.0000
     1.0000   1.0000   1.0000   1.0000   1.0000   1.0000   1.0000   1.0000

          k = 0.1667 0.2887-0.1549 (  6140 PWs)   bands (ev):

    -8.8495  -8.7579  -8.5530  -8.3192  -7.9816  -7.6647  -7.5485  -7.4980
     3.1394   3.1603   3.2249   3.3013   3.3573   3.3928   3.4985   3.6779
     3.8088   3.9966   4.0579   4.0867   4.1849   4.2529   4.3104   4.3667
     4.4130   4.4942   4.5872   4.6705   4.7027   4.7746   4.8023   4.9632
     5.7147   5.7418   5.8445   5.8762   5.9420   5.9569   6.0267   6.0397
     6.1722   6.2062   6.2546   6.3434   6.3839   6.4250   6.4578   6.4715
     7.2579   7.3418   7.4565   7.5063   8.0700   8.1509   8.2562   8.3009
     8.3917   8.5025   8.6139   8.6714   8.8640   9.0070   9.1099   9.1892
     9.8403   9.9587  10.0119  10.1124  10.1626  10.2785  10.3476  10.4071

     occupation numbers 
     1.0000   1.0000   1.0000   1.0000   1.0000   1.0000   1.0000   1.0000
     1.0000   1.0000   1.0000   1.0000   1.0000   1.0000   1.0000   1.0000
     1.0000   1.0000   1.0000   1.0000   1.0000   1.0000   1.0000   1.0000
     1.0000   1.0000   1.0000   1.0000   1.0000   1.0000   1.0000   1.0000
     1.0000   1.0000   1.0000   1.0000   1.0000   1.0000   1.0000   1.0000
     1.0000   1.0000   1.0000   1.0000   1.0000   1.0000   1.0000   1.0000
     1.0000   1.0000   1.0000   1.0000   1.0000   1.0000   1.0000   1.0000
     1.0000   1.0000   1.0000   1.0000   1.0000   1.0000   1.0000   1.0000
     1.0000   1.0000   1.0000   1.0000   1.0000   1.0000   1.0000   1.0000

          k = 0.1667 0.0000 0.0000 (  6141 PWs)   bands (ev):

    -9.1155  -8.8059  -8.5566  -8.1061  -7.9935  -7.6696  -7.4985  -7.3621
     3.0673   3.1771   3.2336   3.3221   3.4542   3.5729   3.6200   3.7361
     3.8512   3.9354   4.0326   4.0939   4.1378   4.1738   4.3141   4.3254
     4.4181   4.4620   4.5684   4.6123   4.7871   4.9685   5.0597   5.1808
     5.7540   5.7793   5.8487   5.9131   5.9857   6.0470   6.0597   6.1242
     6.1512   6.1705   6.3227   6.3462   6.3697   6.4354   6.5139   6.5958
     6.6264   6.8018   6.8979   6.9893   7.1464   7.2647   8.0534   8.3185
     8.4461   8.5793   8.7222   9.0969   9.2117   9.3567   9.4858   9.6458
     9.7051   9.9231   9.9556  10.2362  10.3063  10.3994  10.8213  10.9580

     occupation numbers 
     1.0000   1.0000   1.0000   1.0000   1.0000   1.0000   1.0000   1.0000
     1.0000   1.0000   1.0000   1.0000   1.0000   1.0000   1.0000   1.0000
     1.0000   1.0000   1.0000   1.0000   1.0000   1.0000   1.0000   1.0000
     1.0000   1.0000   1.0000   1.0000   1.0000   1.0000   1.0000   1.0000
     1.0000   1.0000   1.0000   1.0000   1.0000   1.0000   1.0000   1.0000
     1.0000   1.0000   1.0000   1.0000   1.0000   1.0000   1.0000   1.0000
     1.0000   1.0000   1.0000   1.0000   1.0000   1.0000   1.0000   1.0000
     1.0000   1.0000   1.0000   1.0000   1.0000   1.0000   1.0000   1.0000
     1.0000   1.0000   1.0000   1.0000   1.0000   1.0000   1.0000   1.0000

          k = 0.1667 0.0000 0.0516 (  6128 PWs)   bands (ev):

    -9.1033  -8.8366  -8.5380  -8.1075  -7.9885  -7.6709  -7.5005  -7.3625
     3.0811   3.1806   3.2367   3.3586   3.4439   3.5488   3.6084   3.7238
     3.8420   3.9268   4.0339   4.0966   4.1292   4.1745   4.2900   4.3440
     4.4170   4.4669   4.5780   4.6124   4.7950   4.9733   5.0378   5.1501
     5.7619   5.7951   5.8581   5.9220   5.9761   6.0243   6.0671   6.1241
     6.1584   6.1832   6.3260   6.3445   6.3827   6.4262   6.5144   6.5724
     6.6952   6.8305   6.9142   7.0094   7.1617   7.2916   8.0589   8.1224
     8.2158   8.6634   8.9635   9.0980   9.2260   9.2868   9.5211   9.6473
     9.7259   9.7679  10.0616  10.1827  10.3311  10.4665  10.7857  10.9478

     occupation numbers 
     1.0000   1.0000   1.0000   1.0000   1.0000   1.0000   1.0000   1.0000
     1.0000   1.0000   1.0000   1.0000   1.0000   1.0000   1.0000   1.0000
     1.0000   1.0000   1.0000   1.0000   1.0000   1.0000   1.0000   1.0000
     1.0000   1.0000   1.0000   1.0000   1.0000   1.0000   1.0000   1.0000
     1.0000   1.0000   1.0000   1.0000   1.0000   1.0000   1.0000   1.0000
     1.0000   1.0000   1.0000   1.0000   1.0000   1.0000   1.0000   1.0000
     1.0000   1.0000   1.0000   1.0000   1.0000   1.0000   1.0000   1.0000
     1.0000   1.0000   1.0000   1.0000   1.0000   1.0000   1.0000   1.0000
     1.0000   1.0000   1.0000   1.0000   1.0000   1.0000   1.0000   1.0000

          k = 0.1667 0.0000 0.1032 (  6126 PWs)   bands (ev):

    -9.0722  -8.8964  -8.5090  -8.1105  -7.9780  -7.6736  -7.5049  -7.3631
     3.1062   3.1986   3.2663   3.3863   3.4288   3.5080   3.5977   3.6908
     3.8267   3.9103   4.0262   4.0865   4.1245   4.1835   4.2685   4.3547
     4.4226   4.4759   4.5626   4.6323   4.8173   4.9645   5.0036   5.1230
     5.7786   5.8160   5.8773   5.9310   5.9608   6.0025   6.0628   6.1372
     6.1686   6.1998   6.3298   6.3432   6.3860   6.4168   6.4931   6.5412
     6.8251   6.9303   6.9341   7.0429   7.1704   7.4203   7.7431   7.8543
     8.2873   8.7949   8.8642   9.1926   9.2496   9.4152   9.5316   9.6001
     9.6890   9.7480   9.9807  10.0984  10.4647  10.5662  10.7141  10.9136

     occupation numbers 
     1.0000   1.0000   1.0000   1.0000   1.0000   1.0000   1.0000   1.0000
     1.0000   1.0000   1.0000   1.0000   1.0000   1.0000   1.0000   1.0000
     1.0000   1.0000   1.0000   1.0000   1.0000   1.0000   1.0000   1.0000
     1.0000   1.0000   1.0000   1.0000   1.0000   1.0000   1.0000   1.0000
     1.0000   1.0000   1.0000   1.0000   1.0000   1.0000   1.0000   1.0000
     1.0000   1.0000   1.0000   1.0000   1.0000   1.0000   1.0000   1.0000
     1.0000   1.0000   1.0000   1.0000   1.0000   1.0000   1.0000   1.0000
     1.0000   1.0000   1.0000   1.0000   1.0000   1.0000   1.0000   1.0000
     1.0000   1.0000   1.0000   1.0000   1.0000   1.0000   1.0000   1.0000

          k = 0.1667 0.0000-0.1549 (  6122 PWs)   bands (ev):

    -9.0488  -8.9315  -8.4972  -8.1120  -7.9726  -7.6750  -7.5073  -7.3632
     3.1159   3.2213   3.2902   3.3635   3.4230   3.5006   3.5992   3.6705
     3.8235   3.8987   4.0189   4.0750   4.1296   4.1907   4.2591   4.3556
     4.4312   4.4816   4.5438   4.6431   4.8361   4.9356   5.0045   5.1227
     5.7871   5.8236   5.8875   5.9405   5.9451   5.9953   6.0580   6.1504
     6.1755   6.2035   6.3320   6.3418   6.3819   6.4121   6.4770   6.5309
     6.8597   6.9255   6.9780   7.1420   7.2278   7.4682   7.5502   7.6964
     8.5007   8.5816   8.9099   9.1947   9.3094   9.4750   9.5434   9.6072
     9.6869   9.7398   9.9024  10.0341  10.5471  10.6252  10.6644  10.8851

     occupation numbers 
     1.0000   1.0000   1.0000   1.0000   1.0000   1.0000   1.0000   1.0000
     1.0000   1.0000   1.0000   1.0000   1.0000   1.0000   1.0000   1.0000
     1.0000   1.0000   1.0000   1.0000   1.0000   1.0000   1.0000   1.0000
     1.0000   1.0000   1.0000   1.0000   1.0000   1.0000   1.0000   1.0000
     1.0000   1.0000   1.0000   1.0000   1.0000   1.0000   1.0000   1.0000
     1.0000   1.0000   1.0000   1.0000   1.0000   1.0000   1.0000   1.0000
     1.0000   1.0000   1.0000   1.0000   1.0000   1.0000   1.0000   1.0000
     1.0000   1.0000   1.0000   1.0000   1.0000   1.0000   1.0000   1.0000
     1.0000   1.0000   1.0000   1.0000   1.0000   1.0000   1.0000   1.0000

          k = 0.3333 0.1925 0.0000 (  6129 PWs)   bands (ev):

    -8.6592  -8.5251  -8.3642  -8.0590  -7.7768  -7.5676  -7.4264  -7.3305
     2.9607   3.0074   3.1033   3.2071   3.3140   3.4383   3.7799   3.8199
     4.0346   4.1351   4.2014   4.2337   4.2760   4.3774   4.4279   4.5040
     4.6337   4.6753   4.7199   4.8000   4.8971   4.9671   5.1230   5.2047
     5.6378   5.7311   5.8634   5.9349   6.0298   6.0727   6.1054   6.1356
     6.1711   6.1989   6.2544   6.3315   6.3876   6.4229   6.4836   6.5664
     6.7939   6.8544   7.0398   7.1965   7.2598   7.3205   7.5844   7.6991
     7.7397   8.0343   8.3346   8.5050   8.5764   8.7657   9.1164   9.2072
     9.3178   9.4187   9.4689   9.5255   9.6105   9.7865  10.0394  10.3069

     occupation numbers 
     1.0000   1.0000   1.0000   1.0000   1.0000   1.0000   1.0000   1.0000
     1.0000   1.0000   1.0000   1.0000   1.0000   1.0000   1.0000   1.0000
     1.0000   1.0000   1.0000   1.0000   1.0000   1.0000   1.0000   1.0000
     1.0000   1.0000   1.0000   1.0000   1.0000   1.0000   1.0000   1.0000
     1.0000   1.0000   1.0000   1.0000   1.0000   1.0000   1.0000   1.0000
     1.0000   1.0000   1.0000   1.0000   1.0000   1.0000   1.0000   1.0000
     1.0000   1.0000   1.0000   1.0000   1.0000   1.0000   1.0000   1.0000
     1.0000   1.0000   1.0000   1.0000   1.0000   1.0000   1.0000   1.0000
     1.0000   1.0000   1.0000   1.0000   1.0000   1.0000   1.0000   1.0000

          k = 0.3333 0.1925 0.0516 (  6125 PWs)   bands (ev):

    -8.6568  -8.5241  -8.3701  -8.0589  -7.7712  -7.5747  -7.4184  -7.3345
     2.9701   3.0193   3.1260   3.2192   3.3160   3.4172   3.7446   3.8230
     4.0142   4.1234   4.1900   4.2091   4.2985   4.3732   4.4241   4.5212
     4.6279   4.6974   4.7455   4.7735   4.8909   4.9603   5.0640   5.1946
     5.6663   5.7244   5.8948   5.9448   6.0223   6.0575   6.0857   6.1415
     6.1903   6.2103   6.2933   6.3667   6.4018   6.4318   6.4955   6.5817
     6.7771   6.8493   6.9858   7.2632   7.2917   7.3463   7.5668   7.6475
     7.8285   8.0511   8.2191   8.5269   8.5976   8.7781   8.8403   9.0718
     9.2694   9.4431   9.5540   9.6096   9.7589   9.8155  10.0506  10.2852

     occupation numbers 
     1.0000   1.0000   1.0000   1.0000   1.0000   1.0000   1.0000   1.0000
     1.0000   1.0000   1.0000   1.0000   1.0000   1.0000   1.0000   1.0000
     1.0000   1.0000   1.0000   1.0000   1.0000   1.0000   1.0000   1.0000
     1.0000   1.0000   1.0000   1.0000   1.0000   1.0000   1.0000   1.0000
     1.0000   1.0000   1.0000   1.0000   1.0000   1.0000   1.0000   1.0000
     1.0000   1.0000   1.0000   1.0000   1.0000   1.0000   1.0000   1.0000
     1.0000   1.0000   1.0000   1.0000   1.0000   1.0000   1.0000   1.0000
     1.0000   1.0000   1.0000   1.0000   1.0000   1.0000   1.0000   1.0000
     1.0000   1.0000   1.0000   1.0000   1.0000   1.0000   1.0000   1.0000

          k = 0.3333 0.1925 0.1032 (  6126 PWs)   bands (ev):

    -8.6466  -8.5371  -8.3689  -8.0602  -7.7687  -7.5755  -7.4116  -7.3402
     2.9882   3.0424   3.1679   3.2561   3.3275   3.3980   3.6562   3.7647
     3.9902   4.0883   4.1857   4.2126   4.3108   4.3766   4.4276   4.5359
     4.6232   4.7067   4.7392   4.8026   4.8793   4.9444   5.0008   5.1776
     5.7118   5.7584   5.9023   5.9184   5.9986   6.0446   6.0954   6.1470
     6.1992   6.2395   6.3105   6.3940   6.4340   6.4428   6.5324   6.6468
     6.7341   6.8410   6.9987   7.3004   7.3685   7.4167   7.5225   7.6837
     7.8602   7.9627   8.2186   8.4770   8.5317   8.5610   8.8180   9.0158
     9.1242   9.4396   9.6046   9.7417   9.8583   9.9174  10.0854  10.2312

     occupation numbers 
     1.0000   1.0000   1.0000   1.0000   1.0000   1.0000   1.0000   1.0000
     1.0000   1.0000   1.0000   1.0000   1.0000   1.0000   1.0000   1.0000
     1.0000   1.0000   1.0000   1.0000   1.0000   1.0000   1.0000   1.0000
     1.0000   1.0000   1.0000   1.0000   1.0000   1.0000   1.0000   1.0000
     1.0000   1.0000   1.0000   1.0000   1.0000   1.0000   1.0000   1.0000
     1.0000   1.0000   1.0000   1.0000   1.0000   1.0000   1.0000   1.0000
     1.0000   1.0000   1.0000   1.0000   1.0000   1.0000   1.0000   1.0000
     1.0000   1.0000   1.0000   1.0000   1.0000   1.0000   1.0000   1.0000
     1.0000   1.0000   1.0000   1.0000   1.0000   1.0000   1.0000   1.0000

          k = 0.3333 0.1925-0.1549 (  6136 PWs)   bands (ev):

    -8.6367  -8.5525  -8.3624  -8.0617  -7.7719  -7.5693  -7.4132  -7.3412
     2.9981   3.0480   3.2020   3.2615   3.3571   3.3984   3.5977   3.7028
     3.9990   4.0607   4.1820   4.2274   4.3145   4.3793   4.4366   4.5288
     4.6296   4.6886   4.7425   4.8280   4.8698   4.9237   5.0066   5.1702
     5.7371   5.7886   5.8843   5.9108   5.9828   6.0297   6.1148   6.1403
     6.2043   6.2424   6.3249   6.3927   6.4288   6.4395   6.5530   6.6635
     6.7653   6.7821   7.1454   7.1989   7.4028   7.4713   7.6211   7.6972
     7.7562   7.8662   8.3179   8.3903   8.4676   8.5428   8.8015   8.9512
     9.1636   9.4317   9.5942   9.7767   9.8812   9.9720  10.1140  10.1924

     occupation numbers 
     1.0000   1.0000   1.0000   1.0000   1.0000   1.0000   1.0000   1.0000
     1.0000   1.0000   1.0000   1.0000   1.0000   1.0000   1.0000   1.0000
     1.0000   1.0000   1.0000   1.0000   1.0000   1.0000   1.0000   1.0000
     1.0000   1.0000   1.0000   1.0000   1.0000   1.0000   1.0000   1.0000
     1.0000   1.0000   1.0000   1.0000   1.0000   1.0000   1.0000   1.0000
     1.0000   1.0000   1.0000   1.0000   1.0000   1.0000   1.0000   1.0000
     1.0000   1.0000   1.0000   1.0000   1.0000   1.0000   1.0000   1.0000
     1.0000   1.0000   1.0000   1.0000   1.0000   1.0000   1.0000   1.0000
     1.0000   1.0000   1.0000   1.0000   1.0000   1.0000   1.0000   1.0000

          k = 0.3333 0.2887 0.0000 (  6146 PWs)   bands (ev):

    -8.6169  -8.5293  -8.3650  -8.0788  -7.7827  -7.5522  -7.4437  -7.3383
     2.9523   2.9672   3.0574   3.1406   3.2687   3.3327   3.7375   3.7940
     4.0489   4.1486   4.1730   4.2550   4.3275   4.4169   4.4586   4.5384
     4.6429   4.6645   4.7039   4.8224   4.9163   4.9723   5.0798   5.2294
     5.6972   5.7205   5.9182   5.9480   6.0503   6.0901   6.1187   6.1452
     6.2002   6.2165   6.2297   6.2600   6.3422   6.4085   6.4685   6.5398
     6.7420   6.8363   7.1518   7.1974   7.3258   7.3808   7.4525   7.5297
     8.0560   8.1994   8.2486   8.3165   8.8828   8.9870   9.1160   9.1657
     9.2572   9.3253   9.4092   9.5329   9.7707   9.8652  10.0291  10.1960

     occupation numbers 
     1.0000   1.0000   1.0000   1.0000   1.0000   1.0000   1.0000   1.0000
     1.0000   1.0000   1.0000   1.0000   1.0000   1.0000   1.0000   1.0000
     1.0000   1.0000   1.0000   1.0000   1.0000   1.0000   1.0000   1.0000
     1.0000   1.0000   1.0000   1.0000   1.0000   1.0000   1.0000   1.0000
     1.0000   1.0000   1.0000   1.0000   1.0000   1.0000   1.0000   1.0000
     1.0000   1.0000   1.0000   1.0000   1.0000   1.0000   1.0000   1.0000
     1.0000   1.0000   1.0000   1.0000   1.0000   1.0000   1.0000   1.0000
     1.0000   1.0000   1.0000   1.0000   1.0000   1.0000   1.0000   1.0000
     1.0000   1.0000   1.0000   1.0000   1.0000   1.0000   1.0000   1.0000

          k = 0.3333 0.2887 0.0516 (  6126 PWs)   bands (ev):

    -8.6147  -8.5292  -8.3682  -8.0795  -7.7814  -7.5557  -7.4353  -7.3428
     2.9669   2.9917   3.0670   3.1477   3.2591   3.3178   3.7114   3.7898
     4.0354   4.1269   4.1772   4.2435   4.3309   4.4046   4.4647   4.5421
     4.6508   4.6886   4.7173   4.8093   4.8967   4.9580   5.0355   5.2275
     5.7147   5.7282   5.9398   5.9621   6.0345   6.0732   6.1167   6.1378
     6.1866   6.2319   6.2568   6.3115   6.3860   6.4161   6.4740   6.5439
     6.7182   6.8629   7.1190   7.2167   7.3082   7.3574   7.5154   7.5855
     8.0846   8.2109   8.2396   8.3338   8.7611   8.7859   8.9306   9.0293
     9.3043   9.4146   9.5747   9.6782   9.8000   9.8962  10.0064  10.1807

     occupation numbers 
     1.0000   1.0000   1.0000   1.0000   1.0000   1.0000   1.0000   1.0000
     1.0000   1.0000   1.0000   1.0000   1.0000   1.0000   1.0000   1.0000
     1.0000   1.0000   1.0000   1.0000   1.0000   1.0000   1.0000   1.0000
     1.0000   1.0000   1.0000   1.0000   1.0000   1.0000   1.0000   1.0000
     1.0000   1.0000   1.0000   1.0000   1.0000   1.0000   1.0000   1.0000
     1.0000   1.0000   1.0000   1.0000   1.0000   1.0000   1.0000   1.0000
     1.0000   1.0000   1.0000   1.0000   1.0000   1.0000   1.0000   1.0000
     1.0000   1.0000   1.0000   1.0000   1.0000   1.0000   1.0000   1.0000
     1.0000   1.0000   1.0000   1.0000   1.0000   1.0000   1.0000   1.0000

          k = 0.3333 0.2887 0.1032 (  6136 PWs)   bands (ev):

    -8.6111  -8.5278  -8.3745  -8.0815  -7.7786  -7.5607  -7.4206  -7.3520
     2.9831   3.0319   3.1004   3.1642   3.2687   3.3116   3.6262   3.7165
     4.0274   4.0983   4.1849   4.2443   4.3401   4.3883   4.4670   4.5440
     4.6532   4.7173   4.7359   4.8087   4.8821   4.9345   4.9891   5.2128
     5.7445   5.7612   5.9310   5.9736   6.0071   6.0452   6.0950   6.1278
     6.2090   6.2484   6.2782   6.3874   6.4265   6.4522   6.4862   6.5488
     6.7300   6.9156   7.0324   7.1630   7.3711   7.4592   7.5745   7.6692
     8.1239   8.2184   8.2735   8.3897   8.4509   8.5672   8.6940   8.8101
     9.4600   9.5652   9.6801   9.7655   9.8607   9.9445   9.9877  10.1428

     occupation numbers 
     1.0000   1.0000   1.0000   1.0000   1.0000   1.0000   1.0000   1.0000
     1.0000   1.0000   1.0000   1.0000   1.0000   1.0000   1.0000   1.0000
     1.0000   1.0000   1.0000   1.0000   1.0000   1.0000   1.0000   1.0000
     1.0000   1.0000   1.0000   1.0000   1.0000   1.0000   1.0000   1.0000
     1.0000   1.0000   1.0000   1.0000   1.0000   1.0000   1.0000   1.0000
     1.0000   1.0000   1.0000   1.0000   1.0000   1.0000   1.0000   1.0000
     1.0000   1.0000   1.0000   1.0000   1.0000   1.0000   1.0000   1.0000
     1.0000   1.0000   1.0000   1.0000   1.0000   1.0000   1.0000   1.0000
     1.0000   1.0000   1.0000   1.0000   1.0000   1.0000   1.0000   1.0000

          k = 0.3333 0.2887-0.1549 (  6140 PWs)   bands (ev):

    -8.6097  -8.5265  -8.3776  -8.0827  -7.7771  -7.5625  -7.4140  -7.3566
     2.9858   3.0393   3.1227   3.1790   3.3036   3.3274   3.5576   3.6447
     4.0340   4.0846   4.1924   4.2502   4.3464   4.3887   4.4534   4.5519
     4.6437   4.7071   4.7577   4.8225   4.8868   4.9179   4.9863   5.2006
     5.7653   5.7867   5.9076   5.9592   5.9940   6.0482   6.0839   6.1249
     6.2100   6.2553   6.2896   6.4106   6.4384   6.4798   6.4873   6.5167
     6.8065   6.8996   7.0440   7.0785   7.4604   7.5444   7.5787   7.6997
     8.1410   8.1855   8.3176   8.3627   8.4155   8.4493   8.5961   8.6875
     9.5461   9.6293   9.7056   9.7839   9.8542   9.9517  10.0059  10.1214

     occupation numbers 
     1.0000   1.0000   1.0000   1.0000   1.0000   1.0000   1.0000   1.0000
     1.0000   1.0000   1.0000   1.0000   1.0000   1.0000   1.0000   1.0000
     1.0000   1.0000   1.0000   1.0000   1.0000   1.0000   1.0000   1.0000
     1.0000   1.0000   1.0000   1.0000   1.0000   1.0000   1.0000   1.0000
     1.0000   1.0000   1.0000   1.0000   1.0000   1.0000   1.0000   1.0000
     1.0000   1.0000   1.0000   1.0000   1.0000   1.0000   1.0000   1.0000
     1.0000   1.0000   1.0000   1.0000   1.0000   1.0000   1.0000   1.0000
     1.0000   1.0000   1.0000   1.0000   1.0000   1.0000   1.0000   1.0000
     1.0000   1.0000   1.0000   1.0000   1.0000   1.0000   1.0000   1.0000

          k = 0.3333-0.0962 0.0000 (  6117 PWs)   bands (ev):

    -8.7213  -8.5383  -8.3658  -8.0178  -7.7734  -7.5767  -7.4025  -7.3173
     3.0236   3.1254   3.2312   3.3589   3.4092   3.5717   3.8127   3.8694
     3.9816   4.0634   4.1317   4.2392   4.3364   4.3850   4.4106   4.4454
     4.5170   4.6185   4.7671   4.8239   4.8524   5.1133   5.1730   5.3469
     5.6316   5.7680   5.7895   5.8788   5.9224   5.9763   6.0512   6.0829
     6.1424   6.1725   6.2284   6.2621   6.2962   6.4012   6.5951   6.6406
     6.7099   6.8120   6.9193   6.9732   7.0571   7.4498   7.6502   7.7845
     7.9243   8.0179   8.1250   8.2410   8.6066   8.8631   8.9358   9.1601
     9.2051   9.3315   9.4051   9.5070   9.5396   9.7126  10.2689  10.4122

     occupation numbers 
     1.0000   1.0000   1.0000   1.0000   1.0000   1.0000   1.0000   1.0000
     1.0000   1.0000   1.0000   1.0000   1.0000   1.0000   1.0000   1.0000
     1.0000   1.0000   1.0000   1.0000   1.0000   1.0000   1.0000   1.0000
     1.0000   1.0000   1.0000   1.0000   1.0000   1.0000   1.0000   1.0000
     1.0000   1.0000   1.0000   1.0000   1.0000   1.0000   1.0000   1.0000
     1.0000   1.0000   1.0000   1.0000   1.0000   1.0000   1.0000   1.0000
     1.0000   1.0000   1.0000   1.0000   1.0000   1.0000   1.0000   1.0000
     1.0000   1.0000   1.0000   1.0000   1.0000   1.0000   1.0000   1.0000
     1.0000   1.0000   1.0000   1.0000   1.0000   1.0000   1.0000   1.0000

          k = 0.3333-0.0962 0.0516 (  6120 PWs)   bands (ev):

    -8.7121  -8.5570  -8.3559  -8.0185  -7.7763  -7.5698  -7.4054  -7.3181
     3.0543   3.1290   3.2291   3.3505   3.4287   3.5717   3.7978   3.8784
     3.9414   4.0619   4.1222   4.2306   4.3275   4.3586   4.4067   4.4697
     4.5282   4.6172   4.7406   4.8185   4.8499   5.1102   5.1269   5.3719
     5.6538   5.7549   5.8375   5.8851   5.9259   5.9833   6.0338   6.0696
     6.1615   6.2022   6.2335   6.2794   6.3263   6.4007   6.5214   6.6651
     6.7447   6.8203   6.9314   7.0407   7.0595   7.4164   7.6351   7.6949
     7.8213   8.1000   8.2126   8.3029   8.6318   8.8057   8.8670   8.9952
     9.1548   9.2966   9.3807   9.4914   9.7317   9.8129  10.2599  10.3973

     occupation numbers 
     1.0000   1.0000   1.0000   1.0000   1.0000   1.0000   1.0000   1.0000
     1.0000   1.0000   1.0000   1.0000   1.0000   1.0000   1.0000   1.0000
     1.0000   1.0000   1.0000   1.0000   1.0000   1.0000   1.0000   1.0000
     1.0000   1.0000   1.0000   1.0000   1.0000   1.0000   1.0000   1.0000
     1.0000   1.0000   1.0000   1.0000   1.0000   1.0000   1.0000   1.0000
     1.0000   1.0000   1.0000   1.0000   1.0000   1.0000   1.0000   1.0000
     1.0000   1.0000   1.0000   1.0000   1.0000   1.0000   1.0000   1.0000
     1.0000   1.0000   1.0000   1.0000   1.0000   1.0000   1.0000   1.0000
     1.0000   1.0000   1.0000   1.0000   1.0000   1.0000   1.0000   1.0000

          k = 0.3333-0.0962 0.1032 (  6118 PWs)   bands (ev):

    -8.6934  -8.5858  -8.3474  -8.0194  -7.7746  -7.5649  -7.4075  -7.3200
     3.0969   3.1399   3.2446   3.3566   3.4713   3.5642   3.7769   3.8039
     3.9343   4.0374   4.0875   4.2132   4.3047   4.3414   4.4224   4.4751
     4.5458   4.6156   4.7218   4.8045   4.8822   5.0560   5.1182   5.3510
     5.6935   5.7543   5.8422   5.9061   5.9317   5.9762   6.0183   6.1149
     6.1848   6.2318   6.2678   6.2988   6.3865   6.4082   6.4581   6.6145
     6.7894   6.8408   7.0313   7.1153   7.1431   7.3625   7.4633   7.6123
     7.7659   8.1536   8.3264   8.4372   8.5902   8.6968   8.8251   8.9622
     9.0244   9.1363   9.3407   9.4817   9.9051   9.9980  10.2557  10.3552

     occupation numbers 
     1.0000   1.0000   1.0000   1.0000   1.0000   1.0000   1.0000   1.0000
     1.0000   1.0000   1.0000   1.0000   1.0000   1.0000   1.0000   1.0000
     1.0000   1.0000   1.0000   1.0000   1.0000   1.0000   1.0000   1.0000
     1.0000   1.0000   1.0000   1.0000   1.0000   1.0000   1.0000   1.0000
     1.0000   1.0000   1.0000   1.0000   1.0000   1.0000   1.0000   1.0000
     1.0000   1.0000   1.0000   1.0000   1.0000   1.0000   1.0000   1.0000
     1.0000   1.0000   1.0000   1.0000   1.0000   1.0000   1.0000   1.0000
     1.0000   1.0000   1.0000   1.0000   1.0000   1.0000   1.0000   1.0000
     1.0000   1.0000   1.0000   1.0000   1.0000   1.0000   1.0000   1.0000

          k = 0.3333-0.0962-0.1549 (  6112 PWs)   bands (ev):

    -8.6844  -8.5965  -8.3474  -8.0196  -7.7702  -7.5672  -7.4064  -7.3211
     3.0903   3.1622   3.2674   3.3795   3.4889   3.5592   3.7153   3.8008
     3.9365   4.0042   4.0671   4.2125   4.2976   4.3471   4.4307   4.4618
     4.5485   4.6191   4.7272   4.8035   4.9071   5.0348   5.1125   5.3210
     5.7144   5.7668   5.8360   5.8837   5.9368   5.9589   6.0273   6.1414
     6.1919   6.2240   6.2982   6.3552   6.3812   6.4264   6.4913   6.5093
     6.8229   6.8974   7.0004   7.1598   7.2382   7.3693   7.4026   7.4511
     7.9130   7.9909   8.4141   8.5007   8.6318   8.7232   8.7643   8.9128
     8.9611   9.0345   9.3485   9.4669   9.9950  10.0384  10.2660  10.3276

     occupation numbers 
     1.0000   1.0000   1.0000   1.0000   1.0000   1.0000   1.0000   1.0000
     1.0000   1.0000   1.0000   1.0000   1.0000   1.0000   1.0000   1.0000
     1.0000   1.0000   1.0000   1.0000   1.0000   1.0000   1.0000   1.0000
     1.0000   1.0000   1.0000   1.0000   1.0000   1.0000   1.0000   1.0000
     1.0000   1.0000   1.0000   1.0000   1.0000   1.0000   1.0000   1.0000
     1.0000   1.0000   1.0000   1.0000   1.0000   1.0000   1.0000   1.0000
     1.0000   1.0000   1.0000   1.0000   1.0000   1.0000   1.0000   1.0000
     1.0000   1.0000   1.0000   1.0000   1.0000   1.0000   1.0000   1.0000
     1.0000   1.0000   1.0000   1.0000   1.0000   1.0000   1.0000   1.0000

          k = 0.3333-0.0000 0.0000 (  6135 PWs)   bands (ev):

    -8.7460  -8.5466  -8.3671  -8.0008  -7.7698  -7.5812  -7.3962  -7.3074
     3.0659   3.1440   3.2811   3.4674   3.5168   3.6429   3.7956   3.8696
     3.9842   4.0647   4.0726   4.2415   4.3134   4.3642   4.4177   4.4828
     4.5197   4.5935   4.6914   4.8538   4.8957   5.1281   5.2157   5.3070
     5.6365   5.7054   5.7873   5.8253   5.8708   5.9301   5.9791   6.0568
     6.0843   6.1565   6.1874   6.2146   6.3039   6.3996   6.6250   6.6973
     6.7877   6.8101   6.8629   6.9373   7.1970   7.3586   7.5590   7.7919
     7.8577   8.0886   8.2456   8.4483   8.5970   8.6864   8.8484   9.0773
     9.1504   9.2975   9.3809   9.4930   9.5356   9.6689  10.3183  10.3329

     occupation numbers 
     1.0000   1.0000   1.0000   1.0000   1.0000   1.0000   1.0000   1.0000
     1.0000   1.0000   1.0000   1.0000   1.0000   1.0000   1.0000   1.0000
     1.0000   1.0000   1.0000   1.0000   1.0000   1.0000   1.0000   1.0000
     1.0000   1.0000   1.0000   1.0000   1.0000   1.0000   1.0000   1.0000
     1.0000   1.0000   1.0000   1.0000   1.0000   1.0000   1.0000   1.0000
     1.0000   1.0000   1.0000   1.0000   1.0000   1.0000   1.0000   1.0000
     1.0000   1.0000   1.0000   1.0000   1.0000   1.0000   1.0000   1.0000
     1.0000   1.0000   1.0000   1.0000   1.0000   1.0000   1.0000   1.0000
     1.0000   1.0000   1.0000   1.0000   1.0000   1.0000   1.0000   1.0000

          k = 0.3333-0.0000 0.0516 (  6131 PWs)   bands (ev):

    -8.7376  -8.5634  -8.3594  -8.0011  -7.7694  -7.5781  -7.3980  -7.3082
     3.0830   3.1602   3.2804   3.4605   3.5376   3.6405   3.7970   3.8716
     3.9593   4.0336   4.0841   4.2049   4.3160   4.3703   4.4346   4.4745
     4.5076   4.5804   4.6765   4.8361   4.9087   5.1304   5.1530   5.3176
     5.6455   5.7291   5.7860   5.8635   5.8995   5.9247   6.0068   6.0236
     6.0924   6.1607   6.2067   6.2427   6.3443   6.4038   6.6144   6.6648
     6.7223   6.8641   6.9379   6.9890   7.1805   7.3320   7.3980   7.8569
     7.9218   8.0192   8.3290   8.4655   8.6495   8.6702   8.7958   8.9313
     9.0732   9.2327   9.3301   9.4774   9.6884   9.8058  10.2967  10.3275

     occupation numbers 
     1.0000   1.0000   1.0000   1.0000   1.0000   1.0000   1.0000   1.0000
     1.0000   1.0000   1.0000   1.0000   1.0000   1.0000   1.0000   1.0000
     1.0000   1.0000   1.0000   1.0000   1.0000   1.0000   1.0000   1.0000
     1.0000   1.0000   1.0000   1.0000   1.0000   1.0000   1.0000   1.0000
     1.0000   1.0000   1.0000   1.0000   1.0000   1.0000   1.0000   1.0000
     1.0000   1.0000   1.0000   1.0000   1.0000   1.0000   1.0000   1.0000
     1.0000   1.0000   1.0000   1.0000   1.0000   1.0000   1.0000   1.0000
     1.0000   1.0000   1.0000   1.0000   1.0000   1.0000   1.0000   1.0000
     1.0000   1.0000   1.0000   1.0000   1.0000   1.0000   1.0000   1.0000

          k = 0.3333-0.0000 0.1032 (  6121 PWs)   bands (ev):

    -8.7179  -8.5963  -8.3474  -8.0017  -7.7689  -7.5712  -7.4025  -7.3092
     3.1238   3.1793   3.2860   3.4467   3.5783   3.6663   3.8109   3.8451
     3.9107   3.9835   4.0775   4.1436   4.3077   4.3697   4.4359   4.4695
     4.4887   4.5842   4.6585   4.8310   4.9212   5.0781   5.1373   5.3175
     5.6670   5.7493   5.7818   5.8862   5.9118   5.9375   6.0055   6.0659
     6.1601   6.1689   6.2471   6.2656   6.3926   6.4239   6.4957   6.5967
     6.7615   6.9788   7.0476   7.1182   7.1353   7.2003   7.2838   7.6791
     7.9748   8.2006   8.3790   8.4729   8.5242   8.7371   8.8053   8.8767
     9.0013   9.1218   9.2250   9.3667   9.8481  10.0171  10.2382  10.3238

     occupation numbers 
     1.0000   1.0000   1.0000   1.0000   1.0000   1.0000   1.0000   1.0000
     1.0000   1.0000   1.0000   1.0000   1.0000   1.0000   1.0000   1.0000
     1.0000   1.0000   1.0000   1.0000   1.0000   1.0000   1.0000   1.0000
     1.0000   1.0000   1.0000   1.0000   1.0000   1.0000   1.0000   1.0000
     1.0000   1.0000   1.0000   1.0000   1.0000   1.0000   1.0000   1.0000
     1.0000   1.0000   1.0000   1.0000   1.0000   1.0000   1.0000   1.0000
     1.0000   1.0000   1.0000   1.0000   1.0000   1.0000   1.0000   1.0000
     1.0000   1.0000   1.0000   1.0000   1.0000   1.0000   1.0000   1.0000
     1.0000   1.0000   1.0000   1.0000   1.0000   1.0000   1.0000   1.0000

          k = 0.3333-0.0000-0.1549 (  6124 PWs)   bands (ev):

    -8.7051  -8.6144  -8.3427  -8.0020  -7.7689  -7.5673  -7.4053  -7.3094
     3.1534   3.1746   3.2915   3.4433   3.6042   3.6969   3.7902   3.8466
     3.9007   3.9291   4.0668   4.1246   4.3022   4.3719   4.4098   4.4547
     4.5014   4.6012   4.6507   4.8394   4.9204   5.0593   5.1372   5.3160
     5.6775   5.7608   5.7796   5.8835   5.8936   5.9337   6.0119   6.1059
     6.1754   6.2191   6.2751   6.3092   6.3695   6.4057   6.4786   6.5044
     6.8509   7.0185   7.0584   7.0738   7.1229   7.2421   7.3606   7.4674
     8.0938   8.1803   8.3478   8.4826   8.5366   8.7215   8.8425   8.9137
     8.9907   9.0838   9.1778   9.2500   9.9299  10.0853  10.1897  10.3320

     occupation numbers 
     1.0000   1.0000   1.0000   1.0000   1.0000   1.0000   1.0000   1.0000
     1.0000   1.0000   1.0000   1.0000   1.0000   1.0000   1.0000   1.0000
     1.0000   1.0000   1.0000   1.0000   1.0000   1.0000   1.0000   1.0000
     1.0000   1.0000   1.0000   1.0000   1.0000   1.0000   1.0000   1.0000
     1.0000   1.0000   1.0000   1.0000   1.0000   1.0000   1.0000   1.0000
     1.0000   1.0000   1.0000   1.0000   1.0000   1.0000   1.0000   1.0000
     1.0000   1.0000   1.0000   1.0000   1.0000   1.0000   1.0000   1.0000
     1.0000   1.0000   1.0000   1.0000   1.0000   1.0000   1.0000   1.0000
     1.0000   1.0000   1.0000   1.0000   1.0000   1.0000   1.0000   1.0000

          k =-0.5000-0.2887 0.0000 (  6148 PWs)   bands (ev):

    -8.4856  -8.3774  -8.3168  -7.9549  -7.6272  -7.5457  -7.3551  -7.2810
     2.8651   2.8902   2.9605   3.1013   3.2134   3.3232   3.5961   3.6740
     4.1931   4.2105   4.2689   4.3357   4.3709   4.5447   4.5851   4.6697
     4.7339   4.7779   4.8207   4.8792   4.9923   5.0368   5.1592   5.3751
     5.8529   5.8832   6.0346   6.0533   6.1207   6.1569   6.2027   6.2153
     6.2752   6.2913   6.3227   6.3414   6.4079   6.4622   6.5060   6.5601
     6.6255   6.6714   6.7357   6.8150   6.8338   7.0103   7.1000   7.1672
     7.6496   7.7059   7.8957   8.1519   8.8607   8.9630   8.9991   9.1402
     9.2512   9.3107   9.3312   9.3772   9.5492   9.6489   9.9168  10.1348

     occupation numbers 
     1.0000   1.0000   1.0000   1.0000   1.0000   1.0000   1.0000   1.0000
     1.0000   1.0000   1.0000   1.0000   1.0000   1.0000   1.0000   1.0000
     1.0000   1.0000   1.0000   1.0000   1.0000   1.0000   1.0000   1.0000
     1.0000   1.0000   1.0000   1.0000   1.0000   1.0000   1.0000   1.0000
     1.0000   1.0000   1.0000   1.0000   1.0000   1.0000   1.0000   1.0000
     1.0000   1.0000   1.0000   1.0000   1.0000   1.0000   1.0000   1.0000
     1.0000   1.0000   1.0000   1.0000   1.0000   1.0000   1.0000   1.0000
     1.0000   1.0000   1.0000   1.0000   1.0000   1.0000   1.0000   1.0000
     1.0000   1.0000   1.0000   1.0000   1.0000   1.0000   1.0000   1.0000

          k =-0.5000-0.2887 0.0516 (  6140 PWs)   bands (ev):

    -8.4847  -8.3772  -8.3181  -7.9547  -7.6279  -7.5457  -7.3543  -7.2812
     2.8806   2.9075   2.9695   3.1161   3.2056   3.3044   3.5822   3.6412
     4.1846   4.2036   4.2709   4.3431   4.3769   4.5295   4.5668   4.6801
     4.7432   4.7841   4.8260   4.8901   4.9862   5.0331   5.1490   5.3649
     5.8791   5.9090   6.0351   6.0532   6.1196   6.1533   6.1886   6.2141
     6.2486   6.2829   6.3249   6.3493   6.4201   6.4616   6.5046   6.5610
     6.6336   6.6745   6.7299   6.8047   6.8375   7.0170   7.0829   7.1506
     7.7404   7.7798   7.9420   8.1886   8.6931   8.8491   8.9383   9.0438
     9.2067   9.3779   9.4150   9.4427   9.6084   9.7009   9.8918  10.1150

     occupation numbers 
     1.0000   1.0000   1.0000   1.0000   1.0000   1.0000   1.0000   1.0000
     1.0000   1.0000   1.0000   1.0000   1.0000   1.0000   1.0000   1.0000
     1.0000   1.0000   1.0000   1.0000   1.0000   1.0000   1.0000   1.0000
     1.0000   1.0000   1.0000   1.0000   1.0000   1.0000   1.0000   1.0000
     1.0000   1.0000   1.0000   1.0000   1.0000   1.0000   1.0000   1.0000
     1.0000   1.0000   1.0000   1.0000   1.0000   1.0000   1.0000   1.0000
     1.0000   1.0000   1.0000   1.0000   1.0000   1.0000   1.0000   1.0000
     1.0000   1.0000   1.0000   1.0000   1.0000   1.0000   1.0000   1.0000
     1.0000   1.0000   1.0000   1.0000   1.0000   1.0000   1.0000   1.0000

          k =-0.5000-0.2887 0.1032 (  6120 PWs)   bands (ev):

    -8.4829  -8.3767  -8.3208  -7.9542  -7.6293  -7.5458  -7.3526  -7.2816
     2.9207   2.9485   2.9840   3.1279   3.2073   3.2665   3.5522   3.5656
     4.1741   4.1893   4.2746   4.3516   4.3900   4.5044   4.5423   4.6854
     4.7462   4.8039   4.8469   4.9192   4.9643   5.0276   5.1284   5.3423
     5.9420   5.9685   6.0384   6.0528   6.1117   6.1230   6.1714   6.1849
     6.2306   6.2722   6.3168   6.3699   6.4340   6.4612   6.5018   6.5627
     6.6528   6.6806   6.7160   6.7887   6.8411   7.0296   7.0553   7.1249
     7.9363   7.9967   8.0763   8.2878   8.4686   8.6156   8.6880   8.7391
     9.3225   9.4845   9.5262   9.5472   9.6752   9.7542   9.8286  10.0664

     occupation numbers 
     1.0000   1.0000   1.0000   1.0000   1.0000   1.0000   1.0000   1.0000
     1.0000   1.0000   1.0000   1.0000   1.0000   1.0000   1.0000   1.0000
     1.0000   1.0000   1.0000   1.0000   1.0000   1.0000   1.0000   1.0000
     1.0000   1.0000   1.0000   1.0000   1.0000   1.0000   1.0000   1.0000
     1.0000   1.0000   1.0000   1.0000   1.0000   1.0000   1.0000   1.0000
     1.0000   1.0000   1.0000   1.0000   1.0000   1.0000   1.0000   1.0000
     1.0000   1.0000   1.0000   1.0000   1.0000   1.0000   1.0000   1.0000
     1.0000   1.0000   1.0000   1.0000   1.0000   1.0000   1.0000   1.0000
     1.0000   1.0000   1.0000   1.0000   1.0000   1.0000   1.0000   1.0000

          k =-0.5000-0.2887-0.1549 (  6112 PWs)   bands (ev):

    -8.4819  -8.3765  -8.3221  -7.9540  -7.6300  -7.5458  -7.3518  -7.2818
     2.9557   2.9718   2.9827   3.1188   3.2078   3.2646   3.5181   3.5359
     4.1707   4.1828   4.2763   4.3534   4.3971   4.4954   4.5310   4.6854
     4.7462   4.8058   4.8730   4.9331   4.9507   5.0215   5.1189   5.3297
     5.9886   6.0111   6.0437   6.0566   6.0712   6.1066   6.1519   6.1782
     6.2260   6.2706   6.3144   6.3773   6.4382   6.4616   6.5004   6.5633
     6.6685   6.6795   6.7073   6.7813   6.8423   7.0311   7.0499   7.1126
     8.0914   8.2192   8.2418   8.3138   8.3615   8.4244   8.4684   8.5532
     9.3693   9.5446   9.5654   9.6304   9.7033   9.7233   9.8046  10.0341

     occupation numbers 
     1.0000   1.0000   1.0000   1.0000   1.0000   1.0000   1.0000   1.0000
     1.0000   1.0000   1.0000   1.0000   1.0000   1.0000   1.0000   1.0000
     1.0000   1.0000   1.0000   1.0000   1.0000   1.0000   1.0000   1.0000
     1.0000   1.0000   1.0000   1.0000   1.0000   1.0000   1.0000   1.0000
     1.0000   1.0000   1.0000   1.0000   1.0000   1.0000   1.0000   1.0000
     1.0000   1.0000   1.0000   1.0000   1.0000   1.0000   1.0000   1.0000
     1.0000   1.0000   1.0000   1.0000   1.0000   1.0000   1.0000   1.0000
     1.0000   1.0000   1.0000   1.0000   1.0000   1.0000   1.0000   1.0000
     1.0000   1.0000   1.0000   1.0000   1.0000   1.0000   1.0000   1.0000

          k =-0.5000-0.1925 0.0000 (  6114 PWs)   bands (ev):

    -8.4892  -8.3799  -8.3170  -7.9563  -7.6302  -7.5464  -7.3563  -7.2803
     2.9199   2.9436   2.9995   3.1671   3.2799   3.3632   3.6437   3.7744
     4.1376   4.2013   4.2505   4.3045   4.3532   4.4896   4.5690   4.6579
     4.7265   4.7438   4.8252   4.9083   5.0063   5.0540   5.1685   5.3617
     5.8432   5.8537   5.9869   6.0075   6.0751   6.1065   6.1504   6.2048
     6.2594   6.2899   6.3189   6.3565   6.3972   6.4488   6.5053   6.5607
     6.6883   6.7127   6.7867   6.8507   6.9258   7.0243   7.2230   7.2727
     7.4936   7.6500   7.9894   8.0953   8.6780   8.7941   8.8391   9.0667
     9.1353   9.2809   9.3309   9.4339   9.5308   9.6477   9.8402  10.0254

     occupation numbers 
     1.0000   1.0000   1.0000   1.0000   1.0000   1.0000   1.0000   1.0000
     1.0000   1.0000   1.0000   1.0000   1.0000   1.0000   1.0000   1.0000
     1.0000   1.0000   1.0000   1.0000   1.0000   1.0000   1.0000   1.0000
     1.0000   1.0000   1.0000   1.0000   1.0000   1.0000   1.0000   1.0000
     1.0000   1.0000   1.0000   1.0000   1.0000   1.0000   1.0000   1.0000
     1.0000   1.0000   1.0000   1.0000   1.0000   1.0000   1.0000   1.0000
     1.0000   1.0000   1.0000   1.0000   1.0000   1.0000   1.0000   1.0000
     1.0000   1.0000   1.0000   1.0000   1.0000   1.0000   1.0000   1.0000
     1.0000   1.0000   1.0000   1.0000   1.0000   1.0000   1.0000   1.0000

          k =-0.5000-0.1925 0.0516 (  6108 PWs)   bands (ev):

    -8.4882  -8.3797  -8.3183  -7.9560  -7.6312  -7.5462  -7.3553  -7.2806
     2.9270   2.9639   3.0215   3.1742   3.2657   3.3575   3.6266   3.7351
     4.1250   4.1878   4.2512   4.3208   4.3549   4.4802   4.5755   4.6631
     4.7126   4.7615   4.8370   4.9060   4.9999   5.0473   5.1585   5.3549
     5.8573   5.8629   5.9907   6.0158   6.0772   6.1081   6.1505   6.1803
     6.2438   6.2923   6.3188   6.3866   6.4179   6.4481   6.4994   6.5664
     6.6641   6.6958   6.7710   6.8447   6.9472   7.0187   7.2533   7.2996
     7.5222   7.6881   8.0371   8.1386   8.5412   8.6826   8.9018   9.0231
     9.0717   9.2252   9.4008   9.4296   9.6160   9.7006   9.8282  10.0030

     occupation numbers 
     1.0000   1.0000   1.0000   1.0000   1.0000   1.0000   1.0000   1.0000
     1.0000   1.0000   1.0000   1.0000   1.0000   1.0000   1.0000   1.0000
     1.0000   1.0000   1.0000   1.0000   1.0000   1.0000   1.0000   1.0000
     1.0000   1.0000   1.0000   1.0000   1.0000   1.0000   1.0000   1.0000
     1.0000   1.0000   1.0000   1.0000   1.0000   1.0000   1.0000   1.0000
     1.0000   1.0000   1.0000   1.0000   1.0000   1.0000   1.0000   1.0000
     1.0000   1.0000   1.0000   1.0000   1.0000   1.0000   1.0000   1.0000
     1.0000   1.0000   1.0000   1.0000   1.0000   1.0000   1.0000   1.0000
     1.0000   1.0000   1.0000   1.0000   1.0000   1.0000   1.0000   1.0000

          k =-0.5000-0.1925 0.1032 (  6126 PWs)   bands (ev):

    -8.4863  -8.3793  -8.3211  -7.9554  -7.6328  -7.5462  -7.3533  -7.2812
     2.9571   3.0034   3.0475   3.1966   3.2436   3.3450   3.5933   3.6505
     4.1176   4.1666   4.2473   4.3255   4.3656   4.4775   4.5447   4.6800
     4.7085   4.7933   4.8524   4.9220   4.9725   5.0389   5.1319   5.3300
     5.8992   5.9098   5.9865   6.0196   6.0625   6.1140   6.1383   6.1677
     6.2248   6.2957   6.3221   6.3979   6.4360   6.4622   6.5007   6.5794
     6.6361   6.6694   6.7637   6.8331   6.9839   7.0363   7.2344   7.2774
     7.6787   7.8691   8.1475   8.2416   8.3379   8.4677   8.6810   8.7854
     9.1694   9.3389   9.4799   9.5093   9.6451   9.7384   9.8064   9.9613

     occupation numbers 
     1.0000   1.0000   1.0000   1.0000   1.0000   1.0000   1.0000   1.0000
     1.0000   1.0000   1.0000   1.0000   1.0000   1.0000   1.0000   1.0000
     1.0000   1.0000   1.0000   1.0000   1.0000   1.0000   1.0000   1.0000
     1.0000   1.0000   1.0000   1.0000   1.0000   1.0000   1.0000   1.0000
     1.0000   1.0000   1.0000   1.0000   1.0000   1.0000   1.0000   1.0000
     1.0000   1.0000   1.0000   1.0000   1.0000   1.0000   1.0000   1.0000
     1.0000   1.0000   1.0000   1.0000   1.0000   1.0000   1.0000   1.0000
     1.0000   1.0000   1.0000   1.0000   1.0000   1.0000   1.0000   1.0000
     1.0000   1.0000   1.0000   1.0000   1.0000   1.0000   1.0000   1.0000

          k =-0.5000-0.1925-0.1549 (  6128 PWs)   bands (ev):

    -8.4853  -8.3790  -8.3226  -7.9552  -7.6335  -7.5463  -7.3524  -7.2815
     2.9882   3.0220   3.0402   3.2049   3.2457   3.3450   3.5777   3.5985
     4.1211   4.1555   4.2446   4.3233   4.3699   4.4834   4.5189   4.6666
     4.7306   4.7995   4.8749   4.9334   4.9555   5.0307   5.1171   5.3118
     5.9346   5.9584   5.9762   6.0016   6.0640   6.0709   6.1557   6.1704
     6.2180   6.2948   6.3307   6.3918   6.4248   6.4732   6.5081   6.5824
     6.6331   6.6809   6.7478   6.8315   7.0062   7.0684   7.1918   7.2382
     7.8958   8.0041   8.1183   8.1926   8.3580   8.4638   8.4787   8.5631
     9.2608   9.4023   9.5034   9.5725   9.6393   9.7169   9.7868   9.9472

     occupation numbers 
     1.0000   1.0000   1.0000   1.0000   1.0000   1.0000   1.0000   1.0000
     1.0000   1.0000   1.0000   1.0000   1.0000   1.0000   1.0000   1.0000
     1.0000   1.0000   1.0000   1.0000   1.0000   1.0000   1.0000   1.0000
     1.0000   1.0000   1.0000   1.0000   1.0000   1.0000   1.0000   1.0000
     1.0000   1.0000   1.0000   1.0000   1.0000   1.0000   1.0000   1.0000
     1.0000   1.0000   1.0000   1.0000   1.0000   1.0000   1.0000   1.0000
     1.0000   1.0000   1.0000   1.0000   1.0000   1.0000   1.0000   1.0000
     1.0000   1.0000   1.0000   1.0000   1.0000   1.0000   1.0000   1.0000
     1.0000   1.0000   1.0000   1.0000   1.0000   1.0000   1.0000   1.0000

          k =-0.5000-0.0962 0.0000 (  6124 PWs)   bands (ev):

    -8.4963  -8.3848  -8.3174  -7.9591  -7.6362  -7.5478  -7.3588  -7.2788
     3.0367   3.0641   3.0978   3.3099   3.4323   3.4729   3.7256   3.9581
     4.0550   4.1327   4.1785   4.2347   4.3196   4.4485   4.5427   4.6167
     4.6513   4.7612   4.8468   4.9353   5.0348   5.0884   5.1927   5.3162
     5.7421   5.7811   5.8632   5.9155   6.0037   6.0258   6.0831   6.1590
     6.2632   6.2795   6.3068   6.3491   6.4200   6.4495   6.5273   6.5720
     6.7472   6.7638   6.9484   7.0041   7.1018   7.1885   7.2478   7.3827
     7.5019   7.5671   7.9669   8.0051   8.3484   8.4389   8.5014   8.6758
     9.1271   9.2743   9.3343   9.4673   9.4956   9.6281   9.7036   9.8110

     occupation numbers 
     1.0000   1.0000   1.0000   1.0000   1.0000   1.0000   1.0000   1.0000
     1.0000   1.0000   1.0000   1.0000   1.0000   1.0000   1.0000   1.0000
     1.0000   1.0000   1.0000   1.0000   1.0000   1.0000   1.0000   1.0000
     1.0000   1.0000   1.0000   1.0000   1.0000   1.0000   1.0000   1.0000
     1.0000   1.0000   1.0000   1.0000   1.0000   1.0000   1.0000   1.0000
     1.0000   1.0000   1.0000   1.0000   1.0000   1.0000   1.0000   1.0000
     1.0000   1.0000   1.0000   1.0000   1.0000   1.0000   1.0000   1.0000
     1.0000   1.0000   1.0000   1.0000   1.0000   1.0000   1.0000   1.0000
     1.0000   1.0000   1.0000   1.0000   1.0000   1.0000   1.0000   1.0000

          k =-0.5000-0.0962 0.0516 (  6112 PWs)   bands (ev):

    -8.4952  -8.3846  -8.3189  -7.9587  -7.6374  -7.5475  -7.3575  -7.2793
     3.0392   3.0809   3.1248   3.3170   3.4249   3.4755   3.7122   3.9240
     4.0090   4.1335   4.1732   4.2443   4.3302   4.4458   4.5324   4.6283
     4.6676   4.7527   4.8503   4.9352   5.0168   5.0828   5.1628   5.3159
     5.7324   5.7707   5.9093   5.9430   5.9985   6.0402   6.0909   6.1414
     6.2496   6.2833   6.3339   6.3649   6.4392   6.4590   6.5289   6.5859
     6.7332   6.7473   6.8895   6.9699   7.1507   7.2080   7.2712   7.4120
     7.5501   7.5910   7.9754   8.0300   8.2054   8.3206   8.5966   8.7565
     9.0536   9.1817   9.3480   9.4249   9.5386   9.6685   9.7252   9.8230

     occupation numbers 
     1.0000   1.0000   1.0000   1.0000   1.0000   1.0000   1.0000   1.0000
     1.0000   1.0000   1.0000   1.0000   1.0000   1.0000   1.0000   1.0000
     1.0000   1.0000   1.0000   1.0000   1.0000   1.0000   1.0000   1.0000
     1.0000   1.0000   1.0000   1.0000   1.0000   1.0000   1.0000   1.0000
     1.0000   1.0000   1.0000   1.0000   1.0000   1.0000   1.0000   1.0000
     1.0000   1.0000   1.0000   1.0000   1.0000   1.0000   1.0000   1.0000
     1.0000   1.0000   1.0000   1.0000   1.0000   1.0000   1.0000   1.0000
     1.0000   1.0000   1.0000   1.0000   1.0000   1.0000   1.0000   1.0000
     1.0000   1.0000   1.0000   1.0000   1.0000   1.0000   1.0000   1.0000

          k =-0.5000-0.0962 0.1032 (  6110 PWs)   bands (ev):

    -8.4930  -8.3842  -8.3221  -7.9578  -7.6395  -7.5473  -7.3549  -7.2804
     3.0596   3.1153   3.1579   3.3445   3.4074   3.4853   3.6884   3.8117
     4.0104   4.1074   4.1693   4.2431   4.3304   4.4485   4.5163   4.6097
     4.6952   4.7663   4.8654   4.9315   4.9846   5.0582   5.1226   5.2901
     5.7635   5.8051   5.9120   5.9338   6.0242   6.0572   6.0973   6.1558
     6.2371   6.2886   6.3567   6.3784   6.4554   6.5103   6.5690   6.6315
     6.6832   6.7142   6.8308   6.8898   7.2142   7.2549   7.3409   7.4617
     7.6177   7.6574   7.9233   8.0613   8.1407   8.1850   8.5690   8.6829
     9.0339   9.1305   9.3675   9.4254   9.5638   9.6491   9.7562   9.8634

     occupation numbers 
     1.0000   1.0000   1.0000   1.0000   1.0000   1.0000   1.0000   1.0000
     1.0000   1.0000   1.0000   1.0000   1.0000   1.0000   1.0000   1.0000
     1.0000   1.0000   1.0000   1.0000   1.0000   1.0000   1.0000   1.0000
     1.0000   1.0000   1.0000   1.0000   1.0000   1.0000   1.0000   1.0000
     1.0000   1.0000   1.0000   1.0000   1.0000   1.0000   1.0000   1.0000
     1.0000   1.0000   1.0000   1.0000   1.0000   1.0000   1.0000   1.0000
     1.0000   1.0000   1.0000   1.0000   1.0000   1.0000   1.0000   1.0000
     1.0000   1.0000   1.0000   1.0000   1.0000   1.0000   1.0000   1.0000
     1.0000   1.0000   1.0000   1.0000   1.0000   1.0000   1.0000   1.0000

          k =-0.5000-0.0962-0.1549 (  6112 PWs)   bands (ev):

    -8.4919  -8.3839  -8.3237  -7.9575  -7.6404  -7.5473  -7.3536  -7.2809
     3.0784   3.1326   3.1608   3.3615   3.4022   3.5007   3.6842   3.7388
     4.0274   4.0881   4.1699   4.2356   4.3221   4.4482   4.5158   4.5852
     4.7087   4.7800   4.8874   4.9146   4.9718   5.0455   5.1078   5.2697
     5.7965   5.8486   5.8870   5.9098   6.0414   6.0472   6.0956   6.1791
     6.2410   6.2847   6.3634   6.3852   6.4584   6.5388   6.6129   6.6284
     6.6771   6.7388   6.7735   6.8431   7.2332   7.3037   7.3888   7.4646
     7.6580   7.7466   7.8441   7.8914   8.2210   8.3905   8.4093   8.4749
     9.0861   9.1986   9.3213   9.4364   9.5714   9.6330   9.7724   9.8735

     occupation numbers 
     1.0000   1.0000   1.0000   1.0000   1.0000   1.0000   1.0000   1.0000
     1.0000   1.0000   1.0000   1.0000   1.0000   1.0000   1.0000   1.0000
     1.0000   1.0000   1.0000   1.0000   1.0000   1.0000   1.0000   1.0000
     1.0000   1.0000   1.0000   1.0000   1.0000   1.0000   1.0000   1.0000
     1.0000   1.0000   1.0000   1.0000   1.0000   1.0000   1.0000   1.0000
     1.0000   1.0000   1.0000   1.0000   1.0000   1.0000   1.0000   1.0000
     1.0000   1.0000   1.0000   1.0000   1.0000   1.0000   1.0000   1.0000
     1.0000   1.0000   1.0000   1.0000   1.0000   1.0000   1.0000   1.0000
     1.0000   1.0000   1.0000   1.0000   1.0000   1.0000   1.0000   1.0000

          k =-0.5000-0.5774 0.0000 (  6092 PWs)   bands (ev):

    -8.4997  -8.3872  -8.3176  -7.9605  -7.6392  -7.5484  -7.3601  -7.2781
     3.0989   3.1356   3.1603   3.3906   3.5287   3.5571   3.7499   3.9089
     4.0760   4.1029   4.1638   4.1788   4.2979   4.4802   4.5288   4.5592
     4.6981   4.7643   4.8379   4.9458   5.0509   5.1231   5.1911   5.2704
     5.6223   5.7041   5.8533   5.8695   5.9717   5.9855   6.0628   6.1401
     6.2590   6.2715   6.3058   6.3551   6.4266   6.4501   6.5392   6.5874
     6.7852   6.8130   7.0140   7.1132   7.1673   7.2294   7.2900   7.3462
     7.6618   7.6955   7.8718   7.8986   8.1433   8.2386   8.3216   8.4468
     9.1428   9.2838   9.3529   9.4188   9.5301   9.5652   9.6545   9.7182

     occupation numbers 
     1.0000   1.0000   1.0000   1.0000   1.0000   1.0000   1.0000   1.0000
     1.0000   1.0000   1.0000   1.0000   1.0000   1.0000   1.0000   1.0000
     1.0000   1.0000   1.0000   1.0000   1.0000   1.0000   1.0000   1.0000
     1.0000   1.0000   1.0000   1.0000   1.0000   1.0000   1.0000   1.0000
     1.0000   1.0000   1.0000   1.0000   1.0000   1.0000   1.0000   1.0000
     1.0000   1.0000   1.0000   1.0000   1.0000   1.0000   1.0000   1.0000
     1.0000   1.0000   1.0000   1.0000   1.0000   1.0000   1.0000   1.0000
     1.0000   1.0000   1.0000   1.0000   1.0000   1.0000   1.0000   1.0000
     1.0000   1.0000   1.0000   1.0000   1.0000   1.0000   1.0000   1.0000

          k =-0.5000-0.5774 0.0516 (  6124 PWs)   bands (ev):

    -8.4987  -8.3870  -8.3193  -7.9600  -7.6404  -7.5483  -7.3586  -7.2787
     3.1080   3.1490   3.1750   3.4110   3.5254   3.5531   3.7468   3.8840
     4.0461   4.1023   4.1490   4.1869   4.3044   4.4739   4.5093   4.5522
     4.6985   4.7690   4.8320   4.9457   5.0318   5.1143   5.1417   5.2665
     5.6401   5.7233   5.8909   5.9136   5.9688   5.9842   6.0658   6.1450
     6.2465   6.2734   6.3123   6.3654   6.4383   6.4764   6.5555   6.6054
     6.7692   6.7943   7.0085   7.0525   7.1612   7.2416   7.3253   7.3933
     7.7069   7.7443   7.8661   7.8865   8.0355   8.1070   8.4016   8.5376
     9.0622   9.2051   9.3356   9.4226   9.5144   9.5677   9.6975   9.7781

     occupation numbers 
     1.0000   1.0000   1.0000   1.0000   1.0000   1.0000   1.0000   1.0000
     1.0000   1.0000   1.0000   1.0000   1.0000   1.0000   1.0000   1.0000
     1.0000   1.0000   1.0000   1.0000   1.0000   1.0000   1.0000   1.0000
     1.0000   1.0000   1.0000   1.0000   1.0000   1.0000   1.0000   1.0000
     1.0000   1.0000   1.0000   1.0000   1.0000   1.0000   1.0000   1.0000
     1.0000   1.0000   1.0000   1.0000   1.0000   1.0000   1.0000   1.0000
     1.0000   1.0000   1.0000   1.0000   1.0000   1.0000   1.0000   1.0000
     1.0000   1.0000   1.0000   1.0000   1.0000   1.0000   1.0000   1.0000
     1.0000   1.0000   1.0000   1.0000   1.0000   1.0000   1.0000   1.0000

          k =-0.5000-0.5774 0.1032 (  6120 PWs)   bands (ev):

    -8.4964  -8.3866  -8.3226  -7.9591  -7.6427  -7.5480  -7.3557  -7.2799
     3.1265   3.1793   3.2075   3.4455   3.5330   3.5494   3.7391   3.8098
     4.0211   4.0753   4.1262   4.1890   4.3177   4.4543   4.4852   4.5329
     4.7010   4.7605   4.8516   4.9375   5.0004   5.0637   5.1096   5.2537
     5.6878   5.7656   5.8837   5.9009   6.0050   6.0293   6.0723   6.1681
     6.2421   6.2700   6.3449   6.3745   6.4797   6.5313   6.6084   6.6589
     6.7317   6.7628   6.9095   6.9655   7.1792   7.3077   7.3875   7.4676
     7.7248   7.8033   7.8415   7.9088   7.9672   8.0229   8.3835   8.5147
     9.0132   9.1003   9.3332   9.3826   9.4794   9.6089   9.7515   9.8441

     occupation numbers 
     1.0000   1.0000   1.0000   1.0000   1.0000   1.0000   1.0000   1.0000
     1.0000   1.0000   1.0000   1.0000   1.0000   1.0000   1.0000   1.0000
     1.0000   1.0000   1.0000   1.0000   1.0000   1.0000   1.0000   1.0000
     1.0000   1.0000   1.0000   1.0000   1.0000   1.0000   1.0000   1.0000
     1.0000   1.0000   1.0000   1.0000   1.0000   1.0000   1.0000   1.0000
     1.0000   1.0000   1.0000   1.0000   1.0000   1.0000   1.0000   1.0000
     1.0000   1.0000   1.0000   1.0000   1.0000   1.0000   1.0000   1.0000
     1.0000   1.0000   1.0000   1.0000   1.0000   1.0000   1.0000   1.0000
     1.0000   1.0000   1.0000   1.0000   1.0000   1.0000   1.0000   1.0000

          k =-0.5000-0.5774-0.1549 (  6124 PWs)   bands (ev):

    -8.4952  -8.3863  -8.3243  -7.9586  -7.6438  -7.5478  -7.3542  -7.2806
     3.1359   3.1966   3.2259   3.4496   3.5355   3.5788   3.7400   3.7443
     4.0172   4.0550   4.1143   4.1877   4.3254   4.4357   4.4870   4.5190
     4.7020   4.7523   4.8927   4.9079   4.9817   5.0461   5.1000   5.2480
     5.7261   5.8002   5.8455   5.8692   6.0329   6.0395   6.0777   6.1785
     6.2517   6.2685   6.3598   6.3826   6.5086   6.5714   6.6473   6.6821
     6.7370   6.7999   6.8109   6.8625   7.2287   7.3292   7.4207   7.5134
     7.7093   7.7267   7.8513   7.8620   8.0345   8.2335   8.2832   8.3099
     9.0341   9.1298   9.2775   9.3625   9.4706   9.6374   9.7704   9.8621

     occupation numbers 
     1.0000   1.0000   1.0000   1.0000   1.0000   1.0000   1.0000   1.0000
     1.0000   1.0000   1.0000   1.0000   1.0000   1.0000   1.0000   1.0000
     1.0000   1.0000   1.0000   1.0000   1.0000   1.0000   1.0000   1.0000
     1.0000   1.0000   1.0000   1.0000   1.0000   1.0000   1.0000   1.0000
     1.0000   1.0000   1.0000   1.0000   1.0000   1.0000   1.0000   1.0000
     1.0000   1.0000   1.0000   1.0000   1.0000   1.0000   1.0000   1.0000
     1.0000   1.0000   1.0000   1.0000   1.0000   1.0000   1.0000   1.0000
     1.0000   1.0000   1.0000   1.0000   1.0000   1.0000   1.0000   1.0000
     1.0000   1.0000   1.0000   1.0000   1.0000   1.0000   1.0000   1.0000

          k = 0.0000-0.0962 0.0516 (  6148 PWs)   bands (ev):

    -9.2106  -8.9356  -8.6131  -8.2291  -8.0842  -7.7359  -7.5768  -7.4181
     2.8868   3.0417   3.1180   3.3176   3.3831   3.5363   3.6807   3.7282
     3.7779   3.8181   3.9356   3.9928   4.0692   4.1588   4.2290   4.3795
     4.4438   4.4687   4.5596   4.6321   4.7490   4.8463   4.9858   5.0470
     5.7883   5.8113   5.8639   5.9681   5.9731   6.0518   6.0833   6.1362
     6.1695   6.1744   6.2767   6.3162   6.3553   6.3700   6.4497   6.4951
     6.6632   6.7416   7.0790   7.1567   7.2643   7.9188   8.1964   8.2639
     8.9164   9.0099   9.1658   9.4035   9.5070   9.7681   9.8190   9.9310
    10.1497  10.2037  10.3711  10.4865  10.6291  10.6873  10.9239  11.1388

     occupation numbers 
     1.0000   1.0000   1.0000   1.0000   1.0000   1.0000   1.0000   1.0000
     1.0000   1.0000   1.0000   1.0000   1.0000   1.0000   1.0000   1.0000
     1.0000   1.0000   1.0000   1.0000   1.0000   1.0000   1.0000   1.0000
     1.0000   1.0000   1.0000   1.0000   1.0000   1.0000   1.0000   1.0000
     1.0000   1.0000   1.0000   1.0000   1.0000   1.0000   1.0000   1.0000
     1.0000   1.0000   1.0000   1.0000   1.0000   1.0000   1.0000   1.0000
     1.0000   1.0000   1.0000   1.0000   1.0000   1.0000   1.0000   1.0000
     1.0000   1.0000   1.0000   1.0000   1.0000   1.0000   1.0000   1.0000
     1.0000   1.0000   1.0000   1.0000   1.0000   1.0000   1.0000   1.0000

          k = 0.0000-0.0962 0.1032 (  6136 PWs)   bands (ev):

    -9.1769  -8.9987  -8.5852  -8.2312  -8.0696  -7.7457  -7.5744  -7.4216
     2.9220   3.0337   3.1326   3.3078   3.3677   3.5395   3.6628   3.7351
     3.7734   3.7949   3.9315   3.9930   4.0713   4.1387   4.2243   4.3808
     4.4470   4.4701   4.5582   4.6273   4.7633   4.8769   4.9452   5.0218
     5.8018   5.8250   5.9127   5.9363   5.9598   6.0450   6.0574   6.1152
     6.1733   6.1886   6.2773   6.3286   6.3650   6.3930   6.4518   6.4961
     6.7130   6.9203   7.0289   7.2153   7.3508   7.7309   8.0079   8.3559
     8.6297   8.7956   9.4915   9.5540   9.6509   9.8054   9.8826   9.9574
    10.0953  10.1343  10.2580  10.3413  10.6929  10.7408  10.9031  11.1075

     occupation numbers 
     1.0000   1.0000   1.0000   1.0000   1.0000   1.0000   1.0000   1.0000
     1.0000   1.0000   1.0000   1.0000   1.0000   1.0000   1.0000   1.0000
     1.0000   1.0000   1.0000   1.0000   1.0000   1.0000   1.0000   1.0000
     1.0000   1.0000   1.0000   1.0000   1.0000   1.0000   1.0000   1.0000
     1.0000   1.0000   1.0000   1.0000   1.0000   1.0000   1.0000   1.0000
     1.0000   1.0000   1.0000   1.0000   1.0000   1.0000   1.0000   1.0000
     1.0000   1.0000   1.0000   1.0000   1.0000   1.0000   1.0000   1.0000
     1.0000   1.0000   1.0000   1.0000   1.0000   1.0000   1.0000   1.0000
     1.0000   1.0000   1.0000   1.0000   1.0000   1.0000   1.0000   1.0000

          k = 0.0000-0.1925 0.0516 (  6158 PWs)   bands (ev):

    -9.0814  -8.8844  -8.5939  -8.3503  -8.0972  -7.7281  -7.6416  -7.4764
     2.9441   3.0455   3.1358   3.3159   3.4491   3.5217   3.6699   3.7458
     3.8003   3.8705   3.9602   3.9909   4.0916   4.1748   4.2314   4.3393
     4.3945   4.4493   4.5590   4.6138   4.6808   4.7828   4.8861   4.9331
     5.6794   5.7534   5.7983   5.9245   5.9407   6.0177   6.0311   6.0979
     6.1439   6.1717   6.2335   6.2612   6.3499   6.3782   6.4160   6.4346
     6.7356   6.9165   7.3440   7.6069   7.7967   8.1915   8.5254   8.6148
     8.8592   9.0213   9.1085   9.2535   9.5323   9.5802   9.6568   9.7159
     9.9376  10.0885  10.1612  10.2162  10.3621  10.4408  10.7524  10.9623

     occupation numbers 
     1.0000   1.0000   1.0000   1.0000   1.0000   1.0000   1.0000   1.0000
     1.0000   1.0000   1.0000   1.0000   1.0000   1.0000   1.0000   1.0000
     1.0000   1.0000   1.0000   1.0000   1.0000   1.0000   1.0000   1.0000
     1.0000   1.0000   1.0000   1.0000   1.0000   1.0000   1.0000   1.0000
     1.0000   1.0000   1.0000   1.0000   1.0000   1.0000   1.0000   1.0000
     1.0000   1.0000   1.0000   1.0000   1.0000   1.0000   1.0000   1.0000
     1.0000   1.0000   1.0000   1.0000   1.0000   1.0000   1.0000   1.0000
     1.0000   1.0000   1.0000   1.0000   1.0000   1.0000   1.0000   1.0000
     1.0000   1.0000   1.0000   1.0000   1.0000   1.0000   1.0000   1.0000

          k = 0.0000-0.1925 0.1032 (  6160 PWs)   bands (ev):

    -9.0539  -8.9218  -8.5918  -8.3572  -8.0758  -7.7367  -7.6257  -7.4901
     2.9768   3.0412   3.1646   3.3205   3.4553   3.5083   3.6297   3.7271
     3.7938   3.8306   3.9469   3.9911   4.0944   4.1632   4.2316   4.3426
     4.4101   4.4571   4.5573   4.6106   4.6897   4.7974   4.8402   4.9134
     5.7253   5.7764   5.8060   5.9115   5.9257   5.9794   6.0136   6.0764
     6.1541   6.1872   6.2467   6.2934   6.3741   6.3938   6.4264   6.4371
     6.9641   7.0635   7.3999   7.5056   7.7633   7.8159   8.4809   8.6176
     8.6874   9.0471   9.1011   9.2689   9.4997   9.6472   9.7553   9.8049
     9.8929  10.0450  10.1772  10.3225  10.3890  10.5427  10.6755  10.9262

     occupation numbers 
     1.0000   1.0000   1.0000   1.0000   1.0000   1.0000   1.0000   1.0000
     1.0000   1.0000   1.0000   1.0000   1.0000   1.0000   1.0000   1.0000
     1.0000   1.0000   1.0000   1.0000   1.0000   1.0000   1.0000   1.0000
     1.0000   1.0000   1.0000   1.0000   1.0000   1.0000   1.0000   1.0000
     1.0000   1.0000   1.0000   1.0000   1.0000   1.0000   1.0000   1.0000
     1.0000   1.0000   1.0000   1.0000   1.0000   1.0000   1.0000   1.0000
     1.0000   1.0000   1.0000   1.0000   1.0000   1.0000   1.0000   1.0000
     1.0000   1.0000   1.0000   1.0000   1.0000   1.0000   1.0000   1.0000
     1.0000   1.0000   1.0000   1.0000   1.0000   1.0000   1.0000   1.0000

          k =-0.1667 0.0962 0.0000 (  6159 PWs)   bands (ev):

    -9.0727  -8.7847  -8.5455  -8.1503  -7.9942  -7.6791  -7.5138  -7.3838
     3.0624   3.1547   3.2266   3.3041   3.4331   3.5372   3.6396   3.7283
     3.8766   3.9380   4.0171   4.0971   4.1366   4.1946   4.2898   4.3509
     4.4174   4.4951   4.5625   4.6213   4.7504   4.9578   5.0589   5.1328
     5.7288   5.7800   5.8132   5.8670   5.9942   6.0335   6.0694   6.1232
     6.1559   6.1762   6.2812   6.3511   6.3798   6.4119   6.4704   6.5490
     6.6319   6.7693   7.0680   7.1883   7.2856   7.5217   7.9724   8.4027
     8.5618   8.5864   8.7072   8.9973   9.2357   9.4188   9.4870   9.6211
     9.7082   9.7784   9.8694  10.1044  10.1818  10.3256  10.7740  10.9524

     occupation numbers 
     1.0000   1.0000   1.0000   1.0000   1.0000   1.0000   1.0000   1.0000
     1.0000   1.0000   1.0000   1.0000   1.0000   1.0000   1.0000   1.0000
     1.0000   1.0000   1.0000   1.0000   1.0000   1.0000   1.0000   1.0000
     1.0000   1.0000   1.0000   1.0000   1.0000   1.0000   1.0000   1.0000
     1.0000   1.0000   1.0000   1.0000   1.0000   1.0000   1.0000   1.0000
     1.0000   1.0000   1.0000   1.0000   1.0000   1.0000   1.0000   1.0000
     1.0000   1.0000   1.0000   1.0000   1.0000   1.0000   1.0000   1.0000
     1.0000   1.0000   1.0000   1.0000   1.0000   1.0000   1.0000   1.0000
     1.0000   1.0000   1.0000   1.0000   1.0000   1.0000   1.0000   1.0000

          k =-0.1667-0.0962 0.0516 (  6145 PWs)   bands (ev):

    -9.0597  -8.8148  -8.5242  -8.1565  -7.9899  -7.6751  -7.5211  -7.3827
     3.0696   3.1720   3.2029   3.3294   3.4163   3.4941   3.6867   3.7064
     3.8271   3.9608   4.0561   4.0943   4.1327   4.2068   4.2691   4.3730
     4.4115   4.4671   4.5634   4.6496   4.7611   4.8604   5.0351   5.1214
     5.7156   5.7552   5.8203   5.8810   5.9810   6.0418   6.0641   6.1364
     6.1585   6.1791   6.2879   6.3685   6.3810   6.4227   6.4847   6.6094
     6.6880   6.8007   7.0706   7.2178   7.3197   7.5942   8.0086   8.2206
     8.3043   8.6920   8.9302   8.9746   9.1871   9.4087   9.5069   9.5642
     9.6862   9.7690   9.9460  10.0956  10.1641  10.3809  10.7435  10.8770

     occupation numbers 
     1.0000   1.0000   1.0000   1.0000   1.0000   1.0000   1.0000   1.0000
     1.0000   1.0000   1.0000   1.0000   1.0000   1.0000   1.0000   1.0000
     1.0000   1.0000   1.0000   1.0000   1.0000   1.0000   1.0000   1.0000
     1.0000   1.0000   1.0000   1.0000   1.0000   1.0000   1.0000   1.0000
     1.0000   1.0000   1.0000   1.0000   1.0000   1.0000   1.0000   1.0000
     1.0000   1.0000   1.0000   1.0000   1.0000   1.0000   1.0000   1.0000
     1.0000   1.0000   1.0000   1.0000   1.0000   1.0000   1.0000   1.0000
     1.0000   1.0000   1.0000   1.0000   1.0000   1.0000   1.0000   1.0000
     1.0000   1.0000   1.0000   1.0000   1.0000   1.0000   1.0000   1.0000

          k =-0.1667 0.0962-0.0516 (  6145 PWs)   bands (ev):

    -9.0597  -8.8168  -8.5241  -8.1546  -7.9917  -7.6735  -7.5193  -7.3843
     3.0757   3.1639   3.2302   3.3423   3.4220   3.5067   3.6337   3.7093
     3.8573   3.9463   4.0173   4.0850   4.1331   4.1929   4.2788   4.3505
     4.4313   4.4995   4.5439   4.6397   4.7548   4.9568   5.0360   5.1271
     5.7356   5.7884   5.8218   5.8765   5.9828   6.0262   6.0555   6.1239
     6.1597   6.1835   6.3003   6.3546   6.3716   6.4358   6.4630   6.5664
     6.6881   6.7846   7.0744   7.1784   7.3378   7.5681   7.9619   8.1483
     8.2728   8.7441   8.9433   9.0316   9.1663   9.4186   9.5253   9.5528
     9.6525   9.7859   9.9361  10.0982  10.1973  10.3990  10.7301  10.9416

     occupation numbers 
     1.0000   1.0000   1.0000   1.0000   1.0000   1.0000   1.0000   1.0000
     1.0000   1.0000   1.0000   1.0000   1.0000   1.0000   1.0000   1.0000
     1.0000   1.0000   1.0000   1.0000   1.0000   1.0000   1.0000   1.0000
     1.0000   1.0000   1.0000   1.0000   1.0000   1.0000   1.0000   1.0000
     1.0000   1.0000   1.0000   1.0000   1.0000   1.0000   1.0000   1.0000
     1.0000   1.0000   1.0000   1.0000   1.0000   1.0000   1.0000   1.0000
     1.0000   1.0000   1.0000   1.0000   1.0000   1.0000   1.0000   1.0000
     1.0000   1.0000   1.0000   1.0000   1.0000   1.0000   1.0000   1.0000
     1.0000   1.0000   1.0000   1.0000   1.0000   1.0000   1.0000   1.0000

          k = 0.1667-0.0962-0.0516 (  6145 PWs)   bands (ev):

    -9.0634  -8.8042  -8.5397  -8.1486  -7.9843  -7.6883  -7.5099  -7.3857
     3.0745   3.1717   3.2450   3.2845   3.4310   3.5475   3.6177   3.7096
     3.8874   3.9185   4.0153   4.0939   4.1313   4.2104   4.2920   4.3445
     4.4048   4.4884   4.5714   4.6158   4.7628   4.9614   5.0180   5.1325
     5.7410   5.7702   5.8206   5.9121   5.9777   6.0160   6.0677   6.1330
     6.1592   6.1808   6.2792   6.3516   6.3890   6.3980   6.5173   6.5688
     6.6818   6.7666   6.9591   7.2810   7.3249   7.5109   8.0303   8.2537
     8.3107   8.6240   8.9341   8.9895   9.1708   9.4108   9.5346   9.5805
     9.7439   9.7884   9.8748  10.0582  10.1316  10.4352  10.7781  10.9320

     occupation numbers 
     1.0000   1.0000   1.0000   1.0000   1.0000   1.0000   1.0000   1.0000
     1.0000   1.0000   1.0000   1.0000   1.0000   1.0000   1.0000   1.0000
     1.0000   1.0000   1.0000   1.0000   1.0000   1.0000   1.0000   1.0000
     1.0000   1.0000   1.0000   1.0000   1.0000   1.0000   1.0000   1.0000
     1.0000   1.0000   1.0000   1.0000   1.0000   1.0000   1.0000   1.0000
     1.0000   1.0000   1.0000   1.0000   1.0000   1.0000   1.0000   1.0000
     1.0000   1.0000   1.0000   1.0000   1.0000   1.0000   1.0000   1.0000
     1.0000   1.0000   1.0000   1.0000   1.0000   1.0000   1.0000   1.0000
     1.0000   1.0000   1.0000   1.0000   1.0000   1.0000   1.0000   1.0000

          k =-0.1667-0.0962 0.1032 (  6144 PWs)   bands (ev):

    -9.0301  -8.8680  -8.5026  -8.1592  -7.9776  -7.6791  -7.5223  -7.3849
     3.0949   3.1935   3.2331   3.3648   3.4094   3.4527   3.6202   3.7055
     3.8110   3.9303   4.0467   4.0983   4.1473   4.2029   4.2530   4.3719
     4.4291   4.4545   4.5824   4.6473   4.7700   4.8638   4.9830   5.0941
     5.7407   5.7748   5.8508   5.9033   5.9471   6.0088   6.0698   6.1389
     6.1721   6.1953   6.2955   6.3655   6.3813   6.4243   6.5215   6.6496
     6.7266   6.8990   7.0213   7.3122   7.4182   7.6202   7.8008   8.0357
     8.1534   8.6863   8.9768   9.0442   9.2546   9.3809   9.5015   9.5575
     9.7008   9.7770   9.9020   9.9895  10.3244  10.4963  10.6806  10.8421

     occupation numbers 
     1.0000   1.0000   1.0000   1.0000   1.0000   1.0000   1.0000   1.0000
     1.0000   1.0000   1.0000   1.0000   1.0000   1.0000   1.0000   1.0000
     1.0000   1.0000   1.0000   1.0000   1.0000   1.0000   1.0000   1.0000
     1.0000   1.0000   1.0000   1.0000   1.0000   1.0000   1.0000   1.0000
     1.0000   1.0000   1.0000   1.0000   1.0000   1.0000   1.0000   1.0000
     1.0000   1.0000   1.0000   1.0000   1.0000   1.0000   1.0000   1.0000
     1.0000   1.0000   1.0000   1.0000   1.0000   1.0000   1.0000   1.0000
     1.0000   1.0000   1.0000   1.0000   1.0000   1.0000   1.0000   1.0000
     1.0000   1.0000   1.0000   1.0000   1.0000   1.0000   1.0000   1.0000

          k =-0.1667 0.0962-0.1032 (  6144 PWs)   bands (ev):

    -9.0297  -8.8704  -8.5027  -8.1573  -7.9793  -7.6775  -7.5206  -7.3866
     3.1060   3.1826   3.2673   3.3577   3.4064   3.4830   3.6059   3.6664
     3.8457   3.9403   4.0112   4.0775   4.1197   4.2052   4.2681   4.3493
     4.4356   4.4970   4.5336   4.6488   4.7764   4.9510   4.9862   5.1149
     5.7603   5.7951   5.8433   5.9034   5.9554   5.9952   6.0502   6.1271
     6.1720   6.1954   6.3044   6.3532   6.3849   6.4333   6.5064   6.6177
     6.6966   6.8998   7.0359   7.2681   7.4292   7.6385   7.7592   7.9548
     8.1153   8.6878   9.0223   9.0719   9.2833   9.3941   9.4512   9.5908
     9.6721   9.8023   9.8765   9.9784  10.3776  10.5215  10.6473  10.9045

     occupation numbers 
     1.0000   1.0000   1.0000   1.0000   1.0000   1.0000   1.0000   1.0000
     1.0000   1.0000   1.0000   1.0000   1.0000   1.0000   1.0000   1.0000
     1.0000   1.0000   1.0000   1.0000   1.0000   1.0000   1.0000   1.0000
     1.0000   1.0000   1.0000   1.0000   1.0000   1.0000   1.0000   1.0000
     1.0000   1.0000   1.0000   1.0000   1.0000   1.0000   1.0000   1.0000
     1.0000   1.0000   1.0000   1.0000   1.0000   1.0000   1.0000   1.0000
     1.0000   1.0000   1.0000   1.0000   1.0000   1.0000   1.0000   1.0000
     1.0000   1.0000   1.0000   1.0000   1.0000   1.0000   1.0000   1.0000
     1.0000   1.0000   1.0000   1.0000   1.0000   1.0000   1.0000   1.0000

          k = 0.1667-0.0962-0.1032 (  6144 PWs)   bands (ev):

    -9.0355  -8.8576  -8.5162  -8.1514  -7.9711  -7.6930  -7.5110  -7.3881
     3.1039   3.2046   3.2622   3.2937   3.4240   3.5275   3.5907   3.6692
     3.8655   3.9184   4.0136   4.0815   4.1248   4.2192   4.2785   4.3384
     4.4144   4.4855   4.5536   4.6320   4.7879   4.9367   4.9943   5.1124
     5.7665   5.7872   5.8321   5.9296   5.9506   5.9880   6.0674   6.1329
     6.1710   6.1928   6.2911   6.3531   6.3886   6.4140   6.5453   6.6332
     6.7134   6.8331   6.9498   7.3318   7.4212   7.5516   7.8344   8.0555
     8.2084   8.5367   8.9835   9.1096   9.2305   9.4265   9.4983   9.6121
     9.7101   9.7843   9.8445   9.9506  10.2872  10.5483  10.7243  10.8913

     occupation numbers 
     1.0000   1.0000   1.0000   1.0000   1.0000   1.0000   1.0000   1.0000
     1.0000   1.0000   1.0000   1.0000   1.0000   1.0000   1.0000   1.0000
     1.0000   1.0000   1.0000   1.0000   1.0000   1.0000   1.0000   1.0000
     1.0000   1.0000   1.0000   1.0000   1.0000   1.0000   1.0000   1.0000
     1.0000   1.0000   1.0000   1.0000   1.0000   1.0000   1.0000   1.0000
     1.0000   1.0000   1.0000   1.0000   1.0000   1.0000   1.0000   1.0000
     1.0000   1.0000   1.0000   1.0000   1.0000   1.0000   1.0000   1.0000
     1.0000   1.0000   1.0000   1.0000   1.0000   1.0000   1.0000   1.0000
     1.0000   1.0000   1.0000   1.0000   1.0000   1.0000   1.0000   1.0000

          k =-0.1667 0.0962 0.1549 (  6136 PWs)   bands (ev):

    -9.0106  -8.8966  -8.4999  -8.1557  -7.9686  -7.6878  -7.5162  -7.3885
     3.1234   3.2032   3.2889   3.3183   3.4136   3.4959   3.5843   3.6441
     3.8465   3.9282   4.0109   4.0752   4.1179   4.2154   4.2663   4.3455
     4.4288   4.4897   4.5368   4.6447   4.8004   4.9175   4.9904   5.1021
     5.7800   5.8015   5.8489   5.9127   5.9346   5.9801   6.0588   6.1310
     6.1772   6.2002   6.3003   6.3532   6.3902   6.4284   6.5427   6.6621
     6.7092   6.8145   7.2199   7.3283   7.4055   7.5311   7.6972   7.8740
     8.2874   8.4282   9.0456   9.1376   9.2761   9.4002   9.5495   9.6061
     9.6677   9.7514   9.8501   9.9118  10.4549  10.5867  10.6165  10.8718

     occupation numbers 
     1.0000   1.0000   1.0000   1.0000   1.0000   1.0000   1.0000   1.0000
     1.0000   1.0000   1.0000   1.0000   1.0000   1.0000   1.0000   1.0000
     1.0000   1.0000   1.0000   1.0000   1.0000   1.0000   1.0000   1.0000
     1.0000   1.0000   1.0000   1.0000   1.0000   1.0000   1.0000   1.0000
     1.0000   1.0000   1.0000   1.0000   1.0000   1.0000   1.0000   1.0000
     1.0000   1.0000   1.0000   1.0000   1.0000   1.0000   1.0000   1.0000
     1.0000   1.0000   1.0000   1.0000   1.0000   1.0000   1.0000   1.0000
     1.0000   1.0000   1.0000   1.0000   1.0000   1.0000   1.0000   1.0000
     1.0000   1.0000   1.0000   1.0000   1.0000   1.0000   1.0000   1.0000

          k =-0.1667 0.1925 0.0000 (  6158 PWs)   bands (ev):

    -8.9603  -8.7520  -8.5268  -8.2459  -8.0046  -7.6762  -7.5635  -7.4271
     3.0489   3.1141   3.1962   3.2633   3.4065   3.4790   3.6129   3.7585
     3.8971   3.9770   4.0351   4.1132   4.1567   4.2328   4.2763   4.3651
     4.4345   4.4918   4.5594   4.6706   4.7276   4.8580   4.9416   5.0455
     5.6541   5.6959   5.8176   5.8753   5.9994   6.0242   6.0614   6.1213
     6.1630   6.1728   6.2065   6.2728   6.3517   6.3885   6.4279   6.5194
     6.7014   6.8922   7.3815   7.6134   7.6723   7.8516   8.3466   8.4370
     8.5404   8.6059   8.8077   8.8821   9.0767   9.2968   9.3969   9.4595
     9.5980   9.7445   9.8694   9.9270  10.0346  10.0880  10.6171  10.7409

     occupation numbers 
     1.0000   1.0000   1.0000   1.0000   1.0000   1.0000   1.0000   1.0000
     1.0000   1.0000   1.0000   1.0000   1.0000   1.0000   1.0000   1.0000
     1.0000   1.0000   1.0000   1.0000   1.0000   1.0000   1.0000   1.0000
     1.0000   1.0000   1.0000   1.0000   1.0000   1.0000   1.0000   1.0000
     1.0000   1.0000   1.0000   1.0000   1.0000   1.0000   1.0000   1.0000
     1.0000   1.0000   1.0000   1.0000   1.0000   1.0000   1.0000   1.0000
     1.0000   1.0000   1.0000   1.0000   1.0000   1.0000   1.0000   1.0000
     1.0000   1.0000   1.0000   1.0000   1.0000   1.0000   1.0000   1.0000
     1.0000   1.0000   1.0000   1.0000   1.0000   1.0000   1.0000   1.0000

          k =-0.1667-0.1925 0.0516 (  6149 PWs)   bands (ev):

    -8.9472  -8.7751  -8.5110  -8.2566  -8.0000  -7.6660  -7.5721  -7.4284
     3.0635   3.1275   3.1741   3.2889   3.3816   3.4515   3.6464   3.7753
     3.8067   3.9931   4.0413   4.1137   4.2016   4.2363   4.2741   4.3889
     4.4283   4.4631   4.5573   4.6434   4.7403   4.7826   4.9292   5.0262
     5.6544   5.6958   5.8248   5.8968   5.9721   6.0158   6.0638   6.1131
     6.1525   6.1798   6.2476   6.3029   6.3763   6.3903   6.4353   6.5429
     6.7819   6.9149   7.4740   7.5510   7.8000   7.9038   8.1860   8.3656
     8.5092   8.6472   8.7561   8.8475   9.0650   9.2381   9.3213   9.5126
     9.6942   9.7662   9.8625   9.9623  10.0720  10.1204  10.5790  10.6636

     occupation numbers 
     1.0000   1.0000   1.0000   1.0000   1.0000   1.0000   1.0000   1.0000
     1.0000   1.0000   1.0000   1.0000   1.0000   1.0000   1.0000   1.0000
     1.0000   1.0000   1.0000   1.0000   1.0000   1.0000   1.0000   1.0000
     1.0000   1.0000   1.0000   1.0000   1.0000   1.0000   1.0000   1.0000
     1.0000   1.0000   1.0000   1.0000   1.0000   1.0000   1.0000   1.0000
     1.0000   1.0000   1.0000   1.0000   1.0000   1.0000   1.0000   1.0000
     1.0000   1.0000   1.0000   1.0000   1.0000   1.0000   1.0000   1.0000
     1.0000   1.0000   1.0000   1.0000   1.0000   1.0000   1.0000   1.0000
     1.0000   1.0000   1.0000   1.0000   1.0000   1.0000   1.0000   1.0000

          k =-0.1667 0.1925-0.0516 (  6149 PWs)   bands (ev):

    -8.9476  -8.7767  -8.5115  -8.2546  -8.0017  -7.6640  -7.5699  -7.4305
     3.0662   3.1289   3.2045   3.2876   3.4026   3.4490   3.5984   3.7348
     3.8701   3.9992   4.0387   4.1102   4.1320   4.2266   4.2779   4.3620
     4.4444   4.4992   4.5508   4.6714   4.7204   4.8580   4.9186   5.0498
     5.6598   5.7125   5.8276   5.8940   5.9867   6.0155   6.0447   6.1023
     6.1560   6.1708   6.2547   6.2946   6.3786   6.3913   6.4306   6.5097
     6.7975   6.9132   7.4248   7.5363   7.7321   7.8745   8.1384   8.3602
     8.5027   8.7064   8.7814   8.8568   9.0557   9.2199   9.2966   9.5653
     9.6369   9.8119   9.8677   9.9494  10.0983  10.1373  10.5851  10.7277

     occupation numbers 
     1.0000   1.0000   1.0000   1.0000   1.0000   1.0000   1.0000   1.0000
     1.0000   1.0000   1.0000   1.0000   1.0000   1.0000   1.0000   1.0000
     1.0000   1.0000   1.0000   1.0000   1.0000   1.0000   1.0000   1.0000
     1.0000   1.0000   1.0000   1.0000   1.0000   1.0000   1.0000   1.0000
     1.0000   1.0000   1.0000   1.0000   1.0000   1.0000   1.0000   1.0000
     1.0000   1.0000   1.0000   1.0000   1.0000   1.0000   1.0000   1.0000
     1.0000   1.0000   1.0000   1.0000   1.0000   1.0000   1.0000   1.0000
     1.0000   1.0000   1.0000   1.0000   1.0000   1.0000   1.0000   1.0000
     1.0000   1.0000   1.0000   1.0000   1.0000   1.0000   1.0000   1.0000

          k = 0.1667-0.1925-0.0516 (  6149 PWs)   bands (ev):

    -8.9556  -8.7518  -8.5409  -8.2429  -7.9918  -7.6909  -7.5485  -7.4340
     3.0625   3.1301   3.2126   3.2596   3.3953   3.4862   3.5994   3.7269
     3.8899   3.9684   4.0357   4.0978   4.1709   4.2380   4.2833   4.3601
     4.4084   4.4878   4.5797   4.6630   4.7419   4.8503   4.9143   5.0343
     5.6723   5.7098   5.8183   5.9026   5.9830   6.0052   6.0557   6.1072
     6.1575   6.1731   6.2415   6.2828   6.3715   6.3971   6.4369   6.5434
     6.7542   6.9045   7.3891   7.5341   7.7765   7.8965   8.2213   8.3448
     8.5214   8.6516   8.7466   8.8298   9.0892   9.2477   9.3015   9.5817
     9.6617   9.7136   9.8638   9.9371  10.0634  10.1765  10.6290  10.7171

     occupation numbers 
     1.0000   1.0000   1.0000   1.0000   1.0000   1.0000   1.0000   1.0000
     1.0000   1.0000   1.0000   1.0000   1.0000   1.0000   1.0000   1.0000
     1.0000   1.0000   1.0000   1.0000   1.0000   1.0000   1.0000   1.0000
     1.0000   1.0000   1.0000   1.0000   1.0000   1.0000   1.0000   1.0000
     1.0000   1.0000   1.0000   1.0000   1.0000   1.0000   1.0000   1.0000
     1.0000   1.0000   1.0000   1.0000   1.0000   1.0000   1.0000   1.0000
     1.0000   1.0000   1.0000   1.0000   1.0000   1.0000   1.0000   1.0000
     1.0000   1.0000   1.0000   1.0000   1.0000   1.0000   1.0000   1.0000
     1.0000   1.0000   1.0000   1.0000   1.0000   1.0000   1.0000   1.0000

          k =-0.1667-0.1925 0.1032 (  6150 PWs)   bands (ev):

    -8.9239  -8.8056  -8.5093  -8.2622  -7.9847  -7.6716  -7.5595  -7.4393
     3.1000   3.1552   3.1991   3.3336   3.3763   3.4100   3.5697   3.7413
     3.7938   3.9673   4.0365   4.1128   4.2164   4.2351   4.2702   4.3699
     4.4290   4.4707   4.5825   4.6323   4.7352   4.7809   4.8893   5.0069
     5.6983   5.7254   5.8366   5.9165   5.9310   5.9903   6.0446   6.0974
     6.1664   6.1981   6.2711   6.3419   6.3802   6.4111   6.4620   6.5359
     6.9723   7.0396   7.3887   7.6130   7.7852   7.8889   8.0164   8.3259
     8.4257   8.5435   8.5934   8.8598   9.0614   9.1852   9.3794   9.5318
     9.6717   9.7841   9.8763  10.0503  10.1941  10.2534  10.5365  10.6188

     occupation numbers 
     1.0000   1.0000   1.0000   1.0000   1.0000   1.0000   1.0000   1.0000
     1.0000   1.0000   1.0000   1.0000   1.0000   1.0000   1.0000   1.0000
     1.0000   1.0000   1.0000   1.0000   1.0000   1.0000   1.0000   1.0000
     1.0000   1.0000   1.0000   1.0000   1.0000   1.0000   1.0000   1.0000
     1.0000   1.0000   1.0000   1.0000   1.0000   1.0000   1.0000   1.0000
     1.0000   1.0000   1.0000   1.0000   1.0000   1.0000   1.0000   1.0000
     1.0000   1.0000   1.0000   1.0000   1.0000   1.0000   1.0000   1.0000
     1.0000   1.0000   1.0000   1.0000   1.0000   1.0000   1.0000   1.0000
     1.0000   1.0000   1.0000   1.0000   1.0000   1.0000   1.0000   1.0000

          k =-0.1667 0.1925-0.1032 (  6150 PWs)   bands (ev):

    -8.9239  -8.8076  -8.5102  -8.2599  -7.9862  -7.6699  -7.5570  -7.4417
     3.1044   3.1594   3.2372   3.3126   3.3822   3.4199   3.5616   3.6764
     3.8472   4.0070   4.0369   4.0915   4.1245   4.2242   4.2867   4.3532
     4.4345   4.5006   4.5629   4.6662   4.7264   4.8550   4.8741   5.0383
     5.6951   5.7431   5.8398   5.9063   5.9518   5.9819   6.0337   6.0851
     6.1721   6.1835   6.2701   6.3441   6.3845   6.4143   6.4579   6.5151
     6.9823   7.0420   7.3526   7.6118   7.7375   7.8155   7.9597   8.3192
     8.3645   8.5695   8.6955   8.9087   9.0390   9.1568   9.3901   9.5289
     9.6624   9.7839   9.8674  10.0500  10.2362  10.2799  10.5303  10.6838

     occupation numbers 
     1.0000   1.0000   1.0000   1.0000   1.0000   1.0000   1.0000   1.0000
     1.0000   1.0000   1.0000   1.0000   1.0000   1.0000   1.0000   1.0000
     1.0000   1.0000   1.0000   1.0000   1.0000   1.0000   1.0000   1.0000
     1.0000   1.0000   1.0000   1.0000   1.0000   1.0000   1.0000   1.0000
     1.0000   1.0000   1.0000   1.0000   1.0000   1.0000   1.0000   1.0000
     1.0000   1.0000   1.0000   1.0000   1.0000   1.0000   1.0000   1.0000
     1.0000   1.0000   1.0000   1.0000   1.0000   1.0000   1.0000   1.0000
     1.0000   1.0000   1.0000   1.0000   1.0000   1.0000   1.0000   1.0000
     1.0000   1.0000   1.0000   1.0000   1.0000   1.0000   1.0000   1.0000

          k = 0.1667-0.1925-0.1032 (  6150 PWs)   bands (ev):

    -8.9361  -8.7804  -8.5375  -8.2486  -7.9755  -7.6958  -7.5357  -7.4468
     3.1023   3.1606   3.2435   3.2705   3.3822   3.4679   3.5625   3.6664
     3.8584   3.9806   4.0376   4.0869   4.1533   4.2360   4.2896   4.3591
     4.3961   4.4902   4.5879   4.6585   4.7514   4.8220   4.8933   5.0240
     5.7080   5.7435   5.8252   5.8998   5.9526   5.9858   6.0430   6.0883
     6.1689   6.1843   6.2681   6.3277   6.3764   6.4178   6.4639   6.5466
     6.9567   7.0035   7.2939   7.6215   7.8281   7.8766   8.0048   8.2757
     8.3785   8.4811   8.7115   8.8644   9.0886   9.2052   9.3878   9.5049
     9.6150   9.7957   9.9070  10.0038  10.1770  10.2988  10.6004  10.6680

     occupation numbers 
     1.0000   1.0000   1.0000   1.0000   1.0000   1.0000   1.0000   1.0000
     1.0000   1.0000   1.0000   1.0000   1.0000   1.0000   1.0000   1.0000
     1.0000   1.0000   1.0000   1.0000   1.0000   1.0000   1.0000   1.0000
     1.0000   1.0000   1.0000   1.0000   1.0000   1.0000   1.0000   1.0000
     1.0000   1.0000   1.0000   1.0000   1.0000   1.0000   1.0000   1.0000
     1.0000   1.0000   1.0000   1.0000   1.0000   1.0000   1.0000   1.0000
     1.0000   1.0000   1.0000   1.0000   1.0000   1.0000   1.0000   1.0000
     1.0000   1.0000   1.0000   1.0000   1.0000   1.0000   1.0000   1.0000
     1.0000   1.0000   1.0000   1.0000   1.0000   1.0000   1.0000   1.0000

          k =-0.1667 0.1925 0.1549 (  6134 PWs)   bands (ev):

    -8.9156  -8.8126  -8.5224  -8.2569  -7.9729  -7.6864  -7.5380  -7.4514
     3.1330   3.1697   3.2607   3.2944   3.3802   3.4296   3.5380   3.6393
     3.8422   3.9963   4.0355   4.0865   4.1307   4.2278   4.2916   4.3537
     4.4128   4.4962   4.5788   4.6613   4.7432   4.8204   4.8811   5.0248
     5.7267   5.7650   5.8360   5.8798   5.9313   5.9801   6.0367   6.0810
     6.1802   6.1900   6.2743   6.3575   6.3790   6.4200   6.4898   6.5176
     7.1170   7.1557   7.2858   7.4972   7.7611   7.8347   8.0376   8.1964
     8.2979   8.4140   8.7426   8.8391   9.0869   9.2092   9.4316   9.4814
     9.6002   9.7955   9.8938  10.0616  10.3122  10.3524  10.5209  10.6443

     occupation numbers 
     1.0000   1.0000   1.0000   1.0000   1.0000   1.0000   1.0000   1.0000
     1.0000   1.0000   1.0000   1.0000   1.0000   1.0000   1.0000   1.0000
     1.0000   1.0000   1.0000   1.0000   1.0000   1.0000   1.0000   1.0000
     1.0000   1.0000   1.0000   1.0000   1.0000   1.0000   1.0000   1.0000
     1.0000   1.0000   1.0000   1.0000   1.0000   1.0000   1.0000   1.0000
     1.0000   1.0000   1.0000   1.0000   1.0000   1.0000   1.0000   1.0000
     1.0000   1.0000   1.0000   1.0000   1.0000   1.0000   1.0000   1.0000
     1.0000   1.0000   1.0000   1.0000   1.0000   1.0000   1.0000   1.0000
     1.0000   1.0000   1.0000   1.0000   1.0000   1.0000   1.0000   1.0000

          k =-0.1667-0.2887 0.0516 (  6160 PWs)   bands (ev):

    -8.8594  -8.7670  -8.5260  -8.3037  -8.0059  -7.6512  -7.6023  -7.4570
     3.0572   3.1136   3.1829   3.2482   3.3908   3.4324   3.6059   3.7606
     3.8549   3.9955   4.0393   4.1045   4.2249   4.2583   4.2874   4.3746
     4.4157   4.4919   4.5494   4.6812   4.7313   4.8031   4.8311   4.9732
     5.6544   5.6854   5.8323   5.8896   5.9594   6.0104   6.0489   6.0793
     6.1503   6.1879   6.2310   6.2428   6.3571   6.3916   6.4318   6.4884
     6.8491   6.8900   7.8199   7.8941   8.0591   8.1016   8.2168   8.3394
     8.4301   8.5219   8.7919   8.8847   9.0557   9.1360   9.2812   9.2978
     9.6087   9.6889   9.7331   9.8235  10.2361  10.3151  10.3898  10.4246

     occupation numbers 
     1.0000   1.0000   1.0000   1.0000   1.0000   1.0000   1.0000   1.0000
     1.0000   1.0000   1.0000   1.0000   1.0000   1.0000   1.0000   1.0000
     1.0000   1.0000   1.0000   1.0000   1.0000   1.0000   1.0000   1.0000
     1.0000   1.0000   1.0000   1.0000   1.0000   1.0000   1.0000   1.0000
     1.0000   1.0000   1.0000   1.0000   1.0000   1.0000   1.0000   1.0000
     1.0000   1.0000   1.0000   1.0000   1.0000   1.0000   1.0000   1.0000
     1.0000   1.0000   1.0000   1.0000   1.0000   1.0000   1.0000   1.0000
     1.0000   1.0000   1.0000   1.0000   1.0000   1.0000   1.0000   1.0000
     1.0000   1.0000   1.0000   1.0000   1.0000   1.0000   1.0000   1.0000

          k =-0.1667-0.2887 0.1032 (  6140 PWs)   bands (ev):

    -8.8531  -8.7610  -8.5437  -8.3140  -7.9898  -7.6601  -7.5722  -7.4785
     3.1041   3.1419   3.2105   3.2829   3.3706   3.4057   3.5471   3.7064
     3.8264   3.9850   4.0476   4.0917   4.2079   4.2591   4.3045   4.3704
     4.4041   4.4916   4.5671   4.6722   4.7230   4.7960   4.8088   4.9648
     5.6929   5.7199   5.8431   5.8935   5.9445   5.9654   6.0337   6.0516
     6.1644   6.1975   6.2493   6.3103   6.3815   6.4116   6.4495   6.4787
     7.0200   7.1032   7.6657   7.7597   8.0092   8.1238   8.2605   8.3716
     8.4758   8.5356   8.5953   8.6465   8.9350   9.0659   9.1557   9.2070
     9.7707   9.8748   9.9190  10.0347  10.1836  10.2995  10.3590  10.4249

     occupation numbers 
     1.0000   1.0000   1.0000   1.0000   1.0000   1.0000   1.0000   1.0000
     1.0000   1.0000   1.0000   1.0000   1.0000   1.0000   1.0000   1.0000
     1.0000   1.0000   1.0000   1.0000   1.0000   1.0000   1.0000   1.0000
     1.0000   1.0000   1.0000   1.0000   1.0000   1.0000   1.0000   1.0000
     1.0000   1.0000   1.0000   1.0000   1.0000   1.0000   1.0000   1.0000
     1.0000   1.0000   1.0000   1.0000   1.0000   1.0000   1.0000   1.0000
     1.0000   1.0000   1.0000   1.0000   1.0000   1.0000   1.0000   1.0000
     1.0000   1.0000   1.0000   1.0000   1.0000   1.0000   1.0000   1.0000
     1.0000   1.0000   1.0000   1.0000   1.0000   1.0000   1.0000   1.0000

          k =-0.1667-0.0000 0.0516 (  6128 PWs)   bands (ev):

    -9.1041  -8.8346  -8.5392  -8.1076  -7.9884  -7.6707  -7.5008  -7.3623
     3.0763   3.2000   3.2371   3.3219   3.4497   3.5528   3.6292   3.7170
     3.8621   3.9111   4.0229   4.0844   4.1356   4.1872   4.2958   4.3311
     4.4257   4.4733   4.5462   4.6273   4.7951   4.9657   5.0408   5.1832
     5.7597   5.7903   5.8588   5.9153   5.9803   6.0327   6.0596   6.1291
     6.1602   6.1775   6.3221   6.3472   6.3692   6.4314   6.5080   6.5699
     6.6965   6.8218   6.9086   6.9879   7.1606   7.2755   8.1012   8.1758
     8.2511   8.5960   8.9480   9.1142   9.2220   9.3134   9.5197   9.6325
     9.7121   9.7939  10.0599  10.1397  10.3152  10.4703  10.8218  10.9404

     occupation numbers 
     1.0000   1.0000   1.0000   1.0000   1.0000   1.0000   1.0000   1.0000
     1.0000   1.0000   1.0000   1.0000   1.0000   1.0000   1.0000   1.0000
     1.0000   1.0000   1.0000   1.0000   1.0000   1.0000   1.0000   1.0000
     1.0000   1.0000   1.0000   1.0000   1.0000   1.0000   1.0000   1.0000
     1.0000   1.0000   1.0000   1.0000   1.0000   1.0000   1.0000   1.0000
     1.0000   1.0000   1.0000   1.0000   1.0000   1.0000   1.0000   1.0000
     1.0000   1.0000   1.0000   1.0000   1.0000   1.0000   1.0000   1.0000
     1.0000   1.0000   1.0000   1.0000   1.0000   1.0000   1.0000   1.0000
     1.0000   1.0000   1.0000   1.0000   1.0000   1.0000   1.0000   1.0000

          k =-0.1667-0.0000 0.1032 (  6126 PWs)   bands (ev):

    -9.0734  -8.8942  -8.5100  -8.1106  -7.9780  -7.6734  -7.5052  -7.3629
     3.0999   3.2280   3.2563   3.3470   3.4313   3.5177   3.6194   3.6859
     3.8506   3.8886   4.0170   4.0753   4.1335   4.1945   4.2673   4.3460
     4.4329   4.4844   4.5342   4.6399   4.8177   4.9528   5.0120   5.1528
     5.7756   5.8126   5.8829   5.9246   5.9607   6.0062   6.0587   6.1445
     6.1723   6.1932   6.3264   6.3439   6.3778   6.4170   6.4929   6.5379
     6.8308   6.8968   6.9436   7.0149   7.1690   7.3723   7.8065   7.9148
     8.2991   8.7695   8.8465   9.1840   9.2983   9.4115   9.5133   9.6051
     9.6983   9.7365   9.9918  10.0670  10.4094  10.5777  10.7673  10.9045

     occupation numbers 
     1.0000   1.0000   1.0000   1.0000   1.0000   1.0000   1.0000   1.0000
     1.0000   1.0000   1.0000   1.0000   1.0000   1.0000   1.0000   1.0000
     1.0000   1.0000   1.0000   1.0000   1.0000   1.0000   1.0000   1.0000
     1.0000   1.0000   1.0000   1.0000   1.0000   1.0000   1.0000   1.0000
     1.0000   1.0000   1.0000   1.0000   1.0000   1.0000   1.0000   1.0000
     1.0000   1.0000   1.0000   1.0000   1.0000   1.0000   1.0000   1.0000
     1.0000   1.0000   1.0000   1.0000   1.0000   1.0000   1.0000   1.0000
     1.0000   1.0000   1.0000   1.0000   1.0000   1.0000   1.0000   1.0000
     1.0000   1.0000   1.0000   1.0000   1.0000   1.0000   1.0000   1.0000

          k =-0.3333 0.1925 0.0000 (  6129 PWs)   bands (ev):

    -8.6601  -8.5266  -8.3645  -8.0567  -7.7799  -7.5633  -7.4250  -7.3329
     2.9607   3.0449   3.1131   3.2099   3.2920   3.4113   3.7813   3.8024
     4.0456   4.0930   4.1738   4.2354   4.3413   4.4007   4.4312   4.5374
     4.5775   4.6527   4.7247   4.8467   4.8845   5.0011   5.1137   5.2832
     5.6583   5.7538   5.8539   5.9394   6.0261   6.0532   6.0954   6.1151
     6.1737   6.1963   6.2482   6.3447   6.3832   6.4212   6.4450   6.5067
     6.7708   6.8449   7.0583   7.1370   7.2380   7.3799   7.4858   7.6667
     7.8001   8.0185   8.3681   8.5216   8.6029   8.6776   9.1452   9.2139
     9.3221   9.4024   9.4640   9.4960   9.6430   9.7497  10.1028  10.4070

     occupation numbers 
     1.0000   1.0000   1.0000   1.0000   1.0000   1.0000   1.0000   1.0000
     1.0000   1.0000   1.0000   1.0000   1.0000   1.0000   1.0000   1.0000
     1.0000   1.0000   1.0000   1.0000   1.0000   1.0000   1.0000   1.0000
     1.0000   1.0000   1.0000   1.0000   1.0000   1.0000   1.0000   1.0000
     1.0000   1.0000   1.0000   1.0000   1.0000   1.0000   1.0000   1.0000
     1.0000   1.0000   1.0000   1.0000   1.0000   1.0000   1.0000   1.0000
     1.0000   1.0000   1.0000   1.0000   1.0000   1.0000   1.0000   1.0000
     1.0000   1.0000   1.0000   1.0000   1.0000   1.0000   1.0000   1.0000
     1.0000   1.0000   1.0000   1.0000   1.0000   1.0000   1.0000   1.0000

          k =-0.3333-0.1925 0.0516 (  6125 PWs)   bands (ev):

    -8.6520  -8.5378  -8.3578  -8.0605  -7.7797  -7.5612  -7.4284  -7.3314
     2.9653   3.0212   3.1192   3.2243   3.3184   3.4414   3.7422   3.7703
     4.0282   4.1111   4.1943   4.2389   4.2916   4.3791   4.4515   4.4900
     4.6363   4.6661   4.7180   4.8194   4.8799   4.9626   5.1231   5.1920
     5.6533   5.7506   5.8856   5.9363   6.0086   6.0472   6.0999   6.1358
     6.1869   6.2327   6.2566   6.3223   6.3872   6.4161   6.5269   6.5674
     6.7805   6.8740   7.0400   7.1974   7.3160   7.3581   7.5499   7.6390
     7.8063   8.0609   8.2172   8.4936   8.6018   8.8220   8.9181   9.1631
     9.2560   9.3939   9.5411   9.6081   9.7009   9.7874  10.0651  10.2877

     occupation numbers 
     1.0000   1.0000   1.0000   1.0000   1.0000   1.0000   1.0000   1.0000
     1.0000   1.0000   1.0000   1.0000   1.0000   1.0000   1.0000   1.0000
     1.0000   1.0000   1.0000   1.0000   1.0000   1.0000   1.0000   1.0000
     1.0000   1.0000   1.0000   1.0000   1.0000   1.0000   1.0000   1.0000
     1.0000   1.0000   1.0000   1.0000   1.0000   1.0000   1.0000   1.0000
     1.0000   1.0000   1.0000   1.0000   1.0000   1.0000   1.0000   1.0000
     1.0000   1.0000   1.0000   1.0000   1.0000   1.0000   1.0000   1.0000
     1.0000   1.0000   1.0000   1.0000   1.0000   1.0000   1.0000   1.0000
     1.0000   1.0000   1.0000   1.0000   1.0000   1.0000   1.0000   1.0000

          k =-0.3333 0.1925-0.0516 (  6125 PWs)   bands (ev):

    -8.6516  -8.5410  -8.3580  -8.0579  -7.7825  -7.5580  -7.4246  -7.3353
     2.9907   3.0534   3.1231   3.2096   3.2878   3.3957   3.7577   3.8033
     4.0301   4.0909   4.1784   4.2157   4.3148   4.3981   4.4480   4.5263
     4.6101   4.6497   4.7328   4.8269   4.8665   4.9978   5.0703   5.2919
     5.6793   5.7573   5.8981   5.9465   6.0098   6.0428   6.0789   6.1289
     6.1975   6.2088   6.2870   6.3279   6.3819   6.4220   6.4714   6.5227
     6.7437   6.8976   6.9874   7.2062   7.2745   7.3928   7.4677   7.6087
     7.8443   8.0736   8.2573   8.5436   8.6244   8.6985   8.8750   9.0975
     9.2505   9.3966   9.5611   9.6557   9.7227   9.7863  10.1086  10.3909

     occupation numbers 
     1.0000   1.0000   1.0000   1.0000   1.0000   1.0000   1.0000   1.0000
     1.0000   1.0000   1.0000   1.0000   1.0000   1.0000   1.0000   1.0000
     1.0000   1.0000   1.0000   1.0000   1.0000   1.0000   1.0000   1.0000
     1.0000   1.0000   1.0000   1.0000   1.0000   1.0000   1.0000   1.0000
     1.0000   1.0000   1.0000   1.0000   1.0000   1.0000   1.0000   1.0000
     1.0000   1.0000   1.0000   1.0000   1.0000   1.0000   1.0000   1.0000
     1.0000   1.0000   1.0000   1.0000   1.0000   1.0000   1.0000   1.0000
     1.0000   1.0000   1.0000   1.0000   1.0000   1.0000   1.0000   1.0000
     1.0000   1.0000   1.0000   1.0000   1.0000   1.0000   1.0000   1.0000

          k = 0.3333-0.1925-0.0516 (  6125 PWs)   bands (ev):

    -8.6588  -8.5239  -8.3709  -8.0569  -7.7743  -7.5694  -7.4192  -7.3356
     2.9573   3.0569   3.1324   3.2458   3.2996   3.4028   3.7297   3.7648
     4.0419   4.0768   4.1615   4.2518   4.3495   4.3910   4.4304   4.5381
     4.5778   4.6552   4.7300   4.8401   4.9130   4.9921   5.1078   5.2528
     5.6727   5.7429   5.8732   5.9491   6.0192   6.0561   6.0825   6.1076
     6.1554   6.1929   6.2964   6.3681   6.3999   6.4121   6.4672   6.5231
     6.7639   6.8209   7.0217   7.1781   7.2979   7.4210   7.5109   7.6329
     7.8379   8.0087   8.1917   8.5769   8.6478   8.7302   8.9618   9.0915
     9.2490   9.3882   9.4503   9.6441   9.7412   9.7930  10.1344  10.3830

     occupation numbers 
     1.0000   1.0000   1.0000   1.0000   1.0000   1.0000   1.0000   1.0000
     1.0000   1.0000   1.0000   1.0000   1.0000   1.0000   1.0000   1.0000
     1.0000   1.0000   1.0000   1.0000   1.0000   1.0000   1.0000   1.0000
     1.0000   1.0000   1.0000   1.0000   1.0000   1.0000   1.0000   1.0000
     1.0000   1.0000   1.0000   1.0000   1.0000   1.0000   1.0000   1.0000
     1.0000   1.0000   1.0000   1.0000   1.0000   1.0000   1.0000   1.0000
     1.0000   1.0000   1.0000   1.0000   1.0000   1.0000   1.0000   1.0000
     1.0000   1.0000   1.0000   1.0000   1.0000   1.0000   1.0000   1.0000
     1.0000   1.0000   1.0000   1.0000   1.0000   1.0000   1.0000   1.0000

          k =-0.3333-0.1925 0.1032 (  6126 PWs)   bands (ev):

    -8.6400  -8.5520  -8.3572  -8.0618  -7.7773  -7.5621  -7.4220  -7.3364
     2.9837   3.0398   3.1718   3.2485   3.3374   3.4244   3.6502   3.7144
     4.0216   4.0645   4.1844   4.2353   4.3104   4.3792   4.4531   4.5030
     4.6359   4.6741   4.7332   4.8309   4.8565   4.9443   5.0641   5.1770
     5.7020   5.7711   5.9105   5.9360   5.9868   6.0141   6.1066   6.1376
     6.2001   6.2332   6.3202   6.3581   6.3996   6.4232   6.5591   6.6018
     6.7615   6.8579   7.0575   7.2507   7.3762   7.4722   7.4928   7.6364
     7.8274   8.0059   8.1641   8.4397   8.6015   8.6732   8.8081   9.0091
     9.1621   9.4416   9.5780   9.7266   9.8253   9.8840  10.1031  10.2352

     occupation numbers 
     1.0000   1.0000   1.0000   1.0000   1.0000   1.0000   1.0000   1.0000
     1.0000   1.0000   1.0000   1.0000   1.0000   1.0000   1.0000   1.0000
     1.0000   1.0000   1.0000   1.0000   1.0000   1.0000   1.0000   1.0000
     1.0000   1.0000   1.0000   1.0000   1.0000   1.0000   1.0000   1.0000
     1.0000   1.0000   1.0000   1.0000   1.0000   1.0000   1.0000   1.0000
     1.0000   1.0000   1.0000   1.0000   1.0000   1.0000   1.0000   1.0000
     1.0000   1.0000   1.0000   1.0000   1.0000   1.0000   1.0000   1.0000
     1.0000   1.0000   1.0000   1.0000   1.0000   1.0000   1.0000   1.0000
     1.0000   1.0000   1.0000   1.0000   1.0000   1.0000   1.0000   1.0000

          k =-0.3333 0.1925-0.1032 (  6126 PWs)   bands (ev):

    -8.6390  -8.5557  -8.3576  -8.0593  -7.7796  -7.5590  -7.4175  -7.3411
     3.0212   3.0731   3.1593   3.2281   3.3123   3.3688   3.6873   3.7391
     4.0240   4.0727   4.1494   4.2267   4.3122   4.3841   4.4619   4.5172
     4.6331   4.6543   4.7353   4.8165   4.8742   4.9901   5.0225   5.2702
     5.7179   5.7746   5.9106   5.9465   5.9844   6.0232   6.0811   6.1406
     6.2004   6.2292   6.3059   6.3842   6.3999   6.4325   6.5069   6.5789
     6.7059   6.8021   7.1074   7.2465   7.3640   7.3991   7.4821   7.6102
     7.8572   8.0321   8.1989   8.4794   8.5791   8.6377   8.7724   8.9883
     9.1295   9.3709   9.5923   9.7179   9.8791   9.9155  10.1474  10.3424

     occupation numbers 
     1.0000   1.0000   1.0000   1.0000   1.0000   1.0000   1.0000   1.0000
     1.0000   1.0000   1.0000   1.0000   1.0000   1.0000   1.0000   1.0000
     1.0000   1.0000   1.0000   1.0000   1.0000   1.0000   1.0000   1.0000
     1.0000   1.0000   1.0000   1.0000   1.0000   1.0000   1.0000   1.0000
     1.0000   1.0000   1.0000   1.0000   1.0000   1.0000   1.0000   1.0000
     1.0000   1.0000   1.0000   1.0000   1.0000   1.0000   1.0000   1.0000
     1.0000   1.0000   1.0000   1.0000   1.0000   1.0000   1.0000   1.0000
     1.0000   1.0000   1.0000   1.0000   1.0000   1.0000   1.0000   1.0000
     1.0000   1.0000   1.0000   1.0000   1.0000   1.0000   1.0000   1.0000

          k = 0.3333-0.1925-0.1032 (  6126 PWs)   bands (ev):

    -8.6486  -8.5366  -8.3700  -8.0584  -7.7714  -7.5702  -7.4120  -7.3416
     2.9801   3.0834   3.1597   3.2901   3.3219   3.3747   3.6402   3.7105
     4.0340   4.0577   4.1466   4.2522   4.3409   4.3748   4.4490   4.5258
     4.5948   4.6675   4.7405   4.8250   4.9184   4.9784   5.0546   5.2378
     5.7156   5.7707   5.8803   5.9399   5.9862   6.0412   6.0880   6.1244
     6.1835   6.2050   6.3116   6.3952   6.4208   6.4355   6.5017   6.5719
     6.7210   6.8061   7.0101   7.2573   7.3769   7.4729   7.5247   7.6603
     7.8411   7.9253   8.1502   8.5167   8.6399   8.6735   8.7712   9.0133
     9.0875   9.3699   9.5417   9.7447   9.8350   9.9319  10.1745  10.3310

     occupation numbers 
     1.0000   1.0000   1.0000   1.0000   1.0000   1.0000   1.0000   1.0000
     1.0000   1.0000   1.0000   1.0000   1.0000   1.0000   1.0000   1.0000
     1.0000   1.0000   1.0000   1.0000   1.0000   1.0000   1.0000   1.0000
     1.0000   1.0000   1.0000   1.0000   1.0000   1.0000   1.0000   1.0000
     1.0000   1.0000   1.0000   1.0000   1.0000   1.0000   1.0000   1.0000
     1.0000   1.0000   1.0000   1.0000   1.0000   1.0000   1.0000   1.0000
     1.0000   1.0000   1.0000   1.0000   1.0000   1.0000   1.0000   1.0000
     1.0000   1.0000   1.0000   1.0000   1.0000   1.0000   1.0000   1.0000
     1.0000   1.0000   1.0000   1.0000   1.0000   1.0000   1.0000   1.0000

          k =-0.3333 0.1925 0.1549 (  6136 PWs)   bands (ev):

    -8.6372  -8.5541  -8.3633  -8.0596  -7.7742  -7.5650  -7.4107  -7.3447
     3.0119   3.0939   3.1733   3.2702   3.3462   3.3601   3.6131   3.6880
     4.0315   4.0518   4.1387   4.2419   4.3268   4.3726   4.4632   4.5154
     4.6121   4.6776   4.7364   4.8174   4.9009   4.9796   5.0134   5.2449
     5.7419   5.7975   5.8877   5.9125   5.9769   6.0312   6.0868   6.1381
     6.1994   6.2308   6.3084   6.3957   6.4307   6.4436   6.5363   6.6453
     6.6865   6.7154   7.1455   7.2690   7.3346   7.4652   7.5982   7.7137
     7.7887   7.8322   8.3066   8.4152   8.4695   8.5796   8.8459   8.9340
     9.0958   9.3558   9.5795   9.7444   9.9166   9.9929  10.1814  10.3024

     occupation numbers 
     1.0000   1.0000   1.0000   1.0000   1.0000   1.0000   1.0000   1.0000
     1.0000   1.0000   1.0000   1.0000   1.0000   1.0000   1.0000   1.0000
     1.0000   1.0000   1.0000   1.0000   1.0000   1.0000   1.0000   1.0000
     1.0000   1.0000   1.0000   1.0000   1.0000   1.0000   1.0000   1.0000
     1.0000   1.0000   1.0000   1.0000   1.0000   1.0000   1.0000   1.0000
     1.0000   1.0000   1.0000   1.0000   1.0000   1.0000   1.0000   1.0000
     1.0000   1.0000   1.0000   1.0000   1.0000   1.0000   1.0000   1.0000
     1.0000   1.0000   1.0000   1.0000   1.0000   1.0000   1.0000   1.0000
     1.0000   1.0000   1.0000   1.0000   1.0000   1.0000   1.0000   1.0000

          k =-0.3333-0.2887 0.0516 (  6126 PWs)   bands (ev):

    -8.6156  -8.5281  -8.3680  -8.0799  -7.7812  -7.5543  -7.4385  -7.3411
     2.9540   2.9716   3.0839   3.1644   3.2702   3.3384   3.6923   3.7367
     4.0489   4.1268   4.1851   4.2588   4.3444   4.4109   4.4473   4.5445
     4.6429   4.6557   4.7185   4.8389   4.8998   4.9726   5.0758   5.2156
     5.7054   5.7317   5.9332   5.9551   6.0396   6.0690   6.1063   6.1394
     6.1726   6.2186   6.2632   6.2983   6.3716   6.4127   6.4733   6.5464
     6.7406   6.8301   7.1632   7.2413   7.3062   7.3663   7.4661   7.5926
     8.0693   8.2068   8.2378   8.3356   8.7356   8.8172   9.0132   9.0737
     9.3418   9.3740   9.5163   9.6203   9.8129   9.8988  10.0157  10.1753

     occupation numbers 
     1.0000   1.0000   1.0000   1.0000   1.0000   1.0000   1.0000   1.0000
     1.0000   1.0000   1.0000   1.0000   1.0000   1.0000   1.0000   1.0000
     1.0000   1.0000   1.0000   1.0000   1.0000   1.0000   1.0000   1.0000
     1.0000   1.0000   1.0000   1.0000   1.0000   1.0000   1.0000   1.0000
     1.0000   1.0000   1.0000   1.0000   1.0000   1.0000   1.0000   1.0000
     1.0000   1.0000   1.0000   1.0000   1.0000   1.0000   1.0000   1.0000
     1.0000   1.0000   1.0000   1.0000   1.0000   1.0000   1.0000   1.0000
     1.0000   1.0000   1.0000   1.0000   1.0000   1.0000   1.0000   1.0000
     1.0000   1.0000   1.0000   1.0000   1.0000   1.0000   1.0000   1.0000

          k =-0.3333-0.2887 0.1032 (  6136 PWs)   bands (ev):

    -8.6121  -8.5266  -8.3744  -8.0819  -7.7784  -7.5595  -7.4243  -7.3496
     2.9710   3.0020   3.1213   3.1884   3.2855   3.3340   3.6059   3.6597
     4.0433   4.0947   4.1935   4.2555   4.3514   4.4016   4.4389   4.5553
     4.6354   4.6816   4.7453   4.8566   4.8632   4.9485   5.0281   5.2020
     5.7427   5.7596   5.9362   5.9653   6.0001   6.0426   6.0986   6.1251
     6.1992   6.2327   6.2831   6.3804   6.4146   6.4382   6.4827   6.5404
     6.7575   6.8670   7.0907   7.1699   7.4134   7.4446   7.5353   7.6620
     8.0979   8.1876   8.2833   8.4011   8.5101   8.5559   8.7407   8.8212
     9.4909   9.5434   9.6520   9.7259   9.8704   9.9390   9.9990  10.1358

     occupation numbers 
     1.0000   1.0000   1.0000   1.0000   1.0000   1.0000   1.0000   1.0000
     1.0000   1.0000   1.0000   1.0000   1.0000   1.0000   1.0000   1.0000
     1.0000   1.0000   1.0000   1.0000   1.0000   1.0000   1.0000   1.0000
     1.0000   1.0000   1.0000   1.0000   1.0000   1.0000   1.0000   1.0000
     1.0000   1.0000   1.0000   1.0000   1.0000   1.0000   1.0000   1.0000
     1.0000   1.0000   1.0000   1.0000   1.0000   1.0000   1.0000   1.0000
     1.0000   1.0000   1.0000   1.0000   1.0000   1.0000   1.0000   1.0000
     1.0000   1.0000   1.0000   1.0000   1.0000   1.0000   1.0000   1.0000
     1.0000   1.0000   1.0000   1.0000   1.0000   1.0000   1.0000   1.0000

          k =-0.3333-0.0962 0.0000 (  6117 PWs)   bands (ev):

    -8.7203  -8.5374  -8.3651  -8.0199  -7.7704  -7.5806  -7.4042  -7.3149
     3.0254   3.0798   3.2209   3.3589   3.4475   3.5899   3.8178   3.8916
     3.9895   4.0967   4.1127   4.2198   4.3109   4.3524   4.3730   4.4810
     4.5587   4.6312   4.7217   4.8271   4.9164   4.9887   5.2065   5.2224
     5.6330   5.7142   5.7967   5.8812   5.9515   6.0120   6.0535   6.0807
     6.1565   6.1732   6.2189   6.2969   6.3891   6.4205   6.5705   6.6629
     6.7177   6.8178   6.9196   7.0309   7.1040   7.4580   7.5974   7.8144
     7.9488   8.0016   8.1184   8.2149   8.5939   8.8829   8.9518   9.1208
     9.2469   9.3195   9.4211   9.5195   9.5517   9.6626  10.2343  10.3430

     occupation numbers 
     1.0000   1.0000   1.0000   1.0000   1.0000   1.0000   1.0000   1.0000
     1.0000   1.0000   1.0000   1.0000   1.0000   1.0000   1.0000   1.0000
     1.0000   1.0000   1.0000   1.0000   1.0000   1.0000   1.0000   1.0000
     1.0000   1.0000   1.0000   1.0000   1.0000   1.0000   1.0000   1.0000
     1.0000   1.0000   1.0000   1.0000   1.0000   1.0000   1.0000   1.0000
     1.0000   1.0000   1.0000   1.0000   1.0000   1.0000   1.0000   1.0000
     1.0000   1.0000   1.0000   1.0000   1.0000   1.0000   1.0000   1.0000
     1.0000   1.0000   1.0000   1.0000   1.0000   1.0000   1.0000   1.0000
     1.0000   1.0000   1.0000   1.0000   1.0000   1.0000   1.0000   1.0000

          k =-0.3333 0.0962 0.0516 (  6120 PWs)   bands (ev):

    -8.7163  -8.5455  -8.3654  -8.0180  -7.7687  -7.5792  -7.4015  -7.3184
     3.0238   3.1414   3.2478   3.3842   3.4162   3.5616   3.7856   3.8523
     3.9875   4.0262   4.1235   4.2287   4.3304   4.3583   4.4276   4.4481
     4.5264   4.6134   4.7723   4.8124   4.8843   5.1065   5.1580   5.3108
     5.6469   5.7389   5.8158   5.8983   5.9217   5.9928   6.0436   6.0929
     6.1426   6.1702   6.2440   6.2793   6.3303   6.4063   6.5729   6.6682
     6.7414   6.7832   6.9054   7.0261   7.0601   7.4488   7.5914   7.7377
     7.8257   8.1317   8.2167   8.2796   8.6184   8.8599   8.8963   8.9981
     9.1451   9.2559   9.3402   9.5315   9.6839   9.8105  10.2921  10.3876

     occupation numbers 
     1.0000   1.0000   1.0000   1.0000   1.0000   1.0000   1.0000   1.0000
     1.0000   1.0000   1.0000   1.0000   1.0000   1.0000   1.0000   1.0000
     1.0000   1.0000   1.0000   1.0000   1.0000   1.0000   1.0000   1.0000
     1.0000   1.0000   1.0000   1.0000   1.0000   1.0000   1.0000   1.0000
     1.0000   1.0000   1.0000   1.0000   1.0000   1.0000   1.0000   1.0000
     1.0000   1.0000   1.0000   1.0000   1.0000   1.0000   1.0000   1.0000
     1.0000   1.0000   1.0000   1.0000   1.0000   1.0000   1.0000   1.0000
     1.0000   1.0000   1.0000   1.0000   1.0000   1.0000   1.0000   1.0000
     1.0000   1.0000   1.0000   1.0000   1.0000   1.0000   1.0000   1.0000

          k =-0.3333-0.0962-0.0516 (  6120 PWs)   bands (ev):

    -8.7142  -8.5471  -8.3635  -8.0200  -7.7654  -7.5839  -7.4022  -7.3167
     3.0314   3.0975   3.2354   3.3724   3.4602   3.5648   3.8001   3.8799
     3.9941   4.0621   4.1149   4.2021   4.3036   4.3484   4.3829   4.4942
     4.5530   4.6338   4.7087   4.8330   4.9115   4.9902   5.1344   5.2149
     5.6523   5.7151   5.8326   5.9128   5.9637   6.0004   6.0374   6.0767
     6.1666   6.1942   6.2445   6.3420   6.3904   6.4368   6.5454   6.6709
     6.7569   6.8267   6.9007   7.0688   7.1022   7.4439   7.5637   7.7230
     7.8408   8.1109   8.2178   8.3040   8.5891   8.7547   8.9219   8.9639
     9.2300   9.2648   9.3194   9.5970   9.7034   9.7810  10.2334  10.3237

     occupation numbers 
     1.0000   1.0000   1.0000   1.0000   1.0000   1.0000   1.0000   1.0000
     1.0000   1.0000   1.0000   1.0000   1.0000   1.0000   1.0000   1.0000
     1.0000   1.0000   1.0000   1.0000   1.0000   1.0000   1.0000   1.0000
     1.0000   1.0000   1.0000   1.0000   1.0000   1.0000   1.0000   1.0000
     1.0000   1.0000   1.0000   1.0000   1.0000   1.0000   1.0000   1.0000
     1.0000   1.0000   1.0000   1.0000   1.0000   1.0000   1.0000   1.0000
     1.0000   1.0000   1.0000   1.0000   1.0000   1.0000   1.0000   1.0000
     1.0000   1.0000   1.0000   1.0000   1.0000   1.0000   1.0000   1.0000
     1.0000   1.0000   1.0000   1.0000   1.0000   1.0000   1.0000   1.0000

          k = 0.3333 0.0962-0.0516 (  6120 PWs)   bands (ev):

    -8.7125  -8.5536  -8.3562  -8.0206  -7.7739  -7.5730  -7.4083  -7.3148
     3.0400   3.0894   3.2198   3.3823   3.4520   3.6027   3.8008   3.8512
     3.9648   4.0819   4.1172   4.1970   4.3027   4.3461   4.4120   4.4654
     4.5669   4.6279   4.7048   4.8355   4.9111   4.9889   5.1827   5.2314
     5.6526   5.7327   5.8209   5.8782   5.9466   6.0053   6.0368   6.0701
     6.1657   6.2144   6.2283   6.3151   6.3967   6.4041   6.5290   6.6866
     6.7558   6.8070   6.9735   7.0437   7.1090   7.4370   7.5955   7.7005
     7.8498   8.0820   8.2117   8.2612   8.6377   8.8439   8.8822   9.0223
     9.2107   9.3100   9.3495   9.5137   9.6527   9.7642  10.2524  10.3202

     occupation numbers 
     1.0000   1.0000   1.0000   1.0000   1.0000   1.0000   1.0000   1.0000
     1.0000   1.0000   1.0000   1.0000   1.0000   1.0000   1.0000   1.0000
     1.0000   1.0000   1.0000   1.0000   1.0000   1.0000   1.0000   1.0000
     1.0000   1.0000   1.0000   1.0000   1.0000   1.0000   1.0000   1.0000
     1.0000   1.0000   1.0000   1.0000   1.0000   1.0000   1.0000   1.0000
     1.0000   1.0000   1.0000   1.0000   1.0000   1.0000   1.0000   1.0000
     1.0000   1.0000   1.0000   1.0000   1.0000   1.0000   1.0000   1.0000
     1.0000   1.0000   1.0000   1.0000   1.0000   1.0000   1.0000   1.0000
     1.0000   1.0000   1.0000   1.0000   1.0000   1.0000   1.0000   1.0000

          k =-0.3333 0.0962 0.1032 (  6118 PWs)   bands (ev):

    -8.6997  -8.5733  -8.3557  -8.0189  -7.7672  -7.5745  -7.4033  -7.3203
     3.0521   3.1647   3.2650   3.4017   3.4538   3.5505   3.7266   3.8379
     3.9545   3.9969   4.0908   4.2173   4.3072   4.3536   4.4384   4.4453
     4.5416   4.6141   4.7517   4.8087   4.9010   5.0833   5.1079   5.3064
     5.6883   5.7572   5.8204   5.9071   5.9307   5.9647   6.0301   6.1335
     6.1739   6.1913   6.2892   6.3111   6.3528   6.4391   6.5098   6.6049
     6.7929   6.8578   6.9630   7.0480   7.1600   7.4030   7.4224   7.6602
     7.8341   8.0979   8.3582   8.4272   8.6278   8.7168   8.8565   8.8908
     9.0529   9.0888   9.3170   9.5189   9.9049   9.9465  10.3036  10.3395

     occupation numbers 
     1.0000   1.0000   1.0000   1.0000   1.0000   1.0000   1.0000   1.0000
     1.0000   1.0000   1.0000   1.0000   1.0000   1.0000   1.0000   1.0000
     1.0000   1.0000   1.0000   1.0000   1.0000   1.0000   1.0000   1.0000
     1.0000   1.0000   1.0000   1.0000   1.0000   1.0000   1.0000   1.0000
     1.0000   1.0000   1.0000   1.0000   1.0000   1.0000   1.0000   1.0000
     1.0000   1.0000   1.0000   1.0000   1.0000   1.0000   1.0000   1.0000
     1.0000   1.0000   1.0000   1.0000   1.0000   1.0000   1.0000   1.0000
     1.0000   1.0000   1.0000   1.0000   1.0000   1.0000   1.0000   1.0000
     1.0000   1.0000   1.0000   1.0000   1.0000   1.0000   1.0000   1.0000

          k =-0.3333-0.0962-0.1032 (  6118 PWs)   bands (ev):

    -8.6972  -8.5751  -8.3539  -8.0207  -7.7642  -7.5792  -7.4041  -7.3184
     3.0569   3.1176   3.2600   3.4182   3.4807   3.5335   3.7598   3.8469
     3.9524   4.0098   4.1109   4.1853   4.2958   4.3530   4.4048   4.4878
     4.5656   4.6258   4.6890   4.8409   4.9096   4.9978   5.0529   5.2083
     5.6918   5.7529   5.8438   5.9057   5.9546   5.9794   6.0466   6.1079
     6.1826   6.2282   6.2922   6.3675   6.4078   6.4646   6.4899   6.6228
     6.8355   6.8746   7.0180   7.0806   7.1573   7.3885   7.4301   7.6242
     7.7950   8.0980   8.3572   8.4781   8.5764   8.6174   8.8116   8.9480
     9.0922   9.1231   9.3067   9.5912   9.8781   9.9562  10.2403  10.2719

     occupation numbers 
     1.0000   1.0000   1.0000   1.0000   1.0000   1.0000   1.0000   1.0000
     1.0000   1.0000   1.0000   1.0000   1.0000   1.0000   1.0000   1.0000
     1.0000   1.0000   1.0000   1.0000   1.0000   1.0000   1.0000   1.0000
     1.0000   1.0000   1.0000   1.0000   1.0000   1.0000   1.0000   1.0000
     1.0000   1.0000   1.0000   1.0000   1.0000   1.0000   1.0000   1.0000
     1.0000   1.0000   1.0000   1.0000   1.0000   1.0000   1.0000   1.0000
     1.0000   1.0000   1.0000   1.0000   1.0000   1.0000   1.0000   1.0000
     1.0000   1.0000   1.0000   1.0000   1.0000   1.0000   1.0000   1.0000
     1.0000   1.0000   1.0000   1.0000   1.0000   1.0000   1.0000   1.0000

          k = 0.3333 0.0962-0.1032 (  6118 PWs)   bands (ev):

    -8.6946  -8.5817  -8.3474  -8.0213  -7.7726  -7.5681  -7.4107  -7.3164
     3.0649   3.1109   3.2440   3.4175   3.4688   3.5998   3.7385   3.8094
     3.9500   4.0250   4.1127   4.1744   4.3080   4.3468   4.4317   4.4520
     4.5809   4.6232   4.6816   4.8413   4.9037   4.9914   5.1065   5.2229
     5.6977   5.7466   5.8535   5.9129   5.9296   5.9919   6.0167   6.0970
     6.1882   6.2452   6.2732   6.3664   6.3775   6.4168   6.5004   6.6420
     6.8254   6.8716   7.0419   7.0901   7.1614   7.3884   7.4385   7.6324
     7.7679   8.1184   8.3355   8.3890   8.6108   8.7187   8.8149   9.0147
     9.0432   9.1714   9.3255   9.5109   9.8364   9.9509  10.2519  10.2775

     occupation numbers 
     1.0000   1.0000   1.0000   1.0000   1.0000   1.0000   1.0000   1.0000
     1.0000   1.0000   1.0000   1.0000   1.0000   1.0000   1.0000   1.0000
     1.0000   1.0000   1.0000   1.0000   1.0000   1.0000   1.0000   1.0000
     1.0000   1.0000   1.0000   1.0000   1.0000   1.0000   1.0000   1.0000
     1.0000   1.0000   1.0000   1.0000   1.0000   1.0000   1.0000   1.0000
     1.0000   1.0000   1.0000   1.0000   1.0000   1.0000   1.0000   1.0000
     1.0000   1.0000   1.0000   1.0000   1.0000   1.0000   1.0000   1.0000
     1.0000   1.0000   1.0000   1.0000   1.0000   1.0000   1.0000   1.0000
     1.0000   1.0000   1.0000   1.0000   1.0000   1.0000   1.0000   1.0000

          k =-0.3333-0.0962 0.1549 (  6112 PWs)   bands (ev):

    -8.6838  -8.5953  -8.3466  -8.0214  -7.7678  -7.5712  -7.4085  -7.3182
     3.0791   3.1158   3.2774   3.4276   3.4923   3.5498   3.7306   3.8038
     3.9449   3.9768   4.1094   4.1767   4.3056   4.3516   4.4192   4.4670
     4.5873   4.6139   4.6791   4.8406   4.9087   4.9990   5.0420   5.2114
     5.7224   5.7662   5.8539   5.8780   5.9403   5.9818   6.0447   6.1208
     6.1961   6.2494   6.3377   6.3525   6.3794   6.4465   6.5234   6.5598
     6.8707   6.9251   7.0666   7.1198   7.2802   7.3487   7.3747   7.4433
     7.8824   7.9786   8.4250   8.4951   8.5878   8.6935   8.7904   8.9143
     9.0020   9.0699   9.3370   9.5317   9.9329  10.0449  10.2131  10.2638

     occupation numbers 
     1.0000   1.0000   1.0000   1.0000   1.0000   1.0000   1.0000   1.0000
     1.0000   1.0000   1.0000   1.0000   1.0000   1.0000   1.0000   1.0000
     1.0000   1.0000   1.0000   1.0000   1.0000   1.0000   1.0000   1.0000
     1.0000   1.0000   1.0000   1.0000   1.0000   1.0000   1.0000   1.0000
     1.0000   1.0000   1.0000   1.0000   1.0000   1.0000   1.0000   1.0000
     1.0000   1.0000   1.0000   1.0000   1.0000   1.0000   1.0000   1.0000
     1.0000   1.0000   1.0000   1.0000   1.0000   1.0000   1.0000   1.0000
     1.0000   1.0000   1.0000   1.0000   1.0000   1.0000   1.0000   1.0000
     1.0000   1.0000   1.0000   1.0000   1.0000   1.0000   1.0000   1.0000

          k =-0.3333 0.0000 0.0516 (  6131 PWs)   bands (ev):

    -8.7390  -8.5606  -8.3607  -8.0011  -7.7698  -7.5776  -7.3987  -7.3076
     3.0804   3.1513   3.2817   3.4839   3.5267   3.6577   3.7922   3.8451
     3.9739   4.0337   4.0985   4.1886   4.2998   4.3549   4.4234   4.4685
     4.5226   4.6008   4.6889   4.8686   4.8898   5.1188   5.1892   5.3141
     5.6491   5.7047   5.7825   5.8486   5.8756   5.9455   6.0074   6.0546
     6.0911   6.1523   6.2083   6.2231   6.3398   6.3973   6.6009   6.6747
     6.7148   6.8507   6.9476   6.9812   7.1821   7.3384   7.4099   7.8577
     7.9035   8.0536   8.3192   8.4743   8.6287   8.7385   8.8202   8.8875
     9.0793   9.2573   9.3369   9.4487   9.6930   9.7457  10.2986  10.3442

     occupation numbers 
     1.0000   1.0000   1.0000   1.0000   1.0000   1.0000   1.0000   1.0000
     1.0000   1.0000   1.0000   1.0000   1.0000   1.0000   1.0000   1.0000
     1.0000   1.0000   1.0000   1.0000   1.0000   1.0000   1.0000   1.0000
     1.0000   1.0000   1.0000   1.0000   1.0000   1.0000   1.0000   1.0000
     1.0000   1.0000   1.0000   1.0000   1.0000   1.0000   1.0000   1.0000
     1.0000   1.0000   1.0000   1.0000   1.0000   1.0000   1.0000   1.0000
     1.0000   1.0000   1.0000   1.0000   1.0000   1.0000   1.0000   1.0000
     1.0000   1.0000   1.0000   1.0000   1.0000   1.0000   1.0000   1.0000
     1.0000   1.0000   1.0000   1.0000   1.0000   1.0000   1.0000   1.0000

          k =-0.3333 0.0000 0.1032 (  6121 PWs)   bands (ev):

    -8.7199  -8.5931  -8.3485  -8.0017  -7.7694  -7.5707  -7.4032  -7.3086
     3.1186   3.1733   3.2816   3.4757   3.5745   3.6807   3.7849   3.8237
     3.9417   3.9819   4.0939   4.1231   4.2936   4.3624   4.4168   4.4501
     4.5180   4.6023   4.6686   4.8563   4.9044   5.0919   5.1443   5.3175
     5.6690   5.7334   5.7787   5.8776   5.9085   5.9400   5.9900   6.0926
     6.1467   6.1889   6.2370   6.2682   6.3773   6.4191   6.4865   6.5963
     6.7594   6.9600   7.0383   7.1123   7.1411   7.1931   7.2907   7.7212
     8.0014   8.1571   8.3912   8.4983   8.5759   8.7154   8.7659   8.8808
     9.0057   9.1426   9.2558   9.3234   9.8581   9.9549  10.2384  10.3510

     occupation numbers 
     1.0000   1.0000   1.0000   1.0000   1.0000   1.0000   1.0000   1.0000
     1.0000   1.0000   1.0000   1.0000   1.0000   1.0000   1.0000   1.0000
     1.0000   1.0000   1.0000   1.0000   1.0000   1.0000   1.0000   1.0000
     1.0000   1.0000   1.0000   1.0000   1.0000   1.0000   1.0000   1.0000
     1.0000   1.0000   1.0000   1.0000   1.0000   1.0000   1.0000   1.0000
     1.0000   1.0000   1.0000   1.0000   1.0000   1.0000   1.0000   1.0000
     1.0000   1.0000   1.0000   1.0000   1.0000   1.0000   1.0000   1.0000
     1.0000   1.0000   1.0000   1.0000   1.0000   1.0000   1.0000   1.0000
     1.0000   1.0000   1.0000   1.0000   1.0000   1.0000   1.0000   1.0000

          k = 0.5000 0.1925 0.0516 (  6108 PWs)   bands (ev):

    -8.4883  -8.3796  -8.3184  -7.9560  -7.6309  -7.5465  -7.3553  -7.2805
     2.9428   2.9562   2.9966   3.1940   3.2769   3.3399   3.6320   3.7389
     4.1431   4.1848   4.2437   4.3056   4.3603   4.4962   4.5313   4.6681
     4.7283   4.7725   4.8189   4.9211   4.9963   5.0490   5.1526   5.3442
     5.8635   5.8862   5.9905   6.0083   6.0603   6.1133   6.1418   6.2148
     6.2582   6.2719   6.3025   6.3775   6.3921   6.4558   6.5093   6.5688
     6.6685   6.7137   6.7924   6.8523   6.9440   7.0607   7.1759   7.2272
     7.5896   7.7435   8.0224   8.1349   8.4767   8.6439   8.9075   9.0553
     9.1297   9.2529   9.3477   9.4771   9.5770   9.6996   9.8163  10.0113

     occupation numbers 
     1.0000   1.0000   1.0000   1.0000   1.0000   1.0000   1.0000   1.0000
     1.0000   1.0000   1.0000   1.0000   1.0000   1.0000   1.0000   1.0000
     1.0000   1.0000   1.0000   1.0000   1.0000   1.0000   1.0000   1.0000
     1.0000   1.0000   1.0000   1.0000   1.0000   1.0000   1.0000   1.0000
     1.0000   1.0000   1.0000   1.0000   1.0000   1.0000   1.0000   1.0000
     1.0000   1.0000   1.0000   1.0000   1.0000   1.0000   1.0000   1.0000
     1.0000   1.0000   1.0000   1.0000   1.0000   1.0000   1.0000   1.0000
     1.0000   1.0000   1.0000   1.0000   1.0000   1.0000   1.0000   1.0000
     1.0000   1.0000   1.0000   1.0000   1.0000   1.0000   1.0000   1.0000

          k = 0.5000 0.1925 0.1032 (  6126 PWs)   bands (ev):

    -8.4863  -8.3792  -8.3212  -7.9555  -7.6326  -7.5465  -7.3534  -7.2811
     2.9860   2.9935   3.0057   3.2164   3.2801   3.3077   3.6013   3.6516
     4.1344   4.1603   4.2430   4.3170   4.3671   4.4916   4.5127   4.6624
     4.7403   4.7911   4.8451   4.9360   4.9727   5.0355   5.1277   5.3194
     5.9017   5.9423   5.9873   6.0092   6.0521   6.0888   6.1468   6.1932
     6.2333   6.2844   6.3153   6.3874   6.4091   6.4663   6.5100   6.5789
     6.6413   6.7142   6.7528   6.8425   6.9898   7.0955   7.1538   7.2130
     7.7722   7.9264   8.0899   8.2372   8.2803   8.4320   8.6894   8.8055
     9.2320   9.3676   9.4012   9.5759   9.6108   9.7386   9.7793   9.9738

     occupation numbers 
     1.0000   1.0000   1.0000   1.0000   1.0000   1.0000   1.0000   1.0000
     1.0000   1.0000   1.0000   1.0000   1.0000   1.0000   1.0000   1.0000
     1.0000   1.0000   1.0000   1.0000   1.0000   1.0000   1.0000   1.0000
     1.0000   1.0000   1.0000   1.0000   1.0000   1.0000   1.0000   1.0000
     1.0000   1.0000   1.0000   1.0000   1.0000   1.0000   1.0000   1.0000
     1.0000   1.0000   1.0000   1.0000   1.0000   1.0000   1.0000   1.0000
     1.0000   1.0000   1.0000   1.0000   1.0000   1.0000   1.0000   1.0000
     1.0000   1.0000   1.0000   1.0000   1.0000   1.0000   1.0000   1.0000
     1.0000   1.0000   1.0000   1.0000   1.0000   1.0000   1.0000   1.0000

          k = 0.5000 0.0962 0.0516 (  6112 PWs)   bands (ev):

    -8.4953  -8.3845  -8.3189  -7.9587  -7.6372  -7.5478  -7.3575  -7.2792
     3.0567   3.0797   3.0939   3.3423   3.4237   3.4590   3.7206   3.9052
     4.0771   4.1395   4.1591   4.2241   4.3060   4.4602   4.5254   4.5959
     4.6686   4.7817   4.8388   4.9393   5.0247   5.0741   5.1719   5.2865
     5.7515   5.8041   5.9173   5.9249   5.9942   6.0253   6.0793   6.1807
     6.2553   6.2726   6.2866   6.3688   6.4165   6.4774   6.5450   6.5921
     6.7181   6.7560   6.9447   6.9694   7.1111   7.2233   7.3029   7.4101
     7.4927   7.5850   7.9901   8.0414   8.1964   8.2909   8.6091   8.7666
     9.0631   9.1874   9.3074   9.4786   9.5361   9.6575   9.7115   9.8265

     occupation numbers 
     1.0000   1.0000   1.0000   1.0000   1.0000   1.0000   1.0000   1.0000
     1.0000   1.0000   1.0000   1.0000   1.0000   1.0000   1.0000   1.0000
     1.0000   1.0000   1.0000   1.0000   1.0000   1.0000   1.0000   1.0000
     1.0000   1.0000   1.0000   1.0000   1.0000   1.0000   1.0000   1.0000
     1.0000   1.0000   1.0000   1.0000   1.0000   1.0000   1.0000   1.0000
     1.0000   1.0000   1.0000   1.0000   1.0000   1.0000   1.0000   1.0000
     1.0000   1.0000   1.0000   1.0000   1.0000   1.0000   1.0000   1.0000
     1.0000   1.0000   1.0000   1.0000   1.0000   1.0000   1.0000   1.0000
     1.0000   1.0000   1.0000   1.0000   1.0000   1.0000   1.0000   1.0000

          k = 0.5000 0.0962 0.1032 (  6110 PWs)   bands (ev):

    -8.4931  -8.3841  -8.3221  -7.9579  -7.6393  -7.5476  -7.3549  -7.2803
     3.0785   3.1108   3.1250   3.3749   3.4177   3.4541   3.7018   3.8040
     4.0556   4.1015   4.1703   4.2264   4.3082   4.4575   4.5154   4.5818
     4.6965   4.7908   4.8478   4.9396   4.9932   5.0529   5.1279   5.2677
     5.7714   5.8338   5.9157   5.9398   6.0126   6.0383   6.0852   6.1887
     6.2540   6.2632   6.3280   6.3775   6.4437   6.5147   6.5726   6.6319
     6.6828   6.7425   6.8416   6.9010   7.1877   7.2903   7.3659   7.4649
     7.5234   7.6869   7.9041   8.0531   8.1525   8.1945   8.5583   8.6877
     9.0505   9.1525   9.3079   9.4857   9.5382   9.6571   9.7543   9.8575

     occupation numbers 
     1.0000   1.0000   1.0000   1.0000   1.0000   1.0000   1.0000   1.0000
     1.0000   1.0000   1.0000   1.0000   1.0000   1.0000   1.0000   1.0000
     1.0000   1.0000   1.0000   1.0000   1.0000   1.0000   1.0000   1.0000
     1.0000   1.0000   1.0000   1.0000   1.0000   1.0000   1.0000   1.0000
     1.0000   1.0000   1.0000   1.0000   1.0000   1.0000   1.0000   1.0000
     1.0000   1.0000   1.0000   1.0000   1.0000   1.0000   1.0000   1.0000
     1.0000   1.0000   1.0000   1.0000   1.0000   1.0000   1.0000   1.0000
     1.0000   1.0000   1.0000   1.0000   1.0000   1.0000   1.0000   1.0000
     1.0000   1.0000   1.0000   1.0000   1.0000   1.0000   1.0000   1.0000

     highest occupied level (ev):    11.2209

!    total energy              =   -1445.97523443 Ry
     estimated scf accuracy    <          6.7E-09 Ry

     The total energy is the sum of the following terms:
     one-electron contribution =    -502.78119344 Ry
     hartree contribution      =     433.85499472 Ry
     xc contribution           =    -440.57684872 Ry
     ewald contribution        =    -936.47218699 Ry

     convergence has been achieved in  19 iterations

     Forces acting on atoms (cartesian axes, Ry/au):

     atom    1 type  1   force =    -0.07732460   -0.02618195    0.07528106
     atom    2 type  1   force =     0.03012111    0.02328691   -0.04129267
     atom    3 type  2   force =    -0.01241897    0.01349814    0.00815525
     atom    4 type  2   force =     0.08085600    0.11681798    0.00074697
     atom    5 type  1   force =     0.08035699   -0.06800694    0.07990771
     atom    6 type  1   force =     0.00678196   -0.04071616   -0.04605348
     atom    7 type  2   force =    -0.02766901    0.03760940   -0.05312502
     atom    8 type  2   force =    -0.07987559    0.05444356   -0.00882001
     atom    9 type  1   force =     0.03718326   -0.05512555   -0.07034013
     atom   10 type  1   force =     0.03169500   -0.01099223   -0.11721672
     atom   11 type  2   force =    -0.03459063    0.00243373    0.05611016
     atom   12 type  2   force =    -0.03876264   -0.02517648    0.12668060
     atom   13 type  1   force =    -0.03220916   -0.00165927    0.00412369
     atom   14 type  1   force =     0.03969700    0.02396116    0.05243270
     atom   15 type  2   force =    -0.03973874   -0.05449515   -0.00458815
     atom   16 type  2   force =     0.03589802    0.01030287   -0.06200195
     The non-local contrib.  to forces
     atom    1 type  1   force =    -0.09805492   -0.11008240    0.02249624
     atom    2 type  1   force =     0.08526184    0.08603784   -0.04376100
     atom    3 type  2   force =     0.14154576   -0.10869553    0.21932785
     atom    4 type  2   force =    -0.10306876   -0.08279376   -0.08499223
     atom    5 type  1   force =     0.12061954    0.01563793    0.01807387
     atom    6 type  1   force =    -0.01610548    0.02847373    0.05848305
     atom    7 type  2   force =    -0.01478488    0.18499329    0.07841420
     atom    8 type  2   force =     0.04962013    0.00445319   -0.11201052
     atom    9 type  1   force =     0.07000753   -0.08441182   -0.12823957
     atom   10 type  1   force =     0.05966831   -0.06067840   -0.04793686
     atom   11 type  2   force =    -0.02107346    0.02319418   -0.03926693
     atom   12 type  2   force =     0.07976236   -0.05554631   -0.01877363
     atom   13 type  1   force =    -0.07201225   -0.14065384   -0.07645810
     atom   14 type  1   force =     0.11276497   -0.04949561    0.06527008
     atom   15 type  2   force =     0.06278096   -0.13110353   -0.00692994
     atom   16 type  2   force =    -0.02890068   -0.03082206   -0.06489449
     The ionic contribution  to forces
     atom    1 type  1   force =    -1.02786279    0.99758390    4.43695330
     atom    2 type  1   force =     0.62414005    1.48481990   -3.31270737
     atom    3 type  2   force =    -0.86840216    0.63050459   -0.25232412
     atom    4 type  2   force =     1.40510726    2.59239706    1.44819852
     atom    5 type  1   force =     1.12796297   -1.55223219    1.01686754
     atom    6 type  1   force =    -0.16710858   -1.08268788   -0.67056948
     atom    7 type  2   force =    -0.12030962    0.04903124   -2.78711137
     atom    8 type  2   force =    -1.03070096    0.37350753    0.20454284
     atom    9 type  1   force =     0.74886877   -2.44064099    0.57666575
     atom   10 type  1   force =     0.40308303   -1.35713207   -4.12801505
     atom   11 type  2   force =    -0.21704527   -0.20149778    1.66730169
     atom   12 type  2   force =    -0.89600549   -0.87809594    2.30085642
     atom   13 type  1   force =    -0.80338203    0.58622288   -0.99389217
     atom   14 type  1   force =     0.80859831    1.17357359    2.94304343
     atom   15 type  2   force =    -0.71566431   -0.57819645   -1.28113425
     atom   16 type  2   force =     0.72872082    0.20284261   -1.16867568
     The local contribution  to forces
     atom    1 type  1   force =     1.03581655   -0.92182895   -4.37509489
     atom    2 type  1   force =    -0.67124969   -1.54029357    3.30645557
     atom    3 type  2   force =     0.71563802   -0.50922662    0.04313850
     atom    4 type  2   force =    -1.22168366   -2.39286542   -1.36314127
     atom    5 type  1   force =    -1.15366406    1.46170248   -0.94509212
     atom    6 type  1   force =     0.18922643    1.01008923    0.56314955
     atom    7 type  2   force =     0.10717425   -0.19455802    2.65591540
     atom    8 type  2   force =     0.90126870   -0.32321439   -0.10234010
     atom    9 type  1   force =    -0.77368032    2.45815241   -0.53421484
     atom   10 type  1   force =    -0.42422263    1.40199581    4.04207201
     atom   11 type  2   force =     0.20317205    0.18091278   -1.57194285
     atom   12 type  2   force =     0.77797314    0.90779376   -2.15492811
     atom   13 type  1   force =     0.83568128   -0.45438320    1.07064280
     atom   14 type  1   force =    -0.87105353   -1.09916953   -2.94643402
     atom   15 type  2   force =     0.61351596    0.65332632    1.28334994
     atom   16 type  2   force =    -0.66395352   -0.16197513    1.17066737
     The core correction contribution to forces
     atom    1 type  1   force =     0.01278839    0.00817902   -0.00907339
     atom    2 type  1   force =    -0.00804984   -0.00730741    0.00874407
     atom    3 type  2   force =    -0.00119557    0.00091677   -0.00200882
     atom    4 type  2   force =     0.00049197    0.00003889    0.00066363
     atom    5 type  1   force =    -0.01458644    0.00686279   -0.00995807
     atom    6 type  1   force =     0.00077352    0.00339912    0.00285835
     atom    7 type  2   force =     0.00026207   -0.00188735   -0.00033639
     atom    8 type  2   force =    -0.00004010   -0.00031921    0.00101744
     atom    9 type  1   force =    -0.00801784    0.01179319    0.01547068
     atom   10 type  1   force =    -0.00684799    0.00484242    0.01663938
     atom   11 type  2   force =     0.00036995   -0.00019139    0.00001304
     atom   12 type  2   force =    -0.00048239    0.00068376   -0.00050042
     atom   13 type  1   force =     0.00753034    0.00717464    0.00384411
     atom   14 type  1   force =    -0.01063383   -0.00094939   -0.00948539
     atom   15 type  2   force =    -0.00036064    0.00150974    0.00009407
     atom   16 type  2   force =     0.00001873    0.00026541    0.00095304
     The Hubbard contrib.    to forces
     atom    1 type  1   force =     0.00000000    0.00000000    0.00000000
     atom    2 type  1   force =     0.00000000    0.00000000    0.00000000
     atom    3 type  2   force =     0.00000000    0.00000000    0.00000000
     atom    4 type  2   force =     0.00000000    0.00000000    0.00000000
     atom    5 type  1   force =     0.00000000    0.00000000    0.00000000
     atom    6 type  1   force =     0.00000000    0.00000000    0.00000000
     atom    7 type  2   force =     0.00000000    0.00000000    0.00000000
     atom    8 type  2   force =     0.00000000    0.00000000    0.00000000
     atom    9 type  1   force =     0.00000000    0.00000000    0.00000000
     atom   10 type  1   force =     0.00000000    0.00000000    0.00000000
     atom   11 type  2   force =     0.00000000    0.00000000    0.00000000
     atom   12 type  2   force =     0.00000000    0.00000000    0.00000000
     atom   13 type  1   force =     0.00000000    0.00000000    0.00000000
     atom   14 type  1   force =     0.00000000    0.00000000    0.00000000
     atom   15 type  2   force =     0.00000000    0.00000000    0.00000000
     atom   16 type  2   force =     0.00000000    0.00000000    0.00000000
     The SCF correction term to forces
     atom    1 type  1   force =    -0.00000862   -0.00003579    0.00000233
     atom    2 type  1   force =     0.00002196    0.00002787   -0.00002142
     atom    3 type  2   force =    -0.00000182   -0.00000335    0.00002436
     atom    4 type  2   force =     0.00001240    0.00003894    0.00002083
     atom    5 type  1   force =     0.00002819    0.00001977    0.00001900
     atom    6 type  1   force =    -0.00000072    0.00000737    0.00002758
     atom    7 type  2   force =    -0.00000761    0.00002796   -0.00000434
     atom    8 type  2   force =    -0.00002015    0.00001416   -0.00002714
     atom    9 type  1   force =     0.00000832   -0.00002062   -0.00001963
     atom   10 type  1   force =     0.00001749   -0.00002227    0.00002631
     atom   11 type  2   force =    -0.00001069    0.00001366    0.00000773
     atom   12 type  2   force =    -0.00000704   -0.00001403    0.00002886
     atom   13 type  1   force =    -0.00002329   -0.00002204   -0.00001044
     atom   14 type  1   force =     0.00002429   -0.00000017    0.00004112
     atom   15 type  2   force =    -0.00000749   -0.00003351    0.00003457
     atom   16 type  2   force =     0.00001587   -0.00001024   -0.00004968

     Total force =     0.366504     Total SCF correction =     0.000151

     init_run     :     13.38s CPU      8.52s WALL (       1 calls)
     electrons    :    857.08s CPU    558.41s WALL (       1 calls)
     forces       :      4.97s CPU      2.97s WALL (       1 calls)

     Called by init_run:
     wfcinit      :      9.92s CPU      5.88s WALL (       1 calls)
     wfcinit:atom :      0.07s CPU      0.06s WALL (      14 calls)
     wfcinit:wfcr :      9.36s CPU      5.42s WALL (      14 calls)
     potinit      :      1.08s CPU      0.69s WALL (       1 calls)
     hinit0       :      2.04s CPU      1.65s WALL (       1 calls)

     Called by electrons:
     c_bands      :    764.67s CPU    495.79s WALL (      19 calls)
     sum_band     :     84.13s CPU     56.88s WALL (      19 calls)
     v_of_rho     :      3.66s CPU      2.42s WALL (      20 calls)
     v_h          :      0.19s CPU      0.13s WALL (      20 calls)
     v_xc         :      3.65s CPU      2.40s WALL (      21 calls)
     newd         :      4.08s CPU      2.90s WALL (      20 calls)
     mix_rho      :      0.42s CPU      0.31s WALL (      19 calls)

     Called by c_bands:
     init_us_2    :      3.17s CPU      2.05s WALL (     560 calls)
     init_us_2:cp :      3.16s CPU      2.04s WALL (     560 calls)
     cegterg      :    702.09s CPU    444.15s WALL (     266 calls)

     Called by sum_band:
     sum_band:wei :      0.01s CPU      0.01s WALL (      19 calls)
     sum_band:loo :     75.11s CPU     49.32s WALL (      19 calls)
     sum_band:buf :      0.38s CPU      0.22s WALL (     266 calls)
     sum_band:ini :      1.09s CPU      0.62s WALL (     266 calls)
     sum_band:cal :      8.49s CPU      4.66s WALL (     266 calls)
     sum_band:bec :      1.81s CPU      1.55s WALL (     266 calls)
     addusdens    :      4.63s CPU      3.56s WALL (      19 calls)
     addusd:skk   :      0.10s CPU      0.08s WALL (      38 calls)
     addusd:dgemm :      0.44s CPU      0.23s WALL (      38 calls)
     addusd:qvan2 :      2.29s CPU      1.73s WALL (      38 calls)

     Called by *egterg:
     cdiaghg      :     43.77s CPU     36.21s WALL (    1836 calls)
     cegterg:over :     42.51s CPU     23.71s WALL (    1570 calls)
     cegterg:upda :     28.71s CPU     18.06s WALL (    1570 calls)
     cegterg:last :     53.61s CPU     31.02s WALL (    1015 calls)
     cdiaghg:chol :      2.05s CPU      1.74s WALL (    1836 calls)
     cdiaghg:inve :      0.70s CPU      0.57s WALL (    1836 calls)
     cdiaghg:para :      6.80s CPU      5.22s WALL (    3672 calls)
     h_psi        :    491.39s CPU    309.81s WALL (    1850 calls)
     s_psi        :     29.93s CPU     15.18s WALL (    1850 calls)
     g_psi        :      4.25s CPU      3.56s WALL (    1570 calls)

     Called by h_psi:
     h_psi:calbec :     38.11s CPU     20.42s WALL (    1850 calls)
     vloc_psi     :    420.14s CPU    270.89s WALL (    1850 calls)
     add_vuspsi   :     29.30s CPU     15.27s WALL (    1850 calls)

     General routines
     calbec       :     48.35s CPU     26.05s WALL (    2172 calls)
     fft          :      2.81s CPU      2.28s WALL (     269 calls)
     ffts         :      0.29s CPU      0.25s WALL (      39 calls)
     fftw         :    400.80s CPU    253.20s WALL (  170664 calls)
     interpolate  :      0.37s CPU      0.31s WALL (      20 calls)

     Parallel routines

     PWSCF        :  14m35.85s CPU   9m30.34s WALL


   This run was terminated on:  22:32:22   1Oct2025            

=------------------------------------------------------------------------------=
   JOB DONE.
=------------------------------------------------------------------------------=
Note: The following floating-point exceptions are signalling: IEEE_UNDERFLOW_FLAG IEEE_DENORMAL
Note: The following floating-point exceptions are signalling: IEEE_UNDERFLOW_FLAG IEEE_DENORMAL
Note: The following floating-point exceptions are signalling: IEEE_UNDERFLOW_FLAG IEEE_DENORMAL
Note: The following floating-point exceptions are signalling: IEEE_UNDERFLOW_FLAG IEEE_DENORMAL
Note: The following floating-point exceptions are signalling: IEEE_UNDERFLOW_FLAG IEEE_DENORMAL
Note: The following floating-point exceptions are signalling: IEEE_UNDERFLOW_FLAG IEEE_DENORMAL
Note: The following floating-point exceptions are signalling: IEEE_UNDERFLOW_FLAG IEEE_DENORMAL
Note: The following floating-point exceptions are signalling: IEEE_UNDERFLOW_FLAG IEEE_DENORMAL
Note: The following floating-point exceptions are signalling: IEEE_UNDERFLOW_FLAG IEEE_DENORMAL
Note: The following floating-point exceptions are signalling: IEEE_UNDERFLOW_FLAG IEEE_DENORMAL
Note: The following floating-point exceptions are signalling: IEEE_UNDERFLOW_FLAG IEEE_DENORMAL
Note: The following floating-point exceptions are signalling: IEEE_UNDERFLOW_FLAG IEEE_DENORMAL
Note: The following floating-point exceptions are signalling: IEEE_UNDERFLOW_FLAG IEEE_DENORMAL
Note: The following floating-point exceptions are signalling: IEEE_UNDERFLOW_FLAG IEEE_DENORMAL
Note: The following floating-point exceptions are signalling: IEEE_UNDERFLOW_FLAG IEEE_DENORMAL
Note: The following floating-point exceptions are signalling: IEEE_UNDERFLOW_FLAG IEEE_DENORMAL
Note: The following floating-point exceptions are signalling: IEEE_UNDERFLOW_FLAG IEEE_DENORMAL
Note: The following floating-point exceptions are signalling: IEEE_UNDERFLOW_FLAG IEEE_DENORMAL
Note: The following floating-point exceptions are signalling: IEEE_UNDERFLOW_FLAG IEEE_DENORMAL
Note: The following floating-point exceptions are signalling: IEEE_UNDERFLOW_FLAG IEEE_DENORMAL
Note: The following floating-point exceptions are signalling: IEEE_UNDERFLOW_FLAG IEEE_DENORMAL
Note: The following floating-point exceptions are signalling: IEEE_UNDERFLOW_FLAG IEEE_DENORMAL
Note: The following floating-point exceptions are signalling: IEEE_UNDERFLOW_FLAG IEEE_DENORMAL
Note: The following floating-point exceptions are signalling: IEEE_UNDERFLOW_FLAG IEEE_DENORMAL
Note: The following floating-point exceptions are signalling: IEEE_UNDERFLOW_FLAG IEEE_DENORMAL
Note: The following floating-point exceptions are signalling: IEEE_UNDERFLOW_FLAG IEEE_DENORMAL
Note: The following floating-point exceptions are signalling: IEEE_UNDERFLOW_FLAG IEEE_DENORMAL
Note: The following floating-point exceptions are signalling: IEEE_UNDERFLOW_FLAG IEEE_DENORMAL
Note: The following floating-point exceptions are signalling: IEEE_UNDERFLOW_FLAG IEEE_DENORMAL
Note: The following floating-point exceptions are signalling: IEEE_UNDERFLOW_FLAG IEEE_DENORMAL
Note: The following floating-point exceptions are signalling: IEEE_UNDERFLOW_FLAG IEEE_DENORMAL
Note: The following floating-point exceptions are signalling: IEEE_UNDERFLOW_FLAG IEEE_DENORMAL
