
     Program PWSCF v.7.0 starts on 24Sep2025 at 12: 4:21 

     This program is part of the open-source Quantum ESPRESSO suite
     for quantum simulation of materials; please cite
         "P. Giannozzi et al., J. Phys.:Condens. Matter 21 395502 (2009);
         "P. Giannozzi et al., J. Phys.:Condens. Matter 29 465901 (2017);
         "P. Giannozzi et al., J. Chem. Phys. 152 154105 (2020);
          URL http://www.quantum-espresso.org", 
     in publications or presentations arising from this work. More details at
     http://www.quantum-espresso.org/quote

     Parallel version (MPI & OpenMP), running on      32 processor cores
     Number of MPI processes:                16
     Threads/MPI process:                     2

     MPI processes distributed on     1 nodes
     K-points division:     npool     =       8
     R & G space division:  proc/nbgrp/npool/nimage =       2
     105816 MiB available memory on the printing compute node when the environment starts

     Reading input from /home/jvc/QEspresso7.2/ZnO_database/scripts/random_1x1x3.in/ZnO-2.94-1.71-113-0.06-2.in
Warning: card &CELL ignored
Warning: card / ignored
Warning: card &FCP ignored
Warning: card / ignored
Warning: card &RISM ignored
Warning: card / ignored

     Current dimensions of program PWSCF are:
     Max number of different atomic species (ntypx) = 10
     Max number of k-points (npk) =  40000
     Max angular momentum in pseudopotentials (lmaxx) =  4
     file Zn.upf: wavefunction(s)  3D renormalized

     Subspace diagonalization in iterative solution of the eigenvalue problem:
     a serial algorithm will be used


     Parallelization info
     --------------------
     sticks:   dense  smooth     PW     G-vecs:    dense   smooth      PW
     Min         423     216     61                51699    18331    3048
     Max         424     217     66                51724    18338    3053
     Sum         847     433    127               103423    36669    6101

     Using Slab Decomposition



     bravais-lattice index     =            0
     lattice parameter (alat)  =       5.5610  a.u.
     unit-cell volume          =     764.5555 (a.u.)^3
     number of atoms/cell      =           12
     number of atomic types    =            2
     number of electrons       =       108.00
     number of Kohn-Sham states=           54
     kinetic-energy cutoff     =      50.0000  Ry
     charge density cutoff     =     400.0000  Ry
     scf convergence threshold =      1.0E-08
     mixing beta               =       0.3000
     number of iterations used =            8  plain     mixing
     Exchange-correlation= PBE
                           (   1   4   3   4   0   0   0)

     celldm(1)=   5.560969  celldm(2)=   0.000000  celldm(3)=   0.000000
     celldm(4)=   0.000000  celldm(5)=   0.000000  celldm(6)=   0.000000

     crystal axes: (cart. coord. in units of alat)
               a(1) = (   1.000000   0.000000   0.000000 )  
               a(2) = (  -0.500000   0.866025   0.000000 )  
               a(3) = (   0.000000   0.000000   5.133660 )  

     reciprocal axes: (cart. coord. in units 2 pi/alat)
               b(1) = (  1.000000  0.577350 -0.000000 )  
               b(2) = (  0.000000  1.154701  0.000000 )  
               b(3) = (  0.000000 -0.000000  0.194793 )  


     PseudoPot. # 1 for Zn read from file:
     /home/jvc/QEspresso7.2/ZnO_database/pseudos/Zn.upf
     MD5 check sum: 7f56cabf9682ed8c977c2f7d0c5985c5
     Pseudo is Ultrasoft + core correction, Zval = 12.0
     Generated using &quot;atomic&quot; code by A. Dal Corso  v.6.2.2
     Using radial grid of 1201 points,  6 beta functions with: 
                l(1) =   0
                l(2) =   0
                l(3) =   1
                l(4) =   1
                l(5) =   2
                l(6) =   2
     Q(r) pseudized with 0 coefficients 


     PseudoPot. # 2 for O  read from file:
     /home/jvc/QEspresso7.2/ZnO_database/pseudos/O.upf
     MD5 check sum: 91400c9766925bcf19f520983a725ff0
     Pseudo is Ultrasoft + core correction, Zval =  6.0
     Generated using &quot;atomic&quot; code by A. Dal Corso  v.6.3MaX
     Using radial grid of 1095 points,  4 beta functions with: 
                l(1) =   0
                l(2) =   0
                l(3) =   1
                l(4) =   1
     Q(r) pseudized with 0 coefficients 


     atomic species   valence    mass     pseudopotential
        Zn            12.00    65.38000     Zn( 1.00)
        O              6.00    15.99900     O ( 1.00)

     No symmetry found


                                    s                        frac. trans.

      isym =  1     identity                                     

 cryst.   s( 1) = (     1          0          0      )
                  (     0          1          0      )
                  (     0          0          1      )

 cart.    s( 1) = (  1.0000000  0.0000000  0.0000000 )
                  (  0.0000000  1.0000000  0.0000000 )
                  (  0.0000000  0.0000000  1.0000000 )


   Cartesian axes

     site n.     atom                  positions (alat units)
         1           Zn  tau(   1) = (   0.5022096   0.3293570   0.8367597  )
         2           Zn  tau(   2) = (  -0.0012186   0.5855177   0.0107661  )
         3           O   tau(   3) = (   0.5075900   0.3045979   1.5016873  )
         4           O   tau(   4) = (  -0.0095349   0.5378556   0.6627209  )
         5           Zn  tau(   5) = (   0.5023445   0.2866117   2.5478762  )
         6           Zn  tau(   6) = (  -0.0119516   0.6153890   1.7280221  )
         7           O   tau(   7) = (   0.4923620   0.2649735   3.2028484  )
         8           O   tau(   8) = (  -0.0064632   0.5688116   2.3767488  )
         9           Zn  tau(   9) = (   0.4878281   0.2847729   4.3007919  )
        10           Zn  tau(  10) = (  -0.0150452   0.5528433   3.4137624  )
        11           O   tau(  11) = (   0.5159813   0.2580662   4.9332426  )
        12           O   tau(  12) = (   0.0071222   0.5692007   4.0478529  )

   Crystallographic axes

     site n.     atom                  positions (cryst. coord.)
         1           Zn  tau(   1) = (  0.6923639  0.3803086  0.1629948  )
         2           Zn  tau(   2) = (  0.3368302  0.6760976  0.0020972  )
         3           O   tau(   3) = (  0.6834496  0.3517193  0.2925179  )
         4           O   tau(   4) = (  0.3009962  0.6210621  0.1290933  )
         5           Zn  tau(   5) = (  0.6678198  0.3309507  0.4963080  )
         6           Zn  tau(   6) = (  0.3433434  0.7105900  0.3366063  )
         7           O   tau(   7) = (  0.6453445  0.3059650  0.6238918  )
         8           O   tau(   8) = (  0.3219404  0.6568071  0.4629736  )
         9           Zn  tau(   9) = (  0.6522418  0.3288274  0.8377634  )
        10           Zn  tau(  10) = (  0.3041390  0.6383685  0.6649764  )
        11           O   tau(  11) = (  0.6649759  0.2979892  0.9609602  )
        12           O   tau(  12) = (  0.3357503  0.6572563  0.7884927  )

     number of k points=   112
                       cart. coord. in units 2pi/alat
        k(    1) = (   0.0000000   0.0000000   0.0000000), wk =   0.0092593
        k(    2) = (   0.0000000   0.0000000   0.0324655), wk =   0.0185185
        k(    3) = (   0.0000000   0.0000000   0.0649309), wk =   0.0185185
        k(    4) = (   0.0000000   0.0000000  -0.0973964), wk =   0.0092593
        k(    5) = (   0.0000000   0.1924501   0.0000000), wk =   0.0185185
        k(    6) = (   0.0000000   0.1924501   0.0324655), wk =   0.0185185
        k(    7) = (   0.0000000   0.1924501   0.0649309), wk =   0.0185185
        k(    8) = (   0.0000000   0.1924501  -0.0973964), wk =   0.0185185
        k(    9) = (   0.0000000   0.3849002   0.0000000), wk =   0.0185185
        k(   10) = (   0.0000000   0.3849002   0.0324655), wk =   0.0185185
        k(   11) = (   0.0000000   0.3849002   0.0649309), wk =   0.0185185
        k(   12) = (   0.0000000   0.3849002  -0.0973964), wk =   0.0185185
        k(   13) = (   0.0000000  -0.5773503   0.0000000), wk =   0.0092593
        k(   14) = (   0.0000000  -0.5773503   0.0324655), wk =   0.0185185
        k(   15) = (   0.0000000  -0.5773503   0.0649309), wk =   0.0185185
        k(   16) = (   0.0000000  -0.5773503  -0.0973964), wk =   0.0092593
        k(   17) = (   0.1666667   0.2886751   0.0000000), wk =   0.0185185
        k(   18) = (   0.1666667   0.2886751   0.0324655), wk =   0.0185185
        k(   19) = (   0.1666667   0.2886751   0.0649309), wk =   0.0185185
        k(   20) = (   0.1666667   0.2886751  -0.0973964), wk =   0.0185185
        k(   21) = (   0.1666667   0.4811252   0.0000000), wk =   0.0185185
        k(   22) = (   0.1666667   0.4811252   0.0324655), wk =   0.0185185
        k(   23) = (   0.1666667   0.4811252   0.0649309), wk =   0.0185185
        k(   24) = (   0.1666667   0.4811252  -0.0973964), wk =   0.0185185
        k(   25) = (   0.3333333   0.5773503   0.0000000), wk =   0.0185185
        k(   26) = (   0.3333333   0.5773503   0.0324655), wk =   0.0185185
        k(   27) = (   0.3333333   0.5773503   0.0649309), wk =   0.0185185
        k(   28) = (   0.3333333   0.5773503  -0.0973964), wk =   0.0185185
        k(   29) = (  -0.1666667   0.0962250   0.0000000), wk =   0.0185185
        k(   30) = (   0.1666667   0.0962250   0.0000000), wk =   0.0185185
        k(   31) = (   0.0000000  -0.1924501   0.0324655), wk =   0.0185185
        k(   32) = (  -0.1666667   0.0962250   0.0324655), wk =   0.0185185
        k(   33) = (   0.1666667   0.0962250   0.0324655), wk =   0.0185185
        k(   34) = (  -0.1666667  -0.0962250   0.0324655), wk =   0.0185185
        k(   35) = (   0.1666667  -0.0962250   0.0324655), wk =   0.0185185
        k(   36) = (   0.0000000  -0.1924501   0.0649309), wk =   0.0185185
        k(   37) = (  -0.1666667   0.0962250   0.0649309), wk =   0.0185185
        k(   38) = (   0.1666667   0.0962250   0.0649309), wk =   0.0185185
        k(   39) = (  -0.1666667  -0.0962250   0.0649309), wk =   0.0185185
        k(   40) = (   0.1666667  -0.0962250   0.0649309), wk =   0.0185185
        k(   41) = (  -0.1666667   0.0962250  -0.0973964), wk =   0.0185185
        k(   42) = (   0.1666667   0.0962250  -0.0973964), wk =   0.0185185
        k(   43) = (  -0.3333333   0.1924501   0.0000000), wk =   0.0185185
        k(   44) = (   0.3333333   0.1924501   0.0000000), wk =   0.0185185
        k(   45) = (   0.0000000  -0.3849002   0.0324655), wk =   0.0185185
        k(   46) = (  -0.3333333   0.1924501   0.0324655), wk =   0.0185185
        k(   47) = (   0.3333333   0.1924501   0.0324655), wk =   0.0185185
        k(   48) = (  -0.3333333  -0.1924501   0.0324655), wk =   0.0185185
        k(   49) = (   0.3333333  -0.1924501   0.0324655), wk =   0.0185185
        k(   50) = (   0.0000000  -0.3849002   0.0649309), wk =   0.0185185
        k(   51) = (  -0.3333333   0.1924501   0.0649309), wk =   0.0185185
        k(   52) = (   0.3333333   0.1924501   0.0649309), wk =   0.0185185
        k(   53) = (  -0.3333333  -0.1924501   0.0649309), wk =   0.0185185
        k(   54) = (   0.3333333  -0.1924501   0.0649309), wk =   0.0185185
        k(   55) = (  -0.3333333   0.1924501  -0.0973964), wk =   0.0185185
        k(   56) = (   0.3333333   0.1924501  -0.0973964), wk =   0.0185185
        k(   57) = (   0.5000000  -0.2886751   0.0000000), wk =   0.0092593
        k(   58) = (  -0.5000000  -0.2886751   0.0000000), wk =   0.0092593
        k(   59) = (   0.5000000  -0.2886751   0.0324655), wk =   0.0185185
        k(   60) = (  -0.5000000  -0.2886751   0.0324655), wk =   0.0185185
        k(   61) = (   0.5000000  -0.2886751   0.0649309), wk =   0.0185185
        k(   62) = (  -0.5000000  -0.2886751   0.0649309), wk =   0.0185185
        k(   63) = (   0.5000000  -0.2886751  -0.0973964), wk =   0.0092593
        k(   64) = (  -0.5000000  -0.2886751  -0.0973964), wk =   0.0092593
        k(   65) = (  -0.1666667   0.2886751   0.0000000), wk =   0.0185185
        k(   66) = (   0.3333333   0.0000000   0.0000000), wk =   0.0185185
        k(   67) = (  -0.1666667  -0.2886751   0.0324655), wk =   0.0185185
        k(   68) = (  -0.1666667   0.2886751  -0.0324655), wk =   0.0185185
        k(   69) = (   0.1666667  -0.2886751  -0.0324655), wk =   0.0185185
        k(   70) = (   0.3333333   0.0000000   0.0324655), wk =   0.0185185
        k(   71) = (  -0.3333333  -0.0000000   0.0324655), wk =   0.0185185
        k(   72) = (  -0.1666667  -0.2886751   0.0649309), wk =   0.0185185
        k(   73) = (  -0.1666667   0.2886751  -0.0649309), wk =   0.0185185
        k(   74) = (   0.1666667  -0.2886751  -0.0649309), wk =   0.0185185
        k(   75) = (   0.3333333   0.0000000   0.0649309), wk =   0.0185185
        k(   76) = (  -0.3333333  -0.0000000   0.0649309), wk =   0.0185185
        k(   77) = (  -0.1666667   0.2886751   0.0973964), wk =   0.0185185
        k(   78) = (   0.3333333   0.0000000  -0.0973964), wk =   0.0185185
        k(   79) = (  -0.1666667   0.4811252   0.0000000), wk =   0.0185185
        k(   80) = (  -0.3333333   0.3849002   0.0000000), wk =   0.0185185
        k(   81) = (   0.5000000   0.0962250   0.0000000), wk =   0.0185185
        k(   82) = (  -0.3333333  -0.3849002   0.0000000), wk =   0.0185185
        k(   83) = (   0.5000000  -0.0962250   0.0000000), wk =   0.0185185
        k(   84) = (  -0.1666667  -0.4811252   0.0324655), wk =   0.0185185
        k(   85) = (  -0.1666667   0.4811252  -0.0324655), wk =   0.0185185
        k(   86) = (   0.1666667  -0.4811252  -0.0324655), wk =   0.0185185
        k(   87) = (  -0.3333333   0.3849002   0.0324655), wk =   0.0185185
        k(   88) = (   0.5000000   0.0962250   0.0324655), wk =   0.0185185
        k(   89) = (  -0.5000000  -0.0962250   0.0324655), wk =   0.0185185
        k(   90) = (   0.3333333  -0.3849002   0.0324655), wk =   0.0185185
        k(   91) = (  -0.3333333  -0.3849002  -0.0324655), wk =   0.0185185
        k(   92) = (   0.5000000  -0.0962250  -0.0324655), wk =   0.0185185
        k(   93) = (  -0.5000000   0.0962250  -0.0324655), wk =   0.0185185
        k(   94) = (   0.3333333   0.3849002  -0.0324655), wk =   0.0185185
        k(   95) = (  -0.1666667  -0.4811252   0.0649309), wk =   0.0185185
        k(   96) = (  -0.1666667   0.4811252  -0.0649309), wk =   0.0185185
        k(   97) = (   0.1666667  -0.4811252  -0.0649309), wk =   0.0185185
        k(   98) = (  -0.3333333   0.3849002   0.0649309), wk =   0.0185185
        k(   99) = (   0.5000000   0.0962250   0.0649309), wk =   0.0185185
        k(  100) = (  -0.5000000  -0.0962250   0.0649309), wk =   0.0185185
        k(  101) = (   0.3333333  -0.3849002   0.0649309), wk =   0.0185185
        k(  102) = (  -0.3333333  -0.3849002  -0.0649309), wk =   0.0185185
        k(  103) = (   0.5000000  -0.0962250  -0.0649309), wk =   0.0185185
        k(  104) = (  -0.5000000   0.0962250  -0.0649309), wk =   0.0185185
        k(  105) = (   0.3333333   0.3849002  -0.0649309), wk =   0.0185185
        k(  106) = (  -0.1666667   0.4811252   0.0973964), wk =   0.0185185
        k(  107) = (  -0.3333333   0.3849002  -0.0973964), wk =   0.0185185
        k(  108) = (   0.5000000   0.0962250  -0.0973964), wk =   0.0185185
        k(  109) = (  -0.3333333  -0.3849002   0.0973964), wk =   0.0185185
        k(  110) = (   0.5000000  -0.0962250   0.0973964), wk =   0.0185185
        k(  111) = (  -0.3333333  -0.5773503   0.0324655), wk =   0.0185185
        k(  112) = (  -0.3333333  -0.5773503   0.0649309), wk =   0.0185185

                       cryst. coord.
        k(    1) = (   0.0000000   0.0000000   0.0000000), wk =   0.0092593
        k(    2) = (   0.0000000   0.0000000   0.1666667), wk =   0.0185185
        k(    3) = (   0.0000000   0.0000000   0.3333333), wk =   0.0185185
        k(    4) = (   0.0000000   0.0000000  -0.5000000), wk =   0.0092593
        k(    5) = (   0.0000000   0.1666667   0.0000000), wk =   0.0185185
        k(    6) = (   0.0000000   0.1666667   0.1666667), wk =   0.0185185
        k(    7) = (   0.0000000   0.1666667   0.3333333), wk =   0.0185185
        k(    8) = (   0.0000000   0.1666667  -0.5000000), wk =   0.0185185
        k(    9) = (   0.0000000   0.3333333   0.0000000), wk =   0.0185185
        k(   10) = (   0.0000000   0.3333333   0.1666667), wk =   0.0185185
        k(   11) = (   0.0000000   0.3333333   0.3333333), wk =   0.0185185
        k(   12) = (   0.0000000   0.3333333  -0.5000000), wk =   0.0185185
        k(   13) = (   0.0000000  -0.5000000   0.0000000), wk =   0.0092593
        k(   14) = (   0.0000000  -0.5000000   0.1666667), wk =   0.0185185
        k(   15) = (   0.0000000  -0.5000000   0.3333333), wk =   0.0185185
        k(   16) = (   0.0000000  -0.5000000  -0.5000000), wk =   0.0092593
        k(   17) = (   0.1666667   0.1666667   0.0000000), wk =   0.0185185
        k(   18) = (   0.1666667   0.1666667   0.1666667), wk =   0.0185185
        k(   19) = (   0.1666667   0.1666667   0.3333333), wk =   0.0185185
        k(   20) = (   0.1666667   0.1666667  -0.5000000), wk =   0.0185185
        k(   21) = (   0.1666667   0.3333333   0.0000000), wk =   0.0185185
        k(   22) = (   0.1666667   0.3333333   0.1666667), wk =   0.0185185
        k(   23) = (   0.1666667   0.3333333   0.3333333), wk =   0.0185185
        k(   24) = (   0.1666667   0.3333333  -0.5000000), wk =   0.0185185
        k(   25) = (   0.3333333   0.3333333   0.0000000), wk =   0.0185185
        k(   26) = (   0.3333333   0.3333333   0.1666667), wk =   0.0185185
        k(   27) = (   0.3333333   0.3333333   0.3333333), wk =   0.0185185
        k(   28) = (   0.3333333   0.3333333  -0.5000000), wk =   0.0185185
        k(   29) = (  -0.1666667   0.1666667   0.0000000), wk =   0.0185185
        k(   30) = (   0.1666667   0.0000000   0.0000000), wk =   0.0185185
        k(   31) = (   0.0000000  -0.1666667   0.1666667), wk =   0.0185185
        k(   32) = (  -0.1666667   0.1666667   0.1666667), wk =   0.0185185
        k(   33) = (   0.1666667   0.0000000   0.1666667), wk =   0.0185185
        k(   34) = (  -0.1666667   0.0000000   0.1666667), wk =   0.0185185
        k(   35) = (   0.1666667  -0.1666667   0.1666667), wk =   0.0185185
        k(   36) = (   0.0000000  -0.1666667   0.3333333), wk =   0.0185185
        k(   37) = (  -0.1666667   0.1666667   0.3333333), wk =   0.0185185
        k(   38) = (   0.1666667   0.0000000   0.3333333), wk =   0.0185185
        k(   39) = (  -0.1666667   0.0000000   0.3333333), wk =   0.0185185
        k(   40) = (   0.1666667  -0.1666667   0.3333333), wk =   0.0185185
        k(   41) = (  -0.1666667   0.1666667  -0.5000000), wk =   0.0185185
        k(   42) = (   0.1666667   0.0000000  -0.5000000), wk =   0.0185185
        k(   43) = (  -0.3333333   0.3333333   0.0000000), wk =   0.0185185
        k(   44) = (   0.3333333   0.0000000   0.0000000), wk =   0.0185185
        k(   45) = (   0.0000000  -0.3333333   0.1666667), wk =   0.0185185
        k(   46) = (  -0.3333333   0.3333333   0.1666667), wk =   0.0185185
        k(   47) = (   0.3333333   0.0000000   0.1666667), wk =   0.0185185
        k(   48) = (  -0.3333333   0.0000000   0.1666667), wk =   0.0185185
        k(   49) = (   0.3333333  -0.3333333   0.1666667), wk =   0.0185185
        k(   50) = (   0.0000000  -0.3333333   0.3333333), wk =   0.0185185
        k(   51) = (  -0.3333333   0.3333333   0.3333333), wk =   0.0185185
        k(   52) = (   0.3333333   0.0000000   0.3333333), wk =   0.0185185
        k(   53) = (  -0.3333333   0.0000000   0.3333333), wk =   0.0185185
        k(   54) = (   0.3333333  -0.3333333   0.3333333), wk =   0.0185185
        k(   55) = (  -0.3333333   0.3333333  -0.5000000), wk =   0.0185185
        k(   56) = (   0.3333333   0.0000000  -0.5000000), wk =   0.0185185
        k(   57) = (   0.5000000  -0.5000000   0.0000000), wk =   0.0092593
        k(   58) = (  -0.5000000   0.0000000   0.0000000), wk =   0.0092593
        k(   59) = (   0.5000000  -0.5000000   0.1666667), wk =   0.0185185
        k(   60) = (  -0.5000000   0.0000000   0.1666667), wk =   0.0185185
        k(   61) = (   0.5000000  -0.5000000   0.3333333), wk =   0.0185185
        k(   62) = (  -0.5000000   0.0000000   0.3333333), wk =   0.0185185
        k(   63) = (   0.5000000  -0.5000000  -0.5000000), wk =   0.0092593
        k(   64) = (  -0.5000000   0.0000000  -0.5000000), wk =   0.0092593
        k(   65) = (  -0.1666667   0.3333333   0.0000000), wk =   0.0185185
        k(   66) = (   0.3333333  -0.1666667   0.0000000), wk =   0.0185185
        k(   67) = (  -0.1666667  -0.1666667   0.1666667), wk =   0.0185185
        k(   68) = (  -0.1666667   0.3333333  -0.1666667), wk =   0.0185185
        k(   69) = (   0.1666667  -0.3333333  -0.1666667), wk =   0.0185185
        k(   70) = (   0.3333333  -0.1666667   0.1666667), wk =   0.0185185
        k(   71) = (  -0.3333333   0.1666667   0.1666667), wk =   0.0185185
        k(   72) = (  -0.1666667  -0.1666667   0.3333333), wk =   0.0185185
        k(   73) = (  -0.1666667   0.3333333  -0.3333333), wk =   0.0185185
        k(   74) = (   0.1666667  -0.3333333  -0.3333333), wk =   0.0185185
        k(   75) = (   0.3333333  -0.1666667   0.3333333), wk =   0.0185185
        k(   76) = (  -0.3333333   0.1666667   0.3333333), wk =   0.0185185
        k(   77) = (  -0.1666667   0.3333333   0.5000000), wk =   0.0185185
        k(   78) = (   0.3333333  -0.1666667  -0.5000000), wk =   0.0185185
        k(   79) = (  -0.1666667   0.5000000   0.0000000), wk =   0.0185185
        k(   80) = (  -0.3333333   0.5000000   0.0000000), wk =   0.0185185
        k(   81) = (   0.5000000  -0.1666667   0.0000000), wk =   0.0185185
        k(   82) = (  -0.3333333  -0.1666667   0.0000000), wk =   0.0185185
        k(   83) = (   0.5000000  -0.3333333   0.0000000), wk =   0.0185185
        k(   84) = (  -0.1666667  -0.3333333   0.1666667), wk =   0.0185185
        k(   85) = (  -0.1666667   0.5000000  -0.1666667), wk =   0.0185185
        k(   86) = (   0.1666667  -0.5000000  -0.1666667), wk =   0.0185185
        k(   87) = (  -0.3333333   0.5000000   0.1666667), wk =   0.0185185
        k(   88) = (   0.5000000  -0.1666667   0.1666667), wk =   0.0185185
        k(   89) = (  -0.5000000   0.1666667   0.1666667), wk =   0.0185185
        k(   90) = (   0.3333333  -0.5000000   0.1666667), wk =   0.0185185
        k(   91) = (  -0.3333333  -0.1666667  -0.1666667), wk =   0.0185185
        k(   92) = (   0.5000000  -0.3333333  -0.1666667), wk =   0.0185185
        k(   93) = (  -0.5000000   0.3333333  -0.1666667), wk =   0.0185185
        k(   94) = (   0.3333333   0.1666667  -0.1666667), wk =   0.0185185
        k(   95) = (  -0.1666667  -0.3333333   0.3333333), wk =   0.0185185
        k(   96) = (  -0.1666667   0.5000000  -0.3333333), wk =   0.0185185
        k(   97) = (   0.1666667  -0.5000000  -0.3333333), wk =   0.0185185
        k(   98) = (  -0.3333333   0.5000000   0.3333333), wk =   0.0185185
        k(   99) = (   0.5000000  -0.1666667   0.3333333), wk =   0.0185185
        k(  100) = (  -0.5000000   0.1666667   0.3333333), wk =   0.0185185
        k(  101) = (   0.3333333  -0.5000000   0.3333333), wk =   0.0185185
        k(  102) = (  -0.3333333  -0.1666667  -0.3333333), wk =   0.0185185
        k(  103) = (   0.5000000  -0.3333333  -0.3333333), wk =   0.0185185
        k(  104) = (  -0.5000000   0.3333333  -0.3333333), wk =   0.0185185
        k(  105) = (   0.3333333   0.1666667  -0.3333333), wk =   0.0185185
        k(  106) = (  -0.1666667   0.5000000   0.5000000), wk =   0.0185185
        k(  107) = (  -0.3333333   0.5000000  -0.5000000), wk =   0.0185185
        k(  108) = (   0.5000000  -0.1666667  -0.5000000), wk =   0.0185185
        k(  109) = (  -0.3333333  -0.1666667   0.5000000), wk =   0.0185185
        k(  110) = (   0.5000000  -0.3333333   0.5000000), wk =   0.0185185
        k(  111) = (  -0.3333333  -0.3333333   0.1666667), wk =   0.0185185
        k(  112) = (  -0.3333333  -0.3333333   0.3333333), wk =   0.0185185

     Dense  grid:   103423 G-vectors     FFT dimensions: (  36,  36, 192)

     Smooth grid:    36669 G-vectors     FFT dimensions: (  25,  25, 135)

     Dynamical RAM for                 wfc:       1.88 MB

     Dynamical RAM for     wfc (w. buffer):      28.20 MB

     Dynamical RAM for           str. fact:       1.58 MB

     Dynamical RAM for           local pot:       0.00 MB

     Dynamical RAM for          nlocal pot:       5.43 MB

     Dynamical RAM for                qrad:       3.21 MB

     Dynamical RAM for          rho,v,vnew:       5.21 MB

     Dynamical RAM for               rhoin:       1.74 MB

     Dynamical RAM for            rho*nmix:      12.62 MB

     Dynamical RAM for           G-vectors:       3.10 MB

     Dynamical RAM for          h,s,v(r/c):       0.53 MB

     Dynamical RAM for          <psi|beta>:       0.13 MB

     Dynamical RAM for                 psi:       3.76 MB

     Dynamical RAM for                hpsi:       3.76 MB

     Dynamical RAM for                spsi:       3.76 MB

     Dynamical RAM for      wfcinit/wfcrot:       5.57 MB

     Dynamical RAM for           addusdens:      19.62 MB

     Dynamical RAM for          addusforce:      20.34 MB

     Estimated static dynamical RAM per process >      55.59 MB

     Estimated max dynamical RAM per process >      88.55 MB

     Estimated total dynamical RAM >       1.21 GB

     Check: negative core charge=   -0.000001

     Initial potential from superposition of free atoms

     starting charge     107.9776, renormalised to     108.0000
     Starting wfcs are   78 randomized atomic wfcs

     total cpu time spent up to now is        5.9 secs

     per-process dynamical memory:    72.0 Mb

     Self-consistent Calculation

     iteration #  1     ecut=    50.00 Ry     beta= 0.30
     Davidson diagonalization with overlap

---- Real-time Memory Report at c_bands before calling an iterative solver
            97 MiB given to the printing process from OS
            70 MiB allocation reported by mallinfo(arena+hblkhd)
        104650 MiB available memory on the node where the printing process lives
------------------
     ethr =  1.00E-02,  avg # of iterations =  2.0

     total cpu time spent up to now is       12.5 secs

     total energy              =   -1084.00676584 Ry
     estimated scf accuracy    <       2.07351664 Ry

     iteration #  2     ecut=    50.00 Ry     beta= 0.30
     Davidson diagonalization with overlap

---- Real-time Memory Report at c_bands before calling an iterative solver
           117 MiB given to the printing process from OS
            87 MiB allocation reported by mallinfo(arena+hblkhd)
        104422 MiB available memory on the node where the printing process lives
------------------
     ethr =  1.92E-03,  avg # of iterations =  2.0

     total cpu time spent up to now is       20.2 secs

     total energy              =   -1084.14395713 Ry
     estimated scf accuracy    <       0.40156534 Ry

     iteration #  3     ecut=    50.00 Ry     beta= 0.30
     Davidson diagonalization with overlap

---- Real-time Memory Report at c_bands before calling an iterative solver
           117 MiB given to the printing process from OS
            88 MiB allocation reported by mallinfo(arena+hblkhd)
        104446 MiB available memory on the node where the printing process lives
------------------
     ethr =  3.72E-04,  avg # of iterations =  6.1

     total cpu time spent up to now is       34.7 secs

     total energy              =   -1084.37719657 Ry
     estimated scf accuracy    <       0.22626335 Ry

     iteration #  4     ecut=    50.00 Ry     beta= 0.30
     Davidson diagonalization with overlap

---- Real-time Memory Report at c_bands before calling an iterative solver
           118 MiB given to the printing process from OS
            88 MiB allocation reported by mallinfo(arena+hblkhd)
        104453 MiB available memory on the node where the printing process lives
------------------
     ethr =  2.10E-04,  avg # of iterations =  2.1

     total cpu time spent up to now is       41.9 secs

     total energy              =   -1084.38802890 Ry
     estimated scf accuracy    <       0.04739609 Ry

     iteration #  5     ecut=    50.00 Ry     beta= 0.30
     Davidson diagonalization with overlap

---- Real-time Memory Report at c_bands before calling an iterative solver
           118 MiB given to the printing process from OS
            89 MiB allocation reported by mallinfo(arena+hblkhd)
        104453 MiB available memory on the node where the printing process lives
------------------
     ethr =  4.39E-05,  avg # of iterations =  9.3

     total cpu time spent up to now is       62.3 secs

     total energy              =   -1084.39139234 Ry
     estimated scf accuracy    <       0.80369419 Ry

     iteration #  6     ecut=    50.00 Ry     beta= 0.30
     Davidson diagonalization with overlap

---- Real-time Memory Report at c_bands before calling an iterative solver
           119 MiB given to the printing process from OS
            89 MiB allocation reported by mallinfo(arena+hblkhd)
        104455 MiB available memory on the node where the printing process lives
------------------
     ethr =  4.39E-05,  avg # of iterations =  7.2

     total cpu time spent up to now is       77.0 secs

     total energy              =   -1084.34443706 Ry
     estimated scf accuracy    <       0.13278198 Ry

     iteration #  7     ecut=    50.00 Ry     beta= 0.30
     Davidson diagonalization with overlap

---- Real-time Memory Report at c_bands before calling an iterative solver
           119 MiB given to the printing process from OS
            90 MiB allocation reported by mallinfo(arena+hblkhd)
        104457 MiB available memory on the node where the printing process lives
------------------
     c_bands:  3 eigenvalues not converged
     c_bands:  1 eigenvalues not converged
     ethr =  4.39E-05,  avg # of iterations =  9.6

     total cpu time spent up to now is       97.2 secs

     total energy              =   -1084.36269744 Ry
     estimated scf accuracy    <       0.23551978 Ry

     iteration #  8     ecut=    50.00 Ry     beta= 0.30
     Davidson diagonalization with overlap

---- Real-time Memory Report at c_bands before calling an iterative solver
           120 MiB given to the printing process from OS
            91 MiB allocation reported by mallinfo(arena+hblkhd)
        104457 MiB available memory on the node where the printing process lives
------------------
     c_bands:  2 eigenvalues not converged
     ethr =  4.39E-05,  avg # of iterations =  7.6

     total cpu time spent up to now is      112.2 secs

     total energy              =   -1084.41323267 Ry
     estimated scf accuracy    <       0.00070318 Ry

     iteration #  9     ecut=    50.00 Ry     beta= 0.30
     Davidson diagonalization with overlap

---- Real-time Memory Report at c_bands before calling an iterative solver
           120 MiB given to the printing process from OS
            91 MiB allocation reported by mallinfo(arena+hblkhd)
        104457 MiB available memory on the node where the printing process lives
------------------
     c_bands:  1 eigenvalues not converged
     ethr =  6.51E-07,  avg # of iterations =  8.8

     total cpu time spent up to now is      132.1 secs

     total energy              =   -1084.41569070 Ry
     estimated scf accuracy    <       0.00088017 Ry

     iteration # 10     ecut=    50.00 Ry     beta= 0.30
     Davidson diagonalization with overlap

---- Real-time Memory Report at c_bands before calling an iterative solver
           121 MiB given to the printing process from OS
            92 MiB allocation reported by mallinfo(arena+hblkhd)
        104456 MiB available memory on the node where the printing process lives
------------------
     ethr =  6.51E-07,  avg # of iterations =  6.8

     total cpu time spent up to now is      147.1 secs

     total energy              =   -1084.41585047 Ry
     estimated scf accuracy    <       0.00089817 Ry

     iteration # 11     ecut=    50.00 Ry     beta= 0.30
     Davidson diagonalization with overlap

---- Real-time Memory Report at c_bands before calling an iterative solver
           121 MiB given to the printing process from OS
            92 MiB allocation reported by mallinfo(arena+hblkhd)
        104457 MiB available memory on the node where the printing process lives
------------------
     ethr =  6.51E-07,  avg # of iterations =  2.0

     total cpu time spent up to now is      154.1 secs

     total energy              =   -1084.41585176 Ry
     estimated scf accuracy    <       0.00014394 Ry

     iteration # 12     ecut=    50.00 Ry     beta= 0.30
     Davidson diagonalization with overlap

---- Real-time Memory Report at c_bands before calling an iterative solver
           121 MiB given to the printing process from OS
            92 MiB allocation reported by mallinfo(arena+hblkhd)
        104457 MiB available memory on the node where the printing process lives
------------------
     ethr =  1.33E-07,  avg # of iterations =  7.3

     total cpu time spent up to now is      169.5 secs

     total energy              =   -1084.41604761 Ry
     estimated scf accuracy    <       0.00022474 Ry

     iteration # 13     ecut=    50.00 Ry     beta= 0.30
     Davidson diagonalization with overlap

---- Real-time Memory Report at c_bands before calling an iterative solver
           121 MiB given to the printing process from OS
            92 MiB allocation reported by mallinfo(arena+hblkhd)
        104457 MiB available memory on the node where the printing process lives
------------------
     ethr =  1.33E-07,  avg # of iterations =  1.0

     total cpu time spent up to now is      175.3 secs

     total energy              =   -1084.41597250 Ry
     estimated scf accuracy    <       0.00016191 Ry

     iteration # 14     ecut=    50.00 Ry     beta= 0.30
     Davidson diagonalization with overlap

---- Real-time Memory Report at c_bands before calling an iterative solver
           121 MiB given to the printing process from OS
            92 MiB allocation reported by mallinfo(arena+hblkhd)
        104457 MiB available memory on the node where the printing process lives
------------------
     ethr =  1.33E-07,  avg # of iterations =  4.2

     total cpu time spent up to now is      184.3 secs

     total energy              =   -1084.41599790 Ry
     estimated scf accuracy    <       0.00001169 Ry

     iteration # 15     ecut=    50.00 Ry     beta= 0.30
     Davidson diagonalization with overlap

---- Real-time Memory Report at c_bands before calling an iterative solver
           121 MiB given to the printing process from OS
            92 MiB allocation reported by mallinfo(arena+hblkhd)
        104457 MiB available memory on the node where the printing process lives
------------------
     ethr =  1.08E-08,  avg # of iterations =  6.8

     total cpu time spent up to now is      200.4 secs

     total energy              =   -1084.41601609 Ry
     estimated scf accuracy    <       0.00000929 Ry

     iteration # 16     ecut=    50.00 Ry     beta= 0.30
     Davidson diagonalization with overlap

---- Real-time Memory Report at c_bands before calling an iterative solver
           121 MiB given to the printing process from OS
            92 MiB allocation reported by mallinfo(arena+hblkhd)
        104457 MiB available memory on the node where the printing process lives
------------------
     ethr =  8.60E-09,  avg # of iterations =  1.0

     total cpu time spent up to now is      206.4 secs

     total energy              =   -1084.41601071 Ry
     estimated scf accuracy    <       0.00000914 Ry

     iteration # 17     ecut=    50.00 Ry     beta= 0.30
     Davidson diagonalization with overlap

---- Real-time Memory Report at c_bands before calling an iterative solver
           121 MiB given to the printing process from OS
            92 MiB allocation reported by mallinfo(arena+hblkhd)
        104457 MiB available memory on the node where the printing process lives
------------------
     ethr =  8.46E-09,  avg # of iterations =  5.1

     total cpu time spent up to now is      218.5 secs

     total energy              =   -1084.41601414 Ry
     estimated scf accuracy    <       0.00000456 Ry

     iteration # 18     ecut=    50.00 Ry     beta= 0.30
     Davidson diagonalization with overlap

---- Real-time Memory Report at c_bands before calling an iterative solver
           121 MiB given to the printing process from OS
            92 MiB allocation reported by mallinfo(arena+hblkhd)
        104457 MiB available memory on the node where the printing process lives
------------------
     ethr =  4.23E-09,  avg # of iterations =  1.6

     total cpu time spent up to now is      225.4 secs

     total energy              =   -1084.41601624 Ry
     estimated scf accuracy    <       0.00000276 Ry

     iteration # 19     ecut=    50.00 Ry     beta= 0.30
     Davidson diagonalization with overlap

---- Real-time Memory Report at c_bands before calling an iterative solver
           121 MiB given to the printing process from OS
            92 MiB allocation reported by mallinfo(arena+hblkhd)
        104457 MiB available memory on the node where the printing process lives
------------------
     ethr =  2.55E-09,  avg # of iterations =  4.9

     total cpu time spent up to now is      236.8 secs

     total energy              =   -1084.41601667 Ry
     estimated scf accuracy    <       0.00000986 Ry

     iteration # 20     ecut=    50.00 Ry     beta= 0.30
     Davidson diagonalization with overlap

---- Real-time Memory Report at c_bands before calling an iterative solver
           121 MiB given to the printing process from OS
            92 MiB allocation reported by mallinfo(arena+hblkhd)
        104457 MiB available memory on the node where the printing process lives
------------------
     ethr =  2.55E-09,  avg # of iterations =  1.0

     total cpu time spent up to now is      243.1 secs

     total energy              =   -1084.41601490 Ry
     estimated scf accuracy    <       0.00000973 Ry

     iteration # 21     ecut=    50.00 Ry     beta= 0.30
     Davidson diagonalization with overlap

---- Real-time Memory Report at c_bands before calling an iterative solver
           121 MiB given to the printing process from OS
            92 MiB allocation reported by mallinfo(arena+hblkhd)
        104457 MiB available memory on the node where the printing process lives
------------------
     ethr =  2.55E-09,  avg # of iterations =  1.9

     total cpu time spent up to now is      249.5 secs

     total energy              =   -1084.41601437 Ry
     estimated scf accuracy    <       0.00000632 Ry

     iteration # 22     ecut=    50.00 Ry     beta= 0.30
     Davidson diagonalization with overlap

---- Real-time Memory Report at c_bands before calling an iterative solver
           121 MiB given to the printing process from OS
            92 MiB allocation reported by mallinfo(arena+hblkhd)
        104457 MiB available memory on the node where the printing process lives
------------------
     ethr =  2.55E-09,  avg # of iterations =  1.8

     total cpu time spent up to now is      256.3 secs

     total energy              =   -1084.41601410 Ry
     estimated scf accuracy    <       0.00000411 Ry

     iteration # 23     ecut=    50.00 Ry     beta= 0.30
     Davidson diagonalization with overlap

---- Real-time Memory Report at c_bands before calling an iterative solver
           121 MiB given to the printing process from OS
            92 MiB allocation reported by mallinfo(arena+hblkhd)
        104457 MiB available memory on the node where the printing process lives
------------------
     ethr =  2.55E-09,  avg # of iterations =  1.8

     total cpu time spent up to now is      262.7 secs

     total energy              =   -1084.41601271 Ry
     estimated scf accuracy    <       0.00000288 Ry

     iteration # 24     ecut=    50.00 Ry     beta= 0.30
     Davidson diagonalization with overlap

---- Real-time Memory Report at c_bands before calling an iterative solver
           121 MiB given to the printing process from OS
            92 MiB allocation reported by mallinfo(arena+hblkhd)
        104457 MiB available memory on the node where the printing process lives
------------------
     ethr =  2.55E-09,  avg # of iterations =  4.6

     total cpu time spent up to now is      274.0 secs

     total energy              =   -1084.41601363 Ry
     estimated scf accuracy    <       0.00000005 Ry

     iteration # 25     ecut=    50.00 Ry     beta= 0.30
     Davidson diagonalization with overlap

---- Real-time Memory Report at c_bands before calling an iterative solver
           121 MiB given to the printing process from OS
            92 MiB allocation reported by mallinfo(arena+hblkhd)
        104457 MiB available memory on the node where the printing process lives
------------------
     ethr =  5.08E-11,  avg # of iterations =  8.0

     total cpu time spent up to now is      291.8 secs

     total energy              =   -1084.41601375 Ry
     estimated scf accuracy    <       0.00000002 Ry

     iteration # 26     ecut=    50.00 Ry     beta= 0.30
     Davidson diagonalization with overlap

---- Real-time Memory Report at c_bands before calling an iterative solver
           121 MiB given to the printing process from OS
            92 MiB allocation reported by mallinfo(arena+hblkhd)
        104457 MiB available memory on the node where the printing process lives
------------------
     ethr =  2.23E-11,  avg # of iterations =  7.2

     total cpu time spent up to now is      306.9 secs

     total energy              =   -1084.41601375 Ry
     estimated scf accuracy    <       0.00000004 Ry

     iteration # 27     ecut=    50.00 Ry     beta= 0.30
     Davidson diagonalization with overlap

---- Real-time Memory Report at c_bands before calling an iterative solver
           121 MiB given to the printing process from OS
            92 MiB allocation reported by mallinfo(arena+hblkhd)
        104457 MiB available memory on the node where the printing process lives
------------------
     ethr =  2.23E-11,  avg # of iterations =  4.6

     total cpu time spent up to now is      316.8 secs

     End of self-consistent calculation

          k = 0.0000 0.0000 0.0000 (  4589 PWs)   bands (ev):

    -9.6215  -9.1434  -8.8768  -8.1855  -8.0803  -7.6035   2.6937   2.9542
     3.0508   3.3098   3.5422   3.6133   3.7762   3.8385   3.8914   3.9445
     4.0380   4.3187   4.4053   4.5229   4.5278   4.6281   4.8149   4.8466
     5.4924   5.5377   5.7519   5.8654   6.1484   6.1769   6.2237   6.2996
     6.4948   6.5318   6.6924   6.8580   6.8690   7.6407   7.8279   9.3041
     9.6263  10.0227  10.0785  10.3623  10.6011  10.7336  10.8137  10.8786
    11.0151  11.1149  11.2501  11.3052  11.7068  11.7536

     occupation numbers 
     1.0000   1.0000   1.0000   1.0000   1.0000   1.0000   1.0000   1.0000
     1.0000   1.0000   1.0000   1.0000   1.0000   1.0000   1.0000   1.0000
     1.0000   1.0000   1.0000   1.0000   1.0000   1.0000   1.0000   1.0000
     1.0000   1.0000   1.0000   1.0000   1.0000   1.0000   1.0000   1.0000
     1.0000   1.0000   1.0000   1.0000   1.0000   1.0000   1.0000   1.0000
     1.0000   1.0000   1.0000   1.0000   1.0000   1.0000   1.0000   1.0000
     1.0000   1.0000   1.0000   1.0000   1.0000   1.0000

          k = 0.0000 0.0000 0.0325 (  4576 PWs)   bands (ev):

    -9.6214  -9.1443  -8.8752  -8.1906  -8.0755  -7.6039   2.6937   2.9543
     3.0511   3.3102   3.5418   3.6135   3.7770   3.8330   3.8918   3.9467
     4.0407   4.3188   4.4044   4.5223   4.5283   4.6281   4.8149   4.8467
     5.4925   5.5378   5.7520   5.8655   6.1485   6.1769   6.2239   6.2997
     6.4950   6.5321   6.7106   6.8582   6.8693   7.4872   8.0121   9.1379
     9.7646  10.0256  10.0877  10.3610  10.5997  10.7404  10.8140  10.8696
    11.0060  11.0581  11.2518  11.3064  11.7072  11.7535

     occupation numbers 
     1.0000   1.0000   1.0000   1.0000   1.0000   1.0000   1.0000   1.0000
     1.0000   1.0000   1.0000   1.0000   1.0000   1.0000   1.0000   1.0000
     1.0000   1.0000   1.0000   1.0000   1.0000   1.0000   1.0000   1.0000
     1.0000   1.0000   1.0000   1.0000   1.0000   1.0000   1.0000   1.0000
     1.0000   1.0000   1.0000   1.0000   1.0000   1.0000   1.0000   1.0000
     1.0000   1.0000   1.0000   1.0000   1.0000   1.0000   1.0000   1.0000
     1.0000   1.0000   1.0000   1.0000   1.0000   1.0000

          k = 0.0000 0.0000 0.0649 (  4594 PWs)   bands (ev):

    -9.6213  -9.1461  -8.8722  -8.1998  -8.0669  -7.6047   2.6935   2.9543
     3.0515   3.3107   3.5408   3.6140   3.7791   3.8225   3.8921   3.9503
     4.0461   4.3188   4.4025   4.5214   4.5291   4.6281   4.8149   4.8466
     5.4924   5.5377   5.7519   5.8653   6.1484   6.1768   6.2238   6.2996
     6.4949   6.5323   6.7542   6.8589   6.8702   7.3187   8.2815   8.8663
     9.9153  10.0341  10.1380  10.3580  10.6023  10.7410  10.8056  10.8438
    10.9424  11.0076  11.2553  11.3086  11.7075  11.7532

     occupation numbers 
     1.0000   1.0000   1.0000   1.0000   1.0000   1.0000   1.0000   1.0000
     1.0000   1.0000   1.0000   1.0000   1.0000   1.0000   1.0000   1.0000
     1.0000   1.0000   1.0000   1.0000   1.0000   1.0000   1.0000   1.0000
     1.0000   1.0000   1.0000   1.0000   1.0000   1.0000   1.0000   1.0000
     1.0000   1.0000   1.0000   1.0000   1.0000   1.0000   1.0000   1.0000
     1.0000   1.0000   1.0000   1.0000   1.0000   1.0000   1.0000   1.0000
     1.0000   1.0000   1.0000   1.0000   1.0000   1.0000

          k = 0.0000 0.0000-0.0974 (  4588 PWs)   bands (ev):

    -9.6212  -9.1470  -8.8707  -8.2040  -8.0630  -7.6051   2.6935   2.9543
     3.0518   3.3111   3.5403   3.6142   3.7806   3.8172   3.8923   3.9518
     4.0488   4.3188   4.4017   4.5210   4.5295   4.6282   4.8149   4.8466
     5.4924   5.5377   5.7519   5.8654   6.1485   6.1768   6.2239   6.2997
     6.4949   6.5324   6.7809   6.8599   6.8719   7.2469   8.5206   8.6252
     9.9535  10.0388  10.1973  10.3556  10.6164  10.6978  10.8021  10.8309
    10.9121  11.0000  11.2571  11.3096  11.7076  11.7530

     occupation numbers 
     1.0000   1.0000   1.0000   1.0000   1.0000   1.0000   1.0000   1.0000
     1.0000   1.0000   1.0000   1.0000   1.0000   1.0000   1.0000   1.0000
     1.0000   1.0000   1.0000   1.0000   1.0000   1.0000   1.0000   1.0000
     1.0000   1.0000   1.0000   1.0000   1.0000   1.0000   1.0000   1.0000
     1.0000   1.0000   1.0000   1.0000   1.0000   1.0000   1.0000   1.0000
     1.0000   1.0000   1.0000   1.0000   1.0000   1.0000   1.0000   1.0000
     1.0000   1.0000   1.0000   1.0000   1.0000   1.0000

          k = 0.0000 0.1925 0.0000 (  4563 PWs)   bands (ev):

    -9.4061  -8.9707  -8.6599  -7.9879  -7.9113  -7.4567   2.7133   3.0449
     3.0570   3.2272   3.5438   3.7262   3.7974   3.8767   4.0017   4.0883
     4.1376   4.3548   4.4173   4.6377   4.6651   4.6862   4.7887   4.9760
     5.4463   5.5189   5.7763   5.8587   6.1262   6.1599   6.1824   6.2752
     6.5051   6.5385   6.6477   6.8561   6.8645   7.6771   7.8723   8.8860
     9.1804   9.3967   9.6235   9.6949   9.7995  10.0485  10.0802  10.4274
    10.4593  10.6707  10.7055  10.9263  10.9803  11.4372

     occupation numbers 
     1.0000   1.0000   1.0000   1.0000   1.0000   1.0000   1.0000   1.0000
     1.0000   1.0000   1.0000   1.0000   1.0000   1.0000   1.0000   1.0000
     1.0000   1.0000   1.0000   1.0000   1.0000   1.0000   1.0000   1.0000
     1.0000   1.0000   1.0000   1.0000   1.0000   1.0000   1.0000   1.0000
     1.0000   1.0000   1.0000   1.0000   1.0000   1.0000   1.0000   1.0000
     1.0000   1.0000   1.0000   1.0000   1.0000   1.0000   1.0000   1.0000
     1.0000   1.0000   1.0000   1.0000   1.0000   1.0000

          k = 0.0000 0.1925 0.0325 (  4549 PWs)   bands (ev):

    -9.4061  -8.9711  -8.6592  -7.9914  -7.9080  -7.4569   2.7133   3.0452
     3.0571   3.2278   3.5444   3.7218   3.7937   3.8822   4.0015   4.0885
     4.1398   4.3568   4.4146   4.6380   4.6643   4.6875   4.7884   4.9760
     5.4464   5.5190   5.7764   5.8583   6.1292   6.1594   6.1789   6.2751
     6.5050   6.5320   6.6653   6.8567   6.8705   7.5550   8.0165   8.8750
     9.0569   9.4911   9.6262   9.7413   9.7942  10.0375  10.0575  10.4129
    10.4619  10.6509  10.7153  10.9344  10.9870  11.4367

     occupation numbers 
     1.0000   1.0000   1.0000   1.0000   1.0000   1.0000   1.0000   1.0000
     1.0000   1.0000   1.0000   1.0000   1.0000   1.0000   1.0000   1.0000
     1.0000   1.0000   1.0000   1.0000   1.0000   1.0000   1.0000   1.0000
     1.0000   1.0000   1.0000   1.0000   1.0000   1.0000   1.0000   1.0000
     1.0000   1.0000   1.0000   1.0000   1.0000   1.0000   1.0000   1.0000
     1.0000   1.0000   1.0000   1.0000   1.0000   1.0000   1.0000   1.0000
     1.0000   1.0000   1.0000   1.0000   1.0000   1.0000

          k = 0.0000 0.1925 0.0649 (  4557 PWs)   bands (ev):

    -9.4060  -8.9720  -8.6576  -7.9980  -7.9017  -7.4573   2.7134   3.0456
     3.0572   3.2279   3.5436   3.7218   3.7905   3.8868   3.9988   4.0885
     4.1382   4.3577   4.4155   4.6380   4.6629   4.6890   4.7885   4.9759
     5.4464   5.5190   5.7763   5.8572   6.1311   6.1594   6.1777   6.2752
     6.5049   6.5283   6.7122   6.8573   6.8851   7.3537   8.2857   8.7954
     8.9533   9.5037   9.6309   9.7738   9.8216  10.0346  10.0658  10.3596
    10.4835  10.6228  10.7555  10.9427  10.9730  11.4360

     occupation numbers 
     1.0000   1.0000   1.0000   1.0000   1.0000   1.0000   1.0000   1.0000
     1.0000   1.0000   1.0000   1.0000   1.0000   1.0000   1.0000   1.0000
     1.0000   1.0000   1.0000   1.0000   1.0000   1.0000   1.0000   1.0000
     1.0000   1.0000   1.0000   1.0000   1.0000   1.0000   1.0000   1.0000
     1.0000   1.0000   1.0000   1.0000   1.0000   1.0000   1.0000   1.0000
     1.0000   1.0000   1.0000   1.0000   1.0000   1.0000   1.0000   1.0000
     1.0000   1.0000   1.0000   1.0000   1.0000   1.0000

          k = 0.0000 0.1925-0.0974 (  4560 PWs)   bands (ev):

    -9.4059  -8.9725  -8.6568  -8.0013  -7.8987  -7.4576   2.7135   3.0457
     3.0573   3.2275   3.5422   3.7266   3.7901   3.8865   3.9963   4.0884
     4.1345   4.3568   4.4190   4.6378   4.6623   4.6892   4.7890   4.9759
     5.4464   5.5190   5.7763   5.8567   6.1298   6.1600   6.1799   6.2753
     6.5049   6.5294   6.7480   6.8576   6.8999   7.2389   8.5140   8.6445
     8.9355   9.4798   9.6334   9.7462   9.8404  10.0381  10.1211  10.3222
    10.4894  10.6160  10.7944  10.9363  10.9523  11.4358

     occupation numbers 
     1.0000   1.0000   1.0000   1.0000   1.0000   1.0000   1.0000   1.0000
     1.0000   1.0000   1.0000   1.0000   1.0000   1.0000   1.0000   1.0000
     1.0000   1.0000   1.0000   1.0000   1.0000   1.0000   1.0000   1.0000
     1.0000   1.0000   1.0000   1.0000   1.0000   1.0000   1.0000   1.0000
     1.0000   1.0000   1.0000   1.0000   1.0000   1.0000   1.0000   1.0000
     1.0000   1.0000   1.0000   1.0000   1.0000   1.0000   1.0000   1.0000
     1.0000   1.0000   1.0000   1.0000   1.0000   1.0000

          k = 0.0000 0.3849 0.0000 (  4569 PWs)   bands (ev):

    -8.9404  -8.6204  -8.1914  -7.5844  -7.5309  -7.1611   2.5264   2.9181
     3.1908   3.2451   3.4433   3.6631   3.9162   4.1410   4.1884   4.3865
     4.4274   4.5885   4.7617   4.8913   4.9067   4.9947   5.1568   5.2869
     5.4729   5.5763   5.8585   5.8831   6.0104   6.2036   6.2547   6.3390
     6.4607   6.5610   6.6502   6.9167   6.9275   7.1838   7.5338   7.5679
     7.8813   8.0491   8.4568   8.6784   8.7524   9.0422   9.3064   9.5612
     9.6283  10.0079  10.0447  10.2550  10.3977  10.7988

     occupation numbers 
     1.0000   1.0000   1.0000   1.0000   1.0000   1.0000   1.0000   1.0000
     1.0000   1.0000   1.0000   1.0000   1.0000   1.0000   1.0000   1.0000
     1.0000   1.0000   1.0000   1.0000   1.0000   1.0000   1.0000   1.0000
     1.0000   1.0000   1.0000   1.0000   1.0000   1.0000   1.0000   1.0000
     1.0000   1.0000   1.0000   1.0000   1.0000   1.0000   1.0000   1.0000
     1.0000   1.0000   1.0000   1.0000   1.0000   1.0000   1.0000   1.0000
     1.0000   1.0000   1.0000   1.0000   1.0000   1.0000

          k = 0.0000 0.3849 0.0325 (  4570 PWs)   bands (ev):

    -8.9404  -8.6204  -8.1913  -7.5848  -7.5306  -7.1611   2.5263   2.9177
     3.1906   3.2424   3.4490   3.6776   3.8852   4.1531   4.1885   4.3834
     4.4272   4.5901   4.7713   4.8898   4.8993   4.9953   5.1642   5.2871
     5.4699   5.5763   5.8584   5.8817   6.0162   6.1862   6.2522   6.3391
     6.4753   6.5614   6.6398   6.9165   6.9364   7.2183   7.4488   7.6139
     7.9005   8.0143   8.5198   8.6663   8.7093   9.0368   9.2911   9.6040
     9.6714   9.9679  10.0075  10.2722  10.4047  10.7975

     occupation numbers 
     1.0000   1.0000   1.0000   1.0000   1.0000   1.0000   1.0000   1.0000
     1.0000   1.0000   1.0000   1.0000   1.0000   1.0000   1.0000   1.0000
     1.0000   1.0000   1.0000   1.0000   1.0000   1.0000   1.0000   1.0000
     1.0000   1.0000   1.0000   1.0000   1.0000   1.0000   1.0000   1.0000
     1.0000   1.0000   1.0000   1.0000   1.0000   1.0000   1.0000   1.0000
     1.0000   1.0000   1.0000   1.0000   1.0000   1.0000   1.0000   1.0000
     1.0000   1.0000   1.0000   1.0000   1.0000   1.0000

          k = 0.0000 0.3849 0.0649 (  4571 PWs)   bands (ev):

    -8.9403  -8.6205  -8.1912  -7.5856  -7.5297  -7.1611   2.5262   2.9171
     3.1906   3.2427   3.4476   3.6909   3.8838   4.1351   4.1879   4.3864
     4.4274   4.5843   4.7901   4.8838   4.8933   4.9959   5.1662   5.2870
     5.4692   5.5763   5.8506   5.8749   6.0493   6.1647   6.2496   6.3389
     6.4905   6.5609   6.6658   6.9156   6.9546   7.2198   7.3547   7.6202
     7.8987   8.0011   8.5649   8.6876   8.7288   9.0476   9.2715   9.5766
     9.7005   9.9153  10.0026  10.2934  10.4152  10.7955

     occupation numbers 
     1.0000   1.0000   1.0000   1.0000   1.0000   1.0000   1.0000   1.0000
     1.0000   1.0000   1.0000   1.0000   1.0000   1.0000   1.0000   1.0000
     1.0000   1.0000   1.0000   1.0000   1.0000   1.0000   1.0000   1.0000
     1.0000   1.0000   1.0000   1.0000   1.0000   1.0000   1.0000   1.0000
     1.0000   1.0000   1.0000   1.0000   1.0000   1.0000   1.0000   1.0000
     1.0000   1.0000   1.0000   1.0000   1.0000   1.0000   1.0000   1.0000
     1.0000   1.0000   1.0000   1.0000   1.0000   1.0000

          k = 0.0000 0.3849-0.0974 (  4574 PWs)   bands (ev):

    -8.9403  -8.6206  -8.1911  -7.5861  -7.5293  -7.1611   2.5260   2.9168
     3.1908   3.2455   3.4408   3.6862   3.9223   4.0993   4.1876   4.3917
     4.4276   4.5775   4.7981   4.8820   4.8927   4.9959   5.1608   5.2868
     5.4715   5.5763   5.8423   5.8729   6.0747   6.1586   6.2485   6.3387
     6.4923   6.5601   6.7095   6.9151   6.9823   7.1252   7.3541   7.6096
     7.8845   8.0147   8.5406   8.6917   8.8273   9.0851   9.2675   9.4577
     9.7186   9.8938  10.0354  10.2992  10.4195  10.7948

     occupation numbers 
     1.0000   1.0000   1.0000   1.0000   1.0000   1.0000   1.0000   1.0000
     1.0000   1.0000   1.0000   1.0000   1.0000   1.0000   1.0000   1.0000
     1.0000   1.0000   1.0000   1.0000   1.0000   1.0000   1.0000   1.0000
     1.0000   1.0000   1.0000   1.0000   1.0000   1.0000   1.0000   1.0000
     1.0000   1.0000   1.0000   1.0000   1.0000   1.0000   1.0000   1.0000
     1.0000   1.0000   1.0000   1.0000   1.0000   1.0000   1.0000   1.0000
     1.0000   1.0000   1.0000   1.0000   1.0000   1.0000

          k = 0.0000-0.5774 0.0000 (  4588 PWs)   bands (ev):

    -8.6825  -8.4478  -7.9360  -7.3987  -7.2886  -7.0202   2.5358   2.7722
     3.1933   3.2540   3.4899   3.6539   3.9235   4.1336   4.3812   4.5138
     4.5777   4.7795   4.9387   5.0295   5.0927   5.1821   5.3191   5.4652
     5.7049   5.7111   5.9198   5.9555   6.0911   6.3567   6.4339   6.4788
     6.4869   6.5916   6.6226   6.7439   6.8107   6.8847   6.9492   7.0173
     7.3182   7.3809   7.7899   8.1230   8.3622   8.7057   8.8268   9.1556
     9.3881   9.6438   9.6840   9.8890  10.0252  10.4508

     occupation numbers 
     1.0000   1.0000   1.0000   1.0000   1.0000   1.0000   1.0000   1.0000
     1.0000   1.0000   1.0000   1.0000   1.0000   1.0000   1.0000   1.0000
     1.0000   1.0000   1.0000   1.0000   1.0000   1.0000   1.0000   1.0000
     1.0000   1.0000   1.0000   1.0000   1.0000   1.0000   1.0000   1.0000
     1.0000   1.0000   1.0000   1.0000   1.0000   1.0000   1.0000   1.0000
     1.0000   1.0000   1.0000   1.0000   1.0000   1.0000   1.0000   1.0000
     1.0000   1.0000   1.0000   1.0000   1.0000   1.0000

          k = 0.0000-0.5774 0.0325 (  4578 PWs)   bands (ev):

    -8.6825  -8.4478  -7.9360  -7.3987  -7.2886  -7.0202   2.5357   2.7720
     3.1941   3.2539   3.4895   3.6559   3.9238   4.1304   4.3810   4.5152
     4.5779   4.7768   4.9424   5.0294   5.0905   5.1827   5.3183   5.4653
     5.7051   5.7141   5.9191   5.9546   6.0911   6.3568   6.4333   6.4810
     6.4883   6.5882   6.6226   6.7442   6.8099   6.8872   6.9484   7.0174
     7.3190   7.3777   7.8134   8.1232   8.3054   8.7433   8.8100   9.1871
     9.3964   9.6108   9.6843   9.9057  10.0168  10.4494

     occupation numbers 
     1.0000   1.0000   1.0000   1.0000   1.0000   1.0000   1.0000   1.0000
     1.0000   1.0000   1.0000   1.0000   1.0000   1.0000   1.0000   1.0000
     1.0000   1.0000   1.0000   1.0000   1.0000   1.0000   1.0000   1.0000
     1.0000   1.0000   1.0000   1.0000   1.0000   1.0000   1.0000   1.0000
     1.0000   1.0000   1.0000   1.0000   1.0000   1.0000   1.0000   1.0000
     1.0000   1.0000   1.0000   1.0000   1.0000   1.0000   1.0000   1.0000
     1.0000   1.0000   1.0000   1.0000   1.0000   1.0000

          k = 0.0000-0.5774 0.0649 (  4560 PWs)   bands (ev):

    -8.6825  -8.4478  -7.9360  -7.3987  -7.2885  -7.0202   2.5355   2.7715
     3.1958   3.2537   3.4886   3.6599   3.9242   4.1239   4.3806   4.5179
     4.5781   4.7717   4.9499   5.0296   5.0856   5.1838   5.3166   5.4655
     5.7054   5.7204   5.9174   5.9528   6.0912   6.3568   6.4323   6.4833
     6.4939   6.5805   6.6225   6.7447   6.8086   6.8924   6.9465   7.0174
     7.3207   7.3715   7.8748   8.1133   8.2066   8.7753   8.8054   9.2539
     9.4138   9.5453   9.6820   9.9329   9.9992  10.4464

     occupation numbers 
     1.0000   1.0000   1.0000   1.0000   1.0000   1.0000   1.0000   1.0000
     1.0000   1.0000   1.0000   1.0000   1.0000   1.0000   1.0000   1.0000
     1.0000   1.0000   1.0000   1.0000   1.0000   1.0000   1.0000   1.0000
     1.0000   1.0000   1.0000   1.0000   1.0000   1.0000   1.0000   1.0000
     1.0000   1.0000   1.0000   1.0000   1.0000   1.0000   1.0000   1.0000
     1.0000   1.0000   1.0000   1.0000   1.0000   1.0000   1.0000   1.0000
     1.0000   1.0000   1.0000   1.0000   1.0000   1.0000

          k = 0.0000-0.5774-0.0974 (  4576 PWs)   bands (ev):

    -8.6825  -8.4478  -7.9360  -7.3987  -7.2886  -7.0202   2.5353   2.7711
     3.1966   3.2535   3.4881   3.6619   3.9244   4.1205   4.3804   4.5191
     4.5782   4.7692   4.9534   5.0299   5.0828   5.1844   5.3157   5.4655
     5.7054   5.7236   5.9164   5.9519   6.0911   6.3568   6.4318   6.4837
     6.4977   6.5762   6.6223   6.7449   6.8078   6.8949   6.9454   7.0173
     7.3216   7.3683   7.9248   8.0797   8.1715   8.7639   8.8267   9.2951
     9.4221   9.5063   9.6805   9.9444   9.9899  10.4449

     occupation numbers 
     1.0000   1.0000   1.0000   1.0000   1.0000   1.0000   1.0000   1.0000
     1.0000   1.0000   1.0000   1.0000   1.0000   1.0000   1.0000   1.0000
     1.0000   1.0000   1.0000   1.0000   1.0000   1.0000   1.0000   1.0000
     1.0000   1.0000   1.0000   1.0000   1.0000   1.0000   1.0000   1.0000
     1.0000   1.0000   1.0000   1.0000   1.0000   1.0000   1.0000   1.0000
     1.0000   1.0000   1.0000   1.0000   1.0000   1.0000   1.0000   1.0000
     1.0000   1.0000   1.0000   1.0000   1.0000   1.0000

          k = 0.1667 0.2887 0.0000 (  4574 PWs)   bands (ev):

    -9.0403  -8.7010  -8.3111  -7.6846  -7.6398  -7.2326   2.6776   2.8582
     3.1737   3.4296   3.5728   3.7464   3.9627   4.0151   4.1165   4.2220
     4.3990   4.4736   4.6136   4.7519   4.8191   4.9034   5.0042   5.2530
     5.4068   5.5468   5.8284   5.8846   6.0868   6.1462   6.2671   6.2879
     6.4913   6.5382   6.6490   6.8954   6.9767   7.6368   7.7779   7.9550
     8.3712   8.4288   8.6751   8.7320   8.8733   9.0681   9.3275   9.6233
     9.7470   9.9162  10.1278  10.1926  10.5626  10.7720

     occupation numbers 
     1.0000   1.0000   1.0000   1.0000   1.0000   1.0000   1.0000   1.0000
     1.0000   1.0000   1.0000   1.0000   1.0000   1.0000   1.0000   1.0000
     1.0000   1.0000   1.0000   1.0000   1.0000   1.0000   1.0000   1.0000
     1.0000   1.0000   1.0000   1.0000   1.0000   1.0000   1.0000   1.0000
     1.0000   1.0000   1.0000   1.0000   1.0000   1.0000   1.0000   1.0000
     1.0000   1.0000   1.0000   1.0000   1.0000   1.0000   1.0000   1.0000
     1.0000   1.0000   1.0000   1.0000   1.0000   1.0000

          k = 0.1667 0.2887 0.0325 (  4577 PWs)   bands (ev):

    -9.0402  -8.7011  -8.3110  -7.6858  -7.6386  -7.2326   2.6775   2.8579
     3.1742   3.4316   3.5714   3.7535   3.9434   4.0188   4.1283   4.2131
     4.3992   4.4754   4.6162   4.7536   4.8188   4.9046   5.0014   5.2531
     5.4080   5.5463   5.8287   5.8805   6.0934   6.1458   6.2616   6.2899
     6.4798   6.5417   6.6673   6.8935   6.9824   7.5734   7.8048   7.9923
     8.3429   8.4349   8.6441   8.7492   8.9078   9.0658   9.3158   9.6348
     9.7885   9.8619  10.1152  10.2000  10.5682  10.7734

     occupation numbers 
     1.0000   1.0000   1.0000   1.0000   1.0000   1.0000   1.0000   1.0000
     1.0000   1.0000   1.0000   1.0000   1.0000   1.0000   1.0000   1.0000
     1.0000   1.0000   1.0000   1.0000   1.0000   1.0000   1.0000   1.0000
     1.0000   1.0000   1.0000   1.0000   1.0000   1.0000   1.0000   1.0000
     1.0000   1.0000   1.0000   1.0000   1.0000   1.0000   1.0000   1.0000
     1.0000   1.0000   1.0000   1.0000   1.0000   1.0000   1.0000   1.0000
     1.0000   1.0000   1.0000   1.0000   1.0000   1.0000

          k = 0.1667 0.2887 0.0649 (  4573 PWs)   bands (ev):

    -9.0402  -8.7012  -8.3106  -7.6882  -7.6363  -7.2327   2.6772   2.8572
     3.1753   3.4344   3.5682   3.7617   3.9398   4.0210   4.1216   4.2097
     4.3955   4.4729   4.6223   4.7524   4.8203   4.9066   4.9991   5.2528
     5.4089   5.5473   5.8291   5.8737   6.0988   6.1595   6.2499   6.2916
     6.4832   6.5446   6.7043   6.8813   7.0184   7.4020   7.7968   8.1303
     8.2913   8.4601   8.5842   8.8282   8.9776   9.0465   9.2920   9.6429
     9.7146   9.8288  10.1422  10.2216  10.5736  10.7737

     occupation numbers 
     1.0000   1.0000   1.0000   1.0000   1.0000   1.0000   1.0000   1.0000
     1.0000   1.0000   1.0000   1.0000   1.0000   1.0000   1.0000   1.0000
     1.0000   1.0000   1.0000   1.0000   1.0000   1.0000   1.0000   1.0000
     1.0000   1.0000   1.0000   1.0000   1.0000   1.0000   1.0000   1.0000
     1.0000   1.0000   1.0000   1.0000   1.0000   1.0000   1.0000   1.0000
     1.0000   1.0000   1.0000   1.0000   1.0000   1.0000   1.0000   1.0000
     1.0000   1.0000   1.0000   1.0000   1.0000   1.0000

          k = 0.1667 0.2887-0.0974 (  4576 PWs)   bands (ev):

    -9.0402  -8.7014  -8.3104  -7.6894  -7.6352  -7.2327   2.6771   2.8569
     3.1759   3.4351   3.5665   3.7618   3.9571   4.0210   4.1005   4.2153
     4.3911   4.4694   4.6255   4.7495   4.8217   4.9072   4.9997   5.2522
     5.4085   5.5486   5.8290   5.8710   6.0987   6.1727   6.2424   6.2919
     6.4942   6.5459   6.7302   6.8691   7.0747   7.2632   7.7900   8.2137
     8.2610   8.4786   8.5499   8.8986   8.9847   9.0901   9.2444   9.5864
     9.6798   9.8283  10.1739  10.2348  10.5740  10.7724

     occupation numbers 
     1.0000   1.0000   1.0000   1.0000   1.0000   1.0000   1.0000   1.0000
     1.0000   1.0000   1.0000   1.0000   1.0000   1.0000   1.0000   1.0000
     1.0000   1.0000   1.0000   1.0000   1.0000   1.0000   1.0000   1.0000
     1.0000   1.0000   1.0000   1.0000   1.0000   1.0000   1.0000   1.0000
     1.0000   1.0000   1.0000   1.0000   1.0000   1.0000   1.0000   1.0000
     1.0000   1.0000   1.0000   1.0000   1.0000   1.0000   1.0000   1.0000
     1.0000   1.0000   1.0000   1.0000   1.0000   1.0000

          k = 0.1667 0.4811 0.0000 (  4566 PWs)   bands (ev):

    -8.6607  -8.4500  -7.9416  -7.4065  -7.2982  -7.0180   2.7904   2.9034
     3.2586   3.4663   3.6146   3.8102   4.0669   4.1334   4.3328   4.4283
     4.5104   4.7238   4.8705   4.9226   4.9942   5.1883   5.3312   5.4878
     5.5031   5.7022   5.8916   6.0137   6.0755   6.2220   6.3885   6.4218
     6.5327   6.6353   6.7138   6.7702   6.9343   7.0646   7.1482   7.2555
     7.4204   7.5265   7.6994   8.0521   8.1610   8.3116   8.5270   8.7377
     9.1388   9.2477   9.5025   9.7238   9.8302  10.2059

     occupation numbers 
     1.0000   1.0000   1.0000   1.0000   1.0000   1.0000   1.0000   1.0000
     1.0000   1.0000   1.0000   1.0000   1.0000   1.0000   1.0000   1.0000
     1.0000   1.0000   1.0000   1.0000   1.0000   1.0000   1.0000   1.0000
     1.0000   1.0000   1.0000   1.0000   1.0000   1.0000   1.0000   1.0000
     1.0000   1.0000   1.0000   1.0000   1.0000   1.0000   1.0000   1.0000
     1.0000   1.0000   1.0000   1.0000   1.0000   1.0000   1.0000   1.0000
     1.0000   1.0000   1.0000   1.0000   1.0000   1.0000

          k = 0.1667 0.4811 0.0325 (  4566 PWs)   bands (ev):

    -8.6607  -8.4500  -7.9416  -7.4065  -7.2982  -7.0180   2.7903   2.9032
     3.2579   3.4633   3.6194   3.8226   4.0411   4.1443   4.3388   4.4213
     4.5078   4.7215   4.8711   4.9382   4.9860   5.1908   5.3297   5.4832
     5.5066   5.7052   5.8808   6.0212   6.0831   6.2078   6.3901   6.4246
     6.5348   6.6412   6.6939   6.7883   6.9254   7.0770   7.1477   7.2550
     7.4118   7.5445   7.6925   8.0119   8.1450   8.3758   8.5401   8.7088
     9.1049   9.2664   9.5288   9.7228   9.8226  10.2018

     occupation numbers 
     1.0000   1.0000   1.0000   1.0000   1.0000   1.0000   1.0000   1.0000
     1.0000   1.0000   1.0000   1.0000   1.0000   1.0000   1.0000   1.0000
     1.0000   1.0000   1.0000   1.0000   1.0000   1.0000   1.0000   1.0000
     1.0000   1.0000   1.0000   1.0000   1.0000   1.0000   1.0000   1.0000
     1.0000   1.0000   1.0000   1.0000   1.0000   1.0000   1.0000   1.0000
     1.0000   1.0000   1.0000   1.0000   1.0000   1.0000   1.0000   1.0000
     1.0000   1.0000   1.0000   1.0000   1.0000   1.0000

          k = 0.1667 0.4811 0.0649 (  4562 PWs)   bands (ev):

    -8.6607  -8.4500  -7.9416  -7.4065  -7.2982  -7.0180   2.7900   2.9025
     3.2581   3.4632   3.6191   3.8351   4.0297   4.1463   4.3411   4.4195
     4.5066   4.7137   4.8704   4.9388   4.9874   5.1948   5.3314   5.4742
     5.5082   5.7057   5.8811   6.0314   6.0819   6.2090   6.3911   6.4296
     6.5304   6.6293   6.6898   6.8101   6.9286   7.0804   7.1506   7.2276
     7.4236   7.5682   7.6971   7.9401   8.1352   8.4139   8.5449   8.7231
     9.0532   9.3155   9.5586   9.7156   9.7984  10.1968

     occupation numbers 
     1.0000   1.0000   1.0000   1.0000   1.0000   1.0000   1.0000   1.0000
     1.0000   1.0000   1.0000   1.0000   1.0000   1.0000   1.0000   1.0000
     1.0000   1.0000   1.0000   1.0000   1.0000   1.0000   1.0000   1.0000
     1.0000   1.0000   1.0000   1.0000   1.0000   1.0000   1.0000   1.0000
     1.0000   1.0000   1.0000   1.0000   1.0000   1.0000   1.0000   1.0000
     1.0000   1.0000   1.0000   1.0000   1.0000   1.0000   1.0000   1.0000
     1.0000   1.0000   1.0000   1.0000   1.0000   1.0000

          k = 0.1667 0.4811-0.0974 (  4558 PWs)   bands (ev):

    -8.6607  -8.4500  -7.9415  -7.4065  -7.2982  -7.0180   2.7898   2.9020
     3.2591   3.4660   3.6144   3.8328   4.0438   4.1399   4.3368   4.4257
     4.5075   4.7073   4.8687   4.9265   4.9954   5.1960   5.3347   5.4696
     5.5071   5.7033   5.8904   6.0401   6.0681   6.2244   6.3917   6.4331
     6.5216   6.6154   6.6954   6.8227   6.9398   7.0676   7.1648   7.1959
     7.4381   7.5730   7.7205   7.8925   8.1401   8.3799   8.5700   8.7442
     9.0387   9.3497   9.5589   9.7127   9.7797  10.1959

     occupation numbers 
     1.0000   1.0000   1.0000   1.0000   1.0000   1.0000   1.0000   1.0000
     1.0000   1.0000   1.0000   1.0000   1.0000   1.0000   1.0000   1.0000
     1.0000   1.0000   1.0000   1.0000   1.0000   1.0000   1.0000   1.0000
     1.0000   1.0000   1.0000   1.0000   1.0000   1.0000   1.0000   1.0000
     1.0000   1.0000   1.0000   1.0000   1.0000   1.0000   1.0000   1.0000
     1.0000   1.0000   1.0000   1.0000   1.0000   1.0000   1.0000   1.0000
     1.0000   1.0000   1.0000   1.0000   1.0000   1.0000

          k = 0.3333 0.5774 0.0000 (  4524 PWs)   bands (ev):

    -8.4638  -8.3842  -7.8182  -7.3314  -7.1742  -6.9505   2.9618   3.2580
     3.5381   3.7537   3.9558   3.9841   4.1002   4.2124   4.3241   4.3754
     4.4034   4.7427   4.8738   4.9435   5.0000   5.2087   5.4572   5.5938
     5.6809   5.7311   5.8486   5.9559   6.0520   6.1381   6.2422   6.4626
     6.4743   6.5666   6.6010   6.6307   6.7179   6.9229   7.1027   7.2024
     7.2506   7.2963   7.4193   7.5011   7.7706   8.0425   8.3597   8.5232
     8.6291   9.0603   9.1117   9.2809   9.4499   9.6990

     occupation numbers 
     1.0000   1.0000   1.0000   1.0000   1.0000   1.0000   1.0000   1.0000
     1.0000   1.0000   1.0000   1.0000   1.0000   1.0000   1.0000   1.0000
     1.0000   1.0000   1.0000   1.0000   1.0000   1.0000   1.0000   1.0000
     1.0000   1.0000   1.0000   1.0000   1.0000   1.0000   1.0000   1.0000
     1.0000   1.0000   1.0000   1.0000   1.0000   1.0000   1.0000   1.0000
     1.0000   1.0000   1.0000   1.0000   1.0000   1.0000   1.0000   1.0000
     1.0000   1.0000   1.0000   1.0000   1.0000   1.0000

          k = 0.3333 0.5774 0.0325 (  4542 PWs)   bands (ev):

    -8.4638  -8.3842  -7.8182  -7.3315  -7.1742  -6.9505   2.9617   3.2577
     3.5365   3.7511   3.9550   3.9883   4.1131   4.2142   4.3159   4.3674
     4.4098   4.7406   4.8682   4.9345   4.9980   5.2184   5.4617   5.5905
     5.6776   5.7326   5.8556   5.9588   6.0616   6.1403   6.2437   6.4084
     6.4713   6.5846   6.6076   6.6387   6.7438   6.9115   7.0782   7.1816
     7.2674   7.2969   7.4481   7.5069   7.7660   8.0210   8.3533   8.5468
     8.6339   9.0428   9.1177   9.2623   9.4639   9.7029

     occupation numbers 
     1.0000   1.0000   1.0000   1.0000   1.0000   1.0000   1.0000   1.0000
     1.0000   1.0000   1.0000   1.0000   1.0000   1.0000   1.0000   1.0000
     1.0000   1.0000   1.0000   1.0000   1.0000   1.0000   1.0000   1.0000
     1.0000   1.0000   1.0000   1.0000   1.0000   1.0000   1.0000   1.0000
     1.0000   1.0000   1.0000   1.0000   1.0000   1.0000   1.0000   1.0000
     1.0000   1.0000   1.0000   1.0000   1.0000   1.0000   1.0000   1.0000
     1.0000   1.0000   1.0000   1.0000   1.0000   1.0000

          k = 0.3333 0.5774 0.0649 (  4554 PWs)   bands (ev):

    -8.4638  -8.3842  -7.8182  -7.3315  -7.1742  -6.9505   2.9615   3.2572
     3.5343   3.7469   3.9550   3.9945   4.1364   4.2185   4.3014   4.3595
     4.4142   4.7384   4.8558   4.9137   4.9975   5.2342   5.4673   5.5971
     5.6777   5.7374   5.8569   5.9593   6.0710   6.1503   6.2477   6.3581
     6.4289   6.6017   6.6457   6.6596   6.7813   6.8721   7.0406   7.1542
     7.2865   7.3018   7.4737   7.5485   7.7576   7.9655   8.3633   8.5573
     8.6610   9.0337   9.1216   9.2094   9.4867   9.7148

     occupation numbers 
     1.0000   1.0000   1.0000   1.0000   1.0000   1.0000   1.0000   1.0000
     1.0000   1.0000   1.0000   1.0000   1.0000   1.0000   1.0000   1.0000
     1.0000   1.0000   1.0000   1.0000   1.0000   1.0000   1.0000   1.0000
     1.0000   1.0000   1.0000   1.0000   1.0000   1.0000   1.0000   1.0000
     1.0000   1.0000   1.0000   1.0000   1.0000   1.0000   1.0000   1.0000
     1.0000   1.0000   1.0000   1.0000   1.0000   1.0000   1.0000   1.0000
     1.0000   1.0000   1.0000   1.0000   1.0000   1.0000

          k = 0.3333 0.5774-0.0974 (  4542 PWs)   bands (ev):

    -8.4638  -8.3842  -7.8182  -7.3315  -7.1742  -6.9505   2.9614   3.2569
     3.5337   3.7452   3.9557   3.9965   4.1466   4.2207   4.2955   4.3586
     4.4136   4.7386   4.8476   4.9040   4.9981   5.2404   5.4680   5.6066
     5.6811   5.7430   5.8505   5.9571   6.0686   6.1566   6.2499   6.3511
     6.4021   6.6009   6.6678   6.6863   6.8003   6.8327   7.0264   7.1439
     7.2882   7.3104   7.4758   7.5831   7.7537   7.9306   8.3752   8.5519
     8.6784   9.0454   9.1240   9.1679   9.4955   9.7229

     occupation numbers 
     1.0000   1.0000   1.0000   1.0000   1.0000   1.0000   1.0000   1.0000
     1.0000   1.0000   1.0000   1.0000   1.0000   1.0000   1.0000   1.0000
     1.0000   1.0000   1.0000   1.0000   1.0000   1.0000   1.0000   1.0000
     1.0000   1.0000   1.0000   1.0000   1.0000   1.0000   1.0000   1.0000
     1.0000   1.0000   1.0000   1.0000   1.0000   1.0000   1.0000   1.0000
     1.0000   1.0000   1.0000   1.0000   1.0000   1.0000   1.0000   1.0000
     1.0000   1.0000   1.0000   1.0000   1.0000   1.0000

          k =-0.1667 0.0962 0.0000 (  4563 PWs)   bands (ev):

    -9.3931  -8.9622  -8.6606  -7.9892  -7.9139  -7.4562   2.7348   2.8676
     3.1727   3.4058   3.5684   3.6136   3.7741   3.8596   4.0207   4.0504
     4.1544   4.3683   4.4347   4.5063   4.6147   4.7568   4.8171   4.9622
     5.4607   5.5054   5.7752   5.8662   6.1258   6.1697   6.2228   6.2509
     6.4972   6.5312   6.6571   6.8571   6.8662   7.7028   7.8687   8.9411
     9.1923   9.3147   9.5364   9.7247   9.8230  10.0716  10.2239  10.3558
    10.4127  10.5944  10.7116  10.9540  10.9953  11.4427

     occupation numbers 
     1.0000   1.0000   1.0000   1.0000   1.0000   1.0000   1.0000   1.0000
     1.0000   1.0000   1.0000   1.0000   1.0000   1.0000   1.0000   1.0000
     1.0000   1.0000   1.0000   1.0000   1.0000   1.0000   1.0000   1.0000
     1.0000   1.0000   1.0000   1.0000   1.0000   1.0000   1.0000   1.0000
     1.0000   1.0000   1.0000   1.0000   1.0000   1.0000   1.0000   1.0000
     1.0000   1.0000   1.0000   1.0000   1.0000   1.0000   1.0000   1.0000
     1.0000   1.0000   1.0000   1.0000   1.0000   1.0000

          k = 0.1667 0.0962 0.0000 (  4563 PWs)   bands (ev):

    -9.3892  -8.9611  -8.6577  -7.9888  -7.9128  -7.4554   2.7112   2.9047
     3.1247   3.4401   3.5590   3.6593   3.7600   3.8813   3.9823   4.1019
     4.2124   4.3687   4.4143   4.6093   4.6339   4.6573   4.8147   4.9993
     5.4465   5.5089   5.7725   5.8624   6.1263   6.1614   6.1983   6.2679
     6.4982   6.5327   6.6549   6.8593   6.8733   7.7195   7.8523   8.9445
     9.1673   9.3197   9.5513   9.6830   9.7356  10.0080  10.2130  10.3785
    10.4284  10.6182  10.7103  10.9087  10.9678  11.3973

     occupation numbers 
     1.0000   1.0000   1.0000   1.0000   1.0000   1.0000   1.0000   1.0000
     1.0000   1.0000   1.0000   1.0000   1.0000   1.0000   1.0000   1.0000
     1.0000   1.0000   1.0000   1.0000   1.0000   1.0000   1.0000   1.0000
     1.0000   1.0000   1.0000   1.0000   1.0000   1.0000   1.0000   1.0000
     1.0000   1.0000   1.0000   1.0000   1.0000   1.0000   1.0000   1.0000
     1.0000   1.0000   1.0000   1.0000   1.0000   1.0000   1.0000   1.0000
     1.0000   1.0000   1.0000   1.0000   1.0000   1.0000

          k = 0.0000-0.1925 0.0325 (  4549 PWs)   bands (ev):

    -9.4061  -8.9712  -8.6591  -7.9919  -7.9075  -7.4569   2.7134   3.0451
     3.0571   3.2270   3.5424   3.7309   3.7978   3.8759   3.9993   4.0882
     4.1341   4.3541   4.4207   4.6375   4.6644   4.6866   4.7893   4.9760
     5.4465   5.5190   5.7764   5.8582   6.1253   6.1603   6.1846   6.2755
     6.5051   6.5386   6.6789   6.8566   6.8648   7.4768   8.0914   8.8796
     9.1279   9.3713   9.6263   9.6801   9.8285  10.0484  10.1078  10.4145
    10.4472  10.6682  10.7425  10.9265  10.9590  11.4370

     occupation numbers 
     1.0000   1.0000   1.0000   1.0000   1.0000   1.0000   1.0000   1.0000
     1.0000   1.0000   1.0000   1.0000   1.0000   1.0000   1.0000   1.0000
     1.0000   1.0000   1.0000   1.0000   1.0000   1.0000   1.0000   1.0000
     1.0000   1.0000   1.0000   1.0000   1.0000   1.0000   1.0000   1.0000
     1.0000   1.0000   1.0000   1.0000   1.0000   1.0000   1.0000   1.0000
     1.0000   1.0000   1.0000   1.0000   1.0000   1.0000   1.0000   1.0000
     1.0000   1.0000   1.0000   1.0000   1.0000   1.0000

          k =-0.1667 0.0962 0.0325 (  4549 PWs)   bands (ev):

    -9.3930  -8.9627  -8.6599  -7.9928  -7.9105  -7.4564   2.7348   2.8677
     3.1733   3.4057   3.5710   3.6079   3.7777   3.8587   4.0192   4.0502
     4.1555   4.3696   4.4349   4.5050   4.6152   4.7570   4.8175   4.9623
     5.4609   5.5055   5.7751   5.8658   6.1267   6.1699   6.2211   6.2506
     6.4991   6.5267   6.6747   6.8550   6.8718   7.5635   8.0301   8.9077
     9.1433   9.2859   9.6210   9.7512   9.8167  10.0585  10.2013  10.3516
    10.4284  10.5787  10.7051  10.9627  11.0012  11.4422

     occupation numbers 
     1.0000   1.0000   1.0000   1.0000   1.0000   1.0000   1.0000   1.0000
     1.0000   1.0000   1.0000   1.0000   1.0000   1.0000   1.0000   1.0000
     1.0000   1.0000   1.0000   1.0000   1.0000   1.0000   1.0000   1.0000
     1.0000   1.0000   1.0000   1.0000   1.0000   1.0000   1.0000   1.0000
     1.0000   1.0000   1.0000   1.0000   1.0000   1.0000   1.0000   1.0000
     1.0000   1.0000   1.0000   1.0000   1.0000   1.0000   1.0000   1.0000
     1.0000   1.0000   1.0000   1.0000   1.0000   1.0000

          k = 0.1667 0.0962 0.0325 (  4549 PWs)   bands (ev):

    -9.3892  -8.9616  -8.6569  -7.9926  -7.9092  -7.4556   2.7112   2.9050
     3.1254   3.4394   3.5577   3.6589   3.7627   3.8784   3.9828   4.1030
     4.2135   4.3682   4.4143   4.6103   4.6325   4.6573   4.8148   4.9993
     5.4468   5.5089   5.7720   5.8621   6.1273   6.1623   6.1971   6.2687
     6.4926   6.5300   6.6901   6.8582   6.8689   7.5443   8.0487   8.9178
     9.1448   9.2583   9.5998   9.6910   9.7787  10.0010  10.1797  10.3775
    10.4433  10.6043  10.7124  10.9122  10.9715  11.3970

     occupation numbers 
     1.0000   1.0000   1.0000   1.0000   1.0000   1.0000   1.0000   1.0000
     1.0000   1.0000   1.0000   1.0000   1.0000   1.0000   1.0000   1.0000
     1.0000   1.0000   1.0000   1.0000   1.0000   1.0000   1.0000   1.0000
     1.0000   1.0000   1.0000   1.0000   1.0000   1.0000   1.0000   1.0000
     1.0000   1.0000   1.0000   1.0000   1.0000   1.0000   1.0000   1.0000
     1.0000   1.0000   1.0000   1.0000   1.0000   1.0000   1.0000   1.0000
     1.0000   1.0000   1.0000   1.0000   1.0000   1.0000

          k =-0.1667-0.0962 0.0325 (  4549 PWs)   bands (ev):

    -9.3892  -8.9616  -8.6569  -7.9926  -7.9092  -7.4556   2.7114   2.9048
     3.1241   3.4412   3.5597   3.6589   3.7582   3.8846   3.9789   4.1018
     4.2122   4.3691   4.4138   4.6081   4.6362   4.6573   4.8151   4.9994
     5.4469   5.5091   5.7716   5.8625   6.1271   6.1613   6.1987   6.2677
     6.5022   6.5363   6.6595   6.8611   6.8892   7.5162   8.0754   8.9559
     9.0407   9.3622   9.5670   9.6681   9.7685  10.0035  10.2142  10.3551
    10.4321  10.6142  10.7373  10.9117  10.9548  11.3972

     occupation numbers 
     1.0000   1.0000   1.0000   1.0000   1.0000   1.0000   1.0000   1.0000
     1.0000   1.0000   1.0000   1.0000   1.0000   1.0000   1.0000   1.0000
     1.0000   1.0000   1.0000   1.0000   1.0000   1.0000   1.0000   1.0000
     1.0000   1.0000   1.0000   1.0000   1.0000   1.0000   1.0000   1.0000
     1.0000   1.0000   1.0000   1.0000   1.0000   1.0000   1.0000   1.0000
     1.0000   1.0000   1.0000   1.0000   1.0000   1.0000   1.0000   1.0000
     1.0000   1.0000   1.0000   1.0000   1.0000   1.0000

          k = 0.1667-0.0962 0.0325 (  4549 PWs)   bands (ev):

    -9.3930  -8.9627  -8.6597  -7.9933  -7.9100  -7.4564   2.7349   2.8679
     3.1719   3.4062   3.5688   3.6156   3.7700   3.8617   4.0198   4.0504
     4.1551   4.3662   4.4346   4.5077   4.6151   4.7567   4.8172   4.9623
     5.4611   5.5055   5.7743   5.8659   6.1268   6.1698   6.2240   6.2512
     6.4953   6.5323   6.6855   6.8567   6.8708   7.4959   8.0957   8.9404
     9.0991   9.3226   9.5469   9.7196   9.8563  10.0728  10.2095  10.3614
    10.4078  10.5890  10.7445  10.9450  10.9843  11.4426

     occupation numbers 
     1.0000   1.0000   1.0000   1.0000   1.0000   1.0000   1.0000   1.0000
     1.0000   1.0000   1.0000   1.0000   1.0000   1.0000   1.0000   1.0000
     1.0000   1.0000   1.0000   1.0000   1.0000   1.0000   1.0000   1.0000
     1.0000   1.0000   1.0000   1.0000   1.0000   1.0000   1.0000   1.0000
     1.0000   1.0000   1.0000   1.0000   1.0000   1.0000   1.0000   1.0000
     1.0000   1.0000   1.0000   1.0000   1.0000   1.0000   1.0000   1.0000
     1.0000   1.0000   1.0000   1.0000   1.0000   1.0000

          k = 0.0000-0.1925 0.0649 (  4557 PWs)   bands (ev):

    -9.4060  -8.9721  -8.6575  -7.9985  -7.9013  -7.4574   2.7135   3.0455
     3.0572   3.2271   3.5416   3.7312   3.7936   3.8811   3.9966   4.0882
     4.1325   4.3552   4.4214   4.6375   4.6630   4.6881   4.7894   4.9759
     5.4465   5.5190   5.7763   5.8572   6.1270   6.1604   6.1833   6.2754
     6.5051   6.5336   6.7330   6.8576   6.8791   7.2970   8.3407   8.8097
     8.9690   9.4363   9.6320   9.6983   9.8470  10.0431  10.1316  10.3554
    10.4665  10.6417  10.7919  10.9255  10.9463  11.4363

     occupation numbers 
     1.0000   1.0000   1.0000   1.0000   1.0000   1.0000   1.0000   1.0000
     1.0000   1.0000   1.0000   1.0000   1.0000   1.0000   1.0000   1.0000
     1.0000   1.0000   1.0000   1.0000   1.0000   1.0000   1.0000   1.0000
     1.0000   1.0000   1.0000   1.0000   1.0000   1.0000   1.0000   1.0000
     1.0000   1.0000   1.0000   1.0000   1.0000   1.0000   1.0000   1.0000
     1.0000   1.0000   1.0000   1.0000   1.0000   1.0000   1.0000   1.0000
     1.0000   1.0000   1.0000   1.0000   1.0000   1.0000

          k =-0.1667 0.0962 0.0649 (  4557 PWs)   bands (ev):

    -9.3929  -8.9636  -8.6582  -7.9996  -7.9040  -7.4569   2.7350   2.8680
     3.1730   3.4060   3.5747   3.6033   3.7768   3.8601   4.0167   4.0499
     4.1570   4.3685   4.4349   4.5051   4.6158   4.7570   4.8180   4.9623
     5.4612   5.5055   5.7740   5.8649   6.1285   6.1701   6.2204   6.2504
     6.4984   6.5250   6.7227   6.8532   6.8863   7.3615   8.3032   8.8003
     9.0547   9.2868   9.6538   9.7827   9.8624  10.0462  10.1652  10.3341
    10.4632  10.5447  10.7297  10.9679  10.9931  11.4417

     occupation numbers 
     1.0000   1.0000   1.0000   1.0000   1.0000   1.0000   1.0000   1.0000
     1.0000   1.0000   1.0000   1.0000   1.0000   1.0000   1.0000   1.0000
     1.0000   1.0000   1.0000   1.0000   1.0000   1.0000   1.0000   1.0000
     1.0000   1.0000   1.0000   1.0000   1.0000   1.0000   1.0000   1.0000
     1.0000   1.0000   1.0000   1.0000   1.0000   1.0000   1.0000   1.0000
     1.0000   1.0000   1.0000   1.0000   1.0000   1.0000   1.0000   1.0000
     1.0000   1.0000   1.0000   1.0000   1.0000   1.0000

          k = 0.1667 0.0962 0.0649 (  4557 PWs)   bands (ev):

    -9.3891  -8.9625  -8.6553  -7.9993  -7.9029  -7.4560   2.7112   2.9053
     3.1255   3.4396   3.5569   3.6580   3.7635   3.8787   3.9800   4.1038
     4.2142   4.3680   4.4139   4.6097   4.6334   4.6572   4.8153   4.9993
     5.4472   5.5090   5.7706   5.8618   6.1289   6.1629   6.1961   6.2691
     6.4922   6.5301   6.7338   6.8617   6.8838   7.3435   8.3195   8.8169
     9.0275   9.2823   9.6153   9.7134   9.8507   9.9952  10.1358  10.3532
    10.4663  10.5818  10.7414  10.9179  10.9627  11.3965

     occupation numbers 
     1.0000   1.0000   1.0000   1.0000   1.0000   1.0000   1.0000   1.0000
     1.0000   1.0000   1.0000   1.0000   1.0000   1.0000   1.0000   1.0000
     1.0000   1.0000   1.0000   1.0000   1.0000   1.0000   1.0000   1.0000
     1.0000   1.0000   1.0000   1.0000   1.0000   1.0000   1.0000   1.0000
     1.0000   1.0000   1.0000   1.0000   1.0000   1.0000   1.0000   1.0000
     1.0000   1.0000   1.0000   1.0000   1.0000   1.0000   1.0000   1.0000
     1.0000   1.0000   1.0000   1.0000   1.0000   1.0000

          k =-0.1667-0.0962 0.0649 (  4557 PWs)   bands (ev):

    -9.3891  -8.9625  -8.6553  -7.9993  -7.9029  -7.4560   2.7115   2.9052
     3.1242   3.4414   3.5589   3.6580   3.7590   3.8850   3.9759   4.1026
     4.2129   4.3691   4.4134   4.6076   4.6369   4.6572   4.8155   4.9993
     5.4473   5.5092   5.7703   5.8621   6.1287   6.1617   6.1977   6.2681
     6.5006   6.5348   6.7004   6.8619   6.9173   7.3197   8.3421   8.8343
     8.9731   9.3312   9.6309   9.6674   9.8280   9.9981  10.1793  10.3279
    10.4582  10.5908  10.7688  10.9176  10.9430  11.3967

     occupation numbers 
     1.0000   1.0000   1.0000   1.0000   1.0000   1.0000   1.0000   1.0000
     1.0000   1.0000   1.0000   1.0000   1.0000   1.0000   1.0000   1.0000
     1.0000   1.0000   1.0000   1.0000   1.0000   1.0000   1.0000   1.0000
     1.0000   1.0000   1.0000   1.0000   1.0000   1.0000   1.0000   1.0000
     1.0000   1.0000   1.0000   1.0000   1.0000   1.0000   1.0000   1.0000
     1.0000   1.0000   1.0000   1.0000   1.0000   1.0000   1.0000   1.0000
     1.0000   1.0000   1.0000   1.0000   1.0000   1.0000

          k = 0.1667-0.0962 0.0649 (  4557 PWs)   bands (ev):

    -9.3929  -8.9637  -8.6581  -8.0001  -7.9036  -7.4569   2.7350   2.8682
     3.1716   3.4065   3.5717   3.6117   3.7694   3.8630   4.0174   4.0501
     4.1566   4.3652   4.4345   4.5077   4.6157   4.7568   4.8176   4.9623
     5.4614   5.5057   5.7732   5.8651   6.1286   6.1699   6.2232   6.2509
     6.4950   6.5297   6.7367   6.8544   6.8892   7.3116   8.3543   8.8223
     9.0155   9.3037   9.6186   9.7270   9.8951  10.0723  10.1702  10.3361
    10.4465  10.5594  10.7723  10.9404  10.9815  11.4421

     occupation numbers 
     1.0000   1.0000   1.0000   1.0000   1.0000   1.0000   1.0000   1.0000
     1.0000   1.0000   1.0000   1.0000   1.0000   1.0000   1.0000   1.0000
     1.0000   1.0000   1.0000   1.0000   1.0000   1.0000   1.0000   1.0000
     1.0000   1.0000   1.0000   1.0000   1.0000   1.0000   1.0000   1.0000
     1.0000   1.0000   1.0000   1.0000   1.0000   1.0000   1.0000   1.0000
     1.0000   1.0000   1.0000   1.0000   1.0000   1.0000   1.0000   1.0000
     1.0000   1.0000   1.0000   1.0000   1.0000   1.0000

          k =-0.1667 0.0962-0.0974 (  4560 PWs)   bands (ev):

    -9.3929  -8.9641  -8.6574  -8.0029  -7.9009  -7.4571   2.7351   2.8683
     3.1721   3.4064   3.5749   3.6052   3.7727   3.8623   4.0159   4.0499
     4.1576   4.3663   4.4347   4.5064   4.6161   4.7569   4.8180   4.9623
     5.4615   5.5056   5.7730   5.8646   6.1294   6.1701   6.2215   6.2505
     6.4964   6.5267   6.7561   6.8529   6.9049   7.2497   8.5668   8.6095
     9.0188   9.2924   9.6526   9.7596   9.9054  10.0658  10.1421  10.3212
    10.4958  10.5144  10.7628  10.9556  10.9842  11.4416

     occupation numbers 
     1.0000   1.0000   1.0000   1.0000   1.0000   1.0000   1.0000   1.0000
     1.0000   1.0000   1.0000   1.0000   1.0000   1.0000   1.0000   1.0000
     1.0000   1.0000   1.0000   1.0000   1.0000   1.0000   1.0000   1.0000
     1.0000   1.0000   1.0000   1.0000   1.0000   1.0000   1.0000   1.0000
     1.0000   1.0000   1.0000   1.0000   1.0000   1.0000   1.0000   1.0000
     1.0000   1.0000   1.0000   1.0000   1.0000   1.0000   1.0000   1.0000
     1.0000   1.0000   1.0000   1.0000   1.0000   1.0000

          k = 0.1667 0.0962-0.0974 (  4560 PWs)   bands (ev):

    -9.3890  -8.9630  -8.6545  -8.0023  -7.9001  -7.4563   2.7114   2.9054
     3.1248   3.4406   3.5575   3.6576   3.7616   3.8820   3.9766   4.1036
     4.2139   4.3684   4.4135   4.6083   4.6356   4.6571   4.8156   4.9993
     5.4474   5.5092   5.7697   5.8617   6.1296   6.1626   6.1963   6.2689
     6.4961   6.5319   6.7372   6.8622   6.9268   7.2398   8.5671   8.6219
     8.9880   9.3038   9.6255   9.7101   9.8652  10.0046  10.1298  10.3281
    10.4789  10.5704  10.7705  10.9199  10.9477  11.3963

     occupation numbers 
     1.0000   1.0000   1.0000   1.0000   1.0000   1.0000   1.0000   1.0000
     1.0000   1.0000   1.0000   1.0000   1.0000   1.0000   1.0000   1.0000
     1.0000   1.0000   1.0000   1.0000   1.0000   1.0000   1.0000   1.0000
     1.0000   1.0000   1.0000   1.0000   1.0000   1.0000   1.0000   1.0000
     1.0000   1.0000   1.0000   1.0000   1.0000   1.0000   1.0000   1.0000
     1.0000   1.0000   1.0000   1.0000   1.0000   1.0000   1.0000   1.0000
     1.0000   1.0000   1.0000   1.0000   1.0000   1.0000

          k =-0.3333 0.1925 0.0000 (  4569 PWs)   bands (ev):

    -8.8915  -8.5956  -8.1941  -7.6000  -7.5297  -7.1591   2.5131   2.7481
     3.2969   3.4023   3.5851   3.6758   3.8592   4.0226   4.2272   4.2571
     4.3779   4.6557   4.7161   4.7704   4.8592   5.0026   5.1635   5.2801
     5.4351   5.6032   5.8527   5.8969   6.0783   6.2428   6.3021   6.3357
     6.4680   6.5636   6.6100   6.9175   6.9601   7.1859   7.3349   7.7090
     7.9171   8.0428   8.3362   8.7534   8.8650   9.0666   9.4105   9.5084
     9.6039   9.9156   9.9919  10.2746  10.4610  10.8014

     occupation numbers 
     1.0000   1.0000   1.0000   1.0000   1.0000   1.0000   1.0000   1.0000
     1.0000   1.0000   1.0000   1.0000   1.0000   1.0000   1.0000   1.0000
     1.0000   1.0000   1.0000   1.0000   1.0000   1.0000   1.0000   1.0000
     1.0000   1.0000   1.0000   1.0000   1.0000   1.0000   1.0000   1.0000
     1.0000   1.0000   1.0000   1.0000   1.0000   1.0000   1.0000   1.0000
     1.0000   1.0000   1.0000   1.0000   1.0000   1.0000   1.0000   1.0000
     1.0000   1.0000   1.0000   1.0000   1.0000   1.0000

          k = 0.3333 0.1925 0.0000 (  4569 PWs)   bands (ev):

    -8.8752  -8.5961  -8.1838  -7.5939  -7.5341  -7.1546   2.5073   2.7792
     3.2681   3.3940   3.6255   3.7971   3.8754   4.0776   4.2148   4.3339
     4.5367   4.6298   4.7270   4.8232   4.8824   4.9075   5.2227   5.3295
     5.4167   5.6004   5.8396   5.8855   6.0449   6.2395   6.2649   6.3334
     6.4576   6.5682   6.6691   6.9151   6.9657   7.1492   7.3704   7.6728
     7.8792   8.0016   8.3367   8.6613   8.7657   9.0418   9.3234   9.4567
     9.5427   9.8179   9.9878  10.1869  10.3918  10.7492

     occupation numbers 
     1.0000   1.0000   1.0000   1.0000   1.0000   1.0000   1.0000   1.0000
     1.0000   1.0000   1.0000   1.0000   1.0000   1.0000   1.0000   1.0000
     1.0000   1.0000   1.0000   1.0000   1.0000   1.0000   1.0000   1.0000
     1.0000   1.0000   1.0000   1.0000   1.0000   1.0000   1.0000   1.0000
     1.0000   1.0000   1.0000   1.0000   1.0000   1.0000   1.0000   1.0000
     1.0000   1.0000   1.0000   1.0000   1.0000   1.0000   1.0000   1.0000
     1.0000   1.0000   1.0000   1.0000   1.0000   1.0000

          k = 0.0000-0.3849 0.0325 (  4570 PWs)   bands (ev):

    -8.9404  -8.6205  -8.1913  -7.5849  -7.5304  -7.1611   2.5263   2.9178
     3.1909   3.2481   3.4361   3.6616   3.9551   4.1018   4.1879   4.3921
     4.4278   4.5807   4.7694   4.8914   4.9055   4.9947   5.1515   5.2868
     5.4749   5.5763   5.8517   5.8766   6.0328   6.2045   6.2526   6.3386
     6.4644   6.5603   6.6911   6.9143   6.9308   7.1402   7.4801   7.5912
     7.8542   8.0656   8.4579   8.6845   8.8319   9.0668   9.2971   9.4750
     9.6249   9.9934  10.0710  10.2635  10.4024  10.7982

     occupation numbers 
     1.0000   1.0000   1.0000   1.0000   1.0000   1.0000   1.0000   1.0000
     1.0000   1.0000   1.0000   1.0000   1.0000   1.0000   1.0000   1.0000
     1.0000   1.0000   1.0000   1.0000   1.0000   1.0000   1.0000   1.0000
     1.0000   1.0000   1.0000   1.0000   1.0000   1.0000   1.0000   1.0000
     1.0000   1.0000   1.0000   1.0000   1.0000   1.0000   1.0000   1.0000
     1.0000   1.0000   1.0000   1.0000   1.0000   1.0000   1.0000   1.0000
     1.0000   1.0000   1.0000   1.0000   1.0000   1.0000

          k =-0.3333 0.1925 0.0325 (  4570 PWs)   bands (ev):

    -8.8915  -8.5957  -8.1940  -7.6003  -7.5294  -7.1591   2.5132   2.7475
     3.2931   3.4082   3.5857   3.6868   3.8401   4.0293   4.2181   4.2606
     4.3788   4.6532   4.7263   4.7677   4.8564   5.0025   5.1664   5.2800
     5.4363   5.6033   5.8519   5.8897   6.0868   6.2433   6.3028   6.3368
     6.4419   6.5652   6.6475   6.9141   6.9365   7.1883   7.3822   7.6348
     7.9043   8.0839   8.3402   8.7560   8.8660   9.0640   9.3781   9.5441
     9.6450   9.8928   9.9509  10.2907  10.4648  10.8000

     occupation numbers 
     1.0000   1.0000   1.0000   1.0000   1.0000   1.0000   1.0000   1.0000
     1.0000   1.0000   1.0000   1.0000   1.0000   1.0000   1.0000   1.0000
     1.0000   1.0000   1.0000   1.0000   1.0000   1.0000   1.0000   1.0000
     1.0000   1.0000   1.0000   1.0000   1.0000   1.0000   1.0000   1.0000
     1.0000   1.0000   1.0000   1.0000   1.0000   1.0000   1.0000   1.0000
     1.0000   1.0000   1.0000   1.0000   1.0000   1.0000   1.0000   1.0000
     1.0000   1.0000   1.0000   1.0000   1.0000   1.0000

          k = 0.3333 0.1925 0.0325 (  4570 PWs)   bands (ev):

    -8.8752  -8.5962  -8.1837  -7.5942  -7.5338  -7.1546   2.5073   2.7784
     3.2647   3.4021   3.6352   3.7990   3.8404   4.1211   4.1849   4.3379
     4.5374   4.6255   4.7354   4.8227   4.8852   4.9023   5.2163   5.3295
     5.4239   5.6006   5.8348   5.8747   6.0614   6.2409   6.2688   6.3325
     6.4422   6.5679   6.7038   6.9147   6.9517   7.1470   7.4002   7.5826
     7.8678   8.0679   8.3165   8.6842   8.7703   9.0512   9.3051   9.4798
     9.5338   9.8086   9.9607  10.2034  10.3964  10.7482

     occupation numbers 
     1.0000   1.0000   1.0000   1.0000   1.0000   1.0000   1.0000   1.0000
     1.0000   1.0000   1.0000   1.0000   1.0000   1.0000   1.0000   1.0000
     1.0000   1.0000   1.0000   1.0000   1.0000   1.0000   1.0000   1.0000
     1.0000   1.0000   1.0000   1.0000   1.0000   1.0000   1.0000   1.0000
     1.0000   1.0000   1.0000   1.0000   1.0000   1.0000   1.0000   1.0000
     1.0000   1.0000   1.0000   1.0000   1.0000   1.0000   1.0000   1.0000
     1.0000   1.0000   1.0000   1.0000   1.0000   1.0000

          k =-0.3333-0.1925 0.0325 (  4570 PWs)   bands (ev):

    -8.8752  -8.5962  -8.1837  -7.5942  -7.5338  -7.1546   2.5070   2.7797
     3.2660   3.3916   3.6324   3.7892   3.9231   4.0185   4.2275   4.3339
     4.5362   4.6276   4.7298   4.8230   4.8804   4.9108   5.2217   5.3300
     5.4185   5.6005   5.8356   5.8831   6.0625   6.2250   6.2562   6.3345
     6.4939   6.5710   6.6552   6.9152   6.9805   7.1636   7.3048   7.7165
     7.8319   7.9638   8.3757   8.7292   8.7782   9.0305   9.2996   9.4532
     9.5099   9.8362   9.9699  10.1992  10.3958  10.7485

     occupation numbers 
     1.0000   1.0000   1.0000   1.0000   1.0000   1.0000   1.0000   1.0000
     1.0000   1.0000   1.0000   1.0000   1.0000   1.0000   1.0000   1.0000
     1.0000   1.0000   1.0000   1.0000   1.0000   1.0000   1.0000   1.0000
     1.0000   1.0000   1.0000   1.0000   1.0000   1.0000   1.0000   1.0000
     1.0000   1.0000   1.0000   1.0000   1.0000   1.0000   1.0000   1.0000
     1.0000   1.0000   1.0000   1.0000   1.0000   1.0000   1.0000   1.0000
     1.0000   1.0000   1.0000   1.0000   1.0000   1.0000

          k = 0.3333-0.1925 0.0325 (  4570 PWs)   bands (ev):

    -8.8915  -8.5957  -8.1940  -7.6005  -7.5293  -7.1591   2.5128   2.7485
     3.2948   3.4033   3.5844   3.6738   3.8874   3.9968   4.2150   4.2706
     4.3777   4.6506   4.7052   4.7892   4.8544   5.0025   5.1592   5.2798
     5.4398   5.6036   5.8529   5.8818   6.1034   6.2418   6.2799   6.3367
     6.5032   6.5668   6.6079   6.9171   6.9934   7.1844   7.2529   7.7296
     7.8986   8.0051   8.3734   8.8267   8.8752   9.0752   9.3746   9.4892
     9.5684   9.9195   9.9992  10.2853  10.4635  10.8008

     occupation numbers 
     1.0000   1.0000   1.0000   1.0000   1.0000   1.0000   1.0000   1.0000
     1.0000   1.0000   1.0000   1.0000   1.0000   1.0000   1.0000   1.0000
     1.0000   1.0000   1.0000   1.0000   1.0000   1.0000   1.0000   1.0000
     1.0000   1.0000   1.0000   1.0000   1.0000   1.0000   1.0000   1.0000
     1.0000   1.0000   1.0000   1.0000   1.0000   1.0000   1.0000   1.0000
     1.0000   1.0000   1.0000   1.0000   1.0000   1.0000   1.0000   1.0000
     1.0000   1.0000   1.0000   1.0000   1.0000   1.0000

          k = 0.0000-0.3849 0.0649 (  4571 PWs)   bands (ev):

    -8.9403  -8.6205  -8.1911  -7.5858  -7.5296  -7.1611   2.5261   2.9172
     3.1909   3.2484   3.4350   3.6719   3.9668   4.0735   4.1877   4.3944
     4.4279   4.5756   4.7865   4.8897   4.8964   4.9953   5.1535   5.2867
     5.4743   5.5763   5.8431   5.8734   6.0617   6.1832   6.2491   6.3385
     6.4806   6.5599   6.7263   6.9144   6.9633   7.0926   7.4042   7.6048
     7.8593   8.0459   8.4980   8.6890   8.8709   9.1104   9.2778   9.3963
     9.6743   9.9391  10.0655  10.2859  10.4137  10.7962

     occupation numbers 
     1.0000   1.0000   1.0000   1.0000   1.0000   1.0000   1.0000   1.0000
     1.0000   1.0000   1.0000   1.0000   1.0000   1.0000   1.0000   1.0000
     1.0000   1.0000   1.0000   1.0000   1.0000   1.0000   1.0000   1.0000
     1.0000   1.0000   1.0000   1.0000   1.0000   1.0000   1.0000   1.0000
     1.0000   1.0000   1.0000   1.0000   1.0000   1.0000   1.0000   1.0000
     1.0000   1.0000   1.0000   1.0000   1.0000   1.0000   1.0000   1.0000
     1.0000   1.0000   1.0000   1.0000   1.0000   1.0000

          k =-0.3333 0.1925 0.0649 (  4571 PWs)   bands (ev):

    -8.8915  -8.5958  -8.1939  -7.6010  -7.5287  -7.1591   2.5131   2.7474
     3.2880   3.4143   3.5856   3.6960   3.8437   4.0151   4.2026   4.2723
     4.3793   4.6470   4.7192   4.7905   4.8474   5.0021   5.1650   5.2796
     5.4422   5.6038   5.8501   5.8709   6.1194   6.2433   6.2766   6.3381
     6.4534   6.5666   6.6954   6.9055   6.9353   7.1858   7.3515   7.5828
     7.9039   8.0572   8.3870   8.8362   8.8695   9.0717   9.3399   9.5169
     9.6609   9.8795   9.9213  10.3134  10.4709  10.7980

     occupation numbers 
     1.0000   1.0000   1.0000   1.0000   1.0000   1.0000   1.0000   1.0000
     1.0000   1.0000   1.0000   1.0000   1.0000   1.0000   1.0000   1.0000
     1.0000   1.0000   1.0000   1.0000   1.0000   1.0000   1.0000   1.0000
     1.0000   1.0000   1.0000   1.0000   1.0000   1.0000   1.0000   1.0000
     1.0000   1.0000   1.0000   1.0000   1.0000   1.0000   1.0000   1.0000
     1.0000   1.0000   1.0000   1.0000   1.0000   1.0000   1.0000   1.0000
     1.0000   1.0000   1.0000   1.0000   1.0000   1.0000

          k = 0.3333 0.1925 0.0649 (  4571 PWs)   bands (ev):

    -8.8751  -8.5963  -8.1835  -7.5949  -7.5332  -7.1546   2.5072   2.7781
     3.2599   3.4068   3.6565   3.7813   3.8439   4.1093   4.1811   4.3414
     4.5376   4.6200   4.7459   4.8218   4.8855   4.9010   5.2095   5.3298
     5.4325   5.6009   5.8235   5.8682   6.0929   6.2281   6.2581   6.3336
     6.4621   6.5688   6.7349   6.9142   6.9543   7.1464   7.3569   7.5329
     7.8621   8.0469   8.3527   8.7603   8.7940   9.0658   9.2808   9.4134
     9.5462   9.8257   9.9155  10.2264  10.4044  10.7464

     occupation numbers 
     1.0000   1.0000   1.0000   1.0000   1.0000   1.0000   1.0000   1.0000
     1.0000   1.0000   1.0000   1.0000   1.0000   1.0000   1.0000   1.0000
     1.0000   1.0000   1.0000   1.0000   1.0000   1.0000   1.0000   1.0000
     1.0000   1.0000   1.0000   1.0000   1.0000   1.0000   1.0000   1.0000
     1.0000   1.0000   1.0000   1.0000   1.0000   1.0000   1.0000   1.0000
     1.0000   1.0000   1.0000   1.0000   1.0000   1.0000   1.0000   1.0000
     1.0000   1.0000   1.0000   1.0000   1.0000   1.0000

          k =-0.3333-0.1925 0.0649 (  4571 PWs)   bands (ev):

    -8.8752  -8.5963  -8.1835  -7.5950  -7.5332  -7.1546   2.5069   2.7794
     3.2609   3.3969   3.6498   3.7797   3.9317   3.9989   4.2212   4.3381
     4.5364   4.6219   4.7404   4.8222   4.8801   4.9101   5.2146   5.3302
     5.4274   5.6008   5.8259   5.8737   6.0995   6.2034   6.2540   6.3348
     6.5094   6.5734   6.6815   6.9150   6.9955   7.1716   7.2447   7.6378
     7.8483   7.9680   8.3917   8.7590   8.8758   9.0299   9.2698   9.3653
     9.5458   9.8441   9.9265  10.2231  10.4039  10.7468

     occupation numbers 
     1.0000   1.0000   1.0000   1.0000   1.0000   1.0000   1.0000   1.0000
     1.0000   1.0000   1.0000   1.0000   1.0000   1.0000   1.0000   1.0000
     1.0000   1.0000   1.0000   1.0000   1.0000   1.0000   1.0000   1.0000
     1.0000   1.0000   1.0000   1.0000   1.0000   1.0000   1.0000   1.0000
     1.0000   1.0000   1.0000   1.0000   1.0000   1.0000   1.0000   1.0000
     1.0000   1.0000   1.0000   1.0000   1.0000   1.0000   1.0000   1.0000
     1.0000   1.0000   1.0000   1.0000   1.0000   1.0000

          k = 0.3333-0.1925 0.0649 (  4571 PWs)   bands (ev):

    -8.8915  -8.5958  -8.1938  -7.6012  -7.5286  -7.1591   2.5127   2.7484
     3.2893   3.4099   3.5844   3.6811   3.9047   3.9705   4.2025   4.2796
     4.3784   4.6435   4.7048   4.8092   4.8424   5.0022   5.1580   5.2794
     5.4455   5.6041   5.8512   5.8646   6.1379   6.2385   6.2578   6.3374
     6.4999   6.5689   6.6618   6.9153   7.0156   7.1543   7.2172   7.6750
     7.8989   8.0029   8.4027   8.8622   8.9354   9.1051   9.3235   9.3986
     9.6335   9.8890   9.9795  10.3097  10.4697  10.7988

     occupation numbers 
     1.0000   1.0000   1.0000   1.0000   1.0000   1.0000   1.0000   1.0000
     1.0000   1.0000   1.0000   1.0000   1.0000   1.0000   1.0000   1.0000
     1.0000   1.0000   1.0000   1.0000   1.0000   1.0000   1.0000   1.0000
     1.0000   1.0000   1.0000   1.0000   1.0000   1.0000   1.0000   1.0000
     1.0000   1.0000   1.0000   1.0000   1.0000   1.0000   1.0000   1.0000
     1.0000   1.0000   1.0000   1.0000   1.0000   1.0000   1.0000   1.0000
     1.0000   1.0000   1.0000   1.0000   1.0000   1.0000

          k =-0.3333 0.1925-0.0974 (  4574 PWs)   bands (ev):

    -8.8914  -8.5959  -8.1938  -7.6015  -7.5283  -7.1591   2.5128   2.7478
     3.2862   3.4150   3.5850   3.6920   3.8755   3.9871   4.1973   4.2796
     4.3792   4.6424   4.7103   4.8140   4.8356   5.0020   5.1608   5.2793
     5.4468   5.6042   5.8481   5.8616   6.1469   6.2391   6.2537   6.3379
     6.4788   6.5679   6.7078   6.9106   6.9681   7.1669   7.2613   7.6097
     7.9100   8.0179   8.4103   8.8679   8.9278   9.1038   9.3222   9.4032
     9.6795   9.8590   9.9490  10.3220  10.4732  10.7974

     occupation numbers 
     1.0000   1.0000   1.0000   1.0000   1.0000   1.0000   1.0000   1.0000
     1.0000   1.0000   1.0000   1.0000   1.0000   1.0000   1.0000   1.0000
     1.0000   1.0000   1.0000   1.0000   1.0000   1.0000   1.0000   1.0000
     1.0000   1.0000   1.0000   1.0000   1.0000   1.0000   1.0000   1.0000
     1.0000   1.0000   1.0000   1.0000   1.0000   1.0000   1.0000   1.0000
     1.0000   1.0000   1.0000   1.0000   1.0000   1.0000   1.0000   1.0000
     1.0000   1.0000   1.0000   1.0000   1.0000   1.0000

          k = 0.3333 0.1925-0.0974 (  4574 PWs)   bands (ev):

    -8.8751  -8.5963  -8.1835  -7.5953  -7.5329  -7.1546   2.5069   2.7786
     3.2580   3.4040   3.6645   3.7724   3.8785   4.0537   4.2036   4.3415
     4.5371   4.6185   4.7481   4.8216   4.8821   4.9057   5.2088   5.3301
     5.4342   5.6010   5.8191   5.8685   6.1156   6.2021   6.2542   6.3345
     6.4932   6.5710   6.7255   6.9148   6.9872   7.1436   7.2764   7.5610
     7.8662   7.9964   8.3843   8.7663   8.8794   9.0738   9.2861   9.3012
     9.5673   9.8446   9.8953  10.2347  10.4080  10.7458

     occupation numbers 
     1.0000   1.0000   1.0000   1.0000   1.0000   1.0000   1.0000   1.0000
     1.0000   1.0000   1.0000   1.0000   1.0000   1.0000   1.0000   1.0000
     1.0000   1.0000   1.0000   1.0000   1.0000   1.0000   1.0000   1.0000
     1.0000   1.0000   1.0000   1.0000   1.0000   1.0000   1.0000   1.0000
     1.0000   1.0000   1.0000   1.0000   1.0000   1.0000   1.0000   1.0000
     1.0000   1.0000   1.0000   1.0000   1.0000   1.0000   1.0000   1.0000
     1.0000   1.0000   1.0000   1.0000   1.0000   1.0000

          k = 0.5000-0.2887 0.0000 (  4588 PWs)   bands (ev):

    -8.6021  -8.4233  -7.9391  -7.4239  -7.2857  -7.0170   2.4773   2.6541
     3.2484   3.4117   3.6180   3.6830   3.8889   3.9902   4.4004   4.4892
     4.5613   4.7972   4.8630   4.9506   5.0388   5.1000   5.3274   5.4580
     5.6505   5.6899   5.8777   6.0521   6.1791   6.3129   6.3726   6.4388
     6.4706   6.6281   6.6828   6.7846   6.8313   6.8933   6.9385   7.0150
     7.3011   7.3655   7.7278   8.3189   8.5173   8.7276   8.9784   9.0115
     9.2400   9.6177   9.6640   9.9159  10.0907  10.4491

     occupation numbers 
     1.0000   1.0000   1.0000   1.0000   1.0000   1.0000   1.0000   1.0000
     1.0000   1.0000   1.0000   1.0000   1.0000   1.0000   1.0000   1.0000
     1.0000   1.0000   1.0000   1.0000   1.0000   1.0000   1.0000   1.0000
     1.0000   1.0000   1.0000   1.0000   1.0000   1.0000   1.0000   1.0000
     1.0000   1.0000   1.0000   1.0000   1.0000   1.0000   1.0000   1.0000
     1.0000   1.0000   1.0000   1.0000   1.0000   1.0000   1.0000   1.0000
     1.0000   1.0000   1.0000   1.0000   1.0000   1.0000

          k =-0.5000-0.2887 0.0000 (  4588 PWs)   bands (ev):

    -8.5667  -8.4370  -7.9238  -7.4158  -7.2960  -7.0073   2.4977   2.6968
     3.2463   3.4094   3.6175   3.8628   3.9001   4.0766   4.3817   4.6154
     4.6977   4.8289   4.8740   4.9129   5.0716   5.1340   5.4025   5.5188
     5.6229   5.6904   5.8707   6.0391   6.1529   6.2000   6.3607   6.4391
     6.4724   6.6367   6.6756   6.7394   6.8028   6.8205   6.9624   7.0215
     7.2973   7.3955   7.7029   8.2075   8.5242   8.6119   8.8675   8.9659
     9.0850   9.4824   9.6286   9.8199   9.9484  10.4008

     occupation numbers 
     1.0000   1.0000   1.0000   1.0000   1.0000   1.0000   1.0000   1.0000
     1.0000   1.0000   1.0000   1.0000   1.0000   1.0000   1.0000   1.0000
     1.0000   1.0000   1.0000   1.0000   1.0000   1.0000   1.0000   1.0000
     1.0000   1.0000   1.0000   1.0000   1.0000   1.0000   1.0000   1.0000
     1.0000   1.0000   1.0000   1.0000   1.0000   1.0000   1.0000   1.0000
     1.0000   1.0000   1.0000   1.0000   1.0000   1.0000   1.0000   1.0000
     1.0000   1.0000   1.0000   1.0000   1.0000   1.0000

          k = 0.5000-0.2887 0.0325 (  4578 PWs)   bands (ev):

    -8.6021  -8.4233  -7.9391  -7.4239  -7.2857  -7.0169   2.4771   2.6541
     3.2484   3.4121   3.6197   3.6827   3.8880   3.9904   4.4002   4.4891
     4.5608   4.7933   4.8626   4.9541   5.0386   5.1002   5.3267   5.4581
     5.6543   5.6903   5.8775   6.0504   6.1825   6.3057   6.3726   6.4412
     6.4716   6.6282   6.6850   6.7779   6.8366   6.8942   6.9375   7.0151
     7.3036   7.3611   7.7473   8.3059   8.4528   8.7763   8.9457   9.0741
     9.2516   9.6041   9.6364   9.9258  10.0929  10.4474

     occupation numbers 
     1.0000   1.0000   1.0000   1.0000   1.0000   1.0000   1.0000   1.0000
     1.0000   1.0000   1.0000   1.0000   1.0000   1.0000   1.0000   1.0000
     1.0000   1.0000   1.0000   1.0000   1.0000   1.0000   1.0000   1.0000
     1.0000   1.0000   1.0000   1.0000   1.0000   1.0000   1.0000   1.0000
     1.0000   1.0000   1.0000   1.0000   1.0000   1.0000   1.0000   1.0000
     1.0000   1.0000   1.0000   1.0000   1.0000   1.0000   1.0000   1.0000
     1.0000   1.0000   1.0000   1.0000   1.0000   1.0000

          k =-0.5000-0.2887 0.0325 (  4578 PWs)   bands (ev):

    -8.5667  -8.4370  -7.9238  -7.4157  -7.2960  -7.0073   2.4976   2.6966
     3.2466   3.4095   3.6220   3.8526   3.9049   4.0783   4.3814   4.6127
     4.7005   4.8211   4.8752   4.9158   5.0770   5.1311   5.4027   5.5190
     5.6249   5.6910   5.8703   6.0370   6.1550   6.1982   6.3607   6.4383
     6.4726   6.6367   6.6794   6.7369   6.8014   6.8211   6.9641   7.0215
     7.2960   7.3944   7.7161   8.2132   8.4393   8.6597   8.8389   9.0217
     9.1072   9.4643   9.6070   9.8304   9.9486  10.3996

     occupation numbers 
     1.0000   1.0000   1.0000   1.0000   1.0000   1.0000   1.0000   1.0000
     1.0000   1.0000   1.0000   1.0000   1.0000   1.0000   1.0000   1.0000
     1.0000   1.0000   1.0000   1.0000   1.0000   1.0000   1.0000   1.0000
     1.0000   1.0000   1.0000   1.0000   1.0000   1.0000   1.0000   1.0000
     1.0000   1.0000   1.0000   1.0000   1.0000   1.0000   1.0000   1.0000
     1.0000   1.0000   1.0000   1.0000   1.0000   1.0000   1.0000   1.0000
     1.0000   1.0000   1.0000   1.0000   1.0000   1.0000

          k = 0.5000-0.2887 0.0649 (  4560 PWs)   bands (ev):

    -8.6021  -8.4233  -7.9391  -7.4239  -7.2857  -7.0169   2.4768   2.6540
     3.2485   3.4129   3.6232   3.6819   3.8861   3.9907   4.3996   4.4891
     4.5598   4.7860   4.8619   4.9608   5.0380   5.1007   5.3252   5.4581
     5.6616   5.6913   5.8769   6.0473   6.1900   6.2911   6.3726   6.4449
     6.4737   6.6283   6.6903   6.7663   6.8448   6.8962   6.9354   7.0151
     7.3097   7.3515   7.7932   8.2439   8.4033   8.7847   8.9798   9.1371
     9.2883   9.5655   9.5843   9.9409  10.0981  10.4439

     occupation numbers 
     1.0000   1.0000   1.0000   1.0000   1.0000   1.0000   1.0000   1.0000
     1.0000   1.0000   1.0000   1.0000   1.0000   1.0000   1.0000   1.0000
     1.0000   1.0000   1.0000   1.0000   1.0000   1.0000   1.0000   1.0000
     1.0000   1.0000   1.0000   1.0000   1.0000   1.0000   1.0000   1.0000
     1.0000   1.0000   1.0000   1.0000   1.0000   1.0000   1.0000   1.0000
     1.0000   1.0000   1.0000   1.0000   1.0000   1.0000   1.0000   1.0000
     1.0000   1.0000   1.0000   1.0000   1.0000   1.0000

          k =-0.5000-0.2887 0.0649 (  4560 PWs)   bands (ev):

    -8.5666  -8.4370  -7.9238  -7.4157  -7.2960  -7.0073   2.4972   2.6963
     3.2474   3.4095   3.6317   3.8353   3.9108   4.0817   4.3807   4.6077
     4.7061   4.8074   4.8767   4.9203   5.0905   5.1228   5.4031   5.5194
     5.6289   5.6923   5.8693   6.0331   6.1596   6.1942   6.3607   6.4369
     6.4731   6.6367   6.6886   6.7303   6.7993   6.8220   6.9675   7.0215
     7.2932   7.3926   7.7449   8.2291   8.3326   8.6679   8.8351   9.0954
     9.1642   9.4246   9.5605   9.8463   9.9500  10.3973

     occupation numbers 
     1.0000   1.0000   1.0000   1.0000   1.0000   1.0000   1.0000   1.0000
     1.0000   1.0000   1.0000   1.0000   1.0000   1.0000   1.0000   1.0000
     1.0000   1.0000   1.0000   1.0000   1.0000   1.0000   1.0000   1.0000
     1.0000   1.0000   1.0000   1.0000   1.0000   1.0000   1.0000   1.0000
     1.0000   1.0000   1.0000   1.0000   1.0000   1.0000   1.0000   1.0000
     1.0000   1.0000   1.0000   1.0000   1.0000   1.0000   1.0000   1.0000
     1.0000   1.0000   1.0000   1.0000   1.0000   1.0000

          k = 0.5000-0.2887-0.0974 (  4576 PWs)   bands (ev):

    -8.6021  -8.4233  -7.9391  -7.4239  -7.2857  -7.0169   2.4767   2.6540
     3.2485   3.4133   3.6250   3.6813   3.8851   3.9908   4.3992   4.4889
     4.5593   4.7824   4.8615   4.9639   5.0376   5.1008   5.3244   5.4581
     5.6650   5.6919   5.8765   6.0455   6.1943   6.2833   6.3726   6.4463
     6.4748   6.6282   6.6932   6.7608   6.8482   6.8971   6.9341   7.0151
     7.3137   7.3457   7.8219   8.1979   8.3975   8.7733   9.0086   9.1616
     9.3188   9.5298   9.5646   9.9466  10.1012  10.4421

     occupation numbers 
     1.0000   1.0000   1.0000   1.0000   1.0000   1.0000   1.0000   1.0000
     1.0000   1.0000   1.0000   1.0000   1.0000   1.0000   1.0000   1.0000
     1.0000   1.0000   1.0000   1.0000   1.0000   1.0000   1.0000   1.0000
     1.0000   1.0000   1.0000   1.0000   1.0000   1.0000   1.0000   1.0000
     1.0000   1.0000   1.0000   1.0000   1.0000   1.0000   1.0000   1.0000
     1.0000   1.0000   1.0000   1.0000   1.0000   1.0000   1.0000   1.0000
     1.0000   1.0000   1.0000   1.0000   1.0000   1.0000

          k =-0.5000-0.2887-0.0974 (  4576 PWs)   bands (ev):

    -8.5667  -8.4370  -7.9238  -7.4157  -7.2960  -7.0073   2.4970   2.6962
     3.2477   3.4094   3.6369   3.8269   3.9128   4.0833   4.3803   4.6053
     4.7089   4.8009   4.8772   4.9218   5.1020   5.1136   5.4032   5.5195
     5.6308   5.6929   5.8687   6.0310   6.1621   6.1918   6.3607   6.4361
     6.4732   6.6365   6.6944   6.7254   6.7984   6.8222   6.9691   7.0214
     7.2917   7.3917   7.7610   8.2517   8.2727   8.6589   8.8417   9.1293
     9.1982   9.4025   9.5327   9.8524   9.9512  10.3961

     occupation numbers 
     1.0000   1.0000   1.0000   1.0000   1.0000   1.0000   1.0000   1.0000
     1.0000   1.0000   1.0000   1.0000   1.0000   1.0000   1.0000   1.0000
     1.0000   1.0000   1.0000   1.0000   1.0000   1.0000   1.0000   1.0000
     1.0000   1.0000   1.0000   1.0000   1.0000   1.0000   1.0000   1.0000
     1.0000   1.0000   1.0000   1.0000   1.0000   1.0000   1.0000   1.0000
     1.0000   1.0000   1.0000   1.0000   1.0000   1.0000   1.0000   1.0000
     1.0000   1.0000   1.0000   1.0000   1.0000   1.0000

          k =-0.1667 0.2887 0.0000 (  4574 PWs)   bands (ev):

    -9.0488  -8.7024  -8.3175  -7.6876  -7.6385  -7.2350   2.7315   2.8394
     3.1304   3.4558   3.5088   3.7319   3.8861   3.9683   4.0689   4.1840
     4.3422   4.4956   4.6002   4.7314   4.8152   4.9116   4.9777   5.1970
     5.4279   5.5589   5.8436   5.9002   6.1072   6.1479   6.2720   6.2996
     6.5045   6.5444   6.6437   6.8897   6.9693   7.6696   7.8136   8.0155
     8.3304   8.5848   8.6898   8.7915   8.9703   9.0711   9.3738   9.5972
     9.7720   9.8953  10.1558  10.2279  10.6065  10.7822

     occupation numbers 
     1.0000   1.0000   1.0000   1.0000   1.0000   1.0000   1.0000   1.0000
     1.0000   1.0000   1.0000   1.0000   1.0000   1.0000   1.0000   1.0000
     1.0000   1.0000   1.0000   1.0000   1.0000   1.0000   1.0000   1.0000
     1.0000   1.0000   1.0000   1.0000   1.0000   1.0000   1.0000   1.0000
     1.0000   1.0000   1.0000   1.0000   1.0000   1.0000   1.0000   1.0000
     1.0000   1.0000   1.0000   1.0000   1.0000   1.0000   1.0000   1.0000
     1.0000   1.0000   1.0000   1.0000   1.0000   1.0000

          k = 0.3333 0.0000 0.0000 (  4574 PWs)   bands (ev):

    -9.0127  -8.6816  -8.3128  -7.6924  -7.6406  -7.2314   2.5868   2.9963
     3.2012   3.4397   3.5438   3.7072   3.8551   4.0870   4.1181   4.3612
     4.4251   4.4700   4.5531   4.6785   4.7617   4.8540   5.0208   5.2574
     5.4233   5.5387   5.8311   5.8793   6.1040   6.1461   6.2860   6.2886
     6.4710   6.5526   6.6619   6.8896   6.9831   7.4942   7.7554   7.9312
     8.2763   8.5158   8.6990   8.7308   8.9508   9.1387   9.4512   9.5747
     9.7370   9.8792  10.0671  10.2109  10.6211  10.7415

     occupation numbers 
     1.0000   1.0000   1.0000   1.0000   1.0000   1.0000   1.0000   1.0000
     1.0000   1.0000   1.0000   1.0000   1.0000   1.0000   1.0000   1.0000
     1.0000   1.0000   1.0000   1.0000   1.0000   1.0000   1.0000   1.0000
     1.0000   1.0000   1.0000   1.0000   1.0000   1.0000   1.0000   1.0000
     1.0000   1.0000   1.0000   1.0000   1.0000   1.0000   1.0000   1.0000
     1.0000   1.0000   1.0000   1.0000   1.0000   1.0000   1.0000   1.0000
     1.0000   1.0000   1.0000   1.0000   1.0000   1.0000

          k =-0.1667-0.2887 0.0325 (  4577 PWs)   bands (ev):

    -9.0402  -8.7011  -8.3109  -7.6860  -7.6384  -7.2326   2.6774   2.8578
     3.1744   3.4302   3.5710   3.7470   3.9868   4.0085   4.0963   4.2263
     4.3943   4.4696   4.6174   4.7490   4.8206   4.9039   5.0047   5.2524
     5.4064   5.5482   5.8284   5.8814   6.0869   6.1583   6.2606   6.2891
     6.5054   6.5390   6.6644   6.8860   6.9990   7.4881   7.7733   8.0640
     8.3447   8.4472   8.6442   8.8136   8.8959   9.0499   9.3325   9.6052
     9.6673   9.9111  10.1568  10.2163  10.5626  10.7707

     occupation numbers 
     1.0000   1.0000   1.0000   1.0000   1.0000   1.0000   1.0000   1.0000
     1.0000   1.0000   1.0000   1.0000   1.0000   1.0000   1.0000   1.0000
     1.0000   1.0000   1.0000   1.0000   1.0000   1.0000   1.0000   1.0000
     1.0000   1.0000   1.0000   1.0000   1.0000   1.0000   1.0000   1.0000
     1.0000   1.0000   1.0000   1.0000   1.0000   1.0000   1.0000   1.0000
     1.0000   1.0000   1.0000   1.0000   1.0000   1.0000   1.0000   1.0000
     1.0000   1.0000   1.0000   1.0000   1.0000   1.0000

          k =-0.1667 0.2887-0.0325 (  4577 PWs)   bands (ev):

    -9.0488  -8.7025  -8.3173  -7.6891  -7.6371  -7.2351   2.7313   2.8391
     3.1308   3.4601   3.5030   3.7327   3.8964   3.9778   4.0487   4.1855
     4.3391   4.4895   4.6064   4.7315   4.8163   4.9094   4.9778   5.1943
     5.4287   5.5606   5.8440   5.8945   6.1085   6.1594   6.2697   6.2997
     6.5104   6.5430   6.6759   6.8841   6.9842   7.4789   7.8775   8.0937
     8.3352   8.5759   8.6718   8.8620   8.9733   9.0628   9.3920   9.5928
     9.6774   9.8724  10.1835  10.2660  10.6027  10.7812

     occupation numbers 
     1.0000   1.0000   1.0000   1.0000   1.0000   1.0000   1.0000   1.0000
     1.0000   1.0000   1.0000   1.0000   1.0000   1.0000   1.0000   1.0000
     1.0000   1.0000   1.0000   1.0000   1.0000   1.0000   1.0000   1.0000
     1.0000   1.0000   1.0000   1.0000   1.0000   1.0000   1.0000   1.0000
     1.0000   1.0000   1.0000   1.0000   1.0000   1.0000   1.0000   1.0000
     1.0000   1.0000   1.0000   1.0000   1.0000   1.0000   1.0000   1.0000
     1.0000   1.0000   1.0000   1.0000   1.0000   1.0000

          k = 0.1667-0.2887-0.0325 (  4577 PWs)   bands (ev):

    -9.0488  -8.7024  -8.3173  -7.6887  -7.6375  -7.2351   2.7314   2.8392
     3.1307   3.4551   3.5117   3.7355   3.8803   3.9578   4.0872   4.1721
     4.3391   4.5013   4.6017   4.7317   4.8126   4.9118   4.9800   5.1989
     5.4284   5.5582   5.8434   5.8970   6.1172   6.1444   6.2634   6.2994
     6.4903   6.5516   6.6578   6.8882   6.9724   7.6340   7.8581   8.0132
     8.3255   8.5560   8.6701   8.8026   9.0041   9.0815   9.3530   9.6108
     9.8025   9.8766  10.1342  10.2205  10.6176  10.7815

     occupation numbers 
     1.0000   1.0000   1.0000   1.0000   1.0000   1.0000   1.0000   1.0000
     1.0000   1.0000   1.0000   1.0000   1.0000   1.0000   1.0000   1.0000
     1.0000   1.0000   1.0000   1.0000   1.0000   1.0000   1.0000   1.0000
     1.0000   1.0000   1.0000   1.0000   1.0000   1.0000   1.0000   1.0000
     1.0000   1.0000   1.0000   1.0000   1.0000   1.0000   1.0000   1.0000
     1.0000   1.0000   1.0000   1.0000   1.0000   1.0000   1.0000   1.0000
     1.0000   1.0000   1.0000   1.0000   1.0000   1.0000

          k = 0.3333 0.0000 0.0325 (  4577 PWs)   bands (ev):

    -9.0127  -8.6817  -8.3126  -7.6937  -7.6394  -7.2315   2.5867   2.9959
     3.2019   3.4403   3.5434   3.7096   3.8559   4.0817   4.1165   4.3688
     4.4203   4.4643   4.5589   4.6772   4.7621   4.8540   5.0189   5.2562
     5.4254   5.5395   5.8255   5.8780   6.1052   6.1569   6.2792   6.2937
     6.4730   6.5492   6.6875   6.8843   6.9983   7.4658   7.6273   8.0237
     8.3257   8.4964   8.6879   8.7521   8.9852   9.1247   9.4499   9.5746
     9.6812   9.8603  10.0975  10.2236  10.6201  10.7422

     occupation numbers 
     1.0000   1.0000   1.0000   1.0000   1.0000   1.0000   1.0000   1.0000
     1.0000   1.0000   1.0000   1.0000   1.0000   1.0000   1.0000   1.0000
     1.0000   1.0000   1.0000   1.0000   1.0000   1.0000   1.0000   1.0000
     1.0000   1.0000   1.0000   1.0000   1.0000   1.0000   1.0000   1.0000
     1.0000   1.0000   1.0000   1.0000   1.0000   1.0000   1.0000   1.0000
     1.0000   1.0000   1.0000   1.0000   1.0000   1.0000   1.0000   1.0000
     1.0000   1.0000   1.0000   1.0000   1.0000   1.0000

          k =-0.3333-0.0000 0.0325 (  4577 PWs)   bands (ev):

    -9.0127  -8.6817  -8.3127  -7.6935  -7.6396  -7.2315   2.5867   2.9959
     3.2019   3.4390   3.5444   3.7100   3.8582   4.0820   4.1141   4.3545
     4.4268   4.4796   4.5475   4.6814   4.7605   4.8525   5.0231   5.2575
     5.4250   5.5388   5.8276   5.8781   6.1081   6.1528   6.2744   6.2888
     6.4790   6.5573   6.6690   6.8808   6.9981   7.4704   7.6823   8.0030
     8.2678   8.5256   8.6699   8.7675   8.9832   9.1267   9.4350   9.5934
     9.7110   9.8488  10.0802  10.2238  10.6229  10.7417

     occupation numbers 
     1.0000   1.0000   1.0000   1.0000   1.0000   1.0000   1.0000   1.0000
     1.0000   1.0000   1.0000   1.0000   1.0000   1.0000   1.0000   1.0000
     1.0000   1.0000   1.0000   1.0000   1.0000   1.0000   1.0000   1.0000
     1.0000   1.0000   1.0000   1.0000   1.0000   1.0000   1.0000   1.0000
     1.0000   1.0000   1.0000   1.0000   1.0000   1.0000   1.0000   1.0000
     1.0000   1.0000   1.0000   1.0000   1.0000   1.0000   1.0000   1.0000
     1.0000   1.0000   1.0000   1.0000   1.0000   1.0000

          k =-0.1667-0.2887 0.0649 (  4573 PWs)   bands (ev):

    -9.0402  -8.7013  -8.3106  -7.6884  -7.6361  -7.2327   2.6772   2.8572
     3.1755   3.4330   3.5679   3.7543   3.9837   4.0142   4.0863   4.2229
     4.3903   4.4680   4.6232   4.7479   4.8219   4.9058   5.0025   5.2521
     5.4073   5.5492   5.8287   5.8747   6.0932   6.1710   6.2484   6.2910
     6.5039   6.5443   6.7082   6.8728   7.0493   7.3154   7.7823   8.1637
     8.3047   8.4631   8.5876   8.9090   8.9447   9.0568   9.2900   9.5609
     9.6611   9.8670  10.1783  10.2350  10.5687  10.7708

     occupation numbers 
     1.0000   1.0000   1.0000   1.0000   1.0000   1.0000   1.0000   1.0000
     1.0000   1.0000   1.0000   1.0000   1.0000   1.0000   1.0000   1.0000
     1.0000   1.0000   1.0000   1.0000   1.0000   1.0000   1.0000   1.0000
     1.0000   1.0000   1.0000   1.0000   1.0000   1.0000   1.0000   1.0000
     1.0000   1.0000   1.0000   1.0000   1.0000   1.0000   1.0000   1.0000
     1.0000   1.0000   1.0000   1.0000   1.0000   1.0000   1.0000   1.0000
     1.0000   1.0000   1.0000   1.0000   1.0000   1.0000

          k =-0.1667 0.2887-0.0649 (  4573 PWs)   bands (ev):

    -9.0488  -8.7027  -8.3169  -7.6915  -7.6349  -7.2352   2.7310   2.8387
     3.1316   3.4641   3.4997   3.7368   3.9038   3.9702   4.0490   4.1769
     4.3335   4.4897   4.6134   4.7320   4.8148   4.9077   4.9801   5.1935
     5.4301   5.5617   5.8442   5.8864   6.1163   6.1717   6.2572   6.2999
     6.5012   6.5492   6.7314   6.8738   7.0188   7.3202   7.8996   8.1660
     8.3400   8.5569   8.6209   8.9387   8.9781   9.1209   9.3571   9.5863
     9.6402   9.8245  10.2053  10.2785  10.6114  10.7796

     occupation numbers 
     1.0000   1.0000   1.0000   1.0000   1.0000   1.0000   1.0000   1.0000
     1.0000   1.0000   1.0000   1.0000   1.0000   1.0000   1.0000   1.0000
     1.0000   1.0000   1.0000   1.0000   1.0000   1.0000   1.0000   1.0000
     1.0000   1.0000   1.0000   1.0000   1.0000   1.0000   1.0000   1.0000
     1.0000   1.0000   1.0000   1.0000   1.0000   1.0000   1.0000   1.0000
     1.0000   1.0000   1.0000   1.0000   1.0000   1.0000   1.0000   1.0000
     1.0000   1.0000   1.0000   1.0000   1.0000   1.0000

          k = 0.1667-0.2887-0.0649 (  4573 PWs)   bands (ev):

    -9.0488  -8.7027  -8.3170  -7.6911  -7.6353  -7.2351   2.7311   2.8387
     3.1315   3.4582   3.5093   3.7402   3.8857   3.9513   4.0906   4.1607
     4.3340   4.4999   4.6097   4.7321   4.8111   4.9100   4.9823   5.1981
     5.4298   5.5594   5.8436   5.8885   6.1243   6.1588   6.2505   6.2993
     6.4864   6.5540   6.7039   6.8806   6.9935   7.4474   7.9063   8.1116
     8.3223   8.5384   8.6230   8.8556   9.0618   9.0904   9.3275   9.6352
     9.7457   9.8075  10.1716  10.2357  10.6251  10.7799

     occupation numbers 
     1.0000   1.0000   1.0000   1.0000   1.0000   1.0000   1.0000   1.0000
     1.0000   1.0000   1.0000   1.0000   1.0000   1.0000   1.0000   1.0000
     1.0000   1.0000   1.0000   1.0000   1.0000   1.0000   1.0000   1.0000
     1.0000   1.0000   1.0000   1.0000   1.0000   1.0000   1.0000   1.0000
     1.0000   1.0000   1.0000   1.0000   1.0000   1.0000   1.0000   1.0000
     1.0000   1.0000   1.0000   1.0000   1.0000   1.0000   1.0000   1.0000
     1.0000   1.0000   1.0000   1.0000   1.0000   1.0000

          k = 0.3333 0.0000 0.0649 (  4573 PWs)   bands (ev):

    -9.0126  -8.6820  -8.3123  -7.6959  -7.6373  -7.2316   2.5865   2.9950
     3.2033   3.4403   3.5439   3.7150   3.8603   4.0692   4.1129   4.3679
     4.4187   4.4680   4.5597   4.6788   4.7613   4.8525   5.0193   5.2551
     5.4292   5.5407   5.8166   5.8763   6.1105   6.1747   6.2651   6.2932
     6.4827   6.5498   6.7287   6.8670   7.0479   7.3423   7.5712   8.0801
     8.3939   8.4684   8.6465   8.8211   9.0714   9.1021   9.3837   9.5842
     9.6461   9.8081  10.1263  10.2482  10.6206  10.7434

     occupation numbers 
     1.0000   1.0000   1.0000   1.0000   1.0000   1.0000   1.0000   1.0000
     1.0000   1.0000   1.0000   1.0000   1.0000   1.0000   1.0000   1.0000
     1.0000   1.0000   1.0000   1.0000   1.0000   1.0000   1.0000   1.0000
     1.0000   1.0000   1.0000   1.0000   1.0000   1.0000   1.0000   1.0000
     1.0000   1.0000   1.0000   1.0000   1.0000   1.0000   1.0000   1.0000
     1.0000   1.0000   1.0000   1.0000   1.0000   1.0000   1.0000   1.0000
     1.0000   1.0000   1.0000   1.0000   1.0000   1.0000

          k =-0.3333-0.0000 0.0649 (  4573 PWs)   bands (ev):

    -9.0126  -8.6820  -8.3123  -7.6957  -7.6375  -7.2316   2.5865   2.9950
     3.2033   3.4389   3.5448   3.7155   3.8629   4.0688   4.1108   4.3550
     4.4238   4.4835   4.5483   4.6831   4.7597   4.8511   5.0234   5.2564
     5.4289   5.5400   5.8186   5.8763   6.1128   6.1726   6.2581   6.2903
     6.4871   6.5574   6.7092   6.8649   7.0403   7.3701   7.5926   8.0803
     8.3162   8.5223   8.6253   8.8354   9.0551   9.1103   9.3801   9.6127
     9.6583   9.7941  10.1141  10.2472  10.6234  10.7429

     occupation numbers 
     1.0000   1.0000   1.0000   1.0000   1.0000   1.0000   1.0000   1.0000
     1.0000   1.0000   1.0000   1.0000   1.0000   1.0000   1.0000   1.0000
     1.0000   1.0000   1.0000   1.0000   1.0000   1.0000   1.0000   1.0000
     1.0000   1.0000   1.0000   1.0000   1.0000   1.0000   1.0000   1.0000
     1.0000   1.0000   1.0000   1.0000   1.0000   1.0000   1.0000   1.0000
     1.0000   1.0000   1.0000   1.0000   1.0000   1.0000   1.0000   1.0000
     1.0000   1.0000   1.0000   1.0000   1.0000   1.0000

          k =-0.1667 0.2887 0.0974 (  4576 PWs)   bands (ev):

    -9.0487  -8.7028  -8.3168  -7.6924  -7.6340  -7.2352   2.7309   2.8385
     3.1319   3.4627   3.5033   3.7406   3.8996   3.9534   4.0717   4.1648
     4.3314   4.4944   4.6152   4.7323   4.8121   4.9080   4.9823   5.1954
     5.4307   5.5611   5.8440   5.8835   6.1227   6.1747   6.2458   6.2996
     6.4917   6.5529   6.7457   6.8711   7.0281   7.3028   7.9084   8.1805
     8.3323   8.5496   8.5881   8.9066   9.0328   9.1735   9.2920   9.6262
     9.6668   9.7847  10.2088  10.2573  10.6226  10.7789

     occupation numbers 
     1.0000   1.0000   1.0000   1.0000   1.0000   1.0000   1.0000   1.0000
     1.0000   1.0000   1.0000   1.0000   1.0000   1.0000   1.0000   1.0000
     1.0000   1.0000   1.0000   1.0000   1.0000   1.0000   1.0000   1.0000
     1.0000   1.0000   1.0000   1.0000   1.0000   1.0000   1.0000   1.0000
     1.0000   1.0000   1.0000   1.0000   1.0000   1.0000   1.0000   1.0000
     1.0000   1.0000   1.0000   1.0000   1.0000   1.0000   1.0000   1.0000
     1.0000   1.0000   1.0000   1.0000   1.0000   1.0000

          k = 0.3333 0.0000-0.0974 (  4576 PWs)   bands (ev):

    -9.0126  -8.6821  -8.3121  -7.6969  -7.6364  -7.2316   2.5864   2.9946
     3.2040   3.4396   3.5445   3.7179   3.8642   4.0615   4.1108   4.3611
     4.4199   4.4775   4.5547   4.6817   4.7601   4.8510   5.0215   5.2552
     5.4308   5.5409   5.8132   5.8756   6.1140   6.1843   6.2527   6.2917
     6.4889   6.5536   6.7452   6.8541   7.0910   7.2652   7.5695   8.0955
     8.3892   8.4856   8.6160   8.8647   9.0713   9.1687   9.2982   9.5869
     9.6746   9.7622  10.1324  10.2590  10.6220  10.7438

     occupation numbers 
     1.0000   1.0000   1.0000   1.0000   1.0000   1.0000   1.0000   1.0000
     1.0000   1.0000   1.0000   1.0000   1.0000   1.0000   1.0000   1.0000
     1.0000   1.0000   1.0000   1.0000   1.0000   1.0000   1.0000   1.0000
     1.0000   1.0000   1.0000   1.0000   1.0000   1.0000   1.0000   1.0000
     1.0000   1.0000   1.0000   1.0000   1.0000   1.0000   1.0000   1.0000
     1.0000   1.0000   1.0000   1.0000   1.0000   1.0000   1.0000   1.0000
     1.0000   1.0000   1.0000   1.0000   1.0000   1.0000

          k =-0.1667 0.4811 0.0000 (  4566 PWs)   bands (ev):

    -8.6661  -8.4496  -7.9450  -7.4085  -7.2960  -7.0202   2.7911   2.9121
     3.2427   3.4583   3.5970   3.7966   4.0576   4.1315   4.2291   4.4055
     4.4636   4.7141   4.8431   4.9212   5.0103   5.1405   5.3531   5.4394
     5.5181   5.6988   5.9140   6.0290   6.0795   6.2434   6.3785   6.4284
     6.5667   6.6483   6.7274   6.7902   6.9986   7.0861   7.1625   7.2908
     7.4870   7.5466   7.7218   8.0937   8.1620   8.2863   8.6109   8.7591
     9.0375   9.2019   9.5159   9.7144   9.9113  10.1818

     occupation numbers 
     1.0000   1.0000   1.0000   1.0000   1.0000   1.0000   1.0000   1.0000
     1.0000   1.0000   1.0000   1.0000   1.0000   1.0000   1.0000   1.0000
     1.0000   1.0000   1.0000   1.0000   1.0000   1.0000   1.0000   1.0000
     1.0000   1.0000   1.0000   1.0000   1.0000   1.0000   1.0000   1.0000
     1.0000   1.0000   1.0000   1.0000   1.0000   1.0000   1.0000   1.0000
     1.0000   1.0000   1.0000   1.0000   1.0000   1.0000   1.0000   1.0000
     1.0000   1.0000   1.0000   1.0000   1.0000   1.0000

          k =-0.3333 0.3849 0.0000 (  4566 PWs)   bands (ev):

    -8.6259  -8.4375  -7.9466  -7.4210  -7.2945  -7.0186   2.6687   2.9335
     3.3645   3.5095   3.6885   3.8470   3.9677   4.0495   4.1840   4.3342
     4.4653   4.7384   4.8502   4.8971   4.9862   5.0272   5.3837   5.4436
     5.5090   5.7151   5.8782   6.0689   6.1117   6.2575   6.3728   6.4372
     6.5886   6.6647   6.7331   6.7826   6.8970   7.1354   7.1645   7.2863
     7.4314   7.6299   7.7634   8.0910   8.1695   8.2795   8.6450   8.8330
     8.9304   9.2710   9.4566   9.7581   9.8843  10.1923

     occupation numbers 
     1.0000   1.0000   1.0000   1.0000   1.0000   1.0000   1.0000   1.0000
     1.0000   1.0000   1.0000   1.0000   1.0000   1.0000   1.0000   1.0000
     1.0000   1.0000   1.0000   1.0000   1.0000   1.0000   1.0000   1.0000
     1.0000   1.0000   1.0000   1.0000   1.0000   1.0000   1.0000   1.0000
     1.0000   1.0000   1.0000   1.0000   1.0000   1.0000   1.0000   1.0000
     1.0000   1.0000   1.0000   1.0000   1.0000   1.0000   1.0000   1.0000
     1.0000   1.0000   1.0000   1.0000   1.0000   1.0000

          k = 0.5000 0.0962 0.0000 (  4566 PWs)   bands (ev):

    -8.5885  -8.4335  -7.9362  -7.4206  -7.3012  -7.0110   2.6433   2.9732
     3.4435   3.4860   3.7293   3.8025   3.9870   4.2122   4.2778   4.5355
     4.6267   4.7568   4.8104   4.8751   4.9730   5.0897   5.3859   5.5126
     5.5737   5.6177   5.8598   5.9103   6.1095   6.1752   6.3663   6.4098
     6.5271   6.6484   6.6794   6.7131   6.8381   7.0792   7.1464   7.2930
     7.3657   7.5186   7.7735   8.0068   8.1413   8.3973   8.6105   8.7180
     9.0610   9.2350   9.3604   9.6883   9.8444  10.1327

     occupation numbers 
     1.0000   1.0000   1.0000   1.0000   1.0000   1.0000   1.0000   1.0000
     1.0000   1.0000   1.0000   1.0000   1.0000   1.0000   1.0000   1.0000
     1.0000   1.0000   1.0000   1.0000   1.0000   1.0000   1.0000   1.0000
     1.0000   1.0000   1.0000   1.0000   1.0000   1.0000   1.0000   1.0000
     1.0000   1.0000   1.0000   1.0000   1.0000   1.0000   1.0000   1.0000
     1.0000   1.0000   1.0000   1.0000   1.0000   1.0000   1.0000   1.0000
     1.0000   1.0000   1.0000   1.0000   1.0000   1.0000

          k =-0.3333-0.3849 0.0000 (  4566 PWs)   bands (ev):

    -8.6037  -8.4438  -7.9356  -7.4149  -7.3018  -7.0117   2.6698   2.9363
     3.4042   3.4987   3.7565   3.8972   4.0521   4.1386   4.2311   4.4064
     4.5434   4.7286   4.8328   4.9415   4.9908   5.1201   5.3793   5.5041
     5.5324   5.6883   5.8354   6.0408   6.0904   6.2701   6.3950   6.4136
     6.5667   6.6351   6.6685   6.7720   6.8444   7.0504   7.1396   7.2482
     7.3689   7.5482   7.7780   8.0352   8.1316   8.2291   8.5592   8.7696
     8.9256   9.2720   9.4401   9.6827   9.8222  10.1481

     occupation numbers 
     1.0000   1.0000   1.0000   1.0000   1.0000   1.0000   1.0000   1.0000
     1.0000   1.0000   1.0000   1.0000   1.0000   1.0000   1.0000   1.0000
     1.0000   1.0000   1.0000   1.0000   1.0000   1.0000   1.0000   1.0000
     1.0000   1.0000   1.0000   1.0000   1.0000   1.0000   1.0000   1.0000
     1.0000   1.0000   1.0000   1.0000   1.0000   1.0000   1.0000   1.0000
     1.0000   1.0000   1.0000   1.0000   1.0000   1.0000   1.0000   1.0000
     1.0000   1.0000   1.0000   1.0000   1.0000   1.0000

          k = 0.5000-0.0962 0.0000 (  4566 PWs)   bands (ev):

    -8.6052  -8.4276  -7.9438  -7.4247  -7.2962  -7.0157   2.6493   2.9574
     3.4132   3.4963   3.6452   3.7713   3.9935   4.1700   4.2962   4.4478
     4.5618   4.7238   4.8248   4.9059   4.9747   4.9994   5.3695   5.4777
     5.5945   5.6541   5.9007   5.9283   6.1145   6.1657   6.3459   6.4380
     6.5157   6.6414   6.7101   6.7383   6.8368   7.1271   7.1470   7.2907
     7.3942   7.5347   7.7747   8.0391   8.1881   8.3822   8.6428   8.7828
     9.0718   9.3061   9.4469   9.7128   9.8554  10.1991

     occupation numbers 
     1.0000   1.0000   1.0000   1.0000   1.0000   1.0000   1.0000   1.0000
     1.0000   1.0000   1.0000   1.0000   1.0000   1.0000   1.0000   1.0000
     1.0000   1.0000   1.0000   1.0000   1.0000   1.0000   1.0000   1.0000
     1.0000   1.0000   1.0000   1.0000   1.0000   1.0000   1.0000   1.0000
     1.0000   1.0000   1.0000   1.0000   1.0000   1.0000   1.0000   1.0000
     1.0000   1.0000   1.0000   1.0000   1.0000   1.0000   1.0000   1.0000
     1.0000   1.0000   1.0000   1.0000   1.0000   1.0000

          k =-0.1667-0.4811 0.0325 (  4566 PWs)   bands (ev):

    -8.6607  -8.4500  -7.9416  -7.4065  -7.2982  -7.0180   2.7901   2.9029
     3.2595   3.4694   3.6094   3.8092   4.0897   4.1172   4.3293   4.4331
     4.5121   4.7168   4.8691   4.9121   4.9999   5.1898   5.3341   5.4850
     5.4997   5.7003   5.9034   6.0139   6.0687   6.2378   6.3879   6.4230
     6.5248   6.6224   6.7253   6.7717   6.9547   7.0531   7.1379   7.2438
     7.4350   7.5279   7.7165   8.0005   8.1681   8.3152   8.5087   8.7812
     9.0985   9.3020   9.4995   9.7180   9.8172  10.2049

     occupation numbers 
     1.0000   1.0000   1.0000   1.0000   1.0000   1.0000   1.0000   1.0000
     1.0000   1.0000   1.0000   1.0000   1.0000   1.0000   1.0000   1.0000
     1.0000   1.0000   1.0000   1.0000   1.0000   1.0000   1.0000   1.0000
     1.0000   1.0000   1.0000   1.0000   1.0000   1.0000   1.0000   1.0000
     1.0000   1.0000   1.0000   1.0000   1.0000   1.0000   1.0000   1.0000
     1.0000   1.0000   1.0000   1.0000   1.0000   1.0000   1.0000   1.0000
     1.0000   1.0000   1.0000   1.0000   1.0000   1.0000

          k =-0.1667 0.4811-0.0325 (  4566 PWs)   bands (ev):

    -8.6661  -8.4496  -7.9450  -7.4085  -7.2960  -7.0202   2.7909   2.9117
     3.2429   3.4631   3.5883   3.8001   4.0806   4.1150   4.2252   4.4031
     4.4676   4.7065   4.8508   4.9138   5.0143   5.1422   5.3427   5.4333
     5.5188   5.7012   5.9372   6.0152   6.0800   6.2583   6.3730   6.4341
     6.5580   6.6367   6.7314   6.8033   7.0104   7.0708   7.1650   7.2866
     7.4826   7.5522   7.7420   8.0181   8.1569   8.3391   8.5706   8.8109
     9.0029   9.2589   9.4966   9.7104   9.9024  10.1817

     occupation numbers 
     1.0000   1.0000   1.0000   1.0000   1.0000   1.0000   1.0000   1.0000
     1.0000   1.0000   1.0000   1.0000   1.0000   1.0000   1.0000   1.0000
     1.0000   1.0000   1.0000   1.0000   1.0000   1.0000   1.0000   1.0000
     1.0000   1.0000   1.0000   1.0000   1.0000   1.0000   1.0000   1.0000
     1.0000   1.0000   1.0000   1.0000   1.0000   1.0000   1.0000   1.0000
     1.0000   1.0000   1.0000   1.0000   1.0000   1.0000   1.0000   1.0000
     1.0000   1.0000   1.0000   1.0000   1.0000   1.0000

          k = 0.1667-0.4811-0.0325 (  4566 PWs)   bands (ev):

    -8.6661  -8.4496  -7.9450  -7.4085  -7.2960  -7.0202   2.7910   2.9118
     3.2424   3.4540   3.6053   3.8037   4.0337   4.1403   4.2388   4.3970
     4.4620   4.7164   4.8419   4.9288   5.0047   5.1378   5.3612   5.4440
     5.5167   5.7012   5.8926   6.0422   6.0851   6.2359   6.3832   6.4215
     6.5624   6.6515   6.7243   6.8027   6.9791   7.1072   7.1591   7.2952
     7.4550   7.5856   7.7113   8.0758   8.1604   8.3239   8.5906   8.7521
     9.0222   9.2050   9.5465   9.7191   9.8967  10.1787

     occupation numbers 
     1.0000   1.0000   1.0000   1.0000   1.0000   1.0000   1.0000   1.0000
     1.0000   1.0000   1.0000   1.0000   1.0000   1.0000   1.0000   1.0000
     1.0000   1.0000   1.0000   1.0000   1.0000   1.0000   1.0000   1.0000
     1.0000   1.0000   1.0000   1.0000   1.0000   1.0000   1.0000   1.0000
     1.0000   1.0000   1.0000   1.0000   1.0000   1.0000   1.0000   1.0000
     1.0000   1.0000   1.0000   1.0000   1.0000   1.0000   1.0000   1.0000
     1.0000   1.0000   1.0000   1.0000   1.0000   1.0000

          k =-0.3333 0.3849 0.0325 (  4566 PWs)   bands (ev):

    -8.6259  -8.4375  -7.9465  -7.4210  -7.2945  -7.0186   2.6686   2.9333
     3.3633   3.5101   3.6924   3.8553   3.9608   4.0402   4.1862   4.3439
     4.4552   4.7368   4.8620   4.8911   4.9809   5.0281   5.3858   5.4418
     5.5165   5.7140   5.8864   6.0443   6.1219   6.2666   6.3614   6.4464
     6.5795   6.6543   6.7335   6.7810   6.9270   7.1212   7.1691   7.2841
     7.4286   7.6252   7.7696   8.0894   8.1919   8.2729   8.6264   8.7997
     8.9491   9.2899   9.4698   9.7541   9.8768  10.1904

     occupation numbers 
     1.0000   1.0000   1.0000   1.0000   1.0000   1.0000   1.0000   1.0000
     1.0000   1.0000   1.0000   1.0000   1.0000   1.0000   1.0000   1.0000
     1.0000   1.0000   1.0000   1.0000   1.0000   1.0000   1.0000   1.0000
     1.0000   1.0000   1.0000   1.0000   1.0000   1.0000   1.0000   1.0000
     1.0000   1.0000   1.0000   1.0000   1.0000   1.0000   1.0000   1.0000
     1.0000   1.0000   1.0000   1.0000   1.0000   1.0000   1.0000   1.0000
     1.0000   1.0000   1.0000   1.0000   1.0000   1.0000

          k = 0.5000 0.0962 0.0325 (  4566 PWs)   bands (ev):

    -8.5885  -8.4335  -7.9362  -7.4206  -7.3012  -7.0110   2.6432   2.9724
     3.4427   3.4860   3.7402   3.7997   3.9820   4.2035   4.2846   4.5391
     4.6312   4.7407   4.8152   4.8638   5.0013   5.0733   5.3798   5.5150
     5.5765   5.6225   5.8507   5.9205   6.1008   6.1782   6.3565   6.4188
     6.5420   6.6364   6.6869   6.7190   6.8424   7.0586   7.1512   7.2853
     7.3960   7.5019   7.7815   7.9567   8.1363   8.4746   8.5926   8.6912
     9.0494   9.2771   9.3486   9.6847   9.8384  10.1312

     occupation numbers 
     1.0000   1.0000   1.0000   1.0000   1.0000   1.0000   1.0000   1.0000
     1.0000   1.0000   1.0000   1.0000   1.0000   1.0000   1.0000   1.0000
     1.0000   1.0000   1.0000   1.0000   1.0000   1.0000   1.0000   1.0000
     1.0000   1.0000   1.0000   1.0000   1.0000   1.0000   1.0000   1.0000
     1.0000   1.0000   1.0000   1.0000   1.0000   1.0000   1.0000   1.0000
     1.0000   1.0000   1.0000   1.0000   1.0000   1.0000   1.0000   1.0000
     1.0000   1.0000   1.0000   1.0000   1.0000   1.0000

          k =-0.5000-0.0962 0.0325 (  4566 PWs)   bands (ev):

    -8.5885  -8.4335  -7.9362  -7.4206  -7.3012  -7.0110   2.6431   2.9731
     3.4455   3.4823   3.7297   3.8031   4.0079   4.1747   4.2966   4.5299
     4.6254   4.7551   4.8158   4.8895   4.9534   5.0915   5.3905   5.5120
     5.5782   5.6143   5.8631   5.8982   6.1249   6.1812   6.3829   6.4038
     6.4926   6.6396   6.6865   6.7234   6.8480   7.0679   7.1408   7.3052
     7.3620   7.5269   7.7833   7.9821   8.1685   8.3618   8.5601   8.7849
     9.0949   9.1875   9.3852   9.6816   9.8402  10.1319

     occupation numbers 
     1.0000   1.0000   1.0000   1.0000   1.0000   1.0000   1.0000   1.0000
     1.0000   1.0000   1.0000   1.0000   1.0000   1.0000   1.0000   1.0000
     1.0000   1.0000   1.0000   1.0000   1.0000   1.0000   1.0000   1.0000
     1.0000   1.0000   1.0000   1.0000   1.0000   1.0000   1.0000   1.0000
     1.0000   1.0000   1.0000   1.0000   1.0000   1.0000   1.0000   1.0000
     1.0000   1.0000   1.0000   1.0000   1.0000   1.0000   1.0000   1.0000
     1.0000   1.0000   1.0000   1.0000   1.0000   1.0000

          k = 0.3333-0.3849 0.0325 (  4566 PWs)   bands (ev):

    -8.6259  -8.4375  -7.9465  -7.4210  -7.2945  -7.0186   2.6685   2.9335
     3.3621   3.5133   3.6873   3.8468   3.9622   4.0722   4.1697   4.3388
     4.4557   4.7344   4.8417   4.9151   4.9897   5.0226   5.3745   5.4379
     5.5121   5.7192   5.8718   6.0726   6.1310   6.2582   6.3773   6.4280
     6.5763   6.6684   6.7395   6.8047   6.8754   7.1279   7.1623   7.3012
     7.4244   7.6525   7.7676   8.0200   8.1286   8.3797   8.5778   8.8197
     9.0387   9.2461   9.4405   9.7618   9.8752  10.1921

     occupation numbers 
     1.0000   1.0000   1.0000   1.0000   1.0000   1.0000   1.0000   1.0000
     1.0000   1.0000   1.0000   1.0000   1.0000   1.0000   1.0000   1.0000
     1.0000   1.0000   1.0000   1.0000   1.0000   1.0000   1.0000   1.0000
     1.0000   1.0000   1.0000   1.0000   1.0000   1.0000   1.0000   1.0000
     1.0000   1.0000   1.0000   1.0000   1.0000   1.0000   1.0000   1.0000
     1.0000   1.0000   1.0000   1.0000   1.0000   1.0000   1.0000   1.0000
     1.0000   1.0000   1.0000   1.0000   1.0000   1.0000

          k =-0.3333-0.3849-0.0325 (  4566 PWs)   bands (ev):

    -8.6037  -8.4438  -7.9356  -7.4149  -7.3018  -7.0117   2.6698   2.9357
     3.4023   3.5030   3.7529   3.9234   4.0128   4.1522   4.2338   4.4014
     4.5466   4.7302   4.8312   4.9255   5.0037   5.1267   5.3643   5.5177
     5.5334   5.6915   5.8335   6.0289   6.0997   6.2725   6.3952   6.4153
     6.5644   6.6083   6.6856   6.7528   6.8878   7.0366   7.1396   7.2249
     7.3960   7.5380   7.7800   8.0425   8.1580   8.2129   8.5148   8.7842
     8.9226   9.2944   9.4502   9.6723   9.8164  10.1473

     occupation numbers 
     1.0000   1.0000   1.0000   1.0000   1.0000   1.0000   1.0000   1.0000
     1.0000   1.0000   1.0000   1.0000   1.0000   1.0000   1.0000   1.0000
     1.0000   1.0000   1.0000   1.0000   1.0000   1.0000   1.0000   1.0000
     1.0000   1.0000   1.0000   1.0000   1.0000   1.0000   1.0000   1.0000
     1.0000   1.0000   1.0000   1.0000   1.0000   1.0000   1.0000   1.0000
     1.0000   1.0000   1.0000   1.0000   1.0000   1.0000   1.0000   1.0000
     1.0000   1.0000   1.0000   1.0000   1.0000   1.0000

          k = 0.5000-0.0962-0.0325 (  4566 PWs)   bands (ev):

    -8.6052  -8.4276  -7.9438  -7.4247  -7.2962  -7.0157   2.6493   2.9568
     3.4134   3.4954   3.6440   3.7790   3.9973   4.1516   4.3185   4.4266
     4.5676   4.7247   4.8349   4.8945   4.9785   4.9935   5.3690   5.4769
     5.6058   5.6518   5.8906   5.9440   6.0977   6.1710   6.3352   6.4428
     6.5385   6.6222   6.7053   6.7579   6.8434   7.1005   7.1527   7.3046
     7.3943   7.5314   7.7791   8.0028   8.1640   8.4664   8.6275   8.7580
     9.0588   9.3473   9.4301   9.7211   9.8433  10.1973

     occupation numbers 
     1.0000   1.0000   1.0000   1.0000   1.0000   1.0000   1.0000   1.0000
     1.0000   1.0000   1.0000   1.0000   1.0000   1.0000   1.0000   1.0000
     1.0000   1.0000   1.0000   1.0000   1.0000   1.0000   1.0000   1.0000
     1.0000   1.0000   1.0000   1.0000   1.0000   1.0000   1.0000   1.0000
     1.0000   1.0000   1.0000   1.0000   1.0000   1.0000   1.0000   1.0000
     1.0000   1.0000   1.0000   1.0000   1.0000   1.0000   1.0000   1.0000
     1.0000   1.0000   1.0000   1.0000   1.0000   1.0000

          k =-0.5000 0.0962-0.0325 (  4566 PWs)   bands (ev):

    -8.6052  -8.4276  -7.9438  -7.4247  -7.2962  -7.0157   2.6491   2.9574
     3.4125   3.4966   3.6478   3.7685   3.9988   4.1722   4.2850   4.4648
     4.5483   4.7207   4.8165   4.9260   4.9654   4.9997   5.3651   5.4804
     5.5950   5.6562   5.8962   5.9179   6.1375   6.1665   6.3686   6.4278
     6.4837   6.6486   6.7027   6.7484   6.8474   7.1111   7.1402   7.3075
     7.3977   7.5445   7.7755   8.0076   8.1919   8.3817   8.5963   8.8348
     9.1182   9.2608   9.4661   9.6982   9.8550  10.1987

     occupation numbers 
     1.0000   1.0000   1.0000   1.0000   1.0000   1.0000   1.0000   1.0000
     1.0000   1.0000   1.0000   1.0000   1.0000   1.0000   1.0000   1.0000
     1.0000   1.0000   1.0000   1.0000   1.0000   1.0000   1.0000   1.0000
     1.0000   1.0000   1.0000   1.0000   1.0000   1.0000   1.0000   1.0000
     1.0000   1.0000   1.0000   1.0000   1.0000   1.0000   1.0000   1.0000
     1.0000   1.0000   1.0000   1.0000   1.0000   1.0000   1.0000   1.0000
     1.0000   1.0000   1.0000   1.0000   1.0000   1.0000

          k = 0.3333 0.3849-0.0325 (  4566 PWs)   bands (ev):

    -8.6037  -8.4438  -7.9356  -7.4149  -7.3018  -7.0117   2.6696   2.9363
     3.4001   3.5021   3.7659   3.8828   4.0822   4.1243   4.2183   4.4159
     4.5402   4.7170   4.8290   4.9484   4.9996   5.1128   5.3861   5.4913
     5.5317   5.6896   5.8353   6.0464   6.1025   6.2665   6.3890   6.4266
     6.5557   6.6261   6.6902   6.7660   6.8410   7.0622   7.1266   7.2474
     7.3717   7.5591   7.7869   7.9620   8.1146   8.3068   8.5220   8.7483
     9.0085   9.2419   9.4386   9.6889   9.8113  10.1471

     occupation numbers 
     1.0000   1.0000   1.0000   1.0000   1.0000   1.0000   1.0000   1.0000
     1.0000   1.0000   1.0000   1.0000   1.0000   1.0000   1.0000   1.0000
     1.0000   1.0000   1.0000   1.0000   1.0000   1.0000   1.0000   1.0000
     1.0000   1.0000   1.0000   1.0000   1.0000   1.0000   1.0000   1.0000
     1.0000   1.0000   1.0000   1.0000   1.0000   1.0000   1.0000   1.0000
     1.0000   1.0000   1.0000   1.0000   1.0000   1.0000   1.0000   1.0000
     1.0000   1.0000   1.0000   1.0000   1.0000   1.0000

          k =-0.1667-0.4811 0.0649 (  4562 PWs)   bands (ev):

    -8.6607  -8.4500  -7.9416  -7.4065  -7.2982  -7.0180   2.7898   2.9022
     3.2598   3.4692   3.6094   3.8196   4.0737   4.1259   4.3310   4.4323
     4.5106   4.7082   4.8679   4.9152   5.0002   5.1936   5.3358   5.4750
     5.5029   5.7008   5.9015   6.0295   6.0636   6.2388   6.3904   6.4291
     6.5179   6.6137   6.7090   6.8043   6.9584   7.0530   7.1412   7.2202
     7.4416   7.5507   7.7335   7.9169   8.1569   8.3443   8.5380   8.7798
     9.0570   9.3478   9.5253   9.7133   9.7923  10.2000

     occupation numbers 
     1.0000   1.0000   1.0000   1.0000   1.0000   1.0000   1.0000   1.0000
     1.0000   1.0000   1.0000   1.0000   1.0000   1.0000   1.0000   1.0000
     1.0000   1.0000   1.0000   1.0000   1.0000   1.0000   1.0000   1.0000
     1.0000   1.0000   1.0000   1.0000   1.0000   1.0000   1.0000   1.0000
     1.0000   1.0000   1.0000   1.0000   1.0000   1.0000   1.0000   1.0000
     1.0000   1.0000   1.0000   1.0000   1.0000   1.0000   1.0000   1.0000
     1.0000   1.0000   1.0000   1.0000   1.0000   1.0000

          k =-0.1667 0.4811-0.0649 (  4562 PWs)   bands (ev):

    -8.6661  -8.4496  -7.9450  -7.4085  -7.2960  -7.0202   2.7905   2.9111
     3.2429   3.4630   3.5886   3.8102   4.0671   4.1206   4.2301   4.3937
     4.4684   4.7020   4.8567   4.9132   5.0139   5.1406   5.3409   5.4319
     5.5181   5.7049   5.9314   6.0264   6.0818   6.2665   6.3711   6.4351
     6.5434   6.6310   6.7279   6.8355   6.9864   7.0804   7.1847   7.2680
     7.4616   7.5861   7.7588   7.9487   8.1499   8.3808   8.5687   8.7925
     8.9925   9.3025   9.5083   9.7130   9.8772  10.1786

     occupation numbers 
     1.0000   1.0000   1.0000   1.0000   1.0000   1.0000   1.0000   1.0000
     1.0000   1.0000   1.0000   1.0000   1.0000   1.0000   1.0000   1.0000
     1.0000   1.0000   1.0000   1.0000   1.0000   1.0000   1.0000   1.0000
     1.0000   1.0000   1.0000   1.0000   1.0000   1.0000   1.0000   1.0000
     1.0000   1.0000   1.0000   1.0000   1.0000   1.0000   1.0000   1.0000
     1.0000   1.0000   1.0000   1.0000   1.0000   1.0000   1.0000   1.0000
     1.0000   1.0000   1.0000   1.0000   1.0000   1.0000

          k = 0.1667-0.4811-0.0649 (  4562 PWs)   bands (ev):

    -8.6661  -8.4496  -7.9450  -7.4085  -7.2960  -7.0202   2.7907   2.9112
     3.2424   3.4540   3.6051   3.8155   4.0239   4.1404   4.2450   4.3861
     4.4635   4.7113   4.8481   4.9284   5.0041   5.1365   5.3595   5.4417
     5.5155   5.7064   5.8908   6.0476   6.0887   6.2432   6.3812   6.4215
     6.5510   6.6432   6.7234   6.8327   6.9639   7.1073   7.1744   7.2850
     7.4380   7.6160   7.7177   8.0058   8.1460   8.4135   8.5224   8.7934
     8.9742   9.2570   9.5615   9.7256   9.8674  10.1757

     occupation numbers 
     1.0000   1.0000   1.0000   1.0000   1.0000   1.0000   1.0000   1.0000
     1.0000   1.0000   1.0000   1.0000   1.0000   1.0000   1.0000   1.0000
     1.0000   1.0000   1.0000   1.0000   1.0000   1.0000   1.0000   1.0000
     1.0000   1.0000   1.0000   1.0000   1.0000   1.0000   1.0000   1.0000
     1.0000   1.0000   1.0000   1.0000   1.0000   1.0000   1.0000   1.0000
     1.0000   1.0000   1.0000   1.0000   1.0000   1.0000   1.0000   1.0000
     1.0000   1.0000   1.0000   1.0000   1.0000   1.0000

          k =-0.3333 0.3849 0.0649 (  4562 PWs)   bands (ev):

    -8.6259  -8.4375  -7.9465  -7.4210  -7.2945  -7.0186   2.6683   2.9330
     3.3598   3.5143   3.6949   3.8660   3.9455   4.0513   4.1772   4.3634
     4.4301   4.7315   4.8579   4.9119   4.9757   5.0260   5.3798   5.4354
     5.5246   5.7171   5.8874   6.0354   6.1400   6.2806   6.3498   6.4494
     6.5563   6.6527   6.7326   6.7995   6.9427   7.0956   7.1793   7.2851
     7.4271   7.6355   7.7850   8.0268   8.1476   8.3799   8.5517   8.7788
     9.0240   9.3104   9.4577   9.7554   9.8588  10.1883

     occupation numbers 
     1.0000   1.0000   1.0000   1.0000   1.0000   1.0000   1.0000   1.0000
     1.0000   1.0000   1.0000   1.0000   1.0000   1.0000   1.0000   1.0000
     1.0000   1.0000   1.0000   1.0000   1.0000   1.0000   1.0000   1.0000
     1.0000   1.0000   1.0000   1.0000   1.0000   1.0000   1.0000   1.0000
     1.0000   1.0000   1.0000   1.0000   1.0000   1.0000   1.0000   1.0000
     1.0000   1.0000   1.0000   1.0000   1.0000   1.0000   1.0000   1.0000
     1.0000   1.0000   1.0000   1.0000   1.0000   1.0000

          k = 0.5000 0.0962 0.0649 (  4562 PWs)   bands (ev):

    -8.5885  -8.4335  -7.9362  -7.4206  -7.3012  -7.0110   2.6430   2.9715
     3.4439   3.4826   3.7526   3.7963   3.9979   4.1635   4.3040   4.5370
     4.6352   4.7255   4.8254   4.8592   5.0236   5.0500   5.3788   5.5164
     5.5827   5.6257   5.8429   5.9185   6.1108   6.1846   6.3569   6.4264
     6.5226   6.6262   6.6926   6.7338   6.8645   7.0236   7.1487   7.2887
     7.4327   7.4860   7.8059   7.8883   8.1433   8.5055   8.5461   8.7156
     9.0594   9.2989   9.3516   9.6756   9.8275  10.1288

     occupation numbers 
     1.0000   1.0000   1.0000   1.0000   1.0000   1.0000   1.0000   1.0000
     1.0000   1.0000   1.0000   1.0000   1.0000   1.0000   1.0000   1.0000
     1.0000   1.0000   1.0000   1.0000   1.0000   1.0000   1.0000   1.0000
     1.0000   1.0000   1.0000   1.0000   1.0000   1.0000   1.0000   1.0000
     1.0000   1.0000   1.0000   1.0000   1.0000   1.0000   1.0000   1.0000
     1.0000   1.0000   1.0000   1.0000   1.0000   1.0000   1.0000   1.0000
     1.0000   1.0000   1.0000   1.0000   1.0000   1.0000

          k =-0.5000-0.0962 0.0649 (  4562 PWs)   bands (ev):

    -8.5885  -8.4335  -7.9362  -7.4206  -7.3012  -7.0110   2.6428   2.9723
     3.4470   3.4786   3.7401   3.8013   4.0342   4.1291   4.3116   4.5282
     4.6277   4.7408   4.8243   4.8841   4.9660   5.0808   5.3885   5.5143
     5.5876   5.6137   5.8529   5.9002   6.1340   6.1863   6.3912   6.4161
     6.4629   6.6321   6.6854   6.7427   6.8657   7.0328   7.1425   7.3023
     7.3908   7.5233   7.8050   7.9151   8.1642   8.3972   8.5346   8.7960
     9.1058   9.2003   9.3977   9.6713   9.8295  10.1295

     occupation numbers 
     1.0000   1.0000   1.0000   1.0000   1.0000   1.0000   1.0000   1.0000
     1.0000   1.0000   1.0000   1.0000   1.0000   1.0000   1.0000   1.0000
     1.0000   1.0000   1.0000   1.0000   1.0000   1.0000   1.0000   1.0000
     1.0000   1.0000   1.0000   1.0000   1.0000   1.0000   1.0000   1.0000
     1.0000   1.0000   1.0000   1.0000   1.0000   1.0000   1.0000   1.0000
     1.0000   1.0000   1.0000   1.0000   1.0000   1.0000   1.0000   1.0000
     1.0000   1.0000   1.0000   1.0000   1.0000   1.0000

          k = 0.3333-0.3849 0.0649 (  4562 PWs)   bands (ev):

    -8.6259  -8.4375  -7.9465  -7.4210  -7.2945  -7.0186   2.6682   2.9333
     3.3587   3.5173   3.6901   3.8542   3.9521   4.0857   4.1561   4.3565
     4.4323   4.7285   4.8449   4.9278   4.9881   5.0181   5.3671   5.4341
     5.5195   5.7219   5.8722   6.0600   6.1544   6.2685   6.3670   6.4319
     6.5563   6.6632   6.7349   6.8355   6.8803   7.1023   7.1772   7.2999
     7.4231   7.6717   7.7778   7.9607   8.1174   8.4577   8.5202   8.7689
     9.1461   9.2395   9.4229   9.7673   9.8551  10.1901

     occupation numbers 
     1.0000   1.0000   1.0000   1.0000   1.0000   1.0000   1.0000   1.0000
     1.0000   1.0000   1.0000   1.0000   1.0000   1.0000   1.0000   1.0000
     1.0000   1.0000   1.0000   1.0000   1.0000   1.0000   1.0000   1.0000
     1.0000   1.0000   1.0000   1.0000   1.0000   1.0000   1.0000   1.0000
     1.0000   1.0000   1.0000   1.0000   1.0000   1.0000   1.0000   1.0000
     1.0000   1.0000   1.0000   1.0000   1.0000   1.0000   1.0000   1.0000
     1.0000   1.0000   1.0000   1.0000   1.0000   1.0000

          k =-0.3333-0.3849-0.0649 (  4562 PWs)   bands (ev):

    -8.6037  -8.4438  -7.9355  -7.4149  -7.3018  -7.0117   2.6695   2.9352
     3.3968   3.5100   3.7577   3.9406   3.9914   4.1605   4.2225   4.4059
     4.5471   4.7196   4.8254   4.9226   5.0200   5.1266   5.3557   5.5200
     5.5325   5.6956   5.8316   6.0267   6.1188   6.2686   6.3923   6.4331
     6.5414   6.5944   6.6976   6.7497   6.9195   7.0287   7.1310   7.2035
     7.4238   7.5342   7.7952   7.9689   8.1556   8.2909   8.4491   8.7651
     8.9859   9.3110   9.4470   9.6704   9.7984  10.1454

     occupation numbers 
     1.0000   1.0000   1.0000   1.0000   1.0000   1.0000   1.0000   1.0000
     1.0000   1.0000   1.0000   1.0000   1.0000   1.0000   1.0000   1.0000
     1.0000   1.0000   1.0000   1.0000   1.0000   1.0000   1.0000   1.0000
     1.0000   1.0000   1.0000   1.0000   1.0000   1.0000   1.0000   1.0000
     1.0000   1.0000   1.0000   1.0000   1.0000   1.0000   1.0000   1.0000
     1.0000   1.0000   1.0000   1.0000   1.0000   1.0000   1.0000   1.0000
     1.0000   1.0000   1.0000   1.0000   1.0000   1.0000

          k = 0.5000-0.0962-0.0649 (  4562 PWs)   bands (ev):

    -8.6052  -8.4276  -7.9438  -7.4247  -7.2962  -7.0157   2.6491   2.9562
     3.4128   3.4948   3.6455   3.7837   4.0089   4.1335   4.3288   4.4199
     4.5632   4.7217   4.8346   4.9028   4.9773   4.9869   5.3646   5.4787
     5.6167   5.6525   5.8786   5.9434   6.1065   6.1776   6.3380   6.4444
     6.5257   6.6186   6.7002   6.7738   6.8710   7.0584   7.1505   7.3250
     7.4053   7.5376   7.7820   7.9422   8.1560   8.5255   8.5882   8.7611
     9.0850   9.3738   9.4130   9.7194   9.8290  10.1950

     occupation numbers 
     1.0000   1.0000   1.0000   1.0000   1.0000   1.0000   1.0000   1.0000
     1.0000   1.0000   1.0000   1.0000   1.0000   1.0000   1.0000   1.0000
     1.0000   1.0000   1.0000   1.0000   1.0000   1.0000   1.0000   1.0000
     1.0000   1.0000   1.0000   1.0000   1.0000   1.0000   1.0000   1.0000
     1.0000   1.0000   1.0000   1.0000   1.0000   1.0000   1.0000   1.0000
     1.0000   1.0000   1.0000   1.0000   1.0000   1.0000   1.0000   1.0000
     1.0000   1.0000   1.0000   1.0000   1.0000   1.0000

          k =-0.5000 0.0962-0.0649 (  4562 PWs)   bands (ev):

    -8.6052  -8.4276  -7.9438  -7.4247  -7.2962  -7.0157   2.6488   2.9569
     3.4119   3.4960   3.6491   3.7733   4.0094   4.1527   4.2950   4.4619
     4.5427   4.7181   4.8178   4.9376   4.9582   4.9941   5.3608   5.4819
     5.6061   5.6570   5.8785   5.9248   6.1456   6.1703   6.3853   6.4203
     6.4696   6.6424   6.6949   6.7702   6.8704   7.0652   7.1453   7.3271
     7.4059   7.5552   7.7757   7.9484   8.1677   8.4455   8.5737   8.8287
     9.1589   9.2605   9.4651   9.6934   9.8429  10.1965

     occupation numbers 
     1.0000   1.0000   1.0000   1.0000   1.0000   1.0000   1.0000   1.0000
     1.0000   1.0000   1.0000   1.0000   1.0000   1.0000   1.0000   1.0000
     1.0000   1.0000   1.0000   1.0000   1.0000   1.0000   1.0000   1.0000
     1.0000   1.0000   1.0000   1.0000   1.0000   1.0000   1.0000   1.0000
     1.0000   1.0000   1.0000   1.0000   1.0000   1.0000   1.0000   1.0000
     1.0000   1.0000   1.0000   1.0000   1.0000   1.0000   1.0000   1.0000
     1.0000   1.0000   1.0000   1.0000   1.0000   1.0000

          k = 0.3333 0.3849-0.0649 (  4562 PWs)   bands (ev):

    -8.6037  -8.4438  -7.9355  -7.4149  -7.3018  -7.0117   2.6693   2.9358
     3.3949   3.5088   3.7715   3.8878   4.0661   4.1391   4.2068   4.4203
     4.5406   4.7064   4.8247   4.9398   5.0212   5.1111   5.3754   5.4960
     5.5314   5.6933   5.8332   6.0410   6.1255   6.2616   6.3881   6.4433
     6.5366   6.6055   6.7005   6.7622   6.8701   7.0632   7.1203   7.2153
     7.4035   7.5619   7.7945   7.9173   8.1088   8.3707   8.4554   8.7292
     9.0783   9.2441   9.4340   9.6923   9.7907  10.1452

     occupation numbers 
     1.0000   1.0000   1.0000   1.0000   1.0000   1.0000   1.0000   1.0000
     1.0000   1.0000   1.0000   1.0000   1.0000   1.0000   1.0000   1.0000
     1.0000   1.0000   1.0000   1.0000   1.0000   1.0000   1.0000   1.0000
     1.0000   1.0000   1.0000   1.0000   1.0000   1.0000   1.0000   1.0000
     1.0000   1.0000   1.0000   1.0000   1.0000   1.0000   1.0000   1.0000
     1.0000   1.0000   1.0000   1.0000   1.0000   1.0000   1.0000   1.0000
     1.0000   1.0000   1.0000   1.0000   1.0000   1.0000

          k =-0.1667 0.4811 0.0974 (  4558 PWs)   bands (ev):

    -8.6661  -8.4496  -7.9450  -7.4085  -7.2960  -7.0202   2.7905   2.9108
     3.2427   3.4582   3.5970   3.8184   4.0376   4.1340   4.2402   4.3853
     4.4661   4.7045   4.8551   4.9203   5.0093   5.1376   5.3494   5.4359
     5.5163   5.7077   5.9081   6.0444   6.0846   6.2588   6.3748   6.4293
     6.5410   6.6340   6.7239   6.8538   6.9604   7.0935   7.2038   7.2545
     7.4464   7.6132   7.7449   7.9478   8.1427   8.4111   8.5527   8.7816
     8.9776   9.2987   9.5430   9.7246   9.8558  10.1756

     occupation numbers 
     1.0000   1.0000   1.0000   1.0000   1.0000   1.0000   1.0000   1.0000
     1.0000   1.0000   1.0000   1.0000   1.0000   1.0000   1.0000   1.0000
     1.0000   1.0000   1.0000   1.0000   1.0000   1.0000   1.0000   1.0000
     1.0000   1.0000   1.0000   1.0000   1.0000   1.0000   1.0000   1.0000
     1.0000   1.0000   1.0000   1.0000   1.0000   1.0000   1.0000   1.0000
     1.0000   1.0000   1.0000   1.0000   1.0000   1.0000   1.0000   1.0000
     1.0000   1.0000   1.0000   1.0000   1.0000   1.0000

          k =-0.3333 0.3849-0.0974 (  4558 PWs)   bands (ev):

    -8.6259  -8.4375  -7.9465  -7.4210  -7.2945  -7.0186   2.6681   2.9330
     3.3576   3.5177   3.6939   3.8648   3.9427   4.0725   4.1628   4.3759
     4.4124   4.7272   4.8518   4.9286   4.9781   5.0214   5.3700   5.4332
     5.5250   5.7208   5.8794   6.0452   6.1553   6.2822   6.3511   6.4438
     6.5452   6.6567   6.7309   6.8249   6.9220   7.0865   7.1883   7.2853
     7.4285   7.6575   7.7915   7.9651   8.1244   8.4488   8.5220   8.7497
     9.1063   9.3091   9.4202   9.7661   9.8454  10.1881

     occupation numbers 
     1.0000   1.0000   1.0000   1.0000   1.0000   1.0000   1.0000   1.0000
     1.0000   1.0000   1.0000   1.0000   1.0000   1.0000   1.0000   1.0000
     1.0000   1.0000   1.0000   1.0000   1.0000   1.0000   1.0000   1.0000
     1.0000   1.0000   1.0000   1.0000   1.0000   1.0000   1.0000   1.0000
     1.0000   1.0000   1.0000   1.0000   1.0000   1.0000   1.0000   1.0000
     1.0000   1.0000   1.0000   1.0000   1.0000   1.0000   1.0000   1.0000
     1.0000   1.0000   1.0000   1.0000   1.0000   1.0000

          k = 0.5000 0.0962-0.0974 (  4558 PWs)   bands (ev):

    -8.5885  -8.4335  -7.9362  -7.4206  -7.3012  -7.0110   2.6428   2.9715
     3.4460   3.4789   3.7519   3.7974   4.0291   4.1246   4.3143   4.5316
     4.6328   4.7270   4.8297   4.8664   5.0002   5.0620   5.3828   5.5162
     5.5887   5.6209   5.8428   5.9096   6.1285   6.1867   6.3722   6.4303
     6.4804   6.6274   6.6879   6.7465   6.8798   7.0072   7.1455   7.2949
     7.4256   7.5034   7.8314   7.8558   8.1509   8.4478   8.5485   8.7564
     9.0809   9.2665   9.3792   9.6692   9.8228  10.1280

     occupation numbers 
     1.0000   1.0000   1.0000   1.0000   1.0000   1.0000   1.0000   1.0000
     1.0000   1.0000   1.0000   1.0000   1.0000   1.0000   1.0000   1.0000
     1.0000   1.0000   1.0000   1.0000   1.0000   1.0000   1.0000   1.0000
     1.0000   1.0000   1.0000   1.0000   1.0000   1.0000   1.0000   1.0000
     1.0000   1.0000   1.0000   1.0000   1.0000   1.0000   1.0000   1.0000
     1.0000   1.0000   1.0000   1.0000   1.0000   1.0000   1.0000   1.0000
     1.0000   1.0000   1.0000   1.0000   1.0000   1.0000

          k =-0.3333-0.3849 0.0974 (  4558 PWs)   bands (ev):

    -8.6037  -8.4438  -7.9355  -7.4149  -7.3018  -7.0117   2.6693   2.9352
     3.3934   3.5125   3.7667   3.9135   4.0245   4.1586   4.2076   4.4151
     4.5444   4.7074   4.8228   4.9295   5.0288   5.1184   5.3604   5.5104
     5.5314   5.6962   5.8313   6.0329   6.1330   6.2609   6.3907   6.4514
     6.5227   6.5940   6.6971   6.7625   6.9052   7.0448   7.1272   7.1934
     7.4282   7.5469   7.8035   7.9157   8.1285   8.3654   8.4226   8.7350
     9.0524   9.3003   9.4283   9.6854   9.7831  10.1445

     occupation numbers 
     1.0000   1.0000   1.0000   1.0000   1.0000   1.0000   1.0000   1.0000
     1.0000   1.0000   1.0000   1.0000   1.0000   1.0000   1.0000   1.0000
     1.0000   1.0000   1.0000   1.0000   1.0000   1.0000   1.0000   1.0000
     1.0000   1.0000   1.0000   1.0000   1.0000   1.0000   1.0000   1.0000
     1.0000   1.0000   1.0000   1.0000   1.0000   1.0000   1.0000   1.0000
     1.0000   1.0000   1.0000   1.0000   1.0000   1.0000   1.0000   1.0000
     1.0000   1.0000   1.0000   1.0000   1.0000   1.0000

          k = 0.5000-0.0962 0.0974 (  4558 PWs)   bands (ev):

    -8.6052  -8.4276  -7.9438  -7.4247  -7.2962  -7.0157   2.6488   2.9563
     3.4121   3.4951   3.6480   3.7808   4.0160   4.1324   4.3153   4.4388
     4.5520   4.7182   4.8262   4.9223   4.9689   4.9875   5.3607   5.4812
     5.6162   5.6559   5.8719   5.9341   6.1302   6.1771   6.3582   6.4401
     6.4885   6.6304   6.6953   6.7786   6.8893   7.0370   7.1484   7.3315
     7.4137   7.5523   7.7760   7.9196   8.1557   8.4905   8.5958   8.7821
     9.1303   9.3335   9.4343   9.7067   9.8292  10.1946

     occupation numbers 
     1.0000   1.0000   1.0000   1.0000   1.0000   1.0000   1.0000   1.0000
     1.0000   1.0000   1.0000   1.0000   1.0000   1.0000   1.0000   1.0000
     1.0000   1.0000   1.0000   1.0000   1.0000   1.0000   1.0000   1.0000
     1.0000   1.0000   1.0000   1.0000   1.0000   1.0000   1.0000   1.0000
     1.0000   1.0000   1.0000   1.0000   1.0000   1.0000   1.0000   1.0000
     1.0000   1.0000   1.0000   1.0000   1.0000   1.0000   1.0000   1.0000
     1.0000   1.0000   1.0000   1.0000   1.0000   1.0000

          k =-0.3333-0.5774 0.0325 (  4542 PWs)   bands (ev):

    -8.4638  -8.3842  -7.8182  -7.3315  -7.1742  -6.9505   2.9616   3.2576
     3.5374   3.7516   3.9564   3.9872   4.1059   4.2149   4.3228   4.3733
     4.4025   4.7430   4.8656   4.9296   5.0022   5.2170   5.4584   5.6027
     5.6842   5.7364   5.8411   5.9539   6.0507   6.1442   6.2443   6.4099
     6.4793   6.5780   6.6195   6.6658   6.7102   6.9036   7.0844   7.1972
     7.2634   7.2781   7.4661   7.4997   7.7665   8.0128   8.3756   8.5145
     8.6478   9.0741   9.1016   9.2429   9.4654   9.7074

     occupation numbers 
     1.0000   1.0000   1.0000   1.0000   1.0000   1.0000   1.0000   1.0000
     1.0000   1.0000   1.0000   1.0000   1.0000   1.0000   1.0000   1.0000
     1.0000   1.0000   1.0000   1.0000   1.0000   1.0000   1.0000   1.0000
     1.0000   1.0000   1.0000   1.0000   1.0000   1.0000   1.0000   1.0000
     1.0000   1.0000   1.0000   1.0000   1.0000   1.0000   1.0000   1.0000
     1.0000   1.0000   1.0000   1.0000   1.0000   1.0000   1.0000   1.0000
     1.0000   1.0000   1.0000   1.0000   1.0000   1.0000

          k =-0.3333-0.5774 0.0649 (  4554 PWs)   bands (ev):

    -8.4638  -8.3842  -7.8182  -7.3315  -7.1742  -6.9505   2.9614   3.2571
     3.5352   3.7473   3.9564   3.9932   4.1281   4.2190   4.3097   4.3643
     4.4081   4.7410   4.8517   4.9116   5.0003   5.2327   5.4637   5.6088
     5.6841   5.7439   5.8414   5.9545   6.0579   6.1530   6.2488   6.3675
     6.4302   6.5938   6.6594   6.6878   6.7447   6.8656   7.0475   7.1629
     7.2775   7.2986   7.4810   7.5492   7.7578   7.9583   8.3804   8.5324
     8.6707   9.0688   9.1050   9.1890   9.4866   9.7192

     occupation numbers 
     1.0000   1.0000   1.0000   1.0000   1.0000   1.0000   1.0000   1.0000
     1.0000   1.0000   1.0000   1.0000   1.0000   1.0000   1.0000   1.0000
     1.0000   1.0000   1.0000   1.0000   1.0000   1.0000   1.0000   1.0000
     1.0000   1.0000   1.0000   1.0000   1.0000   1.0000   1.0000   1.0000
     1.0000   1.0000   1.0000   1.0000   1.0000   1.0000   1.0000   1.0000
     1.0000   1.0000   1.0000   1.0000   1.0000   1.0000   1.0000   1.0000
     1.0000   1.0000   1.0000   1.0000   1.0000   1.0000

     highest occupied level (ev):    11.7536

!    total energy              =   -1084.41601376 Ry
     estimated scf accuracy    <          1.4E-09 Ry

     The total energy is the sum of the following terms:
     one-electron contribution =    -374.18688362 Ry
     hartree contribution      =     324.32226825 Ry
     xc contribution           =    -330.49882383 Ry
     ewald contribution        =    -704.05257456 Ry

     convergence has been achieved in  27 iterations

     Forces acting on atoms (cartesian axes, Ry/au):

     atom    1 type  1   force =    -0.07317996   -0.13692443    0.14089278
     atom    2 type  1   force =     0.02186137   -0.10249190    0.06951673
     atom    3 type  2   force =    -0.03191895    0.04100410   -0.06303503
     atom    4 type  2   force =     0.07479152    0.13630192   -0.12102716
     atom    5 type  1   force =    -0.02753371   -0.01668640    0.09214913
     atom    6 type  1   force =     0.03020848   -0.04418250    0.03919104
     atom    7 type  2   force =    -0.01642851   -0.00169459   -0.05778992
     atom    8 type  2   force =     0.02850575    0.01553801   -0.08537421
     atom    9 type  1   force =     0.03027283   -0.00748577   -0.01225353
     atom   10 type  1   force =     0.01481671    0.00166322    0.03413348
     atom   11 type  2   force =    -0.01998534    0.10509617   -0.04591433
     atom   12 type  2   force =    -0.03141021    0.00986217    0.00951103
     The non-local contrib.  to forces
     atom    1 type  1   force =    -0.09483211   -0.28051511    0.12975092
     atom    2 type  1   force =     0.06554816   -0.17872931    0.20619879
     atom    3 type  2   force =     0.03524606   -0.07384027    0.24410017
     atom    4 type  2   force =    -0.01347161   -0.17206294   -0.01992718
     atom    5 type  1   force =    -0.04249974   -0.02063361    0.06115747
     atom    6 type  1   force =     0.07225535   -0.06975714    0.24929952
     atom    7 type  2   force =     0.03402259    0.02842275    0.16496121
     atom    8 type  2   force =    -0.02825559    0.01096266   -0.05648285
     atom    9 type  1   force =     0.06611084   -0.00572923    0.29497785
     atom   10 type  1   force =     0.02052591   -0.00622049    0.17858616
     atom   11 type  2   force =     0.01337304   -0.08979892    0.12372729
     atom   12 type  2   force =     0.03584672   -0.03914105    0.31385719
     The ionic contribution  to forces
     atom    1 type  1   force =    -0.85013460   -2.11773060    3.91561941
     atom    2 type  1   force =     0.47366292   -1.20125666   -0.38539819
     atom    3 type  2   force =    -0.52521318    0.58961619   -2.84191725
     atom    4 type  2   force =     0.74987200    1.91785350   -1.00352604
     atom    5 type  1   force =    -0.36062258   -0.07961101    3.29057227
     atom    6 type  1   force =     0.54257772   -0.49015779   -0.72182085
     atom    7 type  2   force =    -0.32888613   -0.17496584   -0.35302637
     atom    8 type  2   force =     0.42744440   -0.04854886   -0.73090977
     atom    9 type  1   force =     0.39169955    0.04395994   -0.79920945
     atom   10 type  1   force =     0.11829225   -0.04950363    3.71080556
     atom   11 type  2   force =    -0.20778767    1.32600251   -2.46274924
     atom   12 type  2   force =    -0.43090468    0.28434225   -1.61844009
     The local contribution  to forces
     atom    1 type  1   force =     0.86030009    2.22935156   -3.88072476
     atom    2 type  1   force =    -0.51083635    1.25801958    0.26755038
     atom    3 type  2   force =     0.45818675   -0.47526754    2.53654353
     atom    4 type  2   force =    -0.66136004   -1.61036559    0.90155798
     atom    5 type  1   force =     0.37054601    0.08090633   -3.24532572
     atom    6 type  1   force =    -0.57728666    0.50772523    0.52929611
     atom    7 type  2   force =     0.27865495    0.14508796    0.13141002
     atom    8 type  2   force =    -0.37078855    0.05326502    0.70101301
     atom    9 type  1   force =    -0.42105656   -0.04628909    0.50566133
     atom   10 type  1   force =    -0.12158159    0.05700963   -3.84203537
     atom   11 type  2   force =     0.17445326   -1.13140203    2.29390693
     atom   12 type  2   force =     0.36381853   -0.23563979    1.31692016
     The core correction contribution to forces
     atom    1 type  1   force =     0.01148790    0.03197754   -0.02384525
     atom    2 type  1   force =    -0.00651363    0.01947818   -0.01879389
     atom    3 type  2   force =    -0.00013842    0.00049648   -0.00178211
     atom    4 type  2   force =    -0.00024891    0.00087609    0.00082777
     atom    5 type  1   force =     0.00504445    0.00265136   -0.01431679
     atom    6 type  1   force =    -0.00733628    0.00800428   -0.01759605
     atom    7 type  2   force =    -0.00022078   -0.00024029   -0.00114870
     atom    8 type  2   force =     0.00010587   -0.00014127    0.00098685
     atom    9 type  1   force =    -0.00648017    0.00057321   -0.01355677
     atom   10 type  1   force =    -0.00242166    0.00037295   -0.01322854
     atom   11 type  2   force =    -0.00002399    0.00029320   -0.00076838
     atom   12 type  2   force =    -0.00017101    0.00030074   -0.00276789
     The Hubbard contrib.    to forces
     atom    1 type  1   force =     0.00000000    0.00000000    0.00000000
     atom    2 type  1   force =     0.00000000    0.00000000    0.00000000
     atom    3 type  2   force =     0.00000000    0.00000000    0.00000000
     atom    4 type  2   force =     0.00000000    0.00000000    0.00000000
     atom    5 type  1   force =     0.00000000    0.00000000    0.00000000
     atom    6 type  1   force =     0.00000000    0.00000000    0.00000000
     atom    7 type  2   force =     0.00000000    0.00000000    0.00000000
     atom    8 type  2   force =     0.00000000    0.00000000    0.00000000
     atom    9 type  1   force =     0.00000000    0.00000000    0.00000000
     atom   10 type  1   force =     0.00000000    0.00000000    0.00000000
     atom   11 type  2   force =     0.00000000    0.00000000    0.00000000
     atom   12 type  2   force =     0.00000000    0.00000000    0.00000000
     The SCF correction term to forces
     atom    1 type  1   force =    -0.00000138   -0.00000834    0.00009247
     atom    2 type  1   force =     0.00000013   -0.00000421   -0.00004034
     atom    3 type  2   force =    -0.00000031   -0.00000129    0.00002064
     atom    4 type  2   force =    -0.00000007    0.00000035    0.00004032
     atom    5 type  1   force =    -0.00000201    0.00000000    0.00006193
     atom    6 type  1   force =    -0.00000180    0.00000241    0.00001232
     atom    7 type  2   force =     0.00000071    0.00000031    0.00001393
     atom    8 type  2   force =    -0.00000053   -0.00000006    0.00001856
     atom    9 type  1   force =    -0.00000099   -0.00000112   -0.00012648
     atom   10 type  1   force =     0.00000165    0.00000424    0.00000568
     atom   11 type  2   force =    -0.00000013    0.00000089   -0.00003093
     atom   12 type  2   force =     0.00000008   -0.00000051   -0.00005832

     Total force =     0.385206     Total SCF correction =     0.000193

     init_run     :      8.61s CPU      5.31s WALL (       1 calls)
     electrons    :    602.56s CPU    310.93s WALL (       1 calls)
     forces       :      2.74s CPU      1.45s WALL (       1 calls)

     Called by init_run:
     wfcinit      :      6.12s CPU      3.24s WALL (       1 calls)
     wfcinit:atom :      0.07s CPU      0.04s WALL (      14 calls)
     wfcinit:wfcr :      5.63s CPU      2.88s WALL (      14 calls)
     potinit      :      0.61s CPU      0.40s WALL (       1 calls)
     hinit0       :      1.72s CPU      1.54s WALL (       1 calls)

     Called by electrons:
     c_bands      :    533.81s CPU    276.63s WALL (      27 calls)
     sum_band     :     59.91s CPU     29.25s WALL (      27 calls)
     v_of_rho     :      5.11s CPU      2.92s WALL (      28 calls)
     v_h          :      0.27s CPU      0.19s WALL (      28 calls)
     v_xc         :      5.01s CPU      2.82s WALL (      29 calls)
     newd         :      2.55s CPU      1.35s WALL (      28 calls)
     mix_rho      :      0.81s CPU      0.55s WALL (      27 calls)

     Called by c_bands:
     init_us_2    :      3.96s CPU      1.94s WALL (     784 calls)
     init_us_2:cp :      3.95s CPU      1.93s WALL (     784 calls)
     cegterg      :    492.81s CPU    246.30s WALL (     379 calls)

     Called by sum_band:
     sum_band:wei :      0.01s CPU      0.01s WALL (      27 calls)
     sum_band:loo :     55.63s CPU     26.74s WALL (      27 calls)
     sum_band:buf :      0.57s CPU      0.31s WALL (     378 calls)
     sum_band:ini :      1.65s CPU      0.76s WALL (     378 calls)
     sum_band:cal :      8.99s CPU      4.88s WALL (     378 calls)
     sum_band:bec :      0.14s CPU      0.10s WALL (     378 calls)
     addusdens    :      3.13s CPU      1.60s WALL (      27 calls)
     addusd:skk   :      0.03s CPU      0.01s WALL (      54 calls)
     addusd:dgemm :      0.63s CPU      0.30s WALL (      54 calls)
     addusd:qvan2 :      1.89s CPU      0.89s WALL (      54 calls)

     Called by *egterg:
     cdiaghg      :     29.23s CPU     22.85s WALL (    2503 calls)
     cegterg:over :     34.05s CPU     17.92s WALL (    2124 calls)
     cegterg:upda :     18.68s CPU      8.46s WALL (    2124 calls)
     cegterg:last :     34.91s CPU     17.25s WALL (    1277 calls)
     h_psi        :    339.93s CPU    162.19s WALL (    2517 calls)
     s_psi        :     27.28s CPU     12.59s WALL (    2517 calls)
     g_psi        :      1.55s CPU      0.92s WALL (    2124 calls)

     Called by h_psi:
     h_psi:calbec :     32.98s CPU     15.88s WALL (    2517 calls)
     vloc_psi     :    281.00s CPU    132.88s WALL (    2517 calls)
     add_vuspsi   :     24.76s CPU     12.84s WALL (    2517 calls)

     General routines
     calbec       :     43.10s CPU     21.33s WALL (    2951 calls)
     fft          :      3.27s CPU      2.27s WALL (     373 calls)
     ffts         :      0.21s CPU      0.14s WALL (      55 calls)
     fftw         :    283.39s CPU    133.88s WALL (  168684 calls)
     interpolate  :      0.33s CPU      0.24s WALL (      28 calls)

     Parallel routines

     PWSCF        :  10m14.53s CPU   5m18.29s WALL


   This run was terminated on:  12: 9:39  24Sep2025            

=------------------------------------------------------------------------------=
   JOB DONE.
=------------------------------------------------------------------------------=
