
     Program PWSCF v.7.0 starts on 25Sep2025 at 20:12:43 

     This program is part of the open-source Quantum ESPRESSO suite
     for quantum simulation of materials; please cite
         "P. Giannozzi et al., J. Phys.:Condens. Matter 21 395502 (2009);
         "P. Giannozzi et al., J. Phys.:Condens. Matter 29 465901 (2017);
         "P. Giannozzi et al., J. Chem. Phys. 152 154105 (2020);
          URL http://www.quantum-espresso.org", 
     in publications or presentations arising from this work. More details at
     http://www.quantum-espresso.org/quote

     Parallel version (MPI & OpenMP), running on      32 processor cores
     Number of MPI processes:                16
     Threads/MPI process:                     2

     MPI processes distributed on     1 nodes
     K-points division:     npool     =       8
     R & G space division:  proc/nbgrp/npool/nimage =       2
     105741 MiB available memory on the printing compute node when the environment starts

     Reading input from /home/jvc/QEspresso7.2/ZnO_database/scripts/random_1x1x3.in/ZnO-3.47-1.65-113-0.06-2.in
Warning: card &CELL ignored
Warning: card / ignored
Warning: card &FCP ignored
Warning: card / ignored
Warning: card &RISM ignored
Warning: card / ignored

     Current dimensions of program PWSCF are:
     Max number of different atomic species (ntypx) = 10
     Max number of k-points (npk) =  40000
     Max angular momentum in pseudopotentials (lmaxx) =  4
     file Zn.upf: wavefunction(s)  3D renormalized

     Subspace diagonalization in iterative solution of the eigenvalue problem:
     a serial algorithm will be used


     Parallelization info
     --------------------
     sticks:   dense  smooth     PW     G-vecs:    dense   smooth      PW
     Min         588     291     84                81107    28689    4603
     Max         589     292     85                81110    28714    4608
     Sum        1177     583    169               162217    57403    9211

     Using Slab Decomposition



     bravais-lattice index     =            0
     lattice parameter (alat)  =       6.5496  a.u.
     unit-cell volume          =    1201.9694 (a.u.)^3
     number of atoms/cell      =           12
     number of atomic types    =            2
     number of electrons       =       108.00
     number of Kohn-Sham states=           54
     kinetic-energy cutoff     =      50.0000  Ry
     charge density cutoff     =     400.0000  Ry
     scf convergence threshold =      1.0E-08
     mixing beta               =       0.3000
     number of iterations used =            8  plain     mixing
     Exchange-correlation= PBE
                           (   1   4   3   4   0   0   0)

     celldm(1)=   6.549585  celldm(2)=   0.000000  celldm(3)=   0.000000
     celldm(4)=   0.000000  celldm(5)=   0.000000  celldm(6)=   0.000000

     crystal axes: (cart. coord. in units of alat)
               a(1) = (   1.000000   0.000000   0.000000 )  
               a(2) = (  -0.500000   0.866025   0.000000 )  
               a(3) = (   0.000000   0.000000   4.939937 )  

     reciprocal axes: (cart. coord. in units 2 pi/alat)
               b(1) = (  1.000000  0.577350 -0.000000 )  
               b(2) = (  0.000000  1.154701  0.000000 )  
               b(3) = (  0.000000 -0.000000  0.202432 )  


     PseudoPot. # 1 for Zn read from file:
     /home/jvc/QEspresso7.2/ZnO_database/pseudos/Zn.upf
     MD5 check sum: 7f56cabf9682ed8c977c2f7d0c5985c5
     Pseudo is Ultrasoft + core correction, Zval = 12.0
     Generated using &quot;atomic&quot; code by A. Dal Corso  v.6.2.2
     Using radial grid of 1201 points,  6 beta functions with: 
                l(1) =   0
                l(2) =   0
                l(3) =   1
                l(4) =   1
                l(5) =   2
                l(6) =   2
     Q(r) pseudized with 0 coefficients 


     PseudoPot. # 2 for O  read from file:
     /home/jvc/QEspresso7.2/ZnO_database/pseudos/O.upf
     MD5 check sum: 91400c9766925bcf19f520983a725ff0
     Pseudo is Ultrasoft + core correction, Zval =  6.0
     Generated using &quot;atomic&quot; code by A. Dal Corso  v.6.3MaX
     Using radial grid of 1095 points,  4 beta functions with: 
                l(1) =   0
                l(2) =   0
                l(3) =   1
                l(4) =   1
     Q(r) pseudized with 0 coefficients 


     atomic species   valence    mass     pseudopotential
        Zn            12.00    65.38000     Zn( 1.00)
        O              6.00    15.99900     O ( 1.00)

     No symmetry found


                                    s                        frac. trans.

      isym =  1     identity                                     

 cryst.   s( 1) = (     1          0          0      )
                  (     0          1          0      )
                  (     0          0          1      )

 cart.    s( 1) = (  1.0000000  0.0000000  0.0000000 )
                  (  0.0000000  1.0000000  0.0000000 )
                  (  0.0000000  0.0000000  1.0000000 )


   Cartesian axes

     site n.     atom                  positions (alat units)
         1           Zn  tau(   1) = (   0.5174786   0.2697679   0.8509969  )
         2           Zn  tau(   2) = (  -0.0117194   0.5721413   0.0180954  )
         3           O   tau(   3) = (   0.4885850   0.2669159   1.4432542  )
         4           O   tau(   4) = (   0.0043984   0.5632917   0.6269506  )
         5           Zn  tau(   5) = (   0.4706098   0.2833148   2.4894337  )
         6           Zn  tau(   6) = (  -0.0091229   0.5833242   1.6619425  )
         7           O   tau(   7) = (   0.4782781   0.3055962   3.1205591  )
         8           O   tau(   8) = (   0.0040700   0.5739607   2.2658910  )
         9           Zn  tau(   9) = (   0.4945900   0.2958995   4.1049813  )
        10           Zn  tau(  10) = (   0.0017700   0.5889041   3.2616135  )
        11           O   tau(  11) = (   0.5080281   0.3125634   4.7477875  )
        12           O   tau(  12) = (  -0.0098425   0.5397388   3.9114561  )

   Crystallographic axes

     site n.     atom                  positions (cryst. coord.)
         1           Zn  tau(   1) = (  0.6732291  0.3115011  0.1722688  )
         2           Zn  tau(   2) = (  0.3186065  0.6606519  0.0036631  )
         3           O   tau(   3) = (  0.6426890  0.3082080  0.2921605  )
         4           O   tau(   4) = (  0.3296149  0.6504332  0.1269147  )
         5           Zn  tau(   5) = (  0.6341817  0.3271437  0.5039404  )
         6           Zn  tau(   6) = (  0.3276595  0.6735647  0.3364299  )
         7           O   tau(   7) = (  0.6547141  0.3528720  0.6317002  )
         8           O   tau(   8) = (  0.3354463  0.6627527  0.4586883  )
         9           Zn  tau(   9) = (  0.6654276  0.3416753  0.8309785  )
        10           Zn  tau(  10) = (  0.3417739  0.6800079  0.6602541  )
        11           O   tau(  11) = (  0.6884867  0.3609172  0.9611029  )
        12           O   tau(  12) = (  0.3017759  0.6232367  0.7918029  )

     number of k points=   112
                       cart. coord. in units 2pi/alat
        k(    1) = (   0.0000000   0.0000000   0.0000000), wk =   0.0092593
        k(    2) = (   0.0000000   0.0000000   0.0337386), wk =   0.0185185
        k(    3) = (   0.0000000   0.0000000   0.0674772), wk =   0.0185185
        k(    4) = (   0.0000000   0.0000000  -0.1012159), wk =   0.0092593
        k(    5) = (   0.0000000   0.1924501   0.0000000), wk =   0.0185185
        k(    6) = (   0.0000000   0.1924501   0.0337386), wk =   0.0185185
        k(    7) = (   0.0000000   0.1924501   0.0674772), wk =   0.0185185
        k(    8) = (   0.0000000   0.1924501  -0.1012159), wk =   0.0185185
        k(    9) = (   0.0000000   0.3849002   0.0000000), wk =   0.0185185
        k(   10) = (   0.0000000   0.3849002   0.0337386), wk =   0.0185185
        k(   11) = (   0.0000000   0.3849002   0.0674772), wk =   0.0185185
        k(   12) = (   0.0000000   0.3849002  -0.1012159), wk =   0.0185185
        k(   13) = (   0.0000000  -0.5773503   0.0000000), wk =   0.0092593
        k(   14) = (   0.0000000  -0.5773503   0.0337386), wk =   0.0185185
        k(   15) = (   0.0000000  -0.5773503   0.0674772), wk =   0.0185185
        k(   16) = (   0.0000000  -0.5773503  -0.1012159), wk =   0.0092593
        k(   17) = (   0.1666667   0.2886751   0.0000000), wk =   0.0185185
        k(   18) = (   0.1666667   0.2886751   0.0337386), wk =   0.0185185
        k(   19) = (   0.1666667   0.2886751   0.0674772), wk =   0.0185185
        k(   20) = (   0.1666667   0.2886751  -0.1012159), wk =   0.0185185
        k(   21) = (   0.1666667   0.4811252   0.0000000), wk =   0.0185185
        k(   22) = (   0.1666667   0.4811252   0.0337386), wk =   0.0185185
        k(   23) = (   0.1666667   0.4811252   0.0674772), wk =   0.0185185
        k(   24) = (   0.1666667   0.4811252  -0.1012159), wk =   0.0185185
        k(   25) = (   0.3333333   0.5773503   0.0000000), wk =   0.0185185
        k(   26) = (   0.3333333   0.5773503   0.0337386), wk =   0.0185185
        k(   27) = (   0.3333333   0.5773503   0.0674772), wk =   0.0185185
        k(   28) = (   0.3333333   0.5773503  -0.1012159), wk =   0.0185185
        k(   29) = (  -0.1666667   0.0962250   0.0000000), wk =   0.0185185
        k(   30) = (   0.1666667   0.0962250   0.0000000), wk =   0.0185185
        k(   31) = (   0.0000000  -0.1924501   0.0337386), wk =   0.0185185
        k(   32) = (  -0.1666667   0.0962250   0.0337386), wk =   0.0185185
        k(   33) = (   0.1666667   0.0962250   0.0337386), wk =   0.0185185
        k(   34) = (  -0.1666667  -0.0962250   0.0337386), wk =   0.0185185
        k(   35) = (   0.1666667  -0.0962250   0.0337386), wk =   0.0185185
        k(   36) = (   0.0000000  -0.1924501   0.0674772), wk =   0.0185185
        k(   37) = (  -0.1666667   0.0962250   0.0674772), wk =   0.0185185
        k(   38) = (   0.1666667   0.0962250   0.0674772), wk =   0.0185185
        k(   39) = (  -0.1666667  -0.0962250   0.0674772), wk =   0.0185185
        k(   40) = (   0.1666667  -0.0962250   0.0674772), wk =   0.0185185
        k(   41) = (  -0.1666667   0.0962250  -0.1012159), wk =   0.0185185
        k(   42) = (   0.1666667   0.0962250  -0.1012159), wk =   0.0185185
        k(   43) = (  -0.3333333   0.1924501   0.0000000), wk =   0.0185185
        k(   44) = (   0.3333333   0.1924501   0.0000000), wk =   0.0185185
        k(   45) = (   0.0000000  -0.3849002   0.0337386), wk =   0.0185185
        k(   46) = (  -0.3333333   0.1924501   0.0337386), wk =   0.0185185
        k(   47) = (   0.3333333   0.1924501   0.0337386), wk =   0.0185185
        k(   48) = (  -0.3333333  -0.1924501   0.0337386), wk =   0.0185185
        k(   49) = (   0.3333333  -0.1924501   0.0337386), wk =   0.0185185
        k(   50) = (   0.0000000  -0.3849002   0.0674772), wk =   0.0185185
        k(   51) = (  -0.3333333   0.1924501   0.0674772), wk =   0.0185185
        k(   52) = (   0.3333333   0.1924501   0.0674772), wk =   0.0185185
        k(   53) = (  -0.3333333  -0.1924501   0.0674772), wk =   0.0185185
        k(   54) = (   0.3333333  -0.1924501   0.0674772), wk =   0.0185185
        k(   55) = (  -0.3333333   0.1924501  -0.1012159), wk =   0.0185185
        k(   56) = (   0.3333333   0.1924501  -0.1012159), wk =   0.0185185
        k(   57) = (   0.5000000  -0.2886751   0.0000000), wk =   0.0092593
        k(   58) = (  -0.5000000  -0.2886751   0.0000000), wk =   0.0092593
        k(   59) = (   0.5000000  -0.2886751   0.0337386), wk =   0.0185185
        k(   60) = (  -0.5000000  -0.2886751   0.0337386), wk =   0.0185185
        k(   61) = (   0.5000000  -0.2886751   0.0674772), wk =   0.0185185
        k(   62) = (  -0.5000000  -0.2886751   0.0674772), wk =   0.0185185
        k(   63) = (   0.5000000  -0.2886751  -0.1012159), wk =   0.0092593
        k(   64) = (  -0.5000000  -0.2886751  -0.1012159), wk =   0.0092593
        k(   65) = (  -0.1666667   0.2886751   0.0000000), wk =   0.0185185
        k(   66) = (   0.3333333   0.0000000   0.0000000), wk =   0.0185185
        k(   67) = (  -0.1666667  -0.2886751   0.0337386), wk =   0.0185185
        k(   68) = (  -0.1666667   0.2886751  -0.0337386), wk =   0.0185185
        k(   69) = (   0.1666667  -0.2886751  -0.0337386), wk =   0.0185185
        k(   70) = (   0.3333333   0.0000000   0.0337386), wk =   0.0185185
        k(   71) = (  -0.3333333  -0.0000000   0.0337386), wk =   0.0185185
        k(   72) = (  -0.1666667  -0.2886751   0.0674772), wk =   0.0185185
        k(   73) = (  -0.1666667   0.2886751  -0.0674772), wk =   0.0185185
        k(   74) = (   0.1666667  -0.2886751  -0.0674772), wk =   0.0185185
        k(   75) = (   0.3333333   0.0000000   0.0674772), wk =   0.0185185
        k(   76) = (  -0.3333333  -0.0000000   0.0674772), wk =   0.0185185
        k(   77) = (  -0.1666667   0.2886751   0.1012159), wk =   0.0185185
        k(   78) = (   0.3333333   0.0000000  -0.1012159), wk =   0.0185185
        k(   79) = (  -0.1666667   0.4811252   0.0000000), wk =   0.0185185
        k(   80) = (  -0.3333333   0.3849002   0.0000000), wk =   0.0185185
        k(   81) = (   0.5000000   0.0962250   0.0000000), wk =   0.0185185
        k(   82) = (  -0.3333333  -0.3849002   0.0000000), wk =   0.0185185
        k(   83) = (   0.5000000  -0.0962250   0.0000000), wk =   0.0185185
        k(   84) = (  -0.1666667  -0.4811252   0.0337386), wk =   0.0185185
        k(   85) = (  -0.1666667   0.4811252  -0.0337386), wk =   0.0185185
        k(   86) = (   0.1666667  -0.4811252  -0.0337386), wk =   0.0185185
        k(   87) = (  -0.3333333   0.3849002   0.0337386), wk =   0.0185185
        k(   88) = (   0.5000000   0.0962250   0.0337386), wk =   0.0185185
        k(   89) = (  -0.5000000  -0.0962250   0.0337386), wk =   0.0185185
        k(   90) = (   0.3333333  -0.3849002   0.0337386), wk =   0.0185185
        k(   91) = (  -0.3333333  -0.3849002  -0.0337386), wk =   0.0185185
        k(   92) = (   0.5000000  -0.0962250  -0.0337386), wk =   0.0185185
        k(   93) = (  -0.5000000   0.0962250  -0.0337386), wk =   0.0185185
        k(   94) = (   0.3333333   0.3849002  -0.0337386), wk =   0.0185185
        k(   95) = (  -0.1666667  -0.4811252   0.0674772), wk =   0.0185185
        k(   96) = (  -0.1666667   0.4811252  -0.0674772), wk =   0.0185185
        k(   97) = (   0.1666667  -0.4811252  -0.0674772), wk =   0.0185185
        k(   98) = (  -0.3333333   0.3849002   0.0674772), wk =   0.0185185
        k(   99) = (   0.5000000   0.0962250   0.0674772), wk =   0.0185185
        k(  100) = (  -0.5000000  -0.0962250   0.0674772), wk =   0.0185185
        k(  101) = (   0.3333333  -0.3849002   0.0674772), wk =   0.0185185
        k(  102) = (  -0.3333333  -0.3849002  -0.0674772), wk =   0.0185185
        k(  103) = (   0.5000000  -0.0962250  -0.0674772), wk =   0.0185185
        k(  104) = (  -0.5000000   0.0962250  -0.0674772), wk =   0.0185185
        k(  105) = (   0.3333333   0.3849002  -0.0674772), wk =   0.0185185
        k(  106) = (  -0.1666667   0.4811252   0.1012159), wk =   0.0185185
        k(  107) = (  -0.3333333   0.3849002  -0.1012159), wk =   0.0185185
        k(  108) = (   0.5000000   0.0962250  -0.1012159), wk =   0.0185185
        k(  109) = (  -0.3333333  -0.3849002   0.1012159), wk =   0.0185185
        k(  110) = (   0.5000000  -0.0962250   0.1012159), wk =   0.0185185
        k(  111) = (  -0.3333333  -0.5773503   0.0337386), wk =   0.0185185
        k(  112) = (  -0.3333333  -0.5773503   0.0674772), wk =   0.0185185

                       cryst. coord.
        k(    1) = (   0.0000000   0.0000000   0.0000000), wk =   0.0092593
        k(    2) = (   0.0000000   0.0000000   0.1666667), wk =   0.0185185
        k(    3) = (   0.0000000   0.0000000   0.3333333), wk =   0.0185185
        k(    4) = (   0.0000000   0.0000000  -0.5000000), wk =   0.0092593
        k(    5) = (   0.0000000   0.1666667   0.0000000), wk =   0.0185185
        k(    6) = (   0.0000000   0.1666667   0.1666667), wk =   0.0185185
        k(    7) = (   0.0000000   0.1666667   0.3333333), wk =   0.0185185
        k(    8) = (   0.0000000   0.1666667  -0.5000000), wk =   0.0185185
        k(    9) = (   0.0000000   0.3333333   0.0000000), wk =   0.0185185
        k(   10) = (   0.0000000   0.3333333   0.1666667), wk =   0.0185185
        k(   11) = (   0.0000000   0.3333333   0.3333333), wk =   0.0185185
        k(   12) = (   0.0000000   0.3333333  -0.5000000), wk =   0.0185185
        k(   13) = (   0.0000000  -0.5000000   0.0000000), wk =   0.0092593
        k(   14) = (   0.0000000  -0.5000000   0.1666667), wk =   0.0185185
        k(   15) = (   0.0000000  -0.5000000   0.3333333), wk =   0.0185185
        k(   16) = (   0.0000000  -0.5000000  -0.5000000), wk =   0.0092593
        k(   17) = (   0.1666667   0.1666667   0.0000000), wk =   0.0185185
        k(   18) = (   0.1666667   0.1666667   0.1666667), wk =   0.0185185
        k(   19) = (   0.1666667   0.1666667   0.3333333), wk =   0.0185185
        k(   20) = (   0.1666667   0.1666667  -0.5000000), wk =   0.0185185
        k(   21) = (   0.1666667   0.3333333   0.0000000), wk =   0.0185185
        k(   22) = (   0.1666667   0.3333333   0.1666667), wk =   0.0185185
        k(   23) = (   0.1666667   0.3333333   0.3333333), wk =   0.0185185
        k(   24) = (   0.1666667   0.3333333  -0.5000000), wk =   0.0185185
        k(   25) = (   0.3333333   0.3333333   0.0000000), wk =   0.0185185
        k(   26) = (   0.3333333   0.3333333   0.1666667), wk =   0.0185185
        k(   27) = (   0.3333333   0.3333333   0.3333333), wk =   0.0185185
        k(   28) = (   0.3333333   0.3333333  -0.5000000), wk =   0.0185185
        k(   29) = (  -0.1666667   0.1666667   0.0000000), wk =   0.0185185
        k(   30) = (   0.1666667   0.0000000   0.0000000), wk =   0.0185185
        k(   31) = (   0.0000000  -0.1666667   0.1666667), wk =   0.0185185
        k(   32) = (  -0.1666667   0.1666667   0.1666667), wk =   0.0185185
        k(   33) = (   0.1666667   0.0000000   0.1666667), wk =   0.0185185
        k(   34) = (  -0.1666667   0.0000000   0.1666667), wk =   0.0185185
        k(   35) = (   0.1666667  -0.1666667   0.1666667), wk =   0.0185185
        k(   36) = (   0.0000000  -0.1666667   0.3333333), wk =   0.0185185
        k(   37) = (  -0.1666667   0.1666667   0.3333333), wk =   0.0185185
        k(   38) = (   0.1666667   0.0000000   0.3333333), wk =   0.0185185
        k(   39) = (  -0.1666667   0.0000000   0.3333333), wk =   0.0185185
        k(   40) = (   0.1666667  -0.1666667   0.3333333), wk =   0.0185185
        k(   41) = (  -0.1666667   0.1666667  -0.5000000), wk =   0.0185185
        k(   42) = (   0.1666667   0.0000000  -0.5000000), wk =   0.0185185
        k(   43) = (  -0.3333333   0.3333333   0.0000000), wk =   0.0185185
        k(   44) = (   0.3333333   0.0000000   0.0000000), wk =   0.0185185
        k(   45) = (   0.0000000  -0.3333333   0.1666667), wk =   0.0185185
        k(   46) = (  -0.3333333   0.3333333   0.1666667), wk =   0.0185185
        k(   47) = (   0.3333333   0.0000000   0.1666667), wk =   0.0185185
        k(   48) = (  -0.3333333   0.0000000   0.1666667), wk =   0.0185185
        k(   49) = (   0.3333333  -0.3333333   0.1666667), wk =   0.0185185
        k(   50) = (   0.0000000  -0.3333333   0.3333333), wk =   0.0185185
        k(   51) = (  -0.3333333   0.3333333   0.3333333), wk =   0.0185185
        k(   52) = (   0.3333333   0.0000000   0.3333333), wk =   0.0185185
        k(   53) = (  -0.3333333   0.0000000   0.3333333), wk =   0.0185185
        k(   54) = (   0.3333333  -0.3333333   0.3333333), wk =   0.0185185
        k(   55) = (  -0.3333333   0.3333333  -0.5000000), wk =   0.0185185
        k(   56) = (   0.3333333   0.0000000  -0.5000000), wk =   0.0185185
        k(   57) = (   0.5000000  -0.5000000   0.0000000), wk =   0.0092593
        k(   58) = (  -0.5000000   0.0000000   0.0000000), wk =   0.0092593
        k(   59) = (   0.5000000  -0.5000000   0.1666667), wk =   0.0185185
        k(   60) = (  -0.5000000   0.0000000   0.1666667), wk =   0.0185185
        k(   61) = (   0.5000000  -0.5000000   0.3333333), wk =   0.0185185
        k(   62) = (  -0.5000000   0.0000000   0.3333333), wk =   0.0185185
        k(   63) = (   0.5000000  -0.5000000  -0.5000000), wk =   0.0092593
        k(   64) = (  -0.5000000   0.0000000  -0.5000000), wk =   0.0092593
        k(   65) = (  -0.1666667   0.3333333   0.0000000), wk =   0.0185185
        k(   66) = (   0.3333333  -0.1666667   0.0000000), wk =   0.0185185
        k(   67) = (  -0.1666667  -0.1666667   0.1666667), wk =   0.0185185
        k(   68) = (  -0.1666667   0.3333333  -0.1666667), wk =   0.0185185
        k(   69) = (   0.1666667  -0.3333333  -0.1666667), wk =   0.0185185
        k(   70) = (   0.3333333  -0.1666667   0.1666667), wk =   0.0185185
        k(   71) = (  -0.3333333   0.1666667   0.1666667), wk =   0.0185185
        k(   72) = (  -0.1666667  -0.1666667   0.3333333), wk =   0.0185185
        k(   73) = (  -0.1666667   0.3333333  -0.3333333), wk =   0.0185185
        k(   74) = (   0.1666667  -0.3333333  -0.3333333), wk =   0.0185185
        k(   75) = (   0.3333333  -0.1666667   0.3333333), wk =   0.0185185
        k(   76) = (  -0.3333333   0.1666667   0.3333333), wk =   0.0185185
        k(   77) = (  -0.1666667   0.3333333   0.5000000), wk =   0.0185185
        k(   78) = (   0.3333333  -0.1666667  -0.5000000), wk =   0.0185185
        k(   79) = (  -0.1666667   0.5000000   0.0000000), wk =   0.0185185
        k(   80) = (  -0.3333333   0.5000000   0.0000000), wk =   0.0185185
        k(   81) = (   0.5000000  -0.1666667   0.0000000), wk =   0.0185185
        k(   82) = (  -0.3333333  -0.1666667   0.0000000), wk =   0.0185185
        k(   83) = (   0.5000000  -0.3333333   0.0000000), wk =   0.0185185
        k(   84) = (  -0.1666667  -0.3333333   0.1666667), wk =   0.0185185
        k(   85) = (  -0.1666667   0.5000000  -0.1666667), wk =   0.0185185
        k(   86) = (   0.1666667  -0.5000000  -0.1666667), wk =   0.0185185
        k(   87) = (  -0.3333333   0.5000000   0.1666667), wk =   0.0185185
        k(   88) = (   0.5000000  -0.1666667   0.1666667), wk =   0.0185185
        k(   89) = (  -0.5000000   0.1666667   0.1666667), wk =   0.0185185
        k(   90) = (   0.3333333  -0.5000000   0.1666667), wk =   0.0185185
        k(   91) = (  -0.3333333  -0.1666667  -0.1666667), wk =   0.0185185
        k(   92) = (   0.5000000  -0.3333333  -0.1666667), wk =   0.0185185
        k(   93) = (  -0.5000000   0.3333333  -0.1666667), wk =   0.0185185
        k(   94) = (   0.3333333   0.1666667  -0.1666667), wk =   0.0185185
        k(   95) = (  -0.1666667  -0.3333333   0.3333333), wk =   0.0185185
        k(   96) = (  -0.1666667   0.5000000  -0.3333333), wk =   0.0185185
        k(   97) = (   0.1666667  -0.5000000  -0.3333333), wk =   0.0185185
        k(   98) = (  -0.3333333   0.5000000   0.3333333), wk =   0.0185185
        k(   99) = (   0.5000000  -0.1666667   0.3333333), wk =   0.0185185
        k(  100) = (  -0.5000000   0.1666667   0.3333333), wk =   0.0185185
        k(  101) = (   0.3333333  -0.5000000   0.3333333), wk =   0.0185185
        k(  102) = (  -0.3333333  -0.1666667  -0.3333333), wk =   0.0185185
        k(  103) = (   0.5000000  -0.3333333  -0.3333333), wk =   0.0185185
        k(  104) = (  -0.5000000   0.3333333  -0.3333333), wk =   0.0185185
        k(  105) = (   0.3333333   0.1666667  -0.3333333), wk =   0.0185185
        k(  106) = (  -0.1666667   0.5000000   0.5000000), wk =   0.0185185
        k(  107) = (  -0.3333333   0.5000000  -0.5000000), wk =   0.0185185
        k(  108) = (   0.5000000  -0.1666667  -0.5000000), wk =   0.0185185
        k(  109) = (  -0.3333333  -0.1666667   0.5000000), wk =   0.0185185
        k(  110) = (   0.5000000  -0.3333333   0.5000000), wk =   0.0185185
        k(  111) = (  -0.3333333  -0.3333333   0.1666667), wk =   0.0185185
        k(  112) = (  -0.3333333  -0.3333333   0.3333333), wk =   0.0185185

     Dense  grid:   162217 G-vectors     FFT dimensions: (  45,  45, 216)

     Smooth grid:    57403 G-vectors     FFT dimensions: (  30,  30, 150)

     Dynamical RAM for                 wfc:       2.96 MB

     Dynamical RAM for     wfc (w. buffer):      44.35 MB

     Dynamical RAM for           str. fact:       2.48 MB

     Dynamical RAM for           local pot:       0.00 MB

     Dynamical RAM for          nlocal pot:       8.54 MB

     Dynamical RAM for                qrad:       3.21 MB

     Dynamical RAM for          rho,v,vnew:       8.72 MB

     Dynamical RAM for               rhoin:       2.91 MB

     Dynamical RAM for            rho*nmix:      19.80 MB

     Dynamical RAM for           G-vectors:       4.86 MB

     Dynamical RAM for          h,s,v(r/c):       0.53 MB

     Dynamical RAM for          <psi|beta>:       0.13 MB

     Dynamical RAM for                 psi:       5.91 MB

     Dynamical RAM for                hpsi:       5.91 MB

     Dynamical RAM for                spsi:       5.91 MB

     Dynamical RAM for      wfcinit/wfcrot:       8.68 MB

     Dynamical RAM for           addusdens:      30.78 MB

     Dynamical RAM for          addusforce:      31.89 MB

     Estimated static dynamical RAM per process >      87.11 MB

     Estimated max dynamical RAM per process >     138.81 MB

     Estimated total dynamical RAM >       1.90 GB

     Check: negative core charge=   -0.000002

     Initial potential from superposition of free atoms

     starting charge     107.9776, renormalised to     108.0000
     Starting wfcs are   78 randomized atomic wfcs

     total cpu time spent up to now is        8.2 secs

     per-process dynamical memory:   103.2 Mb

     Self-consistent Calculation

     iteration #  1     ecut=    50.00 Ry     beta= 0.30
     Davidson diagonalization with overlap

---- Real-time Memory Report at c_bands before calling an iterative solver
           126 MiB given to the printing process from OS
           100 MiB allocation reported by mallinfo(arena+hblkhd)
        103987 MiB available memory on the node where the printing process lives
------------------
     ethr =  1.00E-02,  avg # of iterations =  1.2

     total cpu time spent up to now is       18.4 secs

     total energy              =   -1084.17712173 Ry
     estimated scf accuracy    <       2.41501627 Ry

     iteration #  2     ecut=    50.00 Ry     beta= 0.30
     Davidson diagonalization with overlap

---- Real-time Memory Report at c_bands before calling an iterative solver
           158 MiB given to the printing process from OS
           131 MiB allocation reported by mallinfo(arena+hblkhd)
        103622 MiB available memory on the node where the printing process lives
------------------
     ethr =  2.24E-03,  avg # of iterations =  2.1

     total cpu time spent up to now is       30.2 secs

     total energy              =   -1084.54216696 Ry
     estimated scf accuracy    <       0.27221242 Ry

     iteration #  3     ecut=    50.00 Ry     beta= 0.30
     Davidson diagonalization with overlap

---- Real-time Memory Report at c_bands before calling an iterative solver
           159 MiB given to the printing process from OS
           132 MiB allocation reported by mallinfo(arena+hblkhd)
        103669 MiB available memory on the node where the printing process lives
------------------
     c_bands:  1 eigenvalues not converged
     c_bands:  2 eigenvalues not converged
     ethr =  2.52E-04,  avg # of iterations =  6.9

     total cpu time spent up to now is       53.6 secs

     total energy              =   -1084.61470831 Ry
     estimated scf accuracy    <       0.40390191 Ry

     iteration #  4     ecut=    50.00 Ry     beta= 0.30
     Davidson diagonalization with overlap

---- Real-time Memory Report at c_bands before calling an iterative solver
           160 MiB given to the printing process from OS
           133 MiB allocation reported by mallinfo(arena+hblkhd)
        103675 MiB available memory on the node where the printing process lives
------------------
     ethr =  2.52E-04,  avg # of iterations =  5.7

     total cpu time spent up to now is       72.9 secs

     total energy              =   -1084.87129127 Ry
     estimated scf accuracy    <       0.19000437 Ry

     iteration #  5     ecut=    50.00 Ry     beta= 0.30
     Davidson diagonalization with overlap

---- Real-time Memory Report at c_bands before calling an iterative solver
           161 MiB given to the printing process from OS
           134 MiB allocation reported by mallinfo(arena+hblkhd)
        103682 MiB available memory on the node where the printing process lives
------------------
     ethr =  1.76E-04,  avg # of iterations =  3.1

     total cpu time spent up to now is       86.2 secs

     total energy              =   -1084.79849068 Ry
     estimated scf accuracy    <       0.41619972 Ry

     iteration #  6     ecut=    50.00 Ry     beta= 0.30
     Davidson diagonalization with overlap

---- Real-time Memory Report at c_bands before calling an iterative solver
           162 MiB given to the printing process from OS
           135 MiB allocation reported by mallinfo(arena+hblkhd)
        103682 MiB available memory on the node where the printing process lives
------------------
     ethr =  1.76E-04,  avg # of iterations =  1.2

     total cpu time spent up to now is       96.3 secs

     total energy              =   -1084.70471719 Ry
     estimated scf accuracy    <       0.25373842 Ry

     iteration #  7     ecut=    50.00 Ry     beta= 0.30
     Davidson diagonalization with overlap

---- Real-time Memory Report at c_bands before calling an iterative solver
           163 MiB given to the printing process from OS
           135 MiB allocation reported by mallinfo(arena+hblkhd)
        103683 MiB available memory on the node where the printing process lives
------------------
     c_bands:  1 eigenvalues not converged
     ethr =  1.76E-04,  avg # of iterations =  5.3

     total cpu time spent up to now is      111.6 secs

     total energy              =   -1084.74767214 Ry
     estimated scf accuracy    <       0.03211191 Ry

     iteration #  8     ecut=    50.00 Ry     beta= 0.30
     Davidson diagonalization with overlap

---- Real-time Memory Report at c_bands before calling an iterative solver
           163 MiB given to the printing process from OS
           136 MiB allocation reported by mallinfo(arena+hblkhd)
        103682 MiB available memory on the node where the printing process lives
------------------
     ethr =  2.97E-05,  avg # of iterations =  4.9

     total cpu time spent up to now is      127.0 secs

     total energy              =   -1084.75948576 Ry
     estimated scf accuracy    <       0.01514849 Ry

     iteration #  9     ecut=    50.00 Ry     beta= 0.30
     Davidson diagonalization with overlap

---- Real-time Memory Report at c_bands before calling an iterative solver
           164 MiB given to the printing process from OS
           137 MiB allocation reported by mallinfo(arena+hblkhd)
        103682 MiB available memory on the node where the printing process lives
------------------
     c_bands:  5 eigenvalues not converged
     c_bands:  3 eigenvalues not converged
     ethr =  1.40E-05,  avg # of iterations =  5.0

     total cpu time spent up to now is      143.1 secs

     total energy              =   -1084.76444784 Ry
     estimated scf accuracy    <       0.01988216 Ry

     iteration # 10     ecut=    50.00 Ry     beta= 0.30
     Davidson diagonalization with overlap

---- Real-time Memory Report at c_bands before calling an iterative solver
           165 MiB given to the printing process from OS
           138 MiB allocation reported by mallinfo(arena+hblkhd)
        103678 MiB available memory on the node where the printing process lives
------------------
     ethr =  1.40E-05,  avg # of iterations =  2.1

     total cpu time spent up to now is      153.6 secs

     total energy              =   -1084.75993024 Ry
     estimated scf accuracy    <       0.02497052 Ry

     iteration # 11     ecut=    50.00 Ry     beta= 0.30
     Davidson diagonalization with overlap

---- Real-time Memory Report at c_bands before calling an iterative solver
           165 MiB given to the printing process from OS
           138 MiB allocation reported by mallinfo(arena+hblkhd)
        103682 MiB available memory on the node where the printing process lives
------------------
     ethr =  1.40E-05,  avg # of iterations =  1.9

     total cpu time spent up to now is      164.5 secs

     total energy              =   -1084.76004539 Ry
     estimated scf accuracy    <       0.01647223 Ry

     iteration # 12     ecut=    50.00 Ry     beta= 0.30
     Davidson diagonalization with overlap

---- Real-time Memory Report at c_bands before calling an iterative solver
           165 MiB given to the printing process from OS
           138 MiB allocation reported by mallinfo(arena+hblkhd)
        103682 MiB available memory on the node where the printing process lives
------------------
     ethr =  1.40E-05,  avg # of iterations =  2.2

     total cpu time spent up to now is      175.7 secs

     total energy              =   -1084.75942260 Ry
     estimated scf accuracy    <       0.01506241 Ry

     iteration # 13     ecut=    50.00 Ry     beta= 0.30
     Davidson diagonalization with overlap

---- Real-time Memory Report at c_bands before calling an iterative solver
           165 MiB given to the printing process from OS
           138 MiB allocation reported by mallinfo(arena+hblkhd)
        103682 MiB available memory on the node where the printing process lives
------------------
     ethr =  1.39E-05,  avg # of iterations =  1.2

     total cpu time spent up to now is      185.4 secs

     total energy              =   -1084.75887071 Ry
     estimated scf accuracy    <       0.01208920 Ry

     iteration # 14     ecut=    50.00 Ry     beta= 0.30
     Davidson diagonalization with overlap

---- Real-time Memory Report at c_bands before calling an iterative solver
           165 MiB given to the printing process from OS
           138 MiB allocation reported by mallinfo(arena+hblkhd)
        103682 MiB available memory on the node where the printing process lives
------------------
     ethr =  1.12E-05,  avg # of iterations =  1.1

     total cpu time spent up to now is      194.6 secs

     total energy              =   -1084.75811243 Ry
     estimated scf accuracy    <       0.00958093 Ry

     iteration # 15     ecut=    50.00 Ry     beta= 0.30
     Davidson diagonalization with overlap

---- Real-time Memory Report at c_bands before calling an iterative solver
           165 MiB given to the printing process from OS
           138 MiB allocation reported by mallinfo(arena+hblkhd)
        103682 MiB available memory on the node where the printing process lives
------------------
     ethr =  8.87E-06,  avg # of iterations =  1.4

     total cpu time spent up to now is      204.4 secs

     total energy              =   -1084.75647261 Ry
     estimated scf accuracy    <       0.00628263 Ry

     iteration # 16     ecut=    50.00 Ry     beta= 0.30
     Davidson diagonalization with overlap

---- Real-time Memory Report at c_bands before calling an iterative solver
           165 MiB given to the printing process from OS
           138 MiB allocation reported by mallinfo(arena+hblkhd)
        103682 MiB available memory on the node where the printing process lives
------------------
     c_bands:  1 eigenvalues not converged
     ethr =  5.82E-06,  avg # of iterations =  4.5

     total cpu time spent up to now is      219.1 secs

     total energy              =   -1084.75764853 Ry
     estimated scf accuracy    <       0.00049108 Ry

     iteration # 17     ecut=    50.00 Ry     beta= 0.30
     Davidson diagonalization with overlap

---- Real-time Memory Report at c_bands before calling an iterative solver
           165 MiB given to the printing process from OS
           138 MiB allocation reported by mallinfo(arena+hblkhd)
        103682 MiB available memory on the node where the printing process lives
------------------
     ethr =  4.55E-07,  avg # of iterations =  7.8

     total cpu time spent up to now is      242.9 secs

     total energy              =   -1084.75801539 Ry
     estimated scf accuracy    <       0.00125023 Ry

     iteration # 18     ecut=    50.00 Ry     beta= 0.30
     Davidson diagonalization with overlap

---- Real-time Memory Report at c_bands before calling an iterative solver
           165 MiB given to the printing process from OS
           138 MiB allocation reported by mallinfo(arena+hblkhd)
        103682 MiB available memory on the node where the printing process lives
------------------
     ethr =  4.55E-07,  avg # of iterations =  4.9

     total cpu time spent up to now is      257.7 secs

     total energy              =   -1084.75800110 Ry
     estimated scf accuracy    <       0.00035554 Ry

     iteration # 19     ecut=    50.00 Ry     beta= 0.30
     Davidson diagonalization with overlap

---- Real-time Memory Report at c_bands before calling an iterative solver
           165 MiB given to the printing process from OS
           138 MiB allocation reported by mallinfo(arena+hblkhd)
        103674 MiB available memory on the node where the printing process lives
------------------
     c_bands:  1 eigenvalues not converged
     ethr =  3.29E-07,  avg # of iterations =  5.1

     total cpu time spent up to now is      271.2 secs

     total energy              =   -1084.75807367 Ry
     estimated scf accuracy    <       0.00005430 Ry

     iteration # 20     ecut=    50.00 Ry     beta= 0.30
     Davidson diagonalization with overlap

---- Real-time Memory Report at c_bands before calling an iterative solver
           165 MiB given to the printing process from OS
           138 MiB allocation reported by mallinfo(arena+hblkhd)
        103682 MiB available memory on the node where the printing process lives
------------------
     c_bands:  3 eigenvalues not converged
     c_bands:  1 eigenvalues not converged
     c_bands:  2 eigenvalues not converged
     ethr =  5.03E-08,  avg # of iterations = 11.3

     total cpu time spent up to now is      298.8 secs

     total energy              =   -1084.75809911 Ry
     estimated scf accuracy    <       0.00067286 Ry

     iteration # 21     ecut=    50.00 Ry     beta= 0.30
     Davidson diagonalization with overlap

---- Real-time Memory Report at c_bands before calling an iterative solver
           165 MiB given to the printing process from OS
           138 MiB allocation reported by mallinfo(arena+hblkhd)
        103682 MiB available memory on the node where the printing process lives
------------------
     ethr =  5.03E-08,  avg # of iterations =  5.6

     total cpu time spent up to now is      314.2 secs

     total energy              =   -1084.75807306 Ry
     estimated scf accuracy    <       0.00049225 Ry

     iteration # 22     ecut=    50.00 Ry     beta= 0.30
     Davidson diagonalization with overlap

---- Real-time Memory Report at c_bands before calling an iterative solver
           165 MiB given to the printing process from OS
           138 MiB allocation reported by mallinfo(arena+hblkhd)
        103682 MiB available memory on the node where the printing process lives
------------------
     ethr =  5.03E-08,  avg # of iterations =  5.7

     total cpu time spent up to now is      327.6 secs

     total energy              =   -1084.75814519 Ry
     estimated scf accuracy    <       0.00025488 Ry

     iteration # 23     ecut=    50.00 Ry     beta= 0.30
     Davidson diagonalization with overlap

---- Real-time Memory Report at c_bands before calling an iterative solver
           165 MiB given to the printing process from OS
           138 MiB allocation reported by mallinfo(arena+hblkhd)
        103682 MiB available memory on the node where the printing process lives
------------------
     c_bands:  1 eigenvalues not converged
     ethr =  5.03E-08,  avg # of iterations =  6.1

     total cpu time spent up to now is      343.0 secs

     total energy              =   -1084.75821819 Ry
     estimated scf accuracy    <       0.00054907 Ry

     iteration # 24     ecut=    50.00 Ry     beta= 0.30
     Davidson diagonalization with overlap

---- Real-time Memory Report at c_bands before calling an iterative solver
           165 MiB given to the printing process from OS
           138 MiB allocation reported by mallinfo(arena+hblkhd)
        103682 MiB available memory on the node where the printing process lives
------------------
     c_bands:  1 eigenvalues not converged
     ethr =  5.03E-08,  avg # of iterations =  6.5

     total cpu time spent up to now is      358.7 secs

     total energy              =   -1084.75831760 Ry
     estimated scf accuracy    <       0.00101480 Ry

     iteration # 25     ecut=    50.00 Ry     beta= 0.30
     Davidson diagonalization with overlap

---- Real-time Memory Report at c_bands before calling an iterative solver
           165 MiB given to the printing process from OS
           138 MiB allocation reported by mallinfo(arena+hblkhd)
        103682 MiB available memory on the node where the printing process lives
------------------
     c_bands:  1 eigenvalues not converged
     ethr =  5.03E-08,  avg # of iterations =  4.8

     total cpu time spent up to now is      373.5 secs

     total energy              =   -1084.75830563 Ry
     estimated scf accuracy    <       0.00139470 Ry

     iteration # 26     ecut=    50.00 Ry     beta= 0.30
     Davidson diagonalization with overlap

---- Real-time Memory Report at c_bands before calling an iterative solver
           165 MiB given to the printing process from OS
           138 MiB allocation reported by mallinfo(arena+hblkhd)
        103682 MiB available memory on the node where the printing process lives
------------------
     c_bands:  1 eigenvalues not converged
     ethr =  5.03E-08,  avg # of iterations =  1.8

     total cpu time spent up to now is      383.6 secs

     total energy              =   -1084.75835369 Ry
     estimated scf accuracy    <       0.00140560 Ry

     iteration # 27     ecut=    50.00 Ry     beta= 0.30
     Davidson diagonalization with overlap

---- Real-time Memory Report at c_bands before calling an iterative solver
           165 MiB given to the printing process from OS
           138 MiB allocation reported by mallinfo(arena+hblkhd)
        103682 MiB available memory on the node where the printing process lives
------------------
     ethr =  5.03E-08,  avg # of iterations =  2.4

     total cpu time spent up to now is      394.5 secs

     total energy              =   -1084.75794428 Ry
     estimated scf accuracy    <       0.00155865 Ry

     iteration # 28     ecut=    50.00 Ry     beta= 0.30
     Davidson diagonalization with overlap

---- Real-time Memory Report at c_bands before calling an iterative solver
           165 MiB given to the printing process from OS
           138 MiB allocation reported by mallinfo(arena+hblkhd)
        103682 MiB available memory on the node where the printing process lives
------------------
     c_bands:  4 eigenvalues not converged
     c_bands:  1 eigenvalues not converged
     c_bands:  1 eigenvalues not converged
     c_bands:  1 eigenvalues not converged
     c_bands:  1 eigenvalues not converged
     ethr =  5.03E-08,  avg # of iterations = 10.7

     total cpu time spent up to now is      423.5 secs

     total energy              =   -1084.75807881 Ry
     estimated scf accuracy    <       0.00004870 Ry

     iteration # 29     ecut=    50.00 Ry     beta= 0.30
     Davidson diagonalization with overlap

---- Real-time Memory Report at c_bands before calling an iterative solver
           165 MiB given to the printing process from OS
           138 MiB allocation reported by mallinfo(arena+hblkhd)
        103682 MiB available memory on the node where the printing process lives
------------------
     c_bands:  1 eigenvalues not converged
     ethr =  4.51E-08,  avg # of iterations =  5.5

     total cpu time spent up to now is      438.1 secs

     total energy              =   -1084.75807513 Ry
     estimated scf accuracy    <       0.00009692 Ry

     iteration # 30     ecut=    50.00 Ry     beta= 0.30
     Davidson diagonalization with overlap

---- Real-time Memory Report at c_bands before calling an iterative solver
           165 MiB given to the printing process from OS
           138 MiB allocation reported by mallinfo(arena+hblkhd)
        103682 MiB available memory on the node where the printing process lives
------------------
     ethr =  4.51E-08,  avg # of iterations =  2.1

     total cpu time spent up to now is      448.8 secs

     total energy              =   -1084.75806074 Ry
     estimated scf accuracy    <       0.00007096 Ry

     iteration # 31     ecut=    50.00 Ry     beta= 0.30
     Davidson diagonalization with overlap

---- Real-time Memory Report at c_bands before calling an iterative solver
           165 MiB given to the printing process from OS
           138 MiB allocation reported by mallinfo(arena+hblkhd)
        103682 MiB available memory on the node where the printing process lives
------------------
     c_bands:  1 eigenvalues not converged
     ethr =  4.51E-08,  avg # of iterations =  4.6

     total cpu time spent up to now is      462.9 secs

     total energy              =   -1084.75806903 Ry
     estimated scf accuracy    <       0.00000426 Ry

     iteration # 32     ecut=    50.00 Ry     beta= 0.30
     Davidson diagonalization with overlap

---- Real-time Memory Report at c_bands before calling an iterative solver
           165 MiB given to the printing process from OS
           138 MiB allocation reported by mallinfo(arena+hblkhd)
        103682 MiB available memory on the node where the printing process lives
------------------
     c_bands:  4 eigenvalues not converged
     ethr =  3.94E-09,  avg # of iterations =  8.4

     total cpu time spent up to now is      482.1 secs

     total energy              =   -1084.75807645 Ry
     estimated scf accuracy    <       0.00001227 Ry

     iteration # 33     ecut=    50.00 Ry     beta= 0.30
     Davidson diagonalization with overlap

---- Real-time Memory Report at c_bands before calling an iterative solver
           165 MiB given to the printing process from OS
           138 MiB allocation reported by mallinfo(arena+hblkhd)
        103682 MiB available memory on the node where the printing process lives
------------------
     c_bands:  1 eigenvalues not converged
     ethr =  3.94E-09,  avg # of iterations =  6.7

     total cpu time spent up to now is      496.9 secs

     total energy              =   -1084.75807184 Ry
     estimated scf accuracy    <       0.00010529 Ry

     iteration # 34     ecut=    50.00 Ry     beta= 0.30
     Davidson diagonalization with overlap

---- Real-time Memory Report at c_bands before calling an iterative solver
           165 MiB given to the printing process from OS
           138 MiB allocation reported by mallinfo(arena+hblkhd)
        103681 MiB available memory on the node where the printing process lives
------------------
     c_bands:  3 eigenvalues not converged
     c_bands:  5 eigenvalues not converged
     c_bands:  1 eigenvalues not converged
     ethr =  3.94E-09,  avg # of iterations =  8.0

     total cpu time spent up to now is      516.9 secs

     total energy              =   -1084.75806843 Ry
     estimated scf accuracy    <       0.00003949 Ry

     iteration # 35     ecut=    50.00 Ry     beta= 0.30
     Davidson diagonalization with overlap

---- Real-time Memory Report at c_bands before calling an iterative solver
           165 MiB given to the printing process from OS
           138 MiB allocation reported by mallinfo(arena+hblkhd)
        103682 MiB available memory on the node where the printing process lives
------------------
     c_bands:  1 eigenvalues not converged
     ethr =  3.94E-09,  avg # of iterations =  6.7

     total cpu time spent up to now is      532.7 secs

     total energy              =   -1084.75807204 Ry
     estimated scf accuracy    <       0.00000161 Ry

     iteration # 36     ecut=    50.00 Ry     beta= 0.30
     Davidson diagonalization with overlap

---- Real-time Memory Report at c_bands before calling an iterative solver
           165 MiB given to the printing process from OS
           138 MiB allocation reported by mallinfo(arena+hblkhd)
        103682 MiB available memory on the node where the printing process lives
------------------
     c_bands:  2 eigenvalues not converged
     ethr =  1.49E-09,  avg # of iterations =  2.7

     total cpu time spent up to now is      543.7 secs

     total energy              =   -1084.75807202 Ry
     estimated scf accuracy    <       0.00001228 Ry

     iteration # 37     ecut=    50.00 Ry     beta= 0.30
     Davidson diagonalization with overlap

---- Real-time Memory Report at c_bands before calling an iterative solver
           165 MiB given to the printing process from OS
           138 MiB allocation reported by mallinfo(arena+hblkhd)
        103682 MiB available memory on the node where the printing process lives
------------------
     c_bands:  1 eigenvalues not converged
     ethr =  1.49E-09,  avg # of iterations =  5.7

     total cpu time spent up to now is      558.3 secs

     total energy              =   -1084.75807269 Ry
     estimated scf accuracy    <       0.00000172 Ry

     iteration # 38     ecut=    50.00 Ry     beta= 0.30
     Davidson diagonalization with overlap

---- Real-time Memory Report at c_bands before calling an iterative solver
           165 MiB given to the printing process from OS
           138 MiB allocation reported by mallinfo(arena+hblkhd)
        103682 MiB available memory on the node where the printing process lives
------------------
     c_bands:  4 eigenvalues not converged
     c_bands:  5 eigenvalues not converged
     ethr =  1.49E-09,  avg # of iterations =  7.8

     total cpu time spent up to now is      578.7 secs

     total energy              =   -1084.75807410 Ry
     estimated scf accuracy    <       0.00000774 Ry

     iteration # 39     ecut=    50.00 Ry     beta= 0.30
     Davidson diagonalization with overlap

---- Real-time Memory Report at c_bands before calling an iterative solver
           165 MiB given to the printing process from OS
           138 MiB allocation reported by mallinfo(arena+hblkhd)
        103682 MiB available memory on the node where the printing process lives
------------------
     c_bands:  1 eigenvalues not converged
     ethr =  1.49E-09,  avg # of iterations =  1.3

     total cpu time spent up to now is      589.1 secs

     total energy              =   -1084.75806756 Ry
     estimated scf accuracy    <       0.00012138 Ry

     iteration # 40     ecut=    50.00 Ry     beta= 0.30
     Davidson diagonalization with overlap

---- Real-time Memory Report at c_bands before calling an iterative solver
           165 MiB given to the printing process from OS
           138 MiB allocation reported by mallinfo(arena+hblkhd)
        103682 MiB available memory on the node where the printing process lives
------------------
     c_bands:  5 eigenvalues not converged
     c_bands:  2 eigenvalues not converged
     ethr =  1.49E-09,  avg # of iterations =  7.8

     total cpu time spent up to now is      610.8 secs

     total energy              =   -1084.75806734 Ry
     estimated scf accuracy    <       0.00003943 Ry

     iteration # 41     ecut=    50.00 Ry     beta= 0.30
     Davidson diagonalization with overlap

---- Real-time Memory Report at c_bands before calling an iterative solver
           165 MiB given to the printing process from OS
           138 MiB allocation reported by mallinfo(arena+hblkhd)
        103682 MiB available memory on the node where the printing process lives
------------------
     c_bands:  1 eigenvalues not converged
     ethr =  1.49E-09,  avg # of iterations =  6.3

     total cpu time spent up to now is      625.6 secs

     total energy              =   -1084.75807013 Ry
     estimated scf accuracy    <       0.00000428 Ry

     iteration # 42     ecut=    50.00 Ry     beta= 0.30
     Davidson diagonalization with overlap

---- Real-time Memory Report at c_bands before calling an iterative solver
           165 MiB given to the printing process from OS
           138 MiB allocation reported by mallinfo(arena+hblkhd)
        103681 MiB available memory on the node where the printing process lives
------------------
     c_bands:  1 eigenvalues not converged
     ethr =  1.49E-09,  avg # of iterations =  6.0

     total cpu time spent up to now is      639.5 secs

     total energy              =   -1084.75807987 Ry
     estimated scf accuracy    <       0.00002450 Ry

     iteration # 43     ecut=    50.00 Ry     beta= 0.30
     Davidson diagonalization with overlap

---- Real-time Memory Report at c_bands before calling an iterative solver
           165 MiB given to the printing process from OS
           138 MiB allocation reported by mallinfo(arena+hblkhd)
        103681 MiB available memory on the node where the printing process lives
------------------
     c_bands:  1 eigenvalues not converged
     ethr =  1.49E-09,  avg # of iterations =  6.9

     total cpu time spent up to now is      655.1 secs

     total energy              =   -1084.75808303 Ry
     estimated scf accuracy    <       0.00007214 Ry

     iteration # 44     ecut=    50.00 Ry     beta= 0.30
     Davidson diagonalization with overlap

---- Real-time Memory Report at c_bands before calling an iterative solver
           165 MiB given to the printing process from OS
           138 MiB allocation reported by mallinfo(arena+hblkhd)
        103681 MiB available memory on the node where the printing process lives
------------------
     c_bands:  1 eigenvalues not converged
     ethr =  1.49E-09,  avg # of iterations =  1.4

     total cpu time spent up to now is      665.1 secs

     total energy              =   -1084.75808113 Ry
     estimated scf accuracy    <       0.00007891 Ry

     iteration # 45     ecut=    50.00 Ry     beta= 0.30
     Davidson diagonalization with overlap

---- Real-time Memory Report at c_bands before calling an iterative solver
           165 MiB given to the printing process from OS
           138 MiB allocation reported by mallinfo(arena+hblkhd)
        103681 MiB available memory on the node where the printing process lives
------------------
     ethr =  1.49E-09,  avg # of iterations =  1.3

     total cpu time spent up to now is      674.6 secs

     total energy              =   -1084.75807801 Ry
     estimated scf accuracy    <       0.00007521 Ry

     iteration # 46     ecut=    50.00 Ry     beta= 0.30
     Davidson diagonalization with overlap

---- Real-time Memory Report at c_bands before calling an iterative solver
           165 MiB given to the printing process from OS
           138 MiB allocation reported by mallinfo(arena+hblkhd)
        103681 MiB available memory on the node where the printing process lives
------------------
     ethr =  1.49E-09,  avg # of iterations =  4.5

     total cpu time spent up to now is      688.1 secs

     total energy              =   -1084.75807855 Ry
     estimated scf accuracy    <       0.00005688 Ry

     iteration # 47     ecut=    50.00 Ry     beta= 0.30
     Davidson diagonalization with overlap

---- Real-time Memory Report at c_bands before calling an iterative solver
           165 MiB given to the printing process from OS
           138 MiB allocation reported by mallinfo(arena+hblkhd)
        103682 MiB available memory on the node where the printing process lives
------------------
     ethr =  1.49E-09,  avg # of iterations =  1.0

     total cpu time spent up to now is      697.1 secs

     total energy              =   -1084.75807540 Ry
     estimated scf accuracy    <       0.00005685 Ry

     iteration # 48     ecut=    50.00 Ry     beta= 0.30
     Davidson diagonalization with overlap

---- Real-time Memory Report at c_bands before calling an iterative solver
           165 MiB given to the printing process from OS
           138 MiB allocation reported by mallinfo(arena+hblkhd)
        103682 MiB available memory on the node where the printing process lives
------------------
     c_bands:  1 eigenvalues not converged
     ethr =  1.49E-09,  avg # of iterations =  6.4

     total cpu time spent up to now is      711.0 secs

     total energy              =   -1084.75808016 Ry
     estimated scf accuracy    <       0.00003615 Ry

     iteration # 49     ecut=    50.00 Ry     beta= 0.30
     Davidson diagonalization with overlap

---- Real-time Memory Report at c_bands before calling an iterative solver
           165 MiB given to the printing process from OS
           138 MiB allocation reported by mallinfo(arena+hblkhd)
        103682 MiB available memory on the node where the printing process lives
------------------
     c_bands:  1 eigenvalues not converged
     ethr =  1.49E-09,  avg # of iterations =  6.6

     total cpu time spent up to now is      726.3 secs

     total energy              =   -1084.75808770 Ry
     estimated scf accuracy    <       0.00006454 Ry

     iteration # 50     ecut=    50.00 Ry     beta= 0.30
     Davidson diagonalization with overlap

---- Real-time Memory Report at c_bands before calling an iterative solver
           165 MiB given to the printing process from OS
           138 MiB allocation reported by mallinfo(arena+hblkhd)
        103682 MiB available memory on the node where the printing process lives
------------------
     c_bands:  1 eigenvalues not converged
     ethr =  1.49E-09,  avg # of iterations =  6.8

     total cpu time spent up to now is      742.7 secs

     total energy              =   -1084.75804832 Ry
     estimated scf accuracy    <       0.00010889 Ry

     iteration # 51     ecut=    50.00 Ry     beta= 0.30
     Davidson diagonalization with overlap

---- Real-time Memory Report at c_bands before calling an iterative solver
           165 MiB given to the printing process from OS
           138 MiB allocation reported by mallinfo(arena+hblkhd)
        103681 MiB available memory on the node where the printing process lives
------------------
     c_bands:  5 eigenvalues not converged
     c_bands:  1 eigenvalues not converged
     c_bands:  3 eigenvalues not converged
     c_bands:  2 eigenvalues not converged
     c_bands:  2 eigenvalues not converged
     ethr =  1.49E-09,  avg # of iterations = 14.3

     total cpu time spent up to now is      781.9 secs

     total energy              =   -1084.75807156 Ry
     estimated scf accuracy    <       0.00007330 Ry

     iteration # 52     ecut=    50.00 Ry     beta= 0.30
     Davidson diagonalization with overlap

---- Real-time Memory Report at c_bands before calling an iterative solver
           165 MiB given to the printing process from OS
           138 MiB allocation reported by mallinfo(arena+hblkhd)
        103681 MiB available memory on the node where the printing process lives
------------------
     c_bands:  5 eigenvalues not converged
     c_bands:  1 eigenvalues not converged
     ethr =  1.49E-09,  avg # of iterations = 10.1

     total cpu time spent up to now is      806.8 secs

     total energy              =   -1084.75806949 Ry
     estimated scf accuracy    <       0.00002331 Ry

     iteration # 53     ecut=    50.00 Ry     beta= 0.30
     Davidson diagonalization with overlap

---- Real-time Memory Report at c_bands before calling an iterative solver
           165 MiB given to the printing process from OS
           138 MiB allocation reported by mallinfo(arena+hblkhd)
        103681 MiB available memory on the node where the printing process lives
------------------
     c_bands:  3 eigenvalues not converged
     c_bands:  5 eigenvalues not converged
     ethr =  1.49E-09,  avg # of iterations =  7.2

     total cpu time spent up to now is      825.4 secs

     total energy              =   -1084.75807100 Ry
     estimated scf accuracy    <       0.00000339 Ry

     iteration # 54     ecut=    50.00 Ry     beta= 0.30
     Davidson diagonalization with overlap

---- Real-time Memory Report at c_bands before calling an iterative solver
           165 MiB given to the printing process from OS
           138 MiB allocation reported by mallinfo(arena+hblkhd)
        103681 MiB available memory on the node where the printing process lives
------------------
     c_bands:  1 eigenvalues not converged
     ethr =  1.49E-09,  avg # of iterations =  1.2

     total cpu time spent up to now is      835.0 secs

     total energy              =   -1084.75807722 Ry
     estimated scf accuracy    <       0.00001547 Ry

     iteration # 55     ecut=    50.00 Ry     beta= 0.30
     Davidson diagonalization with overlap

---- Real-time Memory Report at c_bands before calling an iterative solver
           165 MiB given to the printing process from OS
           138 MiB allocation reported by mallinfo(arena+hblkhd)
        103681 MiB available memory on the node where the printing process lives
------------------
     c_bands:  1 eigenvalues not converged
     ethr =  1.49E-09,  avg # of iterations =  6.7

     total cpu time spent up to now is      850.1 secs

     total energy              =   -1084.75808157 Ry
     estimated scf accuracy    <       0.00004935 Ry

     iteration # 56     ecut=    50.00 Ry     beta= 0.30
     Davidson diagonalization with overlap

---- Real-time Memory Report at c_bands before calling an iterative solver
           165 MiB given to the printing process from OS
           138 MiB allocation reported by mallinfo(arena+hblkhd)
        103681 MiB available memory on the node where the printing process lives
------------------
     ethr =  1.49E-09,  avg # of iterations =  5.4

     total cpu time spent up to now is      863.8 secs

     total energy              =   -1084.75809176 Ry
     estimated scf accuracy    <       0.00006995 Ry

     iteration # 57     ecut=    50.00 Ry     beta= 0.30
     Davidson diagonalization with overlap

---- Real-time Memory Report at c_bands before calling an iterative solver
           165 MiB given to the printing process from OS
           138 MiB allocation reported by mallinfo(arena+hblkhd)
        103681 MiB available memory on the node where the printing process lives
------------------
     c_bands:  5 eigenvalues not converged
     c_bands:  1 eigenvalues not converged
     ethr =  1.49E-09,  avg # of iterations =  9.0

     total cpu time spent up to now is      885.9 secs

     total energy              =   -1084.75809500 Ry
     estimated scf accuracy    <       0.00013705 Ry

     iteration # 58     ecut=    50.00 Ry     beta= 0.30
     Davidson diagonalization with overlap

---- Real-time Memory Report at c_bands before calling an iterative solver
           165 MiB given to the printing process from OS
           138 MiB allocation reported by mallinfo(arena+hblkhd)
        103681 MiB available memory on the node where the printing process lives
------------------
     c_bands:  2 eigenvalues not converged
     ethr =  1.49E-09,  avg # of iterations =  1.4

     total cpu time spent up to now is      896.1 secs

     total energy              =   -1084.75809589 Ry
     estimated scf accuracy    <       0.00014424 Ry

     iteration # 59     ecut=    50.00 Ry     beta= 0.30
     Davidson diagonalization with overlap

---- Real-time Memory Report at c_bands before calling an iterative solver
           165 MiB given to the printing process from OS
           138 MiB allocation reported by mallinfo(arena+hblkhd)
        103681 MiB available memory on the node where the printing process lives
------------------
     ethr =  1.49E-09,  avg # of iterations =  1.5

     total cpu time spent up to now is      905.8 secs

     total energy              =   -1084.75809033 Ry
     estimated scf accuracy    <       0.00014743 Ry

     iteration # 60     ecut=    50.00 Ry     beta= 0.30
     Davidson diagonalization with overlap

---- Real-time Memory Report at c_bands before calling an iterative solver
           165 MiB given to the printing process from OS
           138 MiB allocation reported by mallinfo(arena+hblkhd)
        103681 MiB available memory on the node where the printing process lives
------------------
     ethr =  1.49E-09,  avg # of iterations =  2.6

     total cpu time spent up to now is      917.5 secs

     total energy              =   -1084.75808156 Ry
     estimated scf accuracy    <       0.00013133 Ry

     iteration # 61     ecut=    50.00 Ry     beta= 0.30
     Davidson diagonalization with overlap

---- Real-time Memory Report at c_bands before calling an iterative solver
           165 MiB given to the printing process from OS
           138 MiB allocation reported by mallinfo(arena+hblkhd)
        103681 MiB available memory on the node where the printing process lives
------------------
     c_bands:  2 eigenvalues not converged
     ethr =  1.49E-09,  avg # of iterations =  7.1

     total cpu time spent up to now is      933.4 secs

     total energy              =   -1084.75807433 Ry
     estimated scf accuracy    <       0.00008411 Ry

     iteration # 62     ecut=    50.00 Ry     beta= 0.30
     Davidson diagonalization with overlap

---- Real-time Memory Report at c_bands before calling an iterative solver
           165 MiB given to the printing process from OS
           138 MiB allocation reported by mallinfo(arena+hblkhd)
        103681 MiB available memory on the node where the printing process lives
------------------
     c_bands:  1 eigenvalues not converged
     c_bands:  2 eigenvalues not converged
     ethr =  1.49E-09,  avg # of iterations =  6.8

     total cpu time spent up to now is      950.2 secs

     total energy              =   -1084.75806334 Ry
     estimated scf accuracy    <       0.00004307 Ry

     iteration # 63     ecut=    50.00 Ry     beta= 0.30
     Davidson diagonalization with overlap

---- Real-time Memory Report at c_bands before calling an iterative solver
           165 MiB given to the printing process from OS
           138 MiB allocation reported by mallinfo(arena+hblkhd)
        103681 MiB available memory on the node where the printing process lives
------------------
     c_bands:  5 eigenvalues not converged
     c_bands:  2 eigenvalues not converged
     ethr =  1.49E-09,  avg # of iterations = 11.3

     total cpu time spent up to now is      978.9 secs

     total energy              =   -1084.75806959 Ry
     estimated scf accuracy    <       0.00000027 Ry

     iteration # 64     ecut=    50.00 Ry     beta= 0.30
     Davidson diagonalization with overlap

---- Real-time Memory Report at c_bands before calling an iterative solver
           165 MiB given to the printing process from OS
           138 MiB allocation reported by mallinfo(arena+hblkhd)
        103681 MiB available memory on the node where the printing process lives
------------------
     c_bands:  5 eigenvalues not converged
     c_bands:  2 eigenvalues not converged
     ethr =  2.48E-10,  avg # of iterations =  6.8

     total cpu time spent up to now is      996.1 secs

     total energy              =   -1084.75807462 Ry
     estimated scf accuracy    <       0.00003464 Ry

     iteration # 65     ecut=    50.00 Ry     beta= 0.30
     Davidson diagonalization with overlap

---- Real-time Memory Report at c_bands before calling an iterative solver
           165 MiB given to the printing process from OS
           138 MiB allocation reported by mallinfo(arena+hblkhd)
        103681 MiB available memory on the node where the printing process lives
------------------
     c_bands:  5 eigenvalues not converged
     c_bands:  1 eigenvalues not converged
     c_bands:  2 eigenvalues not converged
     ethr =  2.48E-10,  avg # of iterations = 10.6

     total cpu time spent up to now is     1022.4 secs

     total energy              =   -1084.75807166 Ry
     estimated scf accuracy    <       0.00006970 Ry

     iteration # 66     ecut=    50.00 Ry     beta= 0.30
     Davidson diagonalization with overlap

---- Real-time Memory Report at c_bands before calling an iterative solver
           165 MiB given to the printing process from OS
           138 MiB allocation reported by mallinfo(arena+hblkhd)
        103681 MiB available memory on the node where the printing process lives
------------------
     c_bands:  4 eigenvalues not converged
     c_bands:  2 eigenvalues not converged
     c_bands:  5 eigenvalues not converged
     ethr =  2.48E-10,  avg # of iterations = 10.7

     total cpu time spent up to now is     1048.2 secs

     total energy              =   -1084.75807156 Ry
     estimated scf accuracy    <       0.00002678 Ry

     iteration # 67     ecut=    50.00 Ry     beta= 0.30
     Davidson diagonalization with overlap

---- Real-time Memory Report at c_bands before calling an iterative solver
           165 MiB given to the printing process from OS
           138 MiB allocation reported by mallinfo(arena+hblkhd)
        103681 MiB available memory on the node where the printing process lives
------------------
     c_bands:  1 eigenvalues not converged
     ethr =  2.48E-10,  avg # of iterations =  6.8

     total cpu time spent up to now is     1063.1 secs

     total energy              =   -1084.75807227 Ry
     estimated scf accuracy    <       0.00000519 Ry

     iteration # 68     ecut=    50.00 Ry     beta= 0.30
     Davidson diagonalization with overlap

---- Real-time Memory Report at c_bands before calling an iterative solver
           165 MiB given to the printing process from OS
           138 MiB allocation reported by mallinfo(arena+hblkhd)
        103681 MiB available memory on the node where the printing process lives
------------------
     c_bands:  1 eigenvalues not converged
     ethr =  2.48E-10,  avg # of iterations =  4.8

     total cpu time spent up to now is     1075.5 secs

     total energy              =   -1084.75807332 Ry
     estimated scf accuracy    <       0.00000026 Ry

     iteration # 69     ecut=    50.00 Ry     beta= 0.30
     Davidson diagonalization with overlap

---- Real-time Memory Report at c_bands before calling an iterative solver
           165 MiB given to the printing process from OS
           138 MiB allocation reported by mallinfo(arena+hblkhd)
        103681 MiB available memory on the node where the printing process lives
------------------
     c_bands:  5 eigenvalues not converged
     c_bands:  4 eigenvalues not converged
     c_bands:  2 eigenvalues not converged
     c_bands:  1 eigenvalues not converged
     ethr =  2.43E-10,  avg # of iterations = 10.7

     total cpu time spent up to now is     1100.2 secs

     total energy              =   -1084.75807389 Ry
     estimated scf accuracy    <       0.00000544 Ry

     iteration # 70     ecut=    50.00 Ry     beta= 0.30
     Davidson diagonalization with overlap

---- Real-time Memory Report at c_bands before calling an iterative solver
           165 MiB given to the printing process from OS
           138 MiB allocation reported by mallinfo(arena+hblkhd)
        103681 MiB available memory on the node where the printing process lives
------------------
     c_bands:  1 eigenvalues not converged
     ethr =  2.43E-10,  avg # of iterations =  1.4

     total cpu time spent up to now is     1110.5 secs

     total energy              =   -1084.75807318 Ry
     estimated scf accuracy    <       0.00002376 Ry

     iteration # 71     ecut=    50.00 Ry     beta= 0.30
     Davidson diagonalization with overlap

---- Real-time Memory Report at c_bands before calling an iterative solver
           165 MiB given to the printing process from OS
           138 MiB allocation reported by mallinfo(arena+hblkhd)
        103681 MiB available memory on the node where the printing process lives
------------------
     c_bands:  1 eigenvalues not converged
     ethr =  2.43E-10,  avg # of iterations =  6.7

     total cpu time spent up to now is     1126.1 secs

     total energy              =   -1084.75807362 Ry
     estimated scf accuracy    <       0.00001246 Ry

     iteration # 72     ecut=    50.00 Ry     beta= 0.30
     Davidson diagonalization with overlap

---- Real-time Memory Report at c_bands before calling an iterative solver
           165 MiB given to the printing process from OS
           138 MiB allocation reported by mallinfo(arena+hblkhd)
        103681 MiB available memory on the node where the printing process lives
------------------
     c_bands:  1 eigenvalues not converged
     ethr =  2.43E-10,  avg # of iterations =  1.3

     total cpu time spent up to now is     1135.8 secs

     total energy              =   -1084.75807402 Ry
     estimated scf accuracy    <       0.00001254 Ry

     iteration # 73     ecut=    50.00 Ry     beta= 0.30
     Davidson diagonalization with overlap

---- Real-time Memory Report at c_bands before calling an iterative solver
           165 MiB given to the printing process from OS
           138 MiB allocation reported by mallinfo(arena+hblkhd)
        103681 MiB available memory on the node where the printing process lives
------------------
     c_bands:  1 eigenvalues not converged
     ethr =  2.43E-10,  avg # of iterations =  3.4

     total cpu time spent up to now is     1148.8 secs

     total energy              =   -1084.75807355 Ry
     estimated scf accuracy    <       0.00001536 Ry

     iteration # 74     ecut=    50.00 Ry     beta= 0.30
     Davidson diagonalization with overlap

---- Real-time Memory Report at c_bands before calling an iterative solver
           165 MiB given to the printing process from OS
           138 MiB allocation reported by mallinfo(arena+hblkhd)
        103681 MiB available memory on the node where the printing process lives
------------------
     c_bands:  1 eigenvalues not converged
     ethr =  2.43E-10,  avg # of iterations =  2.2

     total cpu time spent up to now is     1160.1 secs

     total energy              =   -1084.75807327 Ry
     estimated scf accuracy    <       0.00001142 Ry

     iteration # 75     ecut=    50.00 Ry     beta= 0.30
     Davidson diagonalization with overlap

---- Real-time Memory Report at c_bands before calling an iterative solver
           165 MiB given to the printing process from OS
           138 MiB allocation reported by mallinfo(arena+hblkhd)
        103681 MiB available memory on the node where the printing process lives
------------------
     c_bands:  1 eigenvalues not converged
     ethr =  2.43E-10,  avg # of iterations =  3.1

     total cpu time spent up to now is     1172.3 secs

     total energy              =   -1084.75807282 Ry
     estimated scf accuracy    <       0.00000737 Ry

     iteration # 76     ecut=    50.00 Ry     beta= 0.30
     Davidson diagonalization with overlap

---- Real-time Memory Report at c_bands before calling an iterative solver
           165 MiB given to the printing process from OS
           138 MiB allocation reported by mallinfo(arena+hblkhd)
        103681 MiB available memory on the node where the printing process lives
------------------
     c_bands:  1 eigenvalues not converged
     ethr =  2.43E-10,  avg # of iterations =  6.7

     total cpu time spent up to now is     1186.3 secs

     total energy              =   -1084.75807183 Ry
     estimated scf accuracy    <       0.00000242 Ry

     iteration # 77     ecut=    50.00 Ry     beta= 0.30
     Davidson diagonalization with overlap

---- Real-time Memory Report at c_bands before calling an iterative solver
           165 MiB given to the printing process from OS
           138 MiB allocation reported by mallinfo(arena+hblkhd)
        103681 MiB available memory on the node where the printing process lives
------------------
     c_bands:  5 eigenvalues not converged
     c_bands:  2 eigenvalues not converged
     c_bands:  2 eigenvalues not converged
     c_bands:  3 eigenvalues not converged
     ethr =  2.43E-10,  avg # of iterations = 11.4

     total cpu time spent up to now is     1215.5 secs

     total energy              =   -1084.75807265 Ry
     estimated scf accuracy    <       0.00004474 Ry

     iteration # 78     ecut=    50.00 Ry     beta= 0.30
     Davidson diagonalization with overlap

---- Real-time Memory Report at c_bands before calling an iterative solver
           165 MiB given to the printing process from OS
           138 MiB allocation reported by mallinfo(arena+hblkhd)
        103681 MiB available memory on the node where the printing process lives
------------------
     c_bands:  4 eigenvalues not converged
     c_bands:  1 eigenvalues not converged
     ethr =  2.43E-10,  avg # of iterations =  7.9

     total cpu time spent up to now is     1237.3 secs

     total energy              =   -1084.75807317 Ry
     estimated scf accuracy    <       0.00001416 Ry

     iteration # 79     ecut=    50.00 Ry     beta= 0.30
     Davidson diagonalization with overlap

---- Real-time Memory Report at c_bands before calling an iterative solver
           165 MiB given to the printing process from OS
           138 MiB allocation reported by mallinfo(arena+hblkhd)
        103680 MiB available memory on the node where the printing process lives
------------------
     c_bands:  1 eigenvalues not converged
     ethr =  2.43E-10,  avg # of iterations =  1.3

     total cpu time spent up to now is     1247.1 secs

     total energy              =   -1084.75807308 Ry
     estimated scf accuracy    <       0.00001361 Ry

     iteration # 80     ecut=    50.00 Ry     beta= 0.30
     Davidson diagonalization with overlap

---- Real-time Memory Report at c_bands before calling an iterative solver
           165 MiB given to the printing process from OS
           138 MiB allocation reported by mallinfo(arena+hblkhd)
        103680 MiB available memory on the node where the printing process lives
------------------
     c_bands:  1 eigenvalues not converged
     ethr =  2.43E-10,  avg # of iterations =  1.3

     total cpu time spent up to now is     1256.7 secs

     total energy              =   -1084.75807401 Ry
     estimated scf accuracy    <       0.00001259 Ry

     iteration # 81     ecut=    50.00 Ry     beta= 0.30
     Davidson diagonalization with overlap

---- Real-time Memory Report at c_bands before calling an iterative solver
           165 MiB given to the printing process from OS
           138 MiB allocation reported by mallinfo(arena+hblkhd)
        103680 MiB available memory on the node where the printing process lives
------------------
     c_bands:  1 eigenvalues not converged
     ethr =  2.43E-10,  avg # of iterations =  5.5

     total cpu time spent up to now is     1271.3 secs

     total energy              =   -1084.75807265 Ry
     estimated scf accuracy    <       0.00001843 Ry

     iteration # 82     ecut=    50.00 Ry     beta= 0.30
     Davidson diagonalization with overlap

---- Real-time Memory Report at c_bands before calling an iterative solver
           165 MiB given to the printing process from OS
           138 MiB allocation reported by mallinfo(arena+hblkhd)
        103680 MiB available memory on the node where the printing process lives
------------------
     c_bands:  5 eigenvalues not converged
     ethr =  2.43E-10,  avg # of iterations =  6.7

     total cpu time spent up to now is     1287.4 secs

     total energy              =   -1084.75807297 Ry
     estimated scf accuracy    <       0.00001212 Ry

     iteration # 83     ecut=    50.00 Ry     beta= 0.30
     Davidson diagonalization with overlap

---- Real-time Memory Report at c_bands before calling an iterative solver
           165 MiB given to the printing process from OS
           138 MiB allocation reported by mallinfo(arena+hblkhd)
        103681 MiB available memory on the node where the printing process lives
------------------
     c_bands:  1 eigenvalues not converged
     ethr =  2.43E-10,  avg # of iterations =  1.2

     total cpu time spent up to now is     1297.9 secs

     total energy              =   -1084.75807256 Ry
     estimated scf accuracy    <       0.00000486 Ry

     iteration # 84     ecut=    50.00 Ry     beta= 0.30
     Davidson diagonalization with overlap

---- Real-time Memory Report at c_bands before calling an iterative solver
           165 MiB given to the printing process from OS
           138 MiB allocation reported by mallinfo(arena+hblkhd)
        103681 MiB available memory on the node where the printing process lives
------------------
     c_bands:  1 eigenvalues not converged
     ethr =  2.43E-10,  avg # of iterations =  6.5

     total cpu time spent up to now is     1311.7 secs

     total energy              =   -1084.75807307 Ry
     estimated scf accuracy    <       0.00000005 Ry

     iteration # 85     ecut=    50.00 Ry     beta= 0.30
     Davidson diagonalization with overlap

---- Real-time Memory Report at c_bands before calling an iterative solver
           165 MiB given to the printing process from OS
           138 MiB allocation reported by mallinfo(arena+hblkhd)
        103681 MiB available memory on the node where the printing process lives
------------------
     c_bands:  1 eigenvalues not converged
     c_bands:  3 eigenvalues not converged
     c_bands:  5 eigenvalues not converged
     c_bands:  3 eigenvalues not converged
     ethr =  4.36E-11,  avg # of iterations = 13.1

     total cpu time spent up to now is     1345.2 secs

     total energy              =   -1084.75807257 Ry
     estimated scf accuracy    <       0.00000465 Ry

     iteration # 86     ecut=    50.00 Ry     beta= 0.30
     Davidson diagonalization with overlap

---- Real-time Memory Report at c_bands before calling an iterative solver
           165 MiB given to the printing process from OS
           138 MiB allocation reported by mallinfo(arena+hblkhd)
        103681 MiB available memory on the node where the printing process lives
------------------
     c_bands:  5 eigenvalues not converged
     c_bands:  4 eigenvalues not converged
     c_bands:  1 eigenvalues not converged
     ethr =  4.36E-11,  avg # of iterations = 13.3

     total cpu time spent up to now is     1378.2 secs

     total energy              =   -1084.75807288 Ry
     estimated scf accuracy    <       0.00000052 Ry

     iteration # 87     ecut=    50.00 Ry     beta= 0.30
     Davidson diagonalization with overlap

---- Real-time Memory Report at c_bands before calling an iterative solver
           165 MiB given to the printing process from OS
           138 MiB allocation reported by mallinfo(arena+hblkhd)
        103681 MiB available memory on the node where the printing process lives
------------------
     c_bands:  1 eigenvalues not converged
     ethr =  4.36E-11,  avg # of iterations =  1.6

     total cpu time spent up to now is     1388.5 secs

     total energy              =   -1084.75807290 Ry
     estimated scf accuracy    <       0.00000004 Ry

     iteration # 88     ecut=    50.00 Ry     beta= 0.30
     Davidson diagonalization with overlap

---- Real-time Memory Report at c_bands before calling an iterative solver
           165 MiB given to the printing process from OS
           138 MiB allocation reported by mallinfo(arena+hblkhd)
        103681 MiB available memory on the node where the printing process lives
------------------
     ethr =  3.36E-11,  avg # of iterations =  1.1

     total cpu time spent up to now is     1398.0 secs

     total energy              =   -1084.75807292 Ry
     estimated scf accuracy    <       0.00000003 Ry

     iteration # 89     ecut=    50.00 Ry     beta= 0.30
     Davidson diagonalization with overlap

---- Real-time Memory Report at c_bands before calling an iterative solver
           165 MiB given to the printing process from OS
           138 MiB allocation reported by mallinfo(arena+hblkhd)
        103681 MiB available memory on the node where the printing process lives
------------------
     c_bands:  4 eigenvalues not converged
     c_bands:  5 eigenvalues not converged
     c_bands:  1 eigenvalues not converged
     c_bands:  1 eigenvalues not converged
     ethr =  2.79E-11,  avg # of iterations =  7.7

     total cpu time spent up to now is     1418.8 secs

     total energy              =   -1084.75807302 Ry
     estimated scf accuracy    <       0.00000031 Ry

     iteration # 90     ecut=    50.00 Ry     beta= 0.30
     Davidson diagonalization with overlap

---- Real-time Memory Report at c_bands before calling an iterative solver
           165 MiB given to the printing process from OS
           138 MiB allocation reported by mallinfo(arena+hblkhd)
        103681 MiB available memory on the node where the printing process lives
------------------
     c_bands:  5 eigenvalues not converged
     ethr =  2.79E-11,  avg # of iterations =  6.9

     total cpu time spent up to now is     1435.6 secs

     total energy              =   -1084.75807341 Ry
     estimated scf accuracy    <       0.00000091 Ry

     iteration # 91     ecut=    50.00 Ry     beta= 0.30
     Davidson diagonalization with overlap

---- Real-time Memory Report at c_bands before calling an iterative solver
           165 MiB given to the printing process from OS
           138 MiB allocation reported by mallinfo(arena+hblkhd)
        103681 MiB available memory on the node where the printing process lives
------------------
     c_bands:  1 eigenvalues not converged
     c_bands:  3 eigenvalues not converged
     c_bands:  3 eigenvalues not converged
     c_bands:  3 eigenvalues not converged
     ethr =  2.79E-11,  avg # of iterations = 11.7

     total cpu time spent up to now is     1467.3 secs

     total energy              =   -1084.75807272 Ry
     estimated scf accuracy    <       0.00000699 Ry

     iteration # 92     ecut=    50.00 Ry     beta= 0.30
     Davidson diagonalization with overlap

---- Real-time Memory Report at c_bands before calling an iterative solver
           165 MiB given to the printing process from OS
           138 MiB allocation reported by mallinfo(arena+hblkhd)
        103681 MiB available memory on the node where the printing process lives
------------------
     c_bands:  3 eigenvalues not converged
     c_bands:  2 eigenvalues not converged
     c_bands:  3 eigenvalues not converged
     ethr =  2.79E-11,  avg # of iterations = 13.9

     total cpu time spent up to now is     1503.6 secs

     total energy              =   -1084.75807297 Ry
     estimated scf accuracy    <       0.00000180 Ry

     iteration # 93     ecut=    50.00 Ry     beta= 0.30
     Davidson diagonalization with overlap

---- Real-time Memory Report at c_bands before calling an iterative solver
           165 MiB given to the printing process from OS
           138 MiB allocation reported by mallinfo(arena+hblkhd)
        103682 MiB available memory on the node where the printing process lives
------------------
     c_bands:  1 eigenvalues not converged
     ethr =  2.79E-11,  avg # of iterations =  1.5

     total cpu time spent up to now is     1513.9 secs

     total energy              =   -1084.75807283 Ry
     estimated scf accuracy    <       0.00000168 Ry

     iteration # 94     ecut=    50.00 Ry     beta= 0.30
     Davidson diagonalization with overlap

---- Real-time Memory Report at c_bands before calling an iterative solver
           165 MiB given to the printing process from OS
           138 MiB allocation reported by mallinfo(arena+hblkhd)
        103682 MiB available memory on the node where the printing process lives
------------------
     c_bands:  4 eigenvalues not converged
     c_bands:  4 eigenvalues not converged
     ethr =  2.79E-11,  avg # of iterations =  7.6

     total cpu time spent up to now is     1530.9 secs

     total energy              =   -1084.75807265 Ry
     estimated scf accuracy    <       0.00000091 Ry

     iteration # 95     ecut=    50.00 Ry     beta= 0.30
     Davidson diagonalization with overlap

---- Real-time Memory Report at c_bands before calling an iterative solver
           165 MiB given to the printing process from OS
           138 MiB allocation reported by mallinfo(arena+hblkhd)
        103682 MiB available memory on the node where the printing process lives
------------------
     c_bands:  5 eigenvalues not converged
     c_bands:  2 eigenvalues not converged
     c_bands:  1 eigenvalues not converged
     ethr =  2.79E-11,  avg # of iterations = 10.5

     total cpu time spent up to now is     1556.9 secs

     total energy              =   -1084.75807286 Ry
     estimated scf accuracy    <       0.00000002 Ry

     iteration # 96     ecut=    50.00 Ry     beta= 0.30
     Davidson diagonalization with overlap

---- Real-time Memory Report at c_bands before calling an iterative solver
           165 MiB given to the printing process from OS
           138 MiB allocation reported by mallinfo(arena+hblkhd)
        103682 MiB available memory on the node where the printing process lives
------------------
     c_bands:  1 eigenvalues not converged
     ethr =  1.70E-11,  avg # of iterations =  2.4

     total cpu time spent up to now is     1568.1 secs

     total energy              =   -1084.75807303 Ry
     estimated scf accuracy    <       0.00000294 Ry

     iteration # 97     ecut=    50.00 Ry     beta= 0.30
     Davidson diagonalization with overlap

---- Real-time Memory Report at c_bands before calling an iterative solver
           165 MiB given to the printing process from OS
           138 MiB allocation reported by mallinfo(arena+hblkhd)
        103682 MiB available memory on the node where the printing process lives
------------------
     ethr =  1.70E-11,  avg # of iterations =  4.2

     total cpu time spent up to now is     1581.0 secs

     total energy              =   -1084.75807283 Ry
     estimated scf accuracy    <       0.00000271 Ry

     iteration # 98     ecut=    50.00 Ry     beta= 0.30
     Davidson diagonalization with overlap

---- Real-time Memory Report at c_bands before calling an iterative solver
           165 MiB given to the printing process from OS
           138 MiB allocation reported by mallinfo(arena+hblkhd)
        103682 MiB available memory on the node where the printing process lives
------------------
     c_bands:  5 eigenvalues not converged
     c_bands:  5 eigenvalues not converged
     ethr =  1.70E-11,  avg # of iterations =  7.8

     total cpu time spent up to now is     1601.8 secs

     total energy              =   -1084.75807257 Ry
     estimated scf accuracy    <       0.00000152 Ry

     iteration # 99     ecut=    50.00 Ry     beta= 0.30
     Davidson diagonalization with overlap

---- Real-time Memory Report at c_bands before calling an iterative solver
           165 MiB given to the printing process from OS
           138 MiB allocation reported by mallinfo(arena+hblkhd)
        103682 MiB available memory on the node where the printing process lives
------------------
     c_bands:  5 eigenvalues not converged
     c_bands:  2 eigenvalues not converged
     c_bands:  2 eigenvalues not converged
     c_bands:  3 eigenvalues not converged
     ethr =  1.70E-11,  avg # of iterations = 11.5

     total cpu time spent up to now is     1630.8 secs

     total energy              =   -1084.75807296 Ry
     estimated scf accuracy    <       0.00000018 Ry

     iteration #100     ecut=    50.00 Ry     beta= 0.30
     Davidson diagonalization with overlap

---- Real-time Memory Report at c_bands before calling an iterative solver
           165 MiB given to the printing process from OS
           138 MiB allocation reported by mallinfo(arena+hblkhd)
        103682 MiB available memory on the node where the printing process lives
------------------
     c_bands:  1 eigenvalues not converged
     ethr =  1.70E-11,  avg # of iterations =  6.6

     total cpu time spent up to now is     1645.3 secs

     total energy              =   -1084.75807315 Ry
     estimated scf accuracy    <       0.00000182 Ry

     End of self-consistent calculation

     convergence NOT achieved after 100 iterations: stopping

     Writing config to output data dir ./ZnO-3.47-1.65-113-0.06-2.save/

     init_run     :     12.87s CPU      7.83s WALL (       1 calls)
     electrons    :   3153.63s CPU   1637.05s WALL (       1 calls)

     Called by init_run:
     wfcinit      :      9.51s CPU      5.12s WALL (       1 calls)
     wfcinit:atom :      0.09s CPU      0.06s WALL (      14 calls)
     wfcinit:wfcr :      8.77s CPU      4.56s WALL (      14 calls)
     potinit      :      1.10s CPU      0.78s WALL (       1 calls)
     hinit0       :      2.00s CPU      1.73s WALL (       1 calls)

     Called by electrons:
     c_bands      :   2750.87s CPU   1434.85s WALL (     100 calls)
     sum_band     :    350.75s CPU    170.01s WALL (     100 calls)
     v_of_rho     :     29.96s CPU     18.90s WALL (     101 calls)
     v_h          :      1.76s CPU      1.23s WALL (     101 calls)
     v_xc         :     28.21s CPU     17.66s WALL (     101 calls)
     newd         :     13.52s CPU      7.26s WALL (     101 calls)
     mix_rho      :      5.29s CPU      3.61s WALL (     100 calls)

     Called by c_bands:
     init_us_2    :     21.43s CPU     10.75s WALL (    2814 calls)
     init_us_2:cp :     21.40s CPU     10.74s WALL (    2814 calls)
     cegterg      :   2553.49s CPU   1286.95s WALL (    1425 calls)

     Called by sum_band:
     sum_band:wei :      0.06s CPU      0.06s WALL (     100 calls)
     sum_band:loo :    326.77s CPU    156.04s WALL (     100 calls)
     sum_band:buf :      3.78s CPU      1.87s WALL (    1400 calls)
     sum_band:ini :      9.02s CPU      4.43s WALL (    1400 calls)
     sum_band:cal :     45.19s CPU     23.54s WALL (    1400 calls)
     sum_band:bec :      0.54s CPU      0.39s WALL (    1400 calls)
     addusdens    :     16.57s CPU      8.17s WALL (     100 calls)
     addusd:skk   :      0.14s CPU      0.07s WALL (     200 calls)
     addusd:dgemm :      3.69s CPU      1.77s WALL (     200 calls)
     addusd:qvan2 :     10.36s CPU      4.79s WALL (     200 calls)

     Called by *egterg:
     cdiaghg      :    143.85s CPU    112.57s WALL (   13293 calls)
     cegterg:over :    205.28s CPU    107.28s WALL (   11868 calls)
     cegterg:upda :    104.66s CPU     47.61s WALL (   11868 calls)
     cegterg:last :    145.21s CPU     72.03s WALL (    3750 calls)
     h_psi        :   1732.64s CPU    838.84s WALL (   13307 calls)
     s_psi        :    154.98s CPU     71.73s WALL (   13307 calls)
     g_psi        :      7.30s CPU      4.13s WALL (   11868 calls)

     Called by h_psi:
     h_psi:calbec :    193.62s CPU     93.57s WALL (   13307 calls)
     vloc_psi     :   1388.24s CPU    667.74s WALL (   13307 calls)
     add_vuspsi   :    144.55s CPU     74.50s WALL (   13307 calls)

     General routines
     calbec       :    238.65s CPU    117.05s WALL (   14707 calls)
     fft          :     19.05s CPU     13.33s WALL (    1313 calls)
     ffts         :      1.00s CPU      0.67s WALL (     201 calls)
     fftw         :   1446.56s CPU    693.10s WALL (  545206 calls)
     interpolate  :      2.01s CPU      1.45s WALL (     101 calls)
     davcio       :      0.01s CPU      0.01s WALL (      18 calls)

     Parallel routines

     PWSCF        :  52m46.97s CPU  27m25.37s WALL


   This run was terminated on:  20:40: 9  25Sep2025            

=------------------------------------------------------------------------------=
   JOB DONE.
=------------------------------------------------------------------------------=
