
     Program PWSCF v.7.0 starts on 24Sep2025 at 13:51:50 

     This program is part of the open-source Quantum ESPRESSO suite
     for quantum simulation of materials; please cite
         "P. Giannozzi et al., J. Phys.:Condens. Matter 21 395502 (2009);
         "P. Giannozzi et al., J. Phys.:Condens. Matter 29 465901 (2017);
         "P. Giannozzi et al., J. Chem. Phys. 152 154105 (2020);
          URL http://www.quantum-espresso.org", 
     in publications or presentations arising from this work. More details at
     http://www.quantum-espresso.org/quote

     Parallel version (MPI & OpenMP), running on      32 processor cores
     Number of MPI processes:                16
     Threads/MPI process:                     2

     MPI processes distributed on     1 nodes
     K-points division:     npool     =       8
     R & G space division:  proc/nbgrp/npool/nimage =       2
     105838 MiB available memory on the printing compute node when the environment starts

     Reading input from /home/jvc/QEspresso7.2/ZnO_database/scripts/random_1x1x3.in/ZnO-3.01-1.61-113-0.04-1.in
Warning: card &CELL ignored
Warning: card / ignored
Warning: card &FCP ignored
Warning: card / ignored
Warning: card &RISM ignored
Warning: card / ignored

     Current dimensions of program PWSCF are:
     Max number of different atomic species (ntypx) = 10
     Max number of k-points (npk) =  40000
     Max angular momentum in pseudopotentials (lmaxx) =  4
     file Zn.upf: wavefunction(s)  3D renormalized

     Subspace diagonalization in iterative solution of the eigenvalue problem:
     a serial algorithm will be used


     Parallelization info
     --------------------
     sticks:   dense  smooth     PW     G-vecs:    dense   smooth      PW
     Min         444     219     69                51922    18377    3079
     Max         445     220     70                51933    18388    3080
     Sum         889     439    139               103855    36765    6159

     Using Slab Decomposition



     bravais-lattice index     =            0
     lattice parameter (alat)  =       5.6845  a.u.
     unit-cell volume          =     770.4405 (a.u.)^3
     number of atoms/cell      =           12
     number of atomic types    =            2
     number of electrons       =       108.00
     number of Kohn-Sham states=           54
     kinetic-energy cutoff     =      50.0000  Ry
     charge density cutoff     =     400.0000  Ry
     scf convergence threshold =      1.0E-08
     mixing beta               =       0.3000
     number of iterations used =            8  plain     mixing
     Exchange-correlation= PBE
                           (   1   4   3   4   0   0   0)

     celldm(1)=   5.684546  celldm(2)=   0.000000  celldm(3)=   0.000000
     celldm(4)=   0.000000  celldm(5)=   0.000000  celldm(6)=   0.000000

     crystal axes: (cart. coord. in units of alat)
               a(1) = (   1.000000   0.000000   0.000000 )  
               a(2) = (  -0.500000   0.866025   0.000000 )  
               a(3) = (   0.000000   0.000000   4.843075 )  

     reciprocal axes: (cart. coord. in units 2 pi/alat)
               b(1) = (  1.000000  0.577350 -0.000000 )  
               b(2) = (  0.000000  1.154701  0.000000 )  
               b(3) = (  0.000000 -0.000000  0.206480 )  


     PseudoPot. # 1 for Zn read from file:
     /home/jvc/QEspresso7.2/ZnO_database/pseudos/Zn.upf
     MD5 check sum: 7f56cabf9682ed8c977c2f7d0c5985c5
     Pseudo is Ultrasoft + core correction, Zval = 12.0
     Generated using &quot;atomic&quot; code by A. Dal Corso  v.6.2.2
     Using radial grid of 1201 points,  6 beta functions with: 
                l(1) =   0
                l(2) =   0
                l(3) =   1
                l(4) =   1
                l(5) =   2
                l(6) =   2
     Q(r) pseudized with 0 coefficients 


     PseudoPot. # 2 for O  read from file:
     /home/jvc/QEspresso7.2/ZnO_database/pseudos/O.upf
     MD5 check sum: 91400c9766925bcf19f520983a725ff0
     Pseudo is Ultrasoft + core correction, Zval =  6.0
     Generated using &quot;atomic&quot; code by A. Dal Corso  v.6.3MaX
     Using radial grid of 1095 points,  4 beta functions with: 
                l(1) =   0
                l(2) =   0
                l(3) =   1
                l(4) =   1
     Q(r) pseudized with 0 coefficients 


     atomic species   valence    mass     pseudopotential
        Zn            12.00    65.38000     Zn( 1.00)
        O              6.00    15.99900     O ( 1.00)

     No symmetry found


                                    s                        frac. trans.

      isym =  1     identity                                     

 cryst.   s( 1) = (     1          0          0      )
                  (     0          1          0      )
                  (     0          0          1      )

 cart.    s( 1) = (  1.0000000  0.0000000  0.0000000 )
                  (  0.0000000  1.0000000  0.0000000 )
                  (  0.0000000  0.0000000  1.0000000 )


   Cartesian axes

     site n.     atom                  positions (alat units)
         1           Zn  tau(   1) = (   0.4902753   0.3034540   0.8378932  )
         2           Zn  tau(   2) = (  -0.0070186   0.5864033   0.0102883  )
         3           O   tau(   3) = (   0.4906901   0.3010361   1.4365235  )
         4           O   tau(   4) = (  -0.0026414   0.5826402   0.5955591  )
         5           Zn  tau(   5) = (   0.5037279   0.2767694   2.4076105  )
         6           Zn  tau(   6) = (  -0.0015885   0.5740921   1.6229727  )
         7           O   tau(   7) = (   0.5083751   0.3077204   3.0237875  )
         8           O   tau(   8) = (   0.0010152   0.5608621   2.2309401  )
         9           Zn  tau(   9) = (   0.4927568   0.2870688   4.0500790  )
        10           Zn  tau(  10) = (  -0.0015612   0.5798515   3.2409484  )
        11           O   tau(  11) = (   0.5205148   0.3061433   4.6167113  )
        12           O   tau(  12) = (   0.0023194   0.5816896   3.8256879  )

   Crystallographic axes

     site n.     atom                  positions (cryst. coord.)
         1           Zn  tau(   1) = (  0.6654745  0.3503985  0.1730085  )
         2           Zn  tau(   2) = (  0.3315415  0.6771202  0.0021243  )
         3           O   tau(   3) = (  0.6644934  0.3476065  0.2966139  )
         4           O   tau(   4) = (  0.3337460  0.6727749  0.1229713  )
         5           Zn  tau(   5) = (  0.6635208  0.3195858  0.4971243  )
         6           Zn  tau(   6) = (  0.3298637  0.6629045  0.3351120  )
         7           O   tau(   7) = (  0.6860376  0.3553250  0.6243528  )
         8           O   tau(   8) = (  0.3248291  0.6476277  0.4606454  )
         9           Zn  tau(   9) = (  0.6584961  0.3314785  0.8362619  )
        10           Zn  tau(  10) = (  0.3332163  0.6695549  0.6691923  )
        11           O   tau(  11) = (  0.6972667  0.3535039  0.9532603  )
        12           O   tau(  12) = (  0.3381581  0.6716773  0.7899295  )

     number of k points=   112
                       cart. coord. in units 2pi/alat
        k(    1) = (   0.0000000   0.0000000   0.0000000), wk =   0.0092593
        k(    2) = (   0.0000000   0.0000000   0.0344134), wk =   0.0185185
        k(    3) = (   0.0000000   0.0000000   0.0688268), wk =   0.0185185
        k(    4) = (   0.0000000   0.0000000  -0.1032402), wk =   0.0092593
        k(    5) = (   0.0000000   0.1924501   0.0000000), wk =   0.0185185
        k(    6) = (   0.0000000   0.1924501   0.0344134), wk =   0.0185185
        k(    7) = (   0.0000000   0.1924501   0.0688268), wk =   0.0185185
        k(    8) = (   0.0000000   0.1924501  -0.1032402), wk =   0.0185185
        k(    9) = (   0.0000000   0.3849002   0.0000000), wk =   0.0185185
        k(   10) = (   0.0000000   0.3849002   0.0344134), wk =   0.0185185
        k(   11) = (   0.0000000   0.3849002   0.0688268), wk =   0.0185185
        k(   12) = (   0.0000000   0.3849002  -0.1032402), wk =   0.0185185
        k(   13) = (   0.0000000  -0.5773503   0.0000000), wk =   0.0092593
        k(   14) = (   0.0000000  -0.5773503   0.0344134), wk =   0.0185185
        k(   15) = (   0.0000000  -0.5773503   0.0688268), wk =   0.0185185
        k(   16) = (   0.0000000  -0.5773503  -0.1032402), wk =   0.0092593
        k(   17) = (   0.1666667   0.2886751   0.0000000), wk =   0.0185185
        k(   18) = (   0.1666667   0.2886751   0.0344134), wk =   0.0185185
        k(   19) = (   0.1666667   0.2886751   0.0688268), wk =   0.0185185
        k(   20) = (   0.1666667   0.2886751  -0.1032402), wk =   0.0185185
        k(   21) = (   0.1666667   0.4811252   0.0000000), wk =   0.0185185
        k(   22) = (   0.1666667   0.4811252   0.0344134), wk =   0.0185185
        k(   23) = (   0.1666667   0.4811252   0.0688268), wk =   0.0185185
        k(   24) = (   0.1666667   0.4811252  -0.1032402), wk =   0.0185185
        k(   25) = (   0.3333333   0.5773503   0.0000000), wk =   0.0185185
        k(   26) = (   0.3333333   0.5773503   0.0344134), wk =   0.0185185
        k(   27) = (   0.3333333   0.5773503   0.0688268), wk =   0.0185185
        k(   28) = (   0.3333333   0.5773503  -0.1032402), wk =   0.0185185
        k(   29) = (  -0.1666667   0.0962250   0.0000000), wk =   0.0185185
        k(   30) = (   0.1666667   0.0962250   0.0000000), wk =   0.0185185
        k(   31) = (   0.0000000  -0.1924501   0.0344134), wk =   0.0185185
        k(   32) = (  -0.1666667   0.0962250   0.0344134), wk =   0.0185185
        k(   33) = (   0.1666667   0.0962250   0.0344134), wk =   0.0185185
        k(   34) = (  -0.1666667  -0.0962250   0.0344134), wk =   0.0185185
        k(   35) = (   0.1666667  -0.0962250   0.0344134), wk =   0.0185185
        k(   36) = (   0.0000000  -0.1924501   0.0688268), wk =   0.0185185
        k(   37) = (  -0.1666667   0.0962250   0.0688268), wk =   0.0185185
        k(   38) = (   0.1666667   0.0962250   0.0688268), wk =   0.0185185
        k(   39) = (  -0.1666667  -0.0962250   0.0688268), wk =   0.0185185
        k(   40) = (   0.1666667  -0.0962250   0.0688268), wk =   0.0185185
        k(   41) = (  -0.1666667   0.0962250  -0.1032402), wk =   0.0185185
        k(   42) = (   0.1666667   0.0962250  -0.1032402), wk =   0.0185185
        k(   43) = (  -0.3333333   0.1924501   0.0000000), wk =   0.0185185
        k(   44) = (   0.3333333   0.1924501   0.0000000), wk =   0.0185185
        k(   45) = (   0.0000000  -0.3849002   0.0344134), wk =   0.0185185
        k(   46) = (  -0.3333333   0.1924501   0.0344134), wk =   0.0185185
        k(   47) = (   0.3333333   0.1924501   0.0344134), wk =   0.0185185
        k(   48) = (  -0.3333333  -0.1924501   0.0344134), wk =   0.0185185
        k(   49) = (   0.3333333  -0.1924501   0.0344134), wk =   0.0185185
        k(   50) = (   0.0000000  -0.3849002   0.0688268), wk =   0.0185185
        k(   51) = (  -0.3333333   0.1924501   0.0688268), wk =   0.0185185
        k(   52) = (   0.3333333   0.1924501   0.0688268), wk =   0.0185185
        k(   53) = (  -0.3333333  -0.1924501   0.0688268), wk =   0.0185185
        k(   54) = (   0.3333333  -0.1924501   0.0688268), wk =   0.0185185
        k(   55) = (  -0.3333333   0.1924501  -0.1032402), wk =   0.0185185
        k(   56) = (   0.3333333   0.1924501  -0.1032402), wk =   0.0185185
        k(   57) = (   0.5000000  -0.2886751   0.0000000), wk =   0.0092593
        k(   58) = (  -0.5000000  -0.2886751   0.0000000), wk =   0.0092593
        k(   59) = (   0.5000000  -0.2886751   0.0344134), wk =   0.0185185
        k(   60) = (  -0.5000000  -0.2886751   0.0344134), wk =   0.0185185
        k(   61) = (   0.5000000  -0.2886751   0.0688268), wk =   0.0185185
        k(   62) = (  -0.5000000  -0.2886751   0.0688268), wk =   0.0185185
        k(   63) = (   0.5000000  -0.2886751  -0.1032402), wk =   0.0092593
        k(   64) = (  -0.5000000  -0.2886751  -0.1032402), wk =   0.0092593
        k(   65) = (  -0.1666667   0.2886751   0.0000000), wk =   0.0185185
        k(   66) = (   0.3333333   0.0000000   0.0000000), wk =   0.0185185
        k(   67) = (  -0.1666667  -0.2886751   0.0344134), wk =   0.0185185
        k(   68) = (  -0.1666667   0.2886751  -0.0344134), wk =   0.0185185
        k(   69) = (   0.1666667  -0.2886751  -0.0344134), wk =   0.0185185
        k(   70) = (   0.3333333   0.0000000   0.0344134), wk =   0.0185185
        k(   71) = (  -0.3333333  -0.0000000   0.0344134), wk =   0.0185185
        k(   72) = (  -0.1666667  -0.2886751   0.0688268), wk =   0.0185185
        k(   73) = (  -0.1666667   0.2886751  -0.0688268), wk =   0.0185185
        k(   74) = (   0.1666667  -0.2886751  -0.0688268), wk =   0.0185185
        k(   75) = (   0.3333333   0.0000000   0.0688268), wk =   0.0185185
        k(   76) = (  -0.3333333  -0.0000000   0.0688268), wk =   0.0185185
        k(   77) = (  -0.1666667   0.2886751   0.1032402), wk =   0.0185185
        k(   78) = (   0.3333333   0.0000000  -0.1032402), wk =   0.0185185
        k(   79) = (  -0.1666667   0.4811252   0.0000000), wk =   0.0185185
        k(   80) = (  -0.3333333   0.3849002   0.0000000), wk =   0.0185185
        k(   81) = (   0.5000000   0.0962250   0.0000000), wk =   0.0185185
        k(   82) = (  -0.3333333  -0.3849002   0.0000000), wk =   0.0185185
        k(   83) = (   0.5000000  -0.0962250   0.0000000), wk =   0.0185185
        k(   84) = (  -0.1666667  -0.4811252   0.0344134), wk =   0.0185185
        k(   85) = (  -0.1666667   0.4811252  -0.0344134), wk =   0.0185185
        k(   86) = (   0.1666667  -0.4811252  -0.0344134), wk =   0.0185185
        k(   87) = (  -0.3333333   0.3849002   0.0344134), wk =   0.0185185
        k(   88) = (   0.5000000   0.0962250   0.0344134), wk =   0.0185185
        k(   89) = (  -0.5000000  -0.0962250   0.0344134), wk =   0.0185185
        k(   90) = (   0.3333333  -0.3849002   0.0344134), wk =   0.0185185
        k(   91) = (  -0.3333333  -0.3849002  -0.0344134), wk =   0.0185185
        k(   92) = (   0.5000000  -0.0962250  -0.0344134), wk =   0.0185185
        k(   93) = (  -0.5000000   0.0962250  -0.0344134), wk =   0.0185185
        k(   94) = (   0.3333333   0.3849002  -0.0344134), wk =   0.0185185
        k(   95) = (  -0.1666667  -0.4811252   0.0688268), wk =   0.0185185
        k(   96) = (  -0.1666667   0.4811252  -0.0688268), wk =   0.0185185
        k(   97) = (   0.1666667  -0.4811252  -0.0688268), wk =   0.0185185
        k(   98) = (  -0.3333333   0.3849002   0.0688268), wk =   0.0185185
        k(   99) = (   0.5000000   0.0962250   0.0688268), wk =   0.0185185
        k(  100) = (  -0.5000000  -0.0962250   0.0688268), wk =   0.0185185
        k(  101) = (   0.3333333  -0.3849002   0.0688268), wk =   0.0185185
        k(  102) = (  -0.3333333  -0.3849002  -0.0688268), wk =   0.0185185
        k(  103) = (   0.5000000  -0.0962250  -0.0688268), wk =   0.0185185
        k(  104) = (  -0.5000000   0.0962250  -0.0688268), wk =   0.0185185
        k(  105) = (   0.3333333   0.3849002  -0.0688268), wk =   0.0185185
        k(  106) = (  -0.1666667   0.4811252   0.1032402), wk =   0.0185185
        k(  107) = (  -0.3333333   0.3849002  -0.1032402), wk =   0.0185185
        k(  108) = (   0.5000000   0.0962250  -0.1032402), wk =   0.0185185
        k(  109) = (  -0.3333333  -0.3849002   0.1032402), wk =   0.0185185
        k(  110) = (   0.5000000  -0.0962250   0.1032402), wk =   0.0185185
        k(  111) = (  -0.3333333  -0.5773503   0.0344134), wk =   0.0185185
        k(  112) = (  -0.3333333  -0.5773503   0.0688268), wk =   0.0185185

                       cryst. coord.
        k(    1) = (   0.0000000   0.0000000   0.0000000), wk =   0.0092593
        k(    2) = (   0.0000000   0.0000000   0.1666667), wk =   0.0185185
        k(    3) = (   0.0000000   0.0000000   0.3333333), wk =   0.0185185
        k(    4) = (   0.0000000   0.0000000  -0.5000000), wk =   0.0092593
        k(    5) = (   0.0000000   0.1666667   0.0000000), wk =   0.0185185
        k(    6) = (   0.0000000   0.1666667   0.1666667), wk =   0.0185185
        k(    7) = (   0.0000000   0.1666667   0.3333333), wk =   0.0185185
        k(    8) = (   0.0000000   0.1666667  -0.5000000), wk =   0.0185185
        k(    9) = (   0.0000000   0.3333333   0.0000000), wk =   0.0185185
        k(   10) = (   0.0000000   0.3333333   0.1666667), wk =   0.0185185
        k(   11) = (   0.0000000   0.3333333   0.3333333), wk =   0.0185185
        k(   12) = (   0.0000000   0.3333333  -0.5000000), wk =   0.0185185
        k(   13) = (   0.0000000  -0.5000000   0.0000000), wk =   0.0092593
        k(   14) = (   0.0000000  -0.5000000   0.1666667), wk =   0.0185185
        k(   15) = (   0.0000000  -0.5000000   0.3333333), wk =   0.0185185
        k(   16) = (   0.0000000  -0.5000000  -0.5000000), wk =   0.0092593
        k(   17) = (   0.1666667   0.1666667   0.0000000), wk =   0.0185185
        k(   18) = (   0.1666667   0.1666667   0.1666667), wk =   0.0185185
        k(   19) = (   0.1666667   0.1666667   0.3333333), wk =   0.0185185
        k(   20) = (   0.1666667   0.1666667  -0.5000000), wk =   0.0185185
        k(   21) = (   0.1666667   0.3333333   0.0000000), wk =   0.0185185
        k(   22) = (   0.1666667   0.3333333   0.1666667), wk =   0.0185185
        k(   23) = (   0.1666667   0.3333333   0.3333333), wk =   0.0185185
        k(   24) = (   0.1666667   0.3333333  -0.5000000), wk =   0.0185185
        k(   25) = (   0.3333333   0.3333333   0.0000000), wk =   0.0185185
        k(   26) = (   0.3333333   0.3333333   0.1666667), wk =   0.0185185
        k(   27) = (   0.3333333   0.3333333   0.3333333), wk =   0.0185185
        k(   28) = (   0.3333333   0.3333333  -0.5000000), wk =   0.0185185
        k(   29) = (  -0.1666667   0.1666667   0.0000000), wk =   0.0185185
        k(   30) = (   0.1666667   0.0000000   0.0000000), wk =   0.0185185
        k(   31) = (   0.0000000  -0.1666667   0.1666667), wk =   0.0185185
        k(   32) = (  -0.1666667   0.1666667   0.1666667), wk =   0.0185185
        k(   33) = (   0.1666667   0.0000000   0.1666667), wk =   0.0185185
        k(   34) = (  -0.1666667  -0.0000000   0.1666667), wk =   0.0185185
        k(   35) = (   0.1666667  -0.1666667   0.1666667), wk =   0.0185185
        k(   36) = (   0.0000000  -0.1666667   0.3333333), wk =   0.0185185
        k(   37) = (  -0.1666667   0.1666667   0.3333333), wk =   0.0185185
        k(   38) = (   0.1666667   0.0000000   0.3333333), wk =   0.0185185
        k(   39) = (  -0.1666667  -0.0000000   0.3333333), wk =   0.0185185
        k(   40) = (   0.1666667  -0.1666667   0.3333333), wk =   0.0185185
        k(   41) = (  -0.1666667   0.1666667  -0.5000000), wk =   0.0185185
        k(   42) = (   0.1666667   0.0000000  -0.5000000), wk =   0.0185185
        k(   43) = (  -0.3333333   0.3333333   0.0000000), wk =   0.0185185
        k(   44) = (   0.3333333   0.0000000   0.0000000), wk =   0.0185185
        k(   45) = (   0.0000000  -0.3333333   0.1666667), wk =   0.0185185
        k(   46) = (  -0.3333333   0.3333333   0.1666667), wk =   0.0185185
        k(   47) = (   0.3333333   0.0000000   0.1666667), wk =   0.0185185
        k(   48) = (  -0.3333333  -0.0000000   0.1666667), wk =   0.0185185
        k(   49) = (   0.3333333  -0.3333333   0.1666667), wk =   0.0185185
        k(   50) = (   0.0000000  -0.3333333   0.3333333), wk =   0.0185185
        k(   51) = (  -0.3333333   0.3333333   0.3333333), wk =   0.0185185
        k(   52) = (   0.3333333   0.0000000   0.3333333), wk =   0.0185185
        k(   53) = (  -0.3333333  -0.0000000   0.3333333), wk =   0.0185185
        k(   54) = (   0.3333333  -0.3333333   0.3333333), wk =   0.0185185
        k(   55) = (  -0.3333333   0.3333333  -0.5000000), wk =   0.0185185
        k(   56) = (   0.3333333   0.0000000  -0.5000000), wk =   0.0185185
        k(   57) = (   0.5000000  -0.5000000   0.0000000), wk =   0.0092593
        k(   58) = (  -0.5000000   0.0000000   0.0000000), wk =   0.0092593
        k(   59) = (   0.5000000  -0.5000000   0.1666667), wk =   0.0185185
        k(   60) = (  -0.5000000   0.0000000   0.1666667), wk =   0.0185185
        k(   61) = (   0.5000000  -0.5000000   0.3333333), wk =   0.0185185
        k(   62) = (  -0.5000000   0.0000000   0.3333333), wk =   0.0185185
        k(   63) = (   0.5000000  -0.5000000  -0.5000000), wk =   0.0092593
        k(   64) = (  -0.5000000   0.0000000  -0.5000000), wk =   0.0092593
        k(   65) = (  -0.1666667   0.3333333   0.0000000), wk =   0.0185185
        k(   66) = (   0.3333333  -0.1666667   0.0000000), wk =   0.0185185
        k(   67) = (  -0.1666667  -0.1666667   0.1666667), wk =   0.0185185
        k(   68) = (  -0.1666667   0.3333333  -0.1666667), wk =   0.0185185
        k(   69) = (   0.1666667  -0.3333333  -0.1666667), wk =   0.0185185
        k(   70) = (   0.3333333  -0.1666667   0.1666667), wk =   0.0185185
        k(   71) = (  -0.3333333   0.1666667   0.1666667), wk =   0.0185185
        k(   72) = (  -0.1666667  -0.1666667   0.3333333), wk =   0.0185185
        k(   73) = (  -0.1666667   0.3333333  -0.3333333), wk =   0.0185185
        k(   74) = (   0.1666667  -0.3333333  -0.3333333), wk =   0.0185185
        k(   75) = (   0.3333333  -0.1666667   0.3333333), wk =   0.0185185
        k(   76) = (  -0.3333333   0.1666667   0.3333333), wk =   0.0185185
        k(   77) = (  -0.1666667   0.3333333   0.5000000), wk =   0.0185185
        k(   78) = (   0.3333333  -0.1666667  -0.5000000), wk =   0.0185185
        k(   79) = (  -0.1666667   0.5000000   0.0000000), wk =   0.0185185
        k(   80) = (  -0.3333333   0.5000000   0.0000000), wk =   0.0185185
        k(   81) = (   0.5000000  -0.1666667   0.0000000), wk =   0.0185185
        k(   82) = (  -0.3333333  -0.1666667   0.0000000), wk =   0.0185185
        k(   83) = (   0.5000000  -0.3333333   0.0000000), wk =   0.0185185
        k(   84) = (  -0.1666667  -0.3333333   0.1666667), wk =   0.0185185
        k(   85) = (  -0.1666667   0.5000000  -0.1666667), wk =   0.0185185
        k(   86) = (   0.1666667  -0.5000000  -0.1666667), wk =   0.0185185
        k(   87) = (  -0.3333333   0.5000000   0.1666667), wk =   0.0185185
        k(   88) = (   0.5000000  -0.1666667   0.1666667), wk =   0.0185185
        k(   89) = (  -0.5000000   0.1666667   0.1666667), wk =   0.0185185
        k(   90) = (   0.3333333  -0.5000000   0.1666667), wk =   0.0185185
        k(   91) = (  -0.3333333  -0.1666667  -0.1666667), wk =   0.0185185
        k(   92) = (   0.5000000  -0.3333333  -0.1666667), wk =   0.0185185
        k(   93) = (  -0.5000000   0.3333333  -0.1666667), wk =   0.0185185
        k(   94) = (   0.3333333   0.1666667  -0.1666667), wk =   0.0185185
        k(   95) = (  -0.1666667  -0.3333333   0.3333333), wk =   0.0185185
        k(   96) = (  -0.1666667   0.5000000  -0.3333333), wk =   0.0185185
        k(   97) = (   0.1666667  -0.5000000  -0.3333333), wk =   0.0185185
        k(   98) = (  -0.3333333   0.5000000   0.3333333), wk =   0.0185185
        k(   99) = (   0.5000000  -0.1666667   0.3333333), wk =   0.0185185
        k(  100) = (  -0.5000000   0.1666667   0.3333333), wk =   0.0185185
        k(  101) = (   0.3333333  -0.5000000   0.3333333), wk =   0.0185185
        k(  102) = (  -0.3333333  -0.1666667  -0.3333333), wk =   0.0185185
        k(  103) = (   0.5000000  -0.3333333  -0.3333333), wk =   0.0185185
        k(  104) = (  -0.5000000   0.3333333  -0.3333333), wk =   0.0185185
        k(  105) = (   0.3333333   0.1666667  -0.3333333), wk =   0.0185185
        k(  106) = (  -0.1666667   0.5000000   0.5000000), wk =   0.0185185
        k(  107) = (  -0.3333333   0.5000000  -0.5000000), wk =   0.0185185
        k(  108) = (   0.5000000  -0.1666667  -0.5000000), wk =   0.0185185
        k(  109) = (  -0.3333333  -0.1666667   0.5000000), wk =   0.0185185
        k(  110) = (   0.5000000  -0.3333333   0.5000000), wk =   0.0185185
        k(  111) = (  -0.3333333  -0.3333333   0.1666667), wk =   0.0185185
        k(  112) = (  -0.3333333  -0.3333333   0.3333333), wk =   0.0185185

     Dense  grid:   103855 G-vectors     FFT dimensions: (  40,  40, 180)

     Smooth grid:    36765 G-vectors     FFT dimensions: (  25,  25, 125)

     Dynamical RAM for                 wfc:       1.90 MB

     Dynamical RAM for     wfc (w. buffer):      28.43 MB

     Dynamical RAM for           str. fact:       1.58 MB

     Dynamical RAM for           local pot:       0.00 MB

     Dynamical RAM for          nlocal pot:       5.47 MB

     Dynamical RAM for                qrad:       3.21 MB

     Dynamical RAM for          rho,v,vnew:       5.67 MB

     Dynamical RAM for               rhoin:       1.89 MB

     Dynamical RAM for            rho*nmix:      12.68 MB

     Dynamical RAM for           G-vectors:       3.11 MB

     Dynamical RAM for          h,s,v(r/c):       0.53 MB

     Dynamical RAM for          <psi|beta>:       0.13 MB

     Dynamical RAM for                 psi:       3.79 MB

     Dynamical RAM for                hpsi:       3.79 MB

     Dynamical RAM for                spsi:       3.79 MB

     Dynamical RAM for      wfcinit/wfcrot:       5.61 MB

     Dynamical RAM for           addusdens:      19.71 MB

     Dynamical RAM for          addusforce:      20.42 MB

     Estimated static dynamical RAM per process >      57.24 MB

     Estimated max dynamical RAM per process >      90.34 MB

     Estimated total dynamical RAM >       1.24 GB

     Check: negative core charge=   -0.000001

     Initial potential from superposition of free atoms

     starting charge     107.9776, renormalised to     108.0000
     Starting wfcs are   78 randomized atomic wfcs

     total cpu time spent up to now is        5.8 secs

     per-process dynamical memory:    73.5 Mb

     Self-consistent Calculation

     iteration #  1     ecut=    50.00 Ry     beta= 0.30
     Davidson diagonalization with overlap

---- Real-time Memory Report at c_bands before calling an iterative solver
            98 MiB given to the printing process from OS
            71 MiB allocation reported by mallinfo(arena+hblkhd)
        104596 MiB available memory on the node where the printing process lives
------------------
     ethr =  1.00E-02,  avg # of iterations =  2.0

     total cpu time spent up to now is       12.5 secs

     total energy              =   -1084.09576834 Ry
     estimated scf accuracy    <       2.06299803 Ry

     iteration #  2     ecut=    50.00 Ry     beta= 0.30
     Davidson diagonalization with overlap

---- Real-time Memory Report at c_bands before calling an iterative solver
           117 MiB given to the printing process from OS
            89 MiB allocation reported by mallinfo(arena+hblkhd)
        104385 MiB available memory on the node where the printing process lives
------------------
     ethr =  1.91E-03,  avg # of iterations =  2.0

     total cpu time spent up to now is       20.1 secs

     total energy              =   -1084.21953267 Ry
     estimated scf accuracy    <       0.40679177 Ry

     iteration #  3     ecut=    50.00 Ry     beta= 0.30
     Davidson diagonalization with overlap

---- Real-time Memory Report at c_bands before calling an iterative solver
           118 MiB given to the printing process from OS
            90 MiB allocation reported by mallinfo(arena+hblkhd)
        104412 MiB available memory on the node where the printing process lives
------------------
     c_bands:  2 eigenvalues not converged
     ethr =  3.77E-04,  avg # of iterations =  6.5

     total cpu time spent up to now is       35.3 secs

     total energy              =   -1084.47514418 Ry
     estimated scf accuracy    <       0.25133132 Ry

     iteration #  4     ecut=    50.00 Ry     beta= 0.30
     Davidson diagonalization with overlap

---- Real-time Memory Report at c_bands before calling an iterative solver
           118 MiB given to the printing process from OS
            90 MiB allocation reported by mallinfo(arena+hblkhd)
        104405 MiB available memory on the node where the printing process lives
------------------
     ethr =  2.33E-04,  avg # of iterations =  2.4

     total cpu time spent up to now is       42.6 secs

     total energy              =   -1084.43553148 Ry
     estimated scf accuracy    <       0.08683630 Ry

     iteration #  5     ecut=    50.00 Ry     beta= 0.30
     Davidson diagonalization with overlap

---- Real-time Memory Report at c_bands before calling an iterative solver
           119 MiB given to the printing process from OS
            91 MiB allocation reported by mallinfo(arena+hblkhd)
        104406 MiB available memory on the node where the printing process lives
------------------
     c_bands:  2 eigenvalues not converged
     ethr =  8.04E-05,  avg # of iterations =  8.1

     total cpu time spent up to now is       59.5 secs

     total energy              =   -1084.49401709 Ry
     estimated scf accuracy    <       0.28875735 Ry

     iteration #  6     ecut=    50.00 Ry     beta= 0.30
     Davidson diagonalization with overlap

---- Real-time Memory Report at c_bands before calling an iterative solver
           119 MiB given to the printing process from OS
            92 MiB allocation reported by mallinfo(arena+hblkhd)
        104405 MiB available memory on the node where the printing process lives
------------------
     ethr =  8.04E-05,  avg # of iterations =  2.3

     total cpu time spent up to now is       67.4 secs

     total energy              =   -1084.42701049 Ry
     estimated scf accuracy    <       0.10834722 Ry

     iteration #  7     ecut=    50.00 Ry     beta= 0.30
     Davidson diagonalization with overlap

---- Real-time Memory Report at c_bands before calling an iterative solver
           120 MiB given to the printing process from OS
            92 MiB allocation reported by mallinfo(arena+hblkhd)
        104404 MiB available memory on the node where the printing process lives
------------------
     c_bands:  1 eigenvalues not converged
     c_bands:  1 eigenvalues not converged
     ethr =  8.04E-05,  avg # of iterations =  7.9

     total cpu time spent up to now is       84.2 secs

     total energy              =   -1084.47996083 Ry
     estimated scf accuracy    <       0.19532557 Ry

     iteration #  8     ecut=    50.00 Ry     beta= 0.30
     Davidson diagonalization with overlap

---- Real-time Memory Report at c_bands before calling an iterative solver
           121 MiB given to the printing process from OS
            93 MiB allocation reported by mallinfo(arena+hblkhd)
        104405 MiB available memory on the node where the printing process lives
------------------
     c_bands:  1 eigenvalues not converged
     ethr =  8.04E-05,  avg # of iterations =  3.5

     total cpu time spent up to now is       92.9 secs

     total energy              =   -1084.49030590 Ry
     estimated scf accuracy    <       0.04760250 Ry

     iteration #  9     ecut=    50.00 Ry     beta= 0.30
     Davidson diagonalization with overlap

---- Real-time Memory Report at c_bands before calling an iterative solver
           121 MiB given to the printing process from OS
            93 MiB allocation reported by mallinfo(arena+hblkhd)
        104404 MiB available memory on the node where the printing process lives
------------------
     ethr =  4.41E-05,  avg # of iterations =  3.3

     total cpu time spent up to now is      101.8 secs

     total energy              =   -1084.49499568 Ry
     estimated scf accuracy    <       0.01736530 Ry

     iteration # 10     ecut=    50.00 Ry     beta= 0.30
     Davidson diagonalization with overlap

---- Real-time Memory Report at c_bands before calling an iterative solver
           122 MiB given to the printing process from OS
            94 MiB allocation reported by mallinfo(arena+hblkhd)
        104402 MiB available memory on the node where the printing process lives
------------------
     ethr =  1.61E-05,  avg # of iterations =  4.6

     total cpu time spent up to now is      112.4 secs

     total energy              =   -1084.50055408 Ry
     estimated scf accuracy    <       0.00211016 Ry

     iteration # 11     ecut=    50.00 Ry     beta= 0.30
     Davidson diagonalization with overlap

---- Real-time Memory Report at c_bands before calling an iterative solver
           122 MiB given to the printing process from OS
            94 MiB allocation reported by mallinfo(arena+hblkhd)
        104402 MiB available memory on the node where the printing process lives
------------------
     c_bands:  2 eigenvalues not converged
     ethr =  1.95E-06,  avg # of iterations =  4.6

     total cpu time spent up to now is      124.2 secs

     total energy              =   -1084.50100229 Ry
     estimated scf accuracy    <       0.00140132 Ry

     iteration # 12     ecut=    50.00 Ry     beta= 0.30
     Davidson diagonalization with overlap

---- Real-time Memory Report at c_bands before calling an iterative solver
           122 MiB given to the printing process from OS
            94 MiB allocation reported by mallinfo(arena+hblkhd)
        104402 MiB available memory on the node where the printing process lives
------------------
     c_bands:  1 eigenvalues not converged
     ethr =  1.30E-06,  avg # of iterations =  1.9

     total cpu time spent up to now is      131.1 secs

     total energy              =   -1084.50134343 Ry
     estimated scf accuracy    <       0.00068071 Ry

     iteration # 13     ecut=    50.00 Ry     beta= 0.30
     Davidson diagonalization with overlap

---- Real-time Memory Report at c_bands before calling an iterative solver
           122 MiB given to the printing process from OS
            94 MiB allocation reported by mallinfo(arena+hblkhd)
        104402 MiB available memory on the node where the printing process lives
------------------
     ethr =  6.30E-07,  avg # of iterations =  2.0

     total cpu time spent up to now is      137.9 secs

     total energy              =   -1084.50145404 Ry
     estimated scf accuracy    <       0.00071566 Ry

     iteration # 14     ecut=    50.00 Ry     beta= 0.30
     Davidson diagonalization with overlap

---- Real-time Memory Report at c_bands before calling an iterative solver
           122 MiB given to the printing process from OS
            94 MiB allocation reported by mallinfo(arena+hblkhd)
        104402 MiB available memory on the node where the printing process lives
------------------
     ethr =  6.30E-07,  avg # of iterations =  1.6

     total cpu time spent up to now is      144.3 secs

     total energy              =   -1084.50119796 Ry
     estimated scf accuracy    <       0.00088313 Ry

     iteration # 15     ecut=    50.00 Ry     beta= 0.30
     Davidson diagonalization with overlap

---- Real-time Memory Report at c_bands before calling an iterative solver
           122 MiB given to the printing process from OS
            94 MiB allocation reported by mallinfo(arena+hblkhd)
        104402 MiB available memory on the node where the printing process lives
------------------
     ethr =  6.30E-07,  avg # of iterations =  2.2

     total cpu time spent up to now is      151.2 secs

     total energy              =   -1084.50125328 Ry
     estimated scf accuracy    <       0.00030334 Ry

     iteration # 16     ecut=    50.00 Ry     beta= 0.30
     Davidson diagonalization with overlap

---- Real-time Memory Report at c_bands before calling an iterative solver
           122 MiB given to the printing process from OS
            94 MiB allocation reported by mallinfo(arena+hblkhd)
        104402 MiB available memory on the node where the printing process lives
------------------
     ethr =  2.81E-07,  avg # of iterations =  2.0

     total cpu time spent up to now is      158.4 secs

     total energy              =   -1084.50122092 Ry
     estimated scf accuracy    <       0.00024296 Ry

     iteration # 17     ecut=    50.00 Ry     beta= 0.30
     Davidson diagonalization with overlap

---- Real-time Memory Report at c_bands before calling an iterative solver
           122 MiB given to the printing process from OS
            94 MiB allocation reported by mallinfo(arena+hblkhd)
        104403 MiB available memory on the node where the printing process lives
------------------
     ethr =  2.25E-07,  avg # of iterations =  2.9

     total cpu time spent up to now is      166.5 secs

     total energy              =   -1084.50119298 Ry
     estimated scf accuracy    <       0.00007950 Ry

     iteration # 18     ecut=    50.00 Ry     beta= 0.30
     Davidson diagonalization with overlap

---- Real-time Memory Report at c_bands before calling an iterative solver
           122 MiB given to the printing process from OS
            94 MiB allocation reported by mallinfo(arena+hblkhd)
        104403 MiB available memory on the node where the printing process lives
------------------
     c_bands:  1 eigenvalues not converged
     ethr =  7.36E-08,  avg # of iterations =  9.0

     total cpu time spent up to now is      184.6 secs

     total energy              =   -1084.50123178 Ry
     estimated scf accuracy    <       0.00031523 Ry

     iteration # 19     ecut=    50.00 Ry     beta= 0.30
     Davidson diagonalization with overlap

---- Real-time Memory Report at c_bands before calling an iterative solver
           122 MiB given to the printing process from OS
            94 MiB allocation reported by mallinfo(arena+hblkhd)
        104403 MiB available memory on the node where the printing process lives
------------------
     ethr =  7.36E-08,  avg # of iterations =  6.3

     total cpu time spent up to now is      196.6 secs

     total energy              =   -1084.50126679 Ry
     estimated scf accuracy    <       0.00003959 Ry

     iteration # 20     ecut=    50.00 Ry     beta= 0.30
     Davidson diagonalization with overlap

---- Real-time Memory Report at c_bands before calling an iterative solver
           122 MiB given to the printing process from OS
            94 MiB allocation reported by mallinfo(arena+hblkhd)
        104401 MiB available memory on the node where the printing process lives
------------------
     ethr =  3.67E-08,  avg # of iterations =  2.1

     total cpu time spent up to now is      203.9 secs

     total energy              =   -1084.50127317 Ry
     estimated scf accuracy    <       0.00003194 Ry

     iteration # 21     ecut=    50.00 Ry     beta= 0.30
     Davidson diagonalization with overlap

---- Real-time Memory Report at c_bands before calling an iterative solver
           122 MiB given to the printing process from OS
            94 MiB allocation reported by mallinfo(arena+hblkhd)
        104401 MiB available memory on the node where the printing process lives
------------------
     ethr =  2.96E-08,  avg # of iterations =  3.0

     total cpu time spent up to now is      211.3 secs

     total energy              =   -1084.50127623 Ry
     estimated scf accuracy    <       0.00004138 Ry

     iteration # 22     ecut=    50.00 Ry     beta= 0.30
     Davidson diagonalization with overlap

---- Real-time Memory Report at c_bands before calling an iterative solver
           122 MiB given to the printing process from OS
            94 MiB allocation reported by mallinfo(arena+hblkhd)
        104401 MiB available memory on the node where the printing process lives
------------------
     ethr =  2.96E-08,  avg # of iterations =  1.1

     total cpu time spent up to now is      217.1 secs

     total energy              =   -1084.50126316 Ry
     estimated scf accuracy    <       0.00004266 Ry

     iteration # 23     ecut=    50.00 Ry     beta= 0.30
     Davidson diagonalization with overlap

---- Real-time Memory Report at c_bands before calling an iterative solver
           122 MiB given to the printing process from OS
            94 MiB allocation reported by mallinfo(arena+hblkhd)
        104401 MiB available memory on the node where the printing process lives
------------------
     ethr =  2.96E-08,  avg # of iterations =  2.0

     total cpu time spent up to now is      224.1 secs

     total energy              =   -1084.50126015 Ry
     estimated scf accuracy    <       0.00001447 Ry

     iteration # 24     ecut=    50.00 Ry     beta= 0.30
     Davidson diagonalization with overlap

---- Real-time Memory Report at c_bands before calling an iterative solver
           122 MiB given to the printing process from OS
            94 MiB allocation reported by mallinfo(arena+hblkhd)
        104401 MiB available memory on the node where the printing process lives
------------------
     ethr =  1.34E-08,  avg # of iterations =  5.6

     total cpu time spent up to now is      235.9 secs

     total energy              =   -1084.50126677 Ry
     estimated scf accuracy    <       0.00000110 Ry

     iteration # 25     ecut=    50.00 Ry     beta= 0.30
     Davidson diagonalization with overlap

---- Real-time Memory Report at c_bands before calling an iterative solver
           122 MiB given to the printing process from OS
            94 MiB allocation reported by mallinfo(arena+hblkhd)
        104401 MiB available memory on the node where the printing process lives
------------------
     ethr =  1.02E-09,  avg # of iterations =  6.1

     total cpu time spent up to now is      249.3 secs

     total energy              =   -1084.50126701 Ry
     estimated scf accuracy    <       0.00000134 Ry

     iteration # 26     ecut=    50.00 Ry     beta= 0.30
     Davidson diagonalization with overlap

---- Real-time Memory Report at c_bands before calling an iterative solver
           122 MiB given to the printing process from OS
            94 MiB allocation reported by mallinfo(arena+hblkhd)
        104401 MiB available memory on the node where the printing process lives
------------------
     ethr =  1.02E-09,  avg # of iterations =  2.0

     total cpu time spent up to now is      255.8 secs

     total energy              =   -1084.50126683 Ry
     estimated scf accuracy    <       0.00000068 Ry

     iteration # 27     ecut=    50.00 Ry     beta= 0.30
     Davidson diagonalization with overlap

---- Real-time Memory Report at c_bands before calling an iterative solver
           122 MiB given to the printing process from OS
            94 MiB allocation reported by mallinfo(arena+hblkhd)
        104401 MiB available memory on the node where the printing process lives
------------------
     ethr =  6.26E-10,  avg # of iterations =  4.2

     total cpu time spent up to now is      265.0 secs

     total energy              =   -1084.50126700 Ry
     estimated scf accuracy    <       0.00000002 Ry

     iteration # 28     ecut=    50.00 Ry     beta= 0.30
     Davidson diagonalization with overlap

---- Real-time Memory Report at c_bands before calling an iterative solver
           122 MiB given to the printing process from OS
            94 MiB allocation reported by mallinfo(arena+hblkhd)
        104401 MiB available memory on the node where the printing process lives
------------------
     ethr =  1.79E-11,  avg # of iterations =  7.7

     total cpu time spent up to now is      282.2 secs

     total energy              =   -1084.50126703 Ry
     estimated scf accuracy    <       0.00000002 Ry

     iteration # 29     ecut=    50.00 Ry     beta= 0.30
     Davidson diagonalization with overlap

---- Real-time Memory Report at c_bands before calling an iterative solver
           122 MiB given to the printing process from OS
            94 MiB allocation reported by mallinfo(arena+hblkhd)
        104401 MiB available memory on the node where the printing process lives
------------------
     ethr =  1.49E-11,  avg # of iterations =  6.0

     total cpu time spent up to now is      294.8 secs

     total energy              =   -1084.50126705 Ry
     estimated scf accuracy    <       0.00000002 Ry

     iteration # 30     ecut=    50.00 Ry     beta= 0.30
     Davidson diagonalization with overlap

---- Real-time Memory Report at c_bands before calling an iterative solver
           122 MiB given to the printing process from OS
            94 MiB allocation reported by mallinfo(arena+hblkhd)
        104401 MiB available memory on the node where the printing process lives
------------------
     ethr =  1.49E-11,  avg # of iterations =  5.5

     total cpu time spent up to now is      307.8 secs

     total energy              =   -1084.50126703 Ry
     estimated scf accuracy    <       0.00000008 Ry

     iteration # 31     ecut=    50.00 Ry     beta= 0.30
     Davidson diagonalization with overlap

---- Real-time Memory Report at c_bands before calling an iterative solver
           122 MiB given to the printing process from OS
            94 MiB allocation reported by mallinfo(arena+hblkhd)
        104401 MiB available memory on the node where the printing process lives
------------------
     ethr =  1.49E-11,  avg # of iterations =  5.5

     total cpu time spent up to now is      319.3 secs

     total energy              =   -1084.50126703 Ry
     estimated scf accuracy    <       0.00000001 Ry

     iteration # 32     ecut=    50.00 Ry     beta= 0.30
     Davidson diagonalization with overlap

---- Real-time Memory Report at c_bands before calling an iterative solver
           122 MiB given to the printing process from OS
            94 MiB allocation reported by mallinfo(arena+hblkhd)
        104401 MiB available memory on the node where the printing process lives
------------------
     ethr =  1.07E-11,  avg # of iterations =  2.6

     total cpu time spent up to now is      327.9 secs

     End of self-consistent calculation

          k = 0.0000 0.0000 0.0000 (  4621 PWs)   bands (ev):

    -9.6607  -9.0509  -8.7211  -8.5277  -7.9871  -7.3762   2.6699   2.9529
     3.2131   3.3461   3.3588   3.5607   3.7810   3.8423   3.9516   3.9906
     4.0317   4.1823   4.3016   4.3776   4.7464   4.7659   5.0284   5.1388
     5.3518   5.3796   5.6236   5.6279   5.8852   5.9020   6.3390   6.3650
     6.3698   6.4749   6.4889   6.8732   6.8903   7.6227   7.8075   9.3996
     9.4357   9.5078   9.7113   9.9300   9.9550  10.2167  10.3471  10.6723
    10.6979  10.9293  11.0385  11.2829  11.5299  11.5917

     occupation numbers 
     1.0000   1.0000   1.0000   1.0000   1.0000   1.0000   1.0000   1.0000
     1.0000   1.0000   1.0000   1.0000   1.0000   1.0000   1.0000   1.0000
     1.0000   1.0000   1.0000   1.0000   1.0000   1.0000   1.0000   1.0000
     1.0000   1.0000   1.0000   1.0000   1.0000   1.0000   1.0000   1.0000
     1.0000   1.0000   1.0000   1.0000   1.0000   1.0000   1.0000   1.0000
     1.0000   1.0000   1.0000   1.0000   1.0000   1.0000   1.0000   1.0000
     1.0000   1.0000   1.0000   1.0000   1.0000   1.0000

          k = 0.0000 0.0000 0.0344 (  4610 PWs)   bands (ev):

    -9.6605  -9.0532  -8.7124  -8.5356  -7.9855  -7.3764   2.6702   2.9536
     3.2131   3.3431   3.3588   3.5626   3.7811   3.8423   3.9512   3.9903
     4.0315   4.1828   4.3016   4.3768   4.7465   4.7660   5.0284   5.1389
     5.3519   5.3797   5.6236   5.6280   5.8853   5.9021   6.3509   6.3671
     6.3780   6.4750   6.4917   6.8733   6.8904   7.4312   8.0295   9.2565
     9.4143   9.4774   9.8675   9.9299   9.9657  10.2233  10.3572  10.6638
    10.6893  10.9351  11.0409  11.1909  11.5295  11.5917

     occupation numbers 
     1.0000   1.0000   1.0000   1.0000   1.0000   1.0000   1.0000   1.0000
     1.0000   1.0000   1.0000   1.0000   1.0000   1.0000   1.0000   1.0000
     1.0000   1.0000   1.0000   1.0000   1.0000   1.0000   1.0000   1.0000
     1.0000   1.0000   1.0000   1.0000   1.0000   1.0000   1.0000   1.0000
     1.0000   1.0000   1.0000   1.0000   1.0000   1.0000   1.0000   1.0000
     1.0000   1.0000   1.0000   1.0000   1.0000   1.0000   1.0000   1.0000
     1.0000   1.0000   1.0000   1.0000   1.0000   1.0000

          k = 0.0000 0.0000 0.0688 (  4586 PWs)   bands (ev):

    -9.6603  -9.0575  -8.6927  -8.5538  -7.9824  -7.3769   2.6707   2.9552
     3.2132   3.3374   3.3589   3.5663   3.7813   3.8421   3.9507   3.9899
     4.0312   4.1837   4.3017   4.3755   4.7467   4.7661   5.0284   5.1389
     5.3521   5.3799   5.6236   5.6279   5.8854   5.9022   6.3574   6.3681
     6.4160   6.4751   6.5046   6.8734   6.8905   7.2298   8.3362   8.9662
     9.4139   9.4752   9.9125   9.9321  10.1177  10.2360  10.3816  10.6435
    10.6749  10.9445  11.0210  11.0460  11.5289  11.5913

     occupation numbers 
     1.0000   1.0000   1.0000   1.0000   1.0000   1.0000   1.0000   1.0000
     1.0000   1.0000   1.0000   1.0000   1.0000   1.0000   1.0000   1.0000
     1.0000   1.0000   1.0000   1.0000   1.0000   1.0000   1.0000   1.0000
     1.0000   1.0000   1.0000   1.0000   1.0000   1.0000   1.0000   1.0000
     1.0000   1.0000   1.0000   1.0000   1.0000   1.0000   1.0000   1.0000
     1.0000   1.0000   1.0000   1.0000   1.0000   1.0000   1.0000   1.0000
     1.0000   1.0000   1.0000   1.0000   1.0000   1.0000

          k = 0.0000 0.0000-0.1032 (  4562 PWs)   bands (ev):

    -9.6601  -9.0596  -8.6809  -8.5649  -7.9808  -7.3771   2.6710   2.9562
     3.2133   3.3346   3.3589   3.5682   3.7814   3.8421   3.9505   3.9897
     4.0310   4.1842   4.3018   4.3751   4.7468   4.7663   5.0285   5.1389
     5.3523   5.3801   5.6236   5.6280   5.8855   5.9023   6.3584   6.3684
     6.4348   6.4752   6.5204   6.8735   6.8904   7.1454   8.6209   8.6860
     9.4141   9.4753   9.9111   9.9301  10.2116  10.2419  10.3995  10.6315
    10.6685  10.9225  10.9566  11.0479  11.5286  11.5911

     occupation numbers 
     1.0000   1.0000   1.0000   1.0000   1.0000   1.0000   1.0000   1.0000
     1.0000   1.0000   1.0000   1.0000   1.0000   1.0000   1.0000   1.0000
     1.0000   1.0000   1.0000   1.0000   1.0000   1.0000   1.0000   1.0000
     1.0000   1.0000   1.0000   1.0000   1.0000   1.0000   1.0000   1.0000
     1.0000   1.0000   1.0000   1.0000   1.0000   1.0000   1.0000   1.0000
     1.0000   1.0000   1.0000   1.0000   1.0000   1.0000   1.0000   1.0000
     1.0000   1.0000   1.0000   1.0000   1.0000   1.0000

          k = 0.0000 0.1925 0.0000 (  4635 PWs)   bands (ev):

    -9.4628  -8.8669  -8.5474  -8.3866  -7.8299  -7.2541   2.7497   2.9247
     3.2424   3.3344   3.4526   3.6453   3.7785   3.8724   3.9279   3.9848
     4.1314   4.2450   4.3203   4.4741   4.7327   4.8620   5.0759   5.1520
     5.3142   5.3620   5.6331   5.6381   5.8455   5.9036   6.2379   6.3762
     6.4252   6.4661   6.4940   6.8816   6.8990   7.6787   7.8475   8.5183
     8.9356   9.0625   9.2217   9.4403   9.5364   9.6023   9.9424   9.9983
    10.2386  10.3822  10.6181  10.6805  11.1542  11.3650

     occupation numbers 
     1.0000   1.0000   1.0000   1.0000   1.0000   1.0000   1.0000   1.0000
     1.0000   1.0000   1.0000   1.0000   1.0000   1.0000   1.0000   1.0000
     1.0000   1.0000   1.0000   1.0000   1.0000   1.0000   1.0000   1.0000
     1.0000   1.0000   1.0000   1.0000   1.0000   1.0000   1.0000   1.0000
     1.0000   1.0000   1.0000   1.0000   1.0000   1.0000   1.0000   1.0000
     1.0000   1.0000   1.0000   1.0000   1.0000   1.0000   1.0000   1.0000
     1.0000   1.0000   1.0000   1.0000   1.0000   1.0000

          k = 0.0000 0.1925 0.0344 (  4633 PWs)   bands (ev):

    -9.4627  -8.8684  -8.5413  -8.3919  -7.8290  -7.2542   2.7505   2.9230
     3.2445   3.3345   3.4540   3.6445   3.7790   3.8720   3.9292   3.9784
     4.1314   4.2459   4.3200   4.4734   4.7333   4.8623   5.0743   5.1519
     5.3152   5.3622   5.6319   5.6374   5.8473   5.9037   6.2740   6.3760
     6.4030   6.4767   6.5034   6.8810   6.8957   7.4691   8.0747   8.5158
     8.9651   9.0502   9.1293   9.3982   9.5897   9.6522   9.9170  10.0032
    10.2131  10.3660  10.6521  10.6883  11.1472  11.3645

     occupation numbers 
     1.0000   1.0000   1.0000   1.0000   1.0000   1.0000   1.0000   1.0000
     1.0000   1.0000   1.0000   1.0000   1.0000   1.0000   1.0000   1.0000
     1.0000   1.0000   1.0000   1.0000   1.0000   1.0000   1.0000   1.0000
     1.0000   1.0000   1.0000   1.0000   1.0000   1.0000   1.0000   1.0000
     1.0000   1.0000   1.0000   1.0000   1.0000   1.0000   1.0000   1.0000
     1.0000   1.0000   1.0000   1.0000   1.0000   1.0000   1.0000   1.0000
     1.0000   1.0000   1.0000   1.0000   1.0000   1.0000

          k = 0.0000 0.1925 0.0688 (  4636 PWs)   bands (ev):

    -9.4625  -8.8713  -8.5281  -8.4038  -7.8274  -7.2544   2.7511   2.9226
     3.2444   3.3344   3.4584   3.6450   3.7773   3.8715   3.9300   3.9695
     4.1313   4.2458   4.3199   4.4723   4.7340   4.8625   5.0750   5.1516
     5.3163   5.3623   5.6321   5.6374   5.8496   5.9038   6.2960   6.3749
     6.4095   6.4806   6.5467   6.8744   6.8856   7.2688   8.3424   8.5141
     8.8640   9.0300   9.1005   9.3940   9.5763   9.7173   9.9027  10.0349
    10.1671  10.3259  10.6929  10.7075  11.1378  11.3634

     occupation numbers 
     1.0000   1.0000   1.0000   1.0000   1.0000   1.0000   1.0000   1.0000
     1.0000   1.0000   1.0000   1.0000   1.0000   1.0000   1.0000   1.0000
     1.0000   1.0000   1.0000   1.0000   1.0000   1.0000   1.0000   1.0000
     1.0000   1.0000   1.0000   1.0000   1.0000   1.0000   1.0000   1.0000
     1.0000   1.0000   1.0000   1.0000   1.0000   1.0000   1.0000   1.0000
     1.0000   1.0000   1.0000   1.0000   1.0000   1.0000   1.0000   1.0000
     1.0000   1.0000   1.0000   1.0000   1.0000   1.0000

          k = 0.0000 0.1925-0.1032 (  4640 PWs)   bands (ev):

    -9.4624  -8.8726  -8.5208  -8.4105  -7.8267  -7.2545   2.7509   2.9239
     3.2423   3.3343   3.4612   3.6465   3.7751   3.8713   3.9289   3.9676
     4.1311   4.2448   4.3201   4.4721   4.7340   4.8624   5.0772   5.1514
     5.3164   5.3622   5.6333   5.6380   5.8503   5.9038   6.2801   6.3750
     6.4284   6.4807   6.5903   6.8570   6.8834   7.1938   8.4836   8.5886
     8.6527   9.0488   9.1219   9.4039   9.5688   9.6870   9.9511  10.0501
    10.1405  10.2995  10.7037  10.7176  11.1360  11.3628

     occupation numbers 
     1.0000   1.0000   1.0000   1.0000   1.0000   1.0000   1.0000   1.0000
     1.0000   1.0000   1.0000   1.0000   1.0000   1.0000   1.0000   1.0000
     1.0000   1.0000   1.0000   1.0000   1.0000   1.0000   1.0000   1.0000
     1.0000   1.0000   1.0000   1.0000   1.0000   1.0000   1.0000   1.0000
     1.0000   1.0000   1.0000   1.0000   1.0000   1.0000   1.0000   1.0000
     1.0000   1.0000   1.0000   1.0000   1.0000   1.0000   1.0000   1.0000
     1.0000   1.0000   1.0000   1.0000   1.0000   1.0000

          k = 0.0000 0.3849 0.0000 (  4615 PWs)   bands (ev):

    -9.0369  -8.4774  -8.1928  -8.0852  -7.4902  -7.0062   2.5561   2.8433
     3.1641   3.3626   3.5330   3.7760   3.8726   3.9458   4.0319   4.0810
     4.3820   4.4208   4.5146   4.5921   4.9154   5.0616   5.1299   5.4174
     5.4269   5.4760   5.6398   5.7059   5.8257   5.9895   6.2245   6.4026
     6.4398   6.5511   6.5959   6.8684   6.9407   7.0874   7.3271   7.5371
     7.9045   8.0762   8.2689   8.3576   8.6146   8.8892   9.0764   9.2377
     9.5136   9.7581  10.0067  10.1420  10.5626  10.8801

     occupation numbers 
     1.0000   1.0000   1.0000   1.0000   1.0000   1.0000   1.0000   1.0000
     1.0000   1.0000   1.0000   1.0000   1.0000   1.0000   1.0000   1.0000
     1.0000   1.0000   1.0000   1.0000   1.0000   1.0000   1.0000   1.0000
     1.0000   1.0000   1.0000   1.0000   1.0000   1.0000   1.0000   1.0000
     1.0000   1.0000   1.0000   1.0000   1.0000   1.0000   1.0000   1.0000
     1.0000   1.0000   1.0000   1.0000   1.0000   1.0000   1.0000   1.0000
     1.0000   1.0000   1.0000   1.0000   1.0000   1.0000

          k = 0.0000 0.3849 0.0344 (  4611 PWs)   bands (ev):

    -9.0369  -8.4777  -8.1916  -8.0862  -7.4901  -7.0062   2.5562   2.8401
     3.1683   3.3649   3.5332   3.7848   3.8710   3.9405   4.0249   4.0785
     4.3861   4.4229   4.5128   4.5828   4.9238   5.0620   5.1243   5.4163
     5.4303   5.4758   5.6184   5.7058   5.8452   5.9903   6.2871   6.3647
     6.4403   6.5542   6.5949   6.8733   6.9406   7.0719   7.3355   7.5032
     7.8677   8.0728   8.2715   8.3539   8.7170   8.8668   9.0784   9.2798
     9.4608   9.7282  10.0023  10.1534  10.5704  10.8793

     occupation numbers 
     1.0000   1.0000   1.0000   1.0000   1.0000   1.0000   1.0000   1.0000
     1.0000   1.0000   1.0000   1.0000   1.0000   1.0000   1.0000   1.0000
     1.0000   1.0000   1.0000   1.0000   1.0000   1.0000   1.0000   1.0000
     1.0000   1.0000   1.0000   1.0000   1.0000   1.0000   1.0000   1.0000
     1.0000   1.0000   1.0000   1.0000   1.0000   1.0000   1.0000   1.0000
     1.0000   1.0000   1.0000   1.0000   1.0000   1.0000   1.0000   1.0000
     1.0000   1.0000   1.0000   1.0000   1.0000   1.0000

          k = 0.0000 0.3849 0.0688 (  4608 PWs)   bands (ev):

    -9.0368  -8.4783  -8.1893  -8.0880  -7.4900  -7.0062   2.5558   2.8375
     3.1667   3.3796   3.5335   3.7952   3.8553   3.9506   4.0130   4.0744
     4.3749   4.4238   4.5106   4.5843   4.9269   5.0629   5.1225   5.4143
     5.4272   5.4760   5.6187   5.7054   5.8681   5.9921   6.2618   6.4080
     6.4427   6.5565   6.6253   6.8637   6.9411   7.0497   7.2770   7.5287
     7.8365   7.9893   8.2810   8.4097   8.8170   8.8571   9.1103   9.3527
     9.3751   9.6495   9.9904  10.1759  10.5811  10.8774

     occupation numbers 
     1.0000   1.0000   1.0000   1.0000   1.0000   1.0000   1.0000   1.0000
     1.0000   1.0000   1.0000   1.0000   1.0000   1.0000   1.0000   1.0000
     1.0000   1.0000   1.0000   1.0000   1.0000   1.0000   1.0000   1.0000
     1.0000   1.0000   1.0000   1.0000   1.0000   1.0000   1.0000   1.0000
     1.0000   1.0000   1.0000   1.0000   1.0000   1.0000   1.0000   1.0000
     1.0000   1.0000   1.0000   1.0000   1.0000   1.0000   1.0000   1.0000
     1.0000   1.0000   1.0000   1.0000   1.0000   1.0000

          k = 0.0000 0.3849-0.1032 (  4594 PWs)   bands (ev):

    -9.0368  -8.4786  -8.1882  -8.0889  -7.4900  -7.0062   2.5553   2.8379
     3.1616   3.3918   3.5338   3.7941   3.8455   3.9678   4.0051   4.0720
     4.3603   4.4234   4.5104   4.5933   4.9219   5.0636   5.1261   5.4127
     5.4224   5.4767   5.6350   5.7051   5.8788   5.9938   6.2037   6.4345
     6.4585   6.5561   6.6805   6.8296   6.9416   7.0500   7.2235   7.5818
     7.8214   7.9310   8.2872   8.4454   8.7985   8.8896   9.1593   9.2852
     9.4519   9.5802   9.9826  10.1872  10.5842  10.8764

     occupation numbers 
     1.0000   1.0000   1.0000   1.0000   1.0000   1.0000   1.0000   1.0000
     1.0000   1.0000   1.0000   1.0000   1.0000   1.0000   1.0000   1.0000
     1.0000   1.0000   1.0000   1.0000   1.0000   1.0000   1.0000   1.0000
     1.0000   1.0000   1.0000   1.0000   1.0000   1.0000   1.0000   1.0000
     1.0000   1.0000   1.0000   1.0000   1.0000   1.0000   1.0000   1.0000
     1.0000   1.0000   1.0000   1.0000   1.0000   1.0000   1.0000   1.0000
     1.0000   1.0000   1.0000   1.0000   1.0000   1.0000

          k = 0.0000-0.5774 0.0000 (  4586 PWs)   bands (ev):

    -8.8054  -8.2728  -8.0144  -7.9210  -7.3023  -6.8828   2.4823   2.7890
     3.1108   3.2211   3.6101   3.7835   3.8748   4.0339   4.1008   4.1502
     4.5014   4.5409   4.5720   4.6513   5.0446   5.1572   5.2147   5.5309
     5.5792   5.5967   5.7784   5.8756   5.9163   6.0753   6.2909   6.3839
     6.5071   6.6068   6.6377   6.6635   6.7602   7.0082   7.0187   7.2360
     7.3285   7.5946   7.6829   7.8126   8.4772   8.5273   8.6686   8.8086
     9.1775   9.4217   9.7265   9.8670  10.1179  10.6111

     occupation numbers 
     1.0000   1.0000   1.0000   1.0000   1.0000   1.0000   1.0000   1.0000
     1.0000   1.0000   1.0000   1.0000   1.0000   1.0000   1.0000   1.0000
     1.0000   1.0000   1.0000   1.0000   1.0000   1.0000   1.0000   1.0000
     1.0000   1.0000   1.0000   1.0000   1.0000   1.0000   1.0000   1.0000
     1.0000   1.0000   1.0000   1.0000   1.0000   1.0000   1.0000   1.0000
     1.0000   1.0000   1.0000   1.0000   1.0000   1.0000   1.0000   1.0000
     1.0000   1.0000   1.0000   1.0000   1.0000   1.0000

          k = 0.0000-0.5774 0.0344 (  4592 PWs)   bands (ev):

    -8.8054  -8.2728  -8.0143  -7.9210  -7.3023  -6.8828   2.4820   2.7873
     3.1145   3.2217   3.6101   3.7802   3.8797   4.0295   4.1007   4.1498
     4.4956   4.5452   4.5742   4.6485   5.0455   5.1584   5.2144   5.5353
     5.5785   5.5977   5.7773   5.8662   5.9217   6.0753   6.2933   6.3854
     6.5066   6.6074   6.6346   6.6630   6.7615   7.0073   7.0182   7.2333
     7.3314   7.5956   7.7044   7.8234   8.3760   8.4516   8.7774   8.8764
     9.1904   9.3823   9.7135   9.8780  10.1146  10.6098

     occupation numbers 
     1.0000   1.0000   1.0000   1.0000   1.0000   1.0000   1.0000   1.0000
     1.0000   1.0000   1.0000   1.0000   1.0000   1.0000   1.0000   1.0000
     1.0000   1.0000   1.0000   1.0000   1.0000   1.0000   1.0000   1.0000
     1.0000   1.0000   1.0000   1.0000   1.0000   1.0000   1.0000   1.0000
     1.0000   1.0000   1.0000   1.0000   1.0000   1.0000   1.0000   1.0000
     1.0000   1.0000   1.0000   1.0000   1.0000   1.0000   1.0000   1.0000
     1.0000   1.0000   1.0000   1.0000   1.0000   1.0000

          k = 0.0000-0.5774 0.0688 (  4602 PWs)   bands (ev):

    -8.8054  -8.2729  -8.0142  -7.9211  -7.3023  -6.8828   2.4814   2.7840
     3.1218   3.2229   3.6101   3.7738   3.8902   4.0195   4.1006   4.1491
     4.4859   4.5537   4.5768   4.6426   5.0473   5.1610   5.2138   5.5446
     5.5773   5.5992   5.7751   5.8509   5.9288   6.0752   6.2981   6.3886
     6.5055   6.6082   6.6288   6.6623   6.7639   7.0053   7.0171   7.2287
     7.3363   7.5968   7.7593   7.8495   8.2156   8.3730   8.8942   8.9999
     9.2220   9.2906   9.6770   9.9001  10.1080  10.6071

     occupation numbers 
     1.0000   1.0000   1.0000   1.0000   1.0000   1.0000   1.0000   1.0000
     1.0000   1.0000   1.0000   1.0000   1.0000   1.0000   1.0000   1.0000
     1.0000   1.0000   1.0000   1.0000   1.0000   1.0000   1.0000   1.0000
     1.0000   1.0000   1.0000   1.0000   1.0000   1.0000   1.0000   1.0000
     1.0000   1.0000   1.0000   1.0000   1.0000   1.0000   1.0000   1.0000
     1.0000   1.0000   1.0000   1.0000   1.0000   1.0000   1.0000   1.0000
     1.0000   1.0000   1.0000   1.0000   1.0000   1.0000

          k = 0.0000-0.5774-0.1032 (  4608 PWs)   bands (ev):

    -8.8054  -8.2729  -8.0142  -7.9211  -7.3023  -6.8828   2.4811   2.7824
     3.1254   3.2235   3.6101   3.7706   3.8961   4.0138   4.1006   4.1487
     4.4817   4.5588   4.5769   4.6394   5.0481   5.1622   5.2135   5.5494
     5.5767   5.5998   5.7741   5.8440   5.9315   6.0752   6.3003   6.3904
     6.5049   6.6082   6.6262   6.6620   6.7649   7.0042   7.0166   7.2268
     7.3384   7.5971   7.7957   7.8690   8.1350   8.3398   8.9378   9.0960
     9.1843   9.2643   9.6528   9.9108  10.1046  10.6057

     occupation numbers 
     1.0000   1.0000   1.0000   1.0000   1.0000   1.0000   1.0000   1.0000
     1.0000   1.0000   1.0000   1.0000   1.0000   1.0000   1.0000   1.0000
     1.0000   1.0000   1.0000   1.0000   1.0000   1.0000   1.0000   1.0000
     1.0000   1.0000   1.0000   1.0000   1.0000   1.0000   1.0000   1.0000
     1.0000   1.0000   1.0000   1.0000   1.0000   1.0000   1.0000   1.0000
     1.0000   1.0000   1.0000   1.0000   1.0000   1.0000   1.0000   1.0000
     1.0000   1.0000   1.0000   1.0000   1.0000   1.0000

          k = 0.1667 0.2887 0.0000 (  4609 PWs)   bands (ev):

    -9.1465  -8.5744  -8.2808  -8.1652  -7.5803  -7.0700   2.7282   2.8660
     3.1954   3.4577   3.5298   3.7390   3.7999   3.8736   3.9703   4.1148
     4.2729   4.3981   4.5048   4.6481   4.8007   4.9963   5.1452   5.2466
     5.3990   5.4593   5.6658   5.7002   5.8014   5.9630   6.1197   6.4105
     6.4326   6.4972   6.5704   6.9196   6.9692   7.5303   7.6216   7.7984
     8.0399   8.3358   8.4684   8.5821   8.6769   8.9546   9.0176   9.4527
     9.6493   9.7057  10.0660  10.1692  10.7408  10.7922

     occupation numbers 
     1.0000   1.0000   1.0000   1.0000   1.0000   1.0000   1.0000   1.0000
     1.0000   1.0000   1.0000   1.0000   1.0000   1.0000   1.0000   1.0000
     1.0000   1.0000   1.0000   1.0000   1.0000   1.0000   1.0000   1.0000
     1.0000   1.0000   1.0000   1.0000   1.0000   1.0000   1.0000   1.0000
     1.0000   1.0000   1.0000   1.0000   1.0000   1.0000   1.0000   1.0000
     1.0000   1.0000   1.0000   1.0000   1.0000   1.0000   1.0000   1.0000
     1.0000   1.0000   1.0000   1.0000   1.0000   1.0000

          k = 0.1667 0.2887 0.0344 (  4612 PWs)   bands (ev):

    -9.1465  -8.5749  -8.2786  -8.1671  -7.5801  -7.0701   2.7277   2.8645
     3.1981   3.4555   3.5368   3.7418   3.8020   3.8688   3.9682   4.1135
     4.2691   4.3988   4.5002   4.6423   4.8111   4.9906   5.1359   5.2444
     5.3998   5.4634   5.6648   5.6982   5.8115   5.9630   6.1642   6.3812
     6.4291   6.5210   6.5820   6.9150   6.9621   7.4208   7.6236   7.8396
     8.0608   8.2763   8.4926   8.6129   8.7277   8.9343   9.0767   9.4445
     9.5872   9.6769  10.0785  10.1799  10.7453  10.7941

     occupation numbers 
     1.0000   1.0000   1.0000   1.0000   1.0000   1.0000   1.0000   1.0000
     1.0000   1.0000   1.0000   1.0000   1.0000   1.0000   1.0000   1.0000
     1.0000   1.0000   1.0000   1.0000   1.0000   1.0000   1.0000   1.0000
     1.0000   1.0000   1.0000   1.0000   1.0000   1.0000   1.0000   1.0000
     1.0000   1.0000   1.0000   1.0000   1.0000   1.0000   1.0000   1.0000
     1.0000   1.0000   1.0000   1.0000   1.0000   1.0000   1.0000   1.0000
     1.0000   1.0000   1.0000   1.0000   1.0000   1.0000

          k = 0.1667 0.2887 0.0688 (  4615 PWs)   bands (ev):

    -9.1464  -8.5759  -8.2743  -8.1708  -7.5799  -7.0701   2.7268   2.8622
     3.2014   3.4495   3.5583   3.7485   3.7987   3.8632   3.9579   4.1117
     4.2622   4.3977   4.4943   4.6411   4.8130   4.9811   5.1399   5.2442
     5.4003   5.4668   5.6664   5.6963   5.8226   5.9638   6.2206   6.3365
     6.4282   6.5423   6.6347   6.8833   6.9649   7.2803   7.6401   7.8644
     8.0980   8.2243   8.4389   8.6505   8.7879   9.0287   9.1692   9.4125
     9.4488   9.6326  10.1022  10.1913  10.7490  10.7986

     occupation numbers 
     1.0000   1.0000   1.0000   1.0000   1.0000   1.0000   1.0000   1.0000
     1.0000   1.0000   1.0000   1.0000   1.0000   1.0000   1.0000   1.0000
     1.0000   1.0000   1.0000   1.0000   1.0000   1.0000   1.0000   1.0000
     1.0000   1.0000   1.0000   1.0000   1.0000   1.0000   1.0000   1.0000
     1.0000   1.0000   1.0000   1.0000   1.0000   1.0000   1.0000   1.0000
     1.0000   1.0000   1.0000   1.0000   1.0000   1.0000   1.0000   1.0000
     1.0000   1.0000   1.0000   1.0000   1.0000   1.0000

          k = 0.1667 0.2887-0.1032 (  4600 PWs)   bands (ev):

    -9.1464  -8.5763  -8.2722  -8.1725  -7.5797  -7.0701   2.7264   2.8615
     3.2020   3.4463   3.5730   3.7542   3.7906   3.8618   3.9504   4.1112
     4.2594   4.3961   4.4933   4.6449   4.8051   4.9790   5.1510   5.2459
     5.3999   5.4669   5.6693   5.6959   5.8253   5.9647   6.2182   6.3311
     6.4286   6.5466   6.6770   6.8551   6.9751   7.2301   7.6522   7.8668
     8.1166   8.2056   8.4070   8.6484   8.7997   9.1236   9.2692   9.2931
     9.4144   9.6086  10.1138  10.1936  10.7488  10.8006

     occupation numbers 
     1.0000   1.0000   1.0000   1.0000   1.0000   1.0000   1.0000   1.0000
     1.0000   1.0000   1.0000   1.0000   1.0000   1.0000   1.0000   1.0000
     1.0000   1.0000   1.0000   1.0000   1.0000   1.0000   1.0000   1.0000
     1.0000   1.0000   1.0000   1.0000   1.0000   1.0000   1.0000   1.0000
     1.0000   1.0000   1.0000   1.0000   1.0000   1.0000   1.0000   1.0000
     1.0000   1.0000   1.0000   1.0000   1.0000   1.0000   1.0000   1.0000
     1.0000   1.0000   1.0000   1.0000   1.0000   1.0000

          k = 0.1667 0.4811 0.0000 (  4586 PWs)   bands (ev):

    -8.8084  -8.2748  -8.0175  -7.9248  -7.3072  -6.8851   2.7196   2.9529
     3.2830   3.4035   3.5212   3.8219   3.9340   3.9895   4.0826   4.2158
     4.4489   4.5295   4.5996   4.7204   4.9706   5.0926   5.2804   5.4226
     5.5187   5.5928   5.6952   5.8795   5.9694   6.0583   6.2135   6.3494
     6.4836   6.6099   6.6277   6.7330   6.8606   7.0447   7.1616   7.1938
     7.2985   7.5986   7.6973   7.8900   8.1209   8.2130   8.5904   8.7752
     8.8868   9.2045   9.3650   9.8257  10.0445  10.2770

     occupation numbers 
     1.0000   1.0000   1.0000   1.0000   1.0000   1.0000   1.0000   1.0000
     1.0000   1.0000   1.0000   1.0000   1.0000   1.0000   1.0000   1.0000
     1.0000   1.0000   1.0000   1.0000   1.0000   1.0000   1.0000   1.0000
     1.0000   1.0000   1.0000   1.0000   1.0000   1.0000   1.0000   1.0000
     1.0000   1.0000   1.0000   1.0000   1.0000   1.0000   1.0000   1.0000
     1.0000   1.0000   1.0000   1.0000   1.0000   1.0000   1.0000   1.0000
     1.0000   1.0000   1.0000   1.0000   1.0000   1.0000

          k = 0.1667 0.4811 0.0344 (  4582 PWs)   bands (ev):

    -8.8084  -8.2749  -8.0175  -7.9248  -7.3072  -6.8851   2.7193   2.9503
     3.2875   3.4000   3.5275   3.8207   3.9504   3.9782   4.0697   4.2238
     4.4565   4.5084   4.6031   4.7225   4.9752   5.0895   5.2892   5.4046
     5.5144   5.5949   5.7013   5.8851   5.9605   6.0687   6.2203   6.3664
     6.4694   6.5917   6.6355   6.7386   6.8722   7.0392   7.1690   7.1984
     7.2948   7.5810   7.7169   7.8339   8.1203   8.2805   8.5094   8.7750
     8.9320   9.2340   9.3582   9.8136  10.0410  10.2745

     occupation numbers 
     1.0000   1.0000   1.0000   1.0000   1.0000   1.0000   1.0000   1.0000
     1.0000   1.0000   1.0000   1.0000   1.0000   1.0000   1.0000   1.0000
     1.0000   1.0000   1.0000   1.0000   1.0000   1.0000   1.0000   1.0000
     1.0000   1.0000   1.0000   1.0000   1.0000   1.0000   1.0000   1.0000
     1.0000   1.0000   1.0000   1.0000   1.0000   1.0000   1.0000   1.0000
     1.0000   1.0000   1.0000   1.0000   1.0000   1.0000   1.0000   1.0000
     1.0000   1.0000   1.0000   1.0000   1.0000   1.0000

          k = 0.1667 0.4811 0.0688 (  4582 PWs)   bands (ev):

    -8.8084  -8.2749  -8.0173  -7.9249  -7.3072  -6.8851   2.7184   2.9467
     3.2926   3.3957   3.5413   3.8279   3.9283   3.9900   4.0676   4.2275
     4.4417   4.5003   4.6057   4.7279   4.9768   5.0837   5.2904   5.4023
     5.5083   5.6117   5.6962   5.8802   5.9750   6.0762   6.2270   6.3477
     6.4743   6.5653   6.6389   6.7722   6.8918   7.0224   7.1832   7.2002
     7.2888   7.5642   7.6784   7.8647   8.0651   8.3975   8.4374   8.7005
     8.9971   9.2540   9.3922   9.7896  10.0315  10.2703

     occupation numbers 
     1.0000   1.0000   1.0000   1.0000   1.0000   1.0000   1.0000   1.0000
     1.0000   1.0000   1.0000   1.0000   1.0000   1.0000   1.0000   1.0000
     1.0000   1.0000   1.0000   1.0000   1.0000   1.0000   1.0000   1.0000
     1.0000   1.0000   1.0000   1.0000   1.0000   1.0000   1.0000   1.0000
     1.0000   1.0000   1.0000   1.0000   1.0000   1.0000   1.0000   1.0000
     1.0000   1.0000   1.0000   1.0000   1.0000   1.0000   1.0000   1.0000
     1.0000   1.0000   1.0000   1.0000   1.0000   1.0000

          k = 0.1667 0.4811-0.1032 (  4586 PWs)   bands (ev):

    -8.8084  -8.2749  -8.0173  -7.9249  -7.3073  -6.8851   2.7178   2.9456
     3.2932   3.3947   3.5492   3.8409   3.8969   4.0007   4.0786   4.2230
     4.4228   4.5081   4.6065   4.7312   4.9736   5.0813   5.2843   5.4159
     5.5048   5.6336   5.6803   5.8729   5.9958   6.0755   6.2271   6.3109
     6.4960   6.5519   6.6363   6.7991   6.9020   7.0103   7.1676   7.2251
     7.2774   7.5638   7.6523   7.9175   8.0223   8.3587   8.5387   8.6209
     9.0108   9.2460   9.4337   9.7763  10.0255  10.2685

     occupation numbers 
     1.0000   1.0000   1.0000   1.0000   1.0000   1.0000   1.0000   1.0000
     1.0000   1.0000   1.0000   1.0000   1.0000   1.0000   1.0000   1.0000
     1.0000   1.0000   1.0000   1.0000   1.0000   1.0000   1.0000   1.0000
     1.0000   1.0000   1.0000   1.0000   1.0000   1.0000   1.0000   1.0000
     1.0000   1.0000   1.0000   1.0000   1.0000   1.0000   1.0000   1.0000
     1.0000   1.0000   1.0000   1.0000   1.0000   1.0000   1.0000   1.0000
     1.0000   1.0000   1.0000   1.0000   1.0000   1.0000

          k = 0.3333 0.5774 0.0000 (  4590 PWs)   bands (ev):

    -8.6842  -8.1768  -7.9334  -7.8446  -7.2120  -6.8280   3.1040   3.1926
     3.2634   3.5746   3.7783   3.8971   3.9508   4.0416   4.1126   4.4075
     4.5249   4.6008   4.6351   4.8465   4.9854   5.2004   5.2390   5.3405
     5.3940   5.5149   5.7852   5.8122   5.8693   6.0891   6.2855   6.2989
     6.3337   6.4605   6.4784   6.6095   6.7707   6.9249   7.0471   7.0710
     7.2002   7.2922   7.4079   7.5951   7.7436   8.1163   8.2410   8.4987
     8.5796   8.9940   9.2129   9.4827   9.6380   9.7573

     occupation numbers 
     1.0000   1.0000   1.0000   1.0000   1.0000   1.0000   1.0000   1.0000
     1.0000   1.0000   1.0000   1.0000   1.0000   1.0000   1.0000   1.0000
     1.0000   1.0000   1.0000   1.0000   1.0000   1.0000   1.0000   1.0000
     1.0000   1.0000   1.0000   1.0000   1.0000   1.0000   1.0000   1.0000
     1.0000   1.0000   1.0000   1.0000   1.0000   1.0000   1.0000   1.0000
     1.0000   1.0000   1.0000   1.0000   1.0000   1.0000   1.0000   1.0000
     1.0000   1.0000   1.0000   1.0000   1.0000   1.0000

          k = 0.3333 0.5774 0.0344 (  4590 PWs)   bands (ev):

    -8.6842  -8.1768  -7.9334  -7.8446  -7.2120  -6.8280   3.1040   3.1905
     3.2611   3.5751   3.7858   3.9039   3.9575   4.0425   4.1056   4.4002
     4.5158   4.5870   4.6468   4.8483   4.9816   5.1986   5.2363   5.3446
     5.4021   5.5171   5.7852   5.8214   5.8686   6.0897   6.2751   6.2854
     6.3321   6.4662   6.4978   6.6149   6.7755   6.9155   7.0104   7.0457
     7.2131   7.3019   7.4748   7.5899   7.7354   8.0637   8.2489   8.5070
     8.6109   8.9761   9.1999   9.4801   9.6462   9.7638

     occupation numbers 
     1.0000   1.0000   1.0000   1.0000   1.0000   1.0000   1.0000   1.0000
     1.0000   1.0000   1.0000   1.0000   1.0000   1.0000   1.0000   1.0000
     1.0000   1.0000   1.0000   1.0000   1.0000   1.0000   1.0000   1.0000
     1.0000   1.0000   1.0000   1.0000   1.0000   1.0000   1.0000   1.0000
     1.0000   1.0000   1.0000   1.0000   1.0000   1.0000   1.0000   1.0000
     1.0000   1.0000   1.0000   1.0000   1.0000   1.0000   1.0000   1.0000
     1.0000   1.0000   1.0000   1.0000   1.0000   1.0000

          k = 0.3333 0.5774 0.0688 (  4587 PWs)   bands (ev):

    -8.6842  -8.1768  -7.9334  -7.8446  -7.2120  -6.8280   3.1037   3.1865
     3.2571   3.5752   3.8013   3.9171   3.9785   4.0430   4.0872   4.3798
     4.4982   4.5757   4.6580   4.8509   4.9783   5.1945   5.2277   5.3517
     5.4185   5.5227   5.7867   5.8357   5.8711   6.0909   6.2528   6.2638
     6.3271   6.4793   6.5314   6.6268   6.7908   6.8969   6.9488   6.9997
     7.2395   7.3199   7.5780   7.6163   7.7190   7.9380   8.2637   8.5336
     8.6602   8.9386   9.1752   9.4712   9.6608   9.7790

     occupation numbers 
     1.0000   1.0000   1.0000   1.0000   1.0000   1.0000   1.0000   1.0000
     1.0000   1.0000   1.0000   1.0000   1.0000   1.0000   1.0000   1.0000
     1.0000   1.0000   1.0000   1.0000   1.0000   1.0000   1.0000   1.0000
     1.0000   1.0000   1.0000   1.0000   1.0000   1.0000   1.0000   1.0000
     1.0000   1.0000   1.0000   1.0000   1.0000   1.0000   1.0000   1.0000
     1.0000   1.0000   1.0000   1.0000   1.0000   1.0000   1.0000   1.0000
     1.0000   1.0000   1.0000   1.0000   1.0000   1.0000

          k = 0.3333 0.5774-0.1032 (  4578 PWs)   bands (ev):

    -8.6842  -8.1768  -7.9334  -7.8446  -7.2120  -6.8280   3.1034   3.1846
     3.2552   3.5748   3.8094   3.9228   3.9986   4.0392   4.0742   4.3670
     4.4904   4.5731   4.6615   4.8518   4.9786   5.1926   5.2221   5.3548
     5.4264   5.5260   5.7880   5.8397   5.8761   6.0917   6.2402   6.2551
     6.3242   6.4865   6.5471   6.6328   6.8038   6.8860   6.9236   6.9743
     7.2517   7.3291   7.5729   7.7042   7.7701   7.7943   8.2706   8.5511
     8.6808   8.9181   9.1637   9.4653   9.6671   9.7875

     occupation numbers 
     1.0000   1.0000   1.0000   1.0000   1.0000   1.0000   1.0000   1.0000
     1.0000   1.0000   1.0000   1.0000   1.0000   1.0000   1.0000   1.0000
     1.0000   1.0000   1.0000   1.0000   1.0000   1.0000   1.0000   1.0000
     1.0000   1.0000   1.0000   1.0000   1.0000   1.0000   1.0000   1.0000
     1.0000   1.0000   1.0000   1.0000   1.0000   1.0000   1.0000   1.0000
     1.0000   1.0000   1.0000   1.0000   1.0000   1.0000   1.0000   1.0000
     1.0000   1.0000   1.0000   1.0000   1.0000   1.0000

          k =-0.1667 0.0962 0.0000 (  4635 PWs)   bands (ev):

    -9.4581  -8.8666  -8.5473  -8.3869  -7.8293  -7.2545   2.7718   2.8625
     3.1884   3.4411   3.4936   3.6557   3.7448   3.9080   3.9361   3.9874
     4.1465   4.2590   4.2923   4.4885   4.7372   4.8729   5.0047   5.2207
     5.2861   5.3730   5.6346   5.6420   5.8400   5.9009   6.2307   6.3734
     6.4287   6.4638   6.4935   6.8788   6.8949   7.6808   7.8392   8.4778
     8.9611   9.0482   9.2165   9.4113   9.5146   9.5871   9.9532  10.0021
    10.2251  10.3546  10.6406  10.6998  11.1443  11.3278

     occupation numbers 
     1.0000   1.0000   1.0000   1.0000   1.0000   1.0000   1.0000   1.0000
     1.0000   1.0000   1.0000   1.0000   1.0000   1.0000   1.0000   1.0000
     1.0000   1.0000   1.0000   1.0000   1.0000   1.0000   1.0000   1.0000
     1.0000   1.0000   1.0000   1.0000   1.0000   1.0000   1.0000   1.0000
     1.0000   1.0000   1.0000   1.0000   1.0000   1.0000   1.0000   1.0000
     1.0000   1.0000   1.0000   1.0000   1.0000   1.0000   1.0000   1.0000
     1.0000   1.0000   1.0000   1.0000   1.0000   1.0000

          k = 0.1667 0.0962 0.0000 (  4635 PWs)   bands (ev):

    -9.4598  -8.8643  -8.5461  -8.3873  -7.8297  -7.2550   2.7607   2.8883
     3.2027   3.4246   3.4755   3.6498   3.7297   3.8802   3.9266   3.9745
     4.1754   4.2312   4.4196   4.4627   4.7372   4.8599   4.9865   5.2671
     5.2963   5.3700   5.6289   5.6415   5.8575   5.8989   6.2117   6.3748
     6.4261   6.4595   6.4821   6.8840   6.8937   7.6732   7.8439   8.4690
     8.9380   9.0799   9.2338   9.4581   9.5141   9.5871   9.9094   9.9597
    10.1858  10.3361  10.6699  10.7411  11.1331  11.3019

     occupation numbers 
     1.0000   1.0000   1.0000   1.0000   1.0000   1.0000   1.0000   1.0000
     1.0000   1.0000   1.0000   1.0000   1.0000   1.0000   1.0000   1.0000
     1.0000   1.0000   1.0000   1.0000   1.0000   1.0000   1.0000   1.0000
     1.0000   1.0000   1.0000   1.0000   1.0000   1.0000   1.0000   1.0000
     1.0000   1.0000   1.0000   1.0000   1.0000   1.0000   1.0000   1.0000
     1.0000   1.0000   1.0000   1.0000   1.0000   1.0000   1.0000   1.0000
     1.0000   1.0000   1.0000   1.0000   1.0000   1.0000

          k = 0.0000-0.1925 0.0344 (  4633 PWs)   bands (ev):

    -9.4627  -8.8683  -8.5416  -8.3917  -7.8291  -7.2542   2.7496   2.9260
     3.2402   3.3343   3.4553   3.6471   3.7764   3.8723   3.9264   3.9833
     4.1312   4.2440   4.3205   4.4739   4.7327   4.8619   5.0783   5.1517
     5.3143   5.3620   5.6342   5.6390   5.8463   5.9037   6.2302   6.3757
     6.4496   6.4659   6.5045   6.8814   6.8941   7.4928   8.0525   8.5238
     8.8688   9.0616   9.2692   9.3912   9.5572   9.5923   9.9631  10.0116
    10.2134  10.3604  10.6339  10.6903  11.1529  11.3643

     occupation numbers 
     1.0000   1.0000   1.0000   1.0000   1.0000   1.0000   1.0000   1.0000
     1.0000   1.0000   1.0000   1.0000   1.0000   1.0000   1.0000   1.0000
     1.0000   1.0000   1.0000   1.0000   1.0000   1.0000   1.0000   1.0000
     1.0000   1.0000   1.0000   1.0000   1.0000   1.0000   1.0000   1.0000
     1.0000   1.0000   1.0000   1.0000   1.0000   1.0000   1.0000   1.0000
     1.0000   1.0000   1.0000   1.0000   1.0000   1.0000   1.0000   1.0000
     1.0000   1.0000   1.0000   1.0000   1.0000   1.0000

          k =-0.1667 0.0962 0.0344 (  4633 PWs)   bands (ev):

    -9.4580  -8.8680  -8.5416  -8.3920  -7.8285  -7.2546   2.7717   2.8632
     3.1877   3.4424   3.4941   3.6562   3.7456   3.9069   3.9353   3.9845
     4.1465   4.2568   4.2927   4.4888   4.7371   4.8728   5.0068   5.2203
     5.2864   5.3730   5.6348   5.6416   5.8414   5.9010   6.2374   6.3716
     6.4403   6.4690   6.5004   6.8778   6.8914   7.4882   8.0475   8.4880
     8.8905   9.0501   9.2534   9.3674   9.5387   9.5898   9.9664  10.0101
    10.1956  10.3353  10.6646  10.7061  11.1422  11.3272

     occupation numbers 
     1.0000   1.0000   1.0000   1.0000   1.0000   1.0000   1.0000   1.0000
     1.0000   1.0000   1.0000   1.0000   1.0000   1.0000   1.0000   1.0000
     1.0000   1.0000   1.0000   1.0000   1.0000   1.0000   1.0000   1.0000
     1.0000   1.0000   1.0000   1.0000   1.0000   1.0000   1.0000   1.0000
     1.0000   1.0000   1.0000   1.0000   1.0000   1.0000   1.0000   1.0000
     1.0000   1.0000   1.0000   1.0000   1.0000   1.0000   1.0000   1.0000
     1.0000   1.0000   1.0000   1.0000   1.0000   1.0000

          k = 0.1667 0.0962 0.0344 (  4633 PWs)   bands (ev):

    -9.4597  -8.8658  -8.5399  -8.3927  -7.8289  -7.2551   2.7606   2.8889
     3.2019   3.4239   3.4778   3.6534   3.7282   3.8834   3.9254   3.9664
     4.1756   4.2315   4.4198   4.4609   4.7380   4.8599   4.9849   5.2668
     5.2971   5.3701   5.6290   5.6410   5.8584   5.8990   6.2422   6.3739
     6.4107   6.4814   6.4876   6.8757   6.8902   7.4584   8.0794   8.4782
     8.8796   9.0786   9.2829   9.3466   9.5705   9.6041   9.9171   9.9652
    10.1466  10.3272  10.6990  10.7446  11.1290  11.3016

     occupation numbers 
     1.0000   1.0000   1.0000   1.0000   1.0000   1.0000   1.0000   1.0000
     1.0000   1.0000   1.0000   1.0000   1.0000   1.0000   1.0000   1.0000
     1.0000   1.0000   1.0000   1.0000   1.0000   1.0000   1.0000   1.0000
     1.0000   1.0000   1.0000   1.0000   1.0000   1.0000   1.0000   1.0000
     1.0000   1.0000   1.0000   1.0000   1.0000   1.0000   1.0000   1.0000
     1.0000   1.0000   1.0000   1.0000   1.0000   1.0000   1.0000   1.0000
     1.0000   1.0000   1.0000   1.0000   1.0000   1.0000

          k =-0.1667-0.0962 0.0344 (  4633 PWs)   bands (ev):

    -9.4597  -8.8656  -8.5405  -8.3922  -7.8290  -7.2551   2.7614   2.8870
     3.2043   3.4251   3.4771   3.6514   3.7254   3.8791   3.9250   3.9744
     4.1751   4.2316   4.4195   4.4622   4.7365   4.8600   4.9903   5.2672
     5.2958   5.3702   5.6286   5.6416   5.8581   5.8989   6.2176   6.3751
     6.4146   6.4809   6.4862   6.8860   6.8960   7.4952   8.0343   8.4650
     8.9506   9.0666   9.1438   9.4477   9.5696   9.6321   9.9108   9.9405
    10.1669  10.3198  10.6864  10.7471  11.1325  11.3013

     occupation numbers 
     1.0000   1.0000   1.0000   1.0000   1.0000   1.0000   1.0000   1.0000
     1.0000   1.0000   1.0000   1.0000   1.0000   1.0000   1.0000   1.0000
     1.0000   1.0000   1.0000   1.0000   1.0000   1.0000   1.0000   1.0000
     1.0000   1.0000   1.0000   1.0000   1.0000   1.0000   1.0000   1.0000
     1.0000   1.0000   1.0000   1.0000   1.0000   1.0000   1.0000   1.0000
     1.0000   1.0000   1.0000   1.0000   1.0000   1.0000   1.0000   1.0000
     1.0000   1.0000   1.0000   1.0000   1.0000   1.0000

          k = 0.1667-0.0962 0.0344 (  4633 PWs)   bands (ev):

    -9.4580  -8.8680  -8.5414  -8.3922  -7.8285  -7.2546   2.7725   2.8616
     3.1896   3.4411   3.4938   3.6588   3.7431   3.9061   3.9353   3.9854
     4.1464   4.2584   4.2922   4.4879   4.7378   4.8733   5.0036   5.2208
     5.2864   5.3732   5.6344   5.6419   5.8422   5.9008   6.2550   6.3734
     6.4119   6.4780   6.5035   6.8767   6.8937   7.4705   8.0683   8.4717
     8.9802   9.0452   9.1265   9.3710   9.5577   9.6515   9.9203  10.0162
    10.1979  10.3383  10.6659  10.7071  11.1417  11.3275

     occupation numbers 
     1.0000   1.0000   1.0000   1.0000   1.0000   1.0000   1.0000   1.0000
     1.0000   1.0000   1.0000   1.0000   1.0000   1.0000   1.0000   1.0000
     1.0000   1.0000   1.0000   1.0000   1.0000   1.0000   1.0000   1.0000
     1.0000   1.0000   1.0000   1.0000   1.0000   1.0000   1.0000   1.0000
     1.0000   1.0000   1.0000   1.0000   1.0000   1.0000   1.0000   1.0000
     1.0000   1.0000   1.0000   1.0000   1.0000   1.0000   1.0000   1.0000
     1.0000   1.0000   1.0000   1.0000   1.0000   1.0000

          k = 0.0000-0.1925 0.0688 (  4636 PWs)   bands (ev):

    -9.4625  -8.8712  -8.5285  -8.4035  -7.8275  -7.2544   2.7501   2.9255
     3.2402   3.3343   3.4596   3.6477   3.7747   3.8717   3.9265   3.9751
     4.1310   4.2439   4.3204   4.4729   4.7335   4.8621   5.0789   5.1515
     5.3153   5.3621   5.6342   5.6389   5.8488   5.9038   6.2510   6.3754
     6.4417   6.4783   6.5540   6.8743   6.8841   7.2839   8.3267   8.5390
     8.7593   9.0592   9.1960   9.3911   9.5752   9.6284   9.9773  10.0336
    10.1611  10.3192  10.6795  10.7064  11.1441  11.3632

     occupation numbers 
     1.0000   1.0000   1.0000   1.0000   1.0000   1.0000   1.0000   1.0000
     1.0000   1.0000   1.0000   1.0000   1.0000   1.0000   1.0000   1.0000
     1.0000   1.0000   1.0000   1.0000   1.0000   1.0000   1.0000   1.0000
     1.0000   1.0000   1.0000   1.0000   1.0000   1.0000   1.0000   1.0000
     1.0000   1.0000   1.0000   1.0000   1.0000   1.0000   1.0000   1.0000
     1.0000   1.0000   1.0000   1.0000   1.0000   1.0000   1.0000   1.0000
     1.0000   1.0000   1.0000   1.0000   1.0000   1.0000

          k =-0.1667 0.0962 0.0688 (  4636 PWs)   bands (ev):

    -9.4578  -8.8708  -8.5287  -8.4036  -7.8270  -7.2549   2.7722   2.8628
     3.1883   3.4436   3.4948   3.6597   3.7445   3.9041   3.9332   3.9798
     4.1464   4.2544   4.2930   4.4884   4.7376   4.8730   5.0077   5.2201
     5.2869   5.3732   5.6348   5.6412   5.8445   5.9011   6.2653   6.3696
     6.4313   6.4813   6.5448   6.8672   6.8867   7.2792   8.3080   8.5173
     8.7713   9.0523   9.1759   9.3753   9.5480   9.6546   9.9624  10.0339
    10.1402  10.2969  10.7057  10.7212  11.1367  11.3262

     occupation numbers 
     1.0000   1.0000   1.0000   1.0000   1.0000   1.0000   1.0000   1.0000
     1.0000   1.0000   1.0000   1.0000   1.0000   1.0000   1.0000   1.0000
     1.0000   1.0000   1.0000   1.0000   1.0000   1.0000   1.0000   1.0000
     1.0000   1.0000   1.0000   1.0000   1.0000   1.0000   1.0000   1.0000
     1.0000   1.0000   1.0000   1.0000   1.0000   1.0000   1.0000   1.0000
     1.0000   1.0000   1.0000   1.0000   1.0000   1.0000   1.0000   1.0000
     1.0000   1.0000   1.0000   1.0000   1.0000   1.0000

          k = 0.1667 0.0962 0.0688 (  4636 PWs)   bands (ev):

    -9.4595  -8.8686  -8.5269  -8.4044  -7.8273  -7.2553   2.7613   2.8881
     3.2026   3.4238   3.4816   3.6589   3.7219   3.8872   3.9202   3.9588
     4.1754   4.2321   4.4198   4.4585   4.7381   4.8601   4.9869   5.2667
     5.2973   5.3704   5.6287   5.6406   5.8598   5.8992   6.2802   6.3718
     6.3945   6.4819   6.5457   6.8582   6.8890   7.2616   8.3285   8.5119
     8.7644   9.0718   9.1712   9.4019   9.5613   9.6837   9.9349   9.9629
    10.0804  10.3014  10.7388  10.7550  11.1234  11.3005

     occupation numbers 
     1.0000   1.0000   1.0000   1.0000   1.0000   1.0000   1.0000   1.0000
     1.0000   1.0000   1.0000   1.0000   1.0000   1.0000   1.0000   1.0000
     1.0000   1.0000   1.0000   1.0000   1.0000   1.0000   1.0000   1.0000
     1.0000   1.0000   1.0000   1.0000   1.0000   1.0000   1.0000   1.0000
     1.0000   1.0000   1.0000   1.0000   1.0000   1.0000   1.0000   1.0000
     1.0000   1.0000   1.0000   1.0000   1.0000   1.0000   1.0000   1.0000
     1.0000   1.0000   1.0000   1.0000   1.0000   1.0000

          k =-0.1667-0.0962 0.0688 (  4636 PWs)   bands (ev):

    -9.4595  -8.8685  -8.5275  -8.4039  -7.8274  -7.2553   2.7622   2.8862
     3.2051   3.4247   3.4810   3.6572   3.7184   3.8817   3.9213   3.9669
     4.1751   4.2322   4.4195   4.4597   4.7366   4.8603   4.9922   5.2670
     5.2960   5.3704   5.6283   5.6412   5.8595   5.8991   6.2529   6.3745
     6.3994   6.4818   6.5372   6.8834   6.8901   7.2795   8.3070   8.4637
     8.8621   9.0319   9.1124   9.4463   9.5583   9.7436   9.8684   9.9662
    10.1071  10.2933  10.7282  10.7564  11.1272  11.3002

     occupation numbers 
     1.0000   1.0000   1.0000   1.0000   1.0000   1.0000   1.0000   1.0000
     1.0000   1.0000   1.0000   1.0000   1.0000   1.0000   1.0000   1.0000
     1.0000   1.0000   1.0000   1.0000   1.0000   1.0000   1.0000   1.0000
     1.0000   1.0000   1.0000   1.0000   1.0000   1.0000   1.0000   1.0000
     1.0000   1.0000   1.0000   1.0000   1.0000   1.0000   1.0000   1.0000
     1.0000   1.0000   1.0000   1.0000   1.0000   1.0000   1.0000   1.0000
     1.0000   1.0000   1.0000   1.0000   1.0000   1.0000

          k = 0.1667-0.0962 0.0688 (  4636 PWs)   bands (ev):

    -9.4578  -8.8709  -8.5284  -8.4038  -7.8270  -7.2549   2.7730   2.8613
     3.1903   3.4424   3.4944   3.6621   3.7421   3.9035   3.9332   3.9805
     4.1464   4.2559   4.2926   4.4874   4.7383   4.8735   5.0046   5.2205
     5.2869   5.3733   5.6344   5.6416   5.8453   5.9009   6.2857   6.3697
     6.4109   6.4828   6.5469   6.8665   6.8889   7.2674   8.3407   8.4649
     8.8656   9.0463   9.0834   9.3733   9.5512   9.7379   9.8894  10.0428
    10.1462  10.3007  10.7036  10.7252  11.1362  11.3265

     occupation numbers 
     1.0000   1.0000   1.0000   1.0000   1.0000   1.0000   1.0000   1.0000
     1.0000   1.0000   1.0000   1.0000   1.0000   1.0000   1.0000   1.0000
     1.0000   1.0000   1.0000   1.0000   1.0000   1.0000   1.0000   1.0000
     1.0000   1.0000   1.0000   1.0000   1.0000   1.0000   1.0000   1.0000
     1.0000   1.0000   1.0000   1.0000   1.0000   1.0000   1.0000   1.0000
     1.0000   1.0000   1.0000   1.0000   1.0000   1.0000   1.0000   1.0000
     1.0000   1.0000   1.0000   1.0000   1.0000   1.0000

          k =-0.1667 0.0962-0.1032 (  4640 PWs)   bands (ev):

    -9.4577  -8.8722  -8.5212  -8.4104  -7.8262  -7.2550   2.7729   2.8619
     3.1896   3.4438   3.4949   3.6626   3.7428   3.9026   3.9319   3.9779
     4.1464   4.2540   4.2930   4.4877   4.7382   4.8734   5.0066   5.2202
     5.2871   5.3733   5.6346   5.6412   5.8464   5.9011   6.2885   6.3679
     6.4204   6.4832   6.5834   6.8519   6.8863   7.1898   8.4395   8.5844
     8.6599   9.0520   9.1049   9.3875   9.5456   9.7196   9.9321  10.0435
    10.1234  10.2766  10.7160  10.7376  11.1334  11.3258

     occupation numbers 
     1.0000   1.0000   1.0000   1.0000   1.0000   1.0000   1.0000   1.0000
     1.0000   1.0000   1.0000   1.0000   1.0000   1.0000   1.0000   1.0000
     1.0000   1.0000   1.0000   1.0000   1.0000   1.0000   1.0000   1.0000
     1.0000   1.0000   1.0000   1.0000   1.0000   1.0000   1.0000   1.0000
     1.0000   1.0000   1.0000   1.0000   1.0000   1.0000   1.0000   1.0000
     1.0000   1.0000   1.0000   1.0000   1.0000   1.0000   1.0000   1.0000
     1.0000   1.0000   1.0000   1.0000   1.0000   1.0000

          k = 0.1667 0.0962-0.1032 (  4640 PWs)   bands (ev):

    -9.4594  -8.8699  -8.5198  -8.4109  -7.8266  -7.2554   2.7621   2.8867
     3.2042   3.4242   3.4833   3.6612   3.7162   3.8870   3.9173   3.9594
     4.1752   4.2325   4.4197   4.4580   4.7374   4.8603   4.9905   5.2668
     5.2968   5.3705   5.6284   5.6408   5.8603   5.8992   6.2849   6.3719
     6.3906   6.4819   6.5793   6.8577   6.8885   7.1862   8.4295   8.5739
     8.6696   9.0467   9.1178   9.4440   9.5538   9.7407   9.9080   9.9751
    10.0565  10.2834  10.7508  10.7621  11.1222  11.2998

     occupation numbers 
     1.0000   1.0000   1.0000   1.0000   1.0000   1.0000   1.0000   1.0000
     1.0000   1.0000   1.0000   1.0000   1.0000   1.0000   1.0000   1.0000
     1.0000   1.0000   1.0000   1.0000   1.0000   1.0000   1.0000   1.0000
     1.0000   1.0000   1.0000   1.0000   1.0000   1.0000   1.0000   1.0000
     1.0000   1.0000   1.0000   1.0000   1.0000   1.0000   1.0000   1.0000
     1.0000   1.0000   1.0000   1.0000   1.0000   1.0000   1.0000   1.0000
     1.0000   1.0000   1.0000   1.0000   1.0000   1.0000

          k =-0.3333 0.1925 0.0000 (  4615 PWs)   bands (ev):

    -9.0195  -8.4769  -8.1946  -8.0864  -7.4876  -7.0086   2.5317   2.8254
     3.1714   3.3823   3.7360   3.7714   3.8648   3.9351   4.0161   4.1516
     4.3982   4.4358   4.5335   4.6321   4.9213   5.0917   5.1214   5.3670
     5.4738   5.4884   5.6135   5.7029   5.7974   5.9893   6.1968   6.4114
     6.4382   6.5544   6.5994   6.8313   6.9362   7.0674   7.2905   7.5356
     7.9285   8.0320   8.1835   8.3475   8.5826   8.8237   9.0623   9.2221
     9.4634   9.6945  10.0235  10.1542  10.5254  10.8361

     occupation numbers 
     1.0000   1.0000   1.0000   1.0000   1.0000   1.0000   1.0000   1.0000
     1.0000   1.0000   1.0000   1.0000   1.0000   1.0000   1.0000   1.0000
     1.0000   1.0000   1.0000   1.0000   1.0000   1.0000   1.0000   1.0000
     1.0000   1.0000   1.0000   1.0000   1.0000   1.0000   1.0000   1.0000
     1.0000   1.0000   1.0000   1.0000   1.0000   1.0000   1.0000   1.0000
     1.0000   1.0000   1.0000   1.0000   1.0000   1.0000   1.0000   1.0000
     1.0000   1.0000   1.0000   1.0000   1.0000   1.0000

          k = 0.3333 0.1925 0.0000 (  4615 PWs)   bands (ev):

    -9.0260  -8.4681  -8.1895  -8.0875  -7.4907  -7.0099   2.5406   2.8304
     3.1524   3.3994   3.6442   3.7613   3.8481   3.9435   4.1017   4.1485
     4.2976   4.4962   4.6227   4.6525   4.9093   5.0955   5.1473   5.3666
     5.4788   5.5635   5.6451   5.7113   5.8412   5.9738   6.0971   6.3674
     6.4506   6.5581   6.6043   6.8358   6.9317   7.0632   7.2627   7.5581
     7.9509   7.9922   8.2185   8.3359   8.6162   8.8031   9.0458   9.1864
     9.4542   9.6720  10.0226  10.1051  10.5043  10.7958

     occupation numbers 
     1.0000   1.0000   1.0000   1.0000   1.0000   1.0000   1.0000   1.0000
     1.0000   1.0000   1.0000   1.0000   1.0000   1.0000   1.0000   1.0000
     1.0000   1.0000   1.0000   1.0000   1.0000   1.0000   1.0000   1.0000
     1.0000   1.0000   1.0000   1.0000   1.0000   1.0000   1.0000   1.0000
     1.0000   1.0000   1.0000   1.0000   1.0000   1.0000   1.0000   1.0000
     1.0000   1.0000   1.0000   1.0000   1.0000   1.0000   1.0000   1.0000
     1.0000   1.0000   1.0000   1.0000   1.0000   1.0000

          k = 0.0000-0.3849 0.0344 (  4611 PWs)   bands (ev):

    -9.0369  -8.4777  -8.1917  -8.0860  -7.4901  -7.0062   2.5556   2.8438
     3.1586   3.3746   3.5332   3.7744   3.8634   3.9577   4.0304   4.0782
     4.3664   4.4206   4.5140   4.6016   4.9105   5.0622   5.1333   5.4164
     5.4210   5.4765   5.6609   5.7056   5.8320   5.9904   6.1759   6.4362
     6.4433   6.5516   6.6271   6.8459   6.9410   7.1105   7.2502   7.6116
     7.8762   7.9812   8.2733   8.4368   8.6474   8.8602   9.0747   9.2840
     9.4987   9.7219   9.9968  10.1557  10.5664  10.8791

     occupation numbers 
     1.0000   1.0000   1.0000   1.0000   1.0000   1.0000   1.0000   1.0000
     1.0000   1.0000   1.0000   1.0000   1.0000   1.0000   1.0000   1.0000
     1.0000   1.0000   1.0000   1.0000   1.0000   1.0000   1.0000   1.0000
     1.0000   1.0000   1.0000   1.0000   1.0000   1.0000   1.0000   1.0000
     1.0000   1.0000   1.0000   1.0000   1.0000   1.0000   1.0000   1.0000
     1.0000   1.0000   1.0000   1.0000   1.0000   1.0000   1.0000   1.0000
     1.0000   1.0000   1.0000   1.0000   1.0000   1.0000

          k =-0.3333 0.1925 0.0344 (  4611 PWs)   bands (ev):

    -9.0195  -8.4772  -8.1937  -8.0871  -7.4876  -7.0086   2.5312   2.8255
     3.1660   3.3951   3.7348   3.7715   3.8639   3.9390   4.0105   4.1517
     4.3825   4.4347   4.5334   4.6427   4.9185   5.0919   5.1199   5.3617
     5.4712   5.4919   5.6238   5.7029   5.8116   5.9905   6.1671   6.4315
     6.4469   6.5545   6.6257   6.8133   6.9367   7.0834   7.2165   7.6094
     7.8938   7.9480   8.1836   8.4028   8.6406   8.8032   9.0559   9.2624
     9.4445   9.6654  10.0138  10.1637  10.5288  10.8352

     occupation numbers 
     1.0000   1.0000   1.0000   1.0000   1.0000   1.0000   1.0000   1.0000
     1.0000   1.0000   1.0000   1.0000   1.0000   1.0000   1.0000   1.0000
     1.0000   1.0000   1.0000   1.0000   1.0000   1.0000   1.0000   1.0000
     1.0000   1.0000   1.0000   1.0000   1.0000   1.0000   1.0000   1.0000
     1.0000   1.0000   1.0000   1.0000   1.0000   1.0000   1.0000   1.0000
     1.0000   1.0000   1.0000   1.0000   1.0000   1.0000   1.0000   1.0000
     1.0000   1.0000   1.0000   1.0000   1.0000   1.0000

          k = 0.3333 0.1925 0.0344 (  4611 PWs)   bands (ev):

    -9.0260  -8.4683  -8.1885  -8.0883  -7.4907  -7.0099   2.5400   2.8293
     3.1534   3.4037   3.6457   3.7682   3.8313   3.9543   4.1036   4.1479
     4.2916   4.4961   4.6110   4.6520   4.9187   5.0954   5.1312   5.3633
     5.4785   5.5655   5.6478   5.7106   5.8742   5.9740   6.0900   6.3801
     6.4504   6.5581   6.6401   6.8082   6.9318   7.0745   7.1900   7.6227
     7.8510   7.9766   8.2236   8.3710   8.6994   8.7843   9.0538   9.2206
     9.4159   9.6462  10.0044  10.1147  10.5138  10.7949

     occupation numbers 
     1.0000   1.0000   1.0000   1.0000   1.0000   1.0000   1.0000   1.0000
     1.0000   1.0000   1.0000   1.0000   1.0000   1.0000   1.0000   1.0000
     1.0000   1.0000   1.0000   1.0000   1.0000   1.0000   1.0000   1.0000
     1.0000   1.0000   1.0000   1.0000   1.0000   1.0000   1.0000   1.0000
     1.0000   1.0000   1.0000   1.0000   1.0000   1.0000   1.0000   1.0000
     1.0000   1.0000   1.0000   1.0000   1.0000   1.0000   1.0000   1.0000
     1.0000   1.0000   1.0000   1.0000   1.0000   1.0000

          k =-0.3333-0.1925 0.0344 (  4611 PWs)   bands (ev):

    -9.0260  -8.4683  -8.1887  -8.0881  -7.4907  -7.0099   2.5407   2.8281
     3.1500   3.4113   3.6443   3.7619   3.8558   3.9397   4.0818   4.1490
     4.2969   4.4972   4.6230   4.6502   4.9075   5.0961   5.1592   5.3725
     5.4790   5.5625   5.6287   5.7113   5.8406   5.9738   6.1433   6.3312
     6.4509   6.5585   6.6089   6.8438   6.9314   7.0503   7.2960   7.5212
     7.9156   8.0062   8.2247   8.3012   8.7049   8.7743   9.0385   9.2341
     9.4388   9.6348  10.0180  10.1166  10.5046  10.7946

     occupation numbers 
     1.0000   1.0000   1.0000   1.0000   1.0000   1.0000   1.0000   1.0000
     1.0000   1.0000   1.0000   1.0000   1.0000   1.0000   1.0000   1.0000
     1.0000   1.0000   1.0000   1.0000   1.0000   1.0000   1.0000   1.0000
     1.0000   1.0000   1.0000   1.0000   1.0000   1.0000   1.0000   1.0000
     1.0000   1.0000   1.0000   1.0000   1.0000   1.0000   1.0000   1.0000
     1.0000   1.0000   1.0000   1.0000   1.0000   1.0000   1.0000   1.0000
     1.0000   1.0000   1.0000   1.0000   1.0000   1.0000

          k = 0.3333-0.1925 0.0344 (  4611 PWs)   bands (ev):

    -9.0195  -8.4772  -8.1936  -8.0872  -7.4876  -7.0086   2.5318   2.8222
     3.1759   3.3850   3.7382   3.7796   3.8625   3.9218   4.0178   4.1513
     4.3960   4.4383   4.5319   4.6211   4.9324   5.0924   5.1142   5.3654
     5.4745   5.4889   5.6059   5.7030   5.8089   5.9897   6.2505   6.3750
     6.4404   6.5570   6.6031   6.8271   6.9359   7.0562   7.3190   7.4891
     7.8863   8.0345   8.1869   8.3379   8.6746   8.8037   9.0709   9.2569
     9.4348   9.6640  10.0116  10.1597  10.5336  10.8355

     occupation numbers 
     1.0000   1.0000   1.0000   1.0000   1.0000   1.0000   1.0000   1.0000
     1.0000   1.0000   1.0000   1.0000   1.0000   1.0000   1.0000   1.0000
     1.0000   1.0000   1.0000   1.0000   1.0000   1.0000   1.0000   1.0000
     1.0000   1.0000   1.0000   1.0000   1.0000   1.0000   1.0000   1.0000
     1.0000   1.0000   1.0000   1.0000   1.0000   1.0000   1.0000   1.0000
     1.0000   1.0000   1.0000   1.0000   1.0000   1.0000   1.0000   1.0000
     1.0000   1.0000   1.0000   1.0000   1.0000   1.0000

          k = 0.0000-0.3849 0.0688 (  4608 PWs)   bands (ev):

    -9.0368  -8.4783  -8.1895  -8.0879  -7.4900  -7.0062   2.5552   2.8410
     3.1576   3.3890   3.5336   3.7817   3.8521   3.9684   4.0171   4.0732
     4.3559   4.4220   4.5119   4.6014   4.9140   5.0632   5.1313   5.4130
     5.4200   5.4769   5.6547   5.7051   5.8637   5.9928   6.1674   6.4370
     6.4605   6.5540   6.6804   6.8156   6.9412   7.1076   7.1920   7.6446
     7.8001   7.9392   8.2829   8.4555   8.7969   8.8170   9.0911   9.3688
     9.4220   9.6410   9.9845  10.1780  10.5773  10.8773

     occupation numbers 
     1.0000   1.0000   1.0000   1.0000   1.0000   1.0000   1.0000   1.0000
     1.0000   1.0000   1.0000   1.0000   1.0000   1.0000   1.0000   1.0000
     1.0000   1.0000   1.0000   1.0000   1.0000   1.0000   1.0000   1.0000
     1.0000   1.0000   1.0000   1.0000   1.0000   1.0000   1.0000   1.0000
     1.0000   1.0000   1.0000   1.0000   1.0000   1.0000   1.0000   1.0000
     1.0000   1.0000   1.0000   1.0000   1.0000   1.0000   1.0000   1.0000
     1.0000   1.0000   1.0000   1.0000   1.0000   1.0000

          k =-0.3333 0.1925 0.0688 (  4608 PWs)   bands (ev):

    -9.0195  -8.4777  -8.1918  -8.0886  -7.4875  -7.0086   2.5308   2.8224
     3.1652   3.4108   3.7361   3.7793   3.8609   3.9284   4.0072   4.1514
     4.3652   4.4362   4.5316   4.6416   4.9271   5.0924   5.1118   5.3563
     5.4696   5.4947   5.6236   5.7027   5.8380   5.9923   6.1757   6.4283
     6.4612   6.5565   6.6771   6.7774   6.9372   7.0680   7.1797   7.6434
     7.7924   7.9238   8.1913   8.4171   8.7622   8.7901   9.0754   9.3393
     9.3840   9.5923   9.9925  10.1787  10.5394  10.8338

     occupation numbers 
     1.0000   1.0000   1.0000   1.0000   1.0000   1.0000   1.0000   1.0000
     1.0000   1.0000   1.0000   1.0000   1.0000   1.0000   1.0000   1.0000
     1.0000   1.0000   1.0000   1.0000   1.0000   1.0000   1.0000   1.0000
     1.0000   1.0000   1.0000   1.0000   1.0000   1.0000   1.0000   1.0000
     1.0000   1.0000   1.0000   1.0000   1.0000   1.0000   1.0000   1.0000
     1.0000   1.0000   1.0000   1.0000   1.0000   1.0000   1.0000   1.0000
     1.0000   1.0000   1.0000   1.0000   1.0000   1.0000

          k = 0.3333 0.1925 0.0688 (  4608 PWs)   bands (ev):

    -9.0259  -8.4688  -8.1865  -8.0899  -7.4906  -7.0099   2.5395   2.8261
     3.1522   3.4202   3.6475   3.7793   3.8171   3.9651   4.0812   4.1481
     4.2855   4.4969   4.6007   4.6498   4.9251   5.0958   5.1282   5.3651
     5.4782   5.5666   5.6366   5.7099   5.8977   5.9741   6.1291   6.3655
     6.4506   6.5586   6.7027   6.7742   6.9315   7.0378   7.1720   7.6535
     7.7640   7.9486   8.2349   8.3732   8.7371   8.8538   9.0913   9.3059
     9.3272   9.5708   9.9844  10.1342  10.5224  10.7928

     occupation numbers 
     1.0000   1.0000   1.0000   1.0000   1.0000   1.0000   1.0000   1.0000
     1.0000   1.0000   1.0000   1.0000   1.0000   1.0000   1.0000   1.0000
     1.0000   1.0000   1.0000   1.0000   1.0000   1.0000   1.0000   1.0000
     1.0000   1.0000   1.0000   1.0000   1.0000   1.0000   1.0000   1.0000
     1.0000   1.0000   1.0000   1.0000   1.0000   1.0000   1.0000   1.0000
     1.0000   1.0000   1.0000   1.0000   1.0000   1.0000   1.0000   1.0000
     1.0000   1.0000   1.0000   1.0000   1.0000   1.0000

          k =-0.3333-0.1925 0.0688 (  4608 PWs)   bands (ev):

    -9.0259  -8.4687  -8.1868  -8.0896  -7.4906  -7.0099   2.5402   2.8250
     3.1490   3.4277   3.6461   3.7696   3.8438   3.9528   4.0585   4.1490
     4.2912   4.4981   4.6119   4.6482   4.9141   5.0969   5.1547   5.3737
     5.4787   5.5638   5.6197   5.7105   5.8651   5.9739   6.2051   6.2927
     6.4508   6.5590   6.6403   6.8403   6.9309   7.0226   7.2662   7.5306
     7.8689   7.9416   8.2365   8.3332   8.7308   8.8554   9.0489   9.3292
     9.3658   9.5532   9.9963  10.1362  10.5139  10.7924

     occupation numbers 
     1.0000   1.0000   1.0000   1.0000   1.0000   1.0000   1.0000   1.0000
     1.0000   1.0000   1.0000   1.0000   1.0000   1.0000   1.0000   1.0000
     1.0000   1.0000   1.0000   1.0000   1.0000   1.0000   1.0000   1.0000
     1.0000   1.0000   1.0000   1.0000   1.0000   1.0000   1.0000   1.0000
     1.0000   1.0000   1.0000   1.0000   1.0000   1.0000   1.0000   1.0000
     1.0000   1.0000   1.0000   1.0000   1.0000   1.0000   1.0000   1.0000
     1.0000   1.0000   1.0000   1.0000   1.0000   1.0000

          k = 0.3333-0.1925 0.0688 (  4608 PWs)   bands (ev):

    -9.0194  -8.4777  -8.1917  -8.0887  -7.4875  -7.0086   2.5313   2.8191
     3.1745   3.4010   3.7389   3.7910   3.8582   3.9094   4.0146   4.1510
     4.3782   4.4389   4.5302   4.6221   4.9406   5.0931   5.1057   5.3595
     5.4722   5.4923   5.6088   5.7028   5.8313   5.9910   6.2623   6.3851
     6.4456   6.5587   6.6321   6.8092   6.9362   7.0366   7.2755   7.5078
     7.8480   7.9589   8.1918   8.3826   8.7594   8.8130   9.0973   9.3390
     9.3619   9.5918   9.9897  10.1759  10.5438  10.8341

     occupation numbers 
     1.0000   1.0000   1.0000   1.0000   1.0000   1.0000   1.0000   1.0000
     1.0000   1.0000   1.0000   1.0000   1.0000   1.0000   1.0000   1.0000
     1.0000   1.0000   1.0000   1.0000   1.0000   1.0000   1.0000   1.0000
     1.0000   1.0000   1.0000   1.0000   1.0000   1.0000   1.0000   1.0000
     1.0000   1.0000   1.0000   1.0000   1.0000   1.0000   1.0000   1.0000
     1.0000   1.0000   1.0000   1.0000   1.0000   1.0000   1.0000   1.0000
     1.0000   1.0000   1.0000   1.0000   1.0000   1.0000

          k =-0.3333 0.1925-0.1032 (  4594 PWs)   bands (ev):

    -9.0194  -8.4779  -8.1908  -8.0894  -7.4875  -7.0086   2.5309   2.8193
     3.1694   3.4140   3.7381   3.7907   3.8577   3.9119   4.0095   4.1511
     4.3631   4.4383   4.5301   4.6318   4.9381   5.0928   5.1050   5.3557
     5.4700   5.4949   5.6166   5.7026   5.8460   5.9925   6.2171   6.4184
     6.4582   6.5584   6.6809   6.7774   6.9374   7.0265   7.2179   7.5706
     7.8205   7.9095   8.1956   8.4116   8.7471   8.8567   9.1324   9.2966
     9.4127   9.5326   9.9809  10.1851  10.5464  10.8332

     occupation numbers 
     1.0000   1.0000   1.0000   1.0000   1.0000   1.0000   1.0000   1.0000
     1.0000   1.0000   1.0000   1.0000   1.0000   1.0000   1.0000   1.0000
     1.0000   1.0000   1.0000   1.0000   1.0000   1.0000   1.0000   1.0000
     1.0000   1.0000   1.0000   1.0000   1.0000   1.0000   1.0000   1.0000
     1.0000   1.0000   1.0000   1.0000   1.0000   1.0000   1.0000   1.0000
     1.0000   1.0000   1.0000   1.0000   1.0000   1.0000   1.0000   1.0000
     1.0000   1.0000   1.0000   1.0000   1.0000   1.0000

          k = 0.3333 0.1925-0.1032 (  4594 PWs)   bands (ev):

    -9.0259  -8.4690  -8.1857  -8.0905  -7.4906  -7.0099   2.5397   2.8240
     3.1501   3.4323   3.6479   3.7799   3.8226   3.9683   4.0548   4.1487
     4.2859   4.4980   4.6014   4.6482   4.9223   5.0968   5.1397   5.3698
     5.4783   5.5660   5.6242   5.7099   5.8902   5.9741   6.1894   6.3225
     6.4508   6.5591   6.6865   6.8140   6.9308   6.9969   7.2140   7.5809
     7.8159   7.9184   8.2417   8.3631   8.7150   8.9121   9.1356   9.2571
     9.3952   9.4922   9.9811  10.1442  10.5223  10.7916

     occupation numbers 
     1.0000   1.0000   1.0000   1.0000   1.0000   1.0000   1.0000   1.0000
     1.0000   1.0000   1.0000   1.0000   1.0000   1.0000   1.0000   1.0000
     1.0000   1.0000   1.0000   1.0000   1.0000   1.0000   1.0000   1.0000
     1.0000   1.0000   1.0000   1.0000   1.0000   1.0000   1.0000   1.0000
     1.0000   1.0000   1.0000   1.0000   1.0000   1.0000   1.0000   1.0000
     1.0000   1.0000   1.0000   1.0000   1.0000   1.0000   1.0000   1.0000
     1.0000   1.0000   1.0000   1.0000   1.0000   1.0000

          k = 0.5000-0.2887 0.0000 (  4586 PWs)   bands (ev):

    -8.7786  -8.2737  -8.0184  -7.9226  -7.2977  -6.8874   2.4701   2.7836
     3.1276   3.2445   3.7795   3.8184   3.8629   4.0429   4.0790   4.2331
     4.5063   4.5515   4.6037   4.7515   5.0585   5.1892   5.2100   5.5089
     5.6089   5.6428   5.7813   5.8493   5.8799   6.0763   6.1921   6.3922
     6.5039   6.5918   6.6546   6.6619   6.7005   7.0153   7.0203   7.2022
     7.2822   7.5827   7.6603   7.7010   8.4028   8.4828   8.6501   8.7586
     9.1204   9.3382   9.7460   9.8728  10.0555  10.5618

     occupation numbers 
     1.0000   1.0000   1.0000   1.0000   1.0000   1.0000   1.0000   1.0000
     1.0000   1.0000   1.0000   1.0000   1.0000   1.0000   1.0000   1.0000
     1.0000   1.0000   1.0000   1.0000   1.0000   1.0000   1.0000   1.0000
     1.0000   1.0000   1.0000   1.0000   1.0000   1.0000   1.0000   1.0000
     1.0000   1.0000   1.0000   1.0000   1.0000   1.0000   1.0000   1.0000
     1.0000   1.0000   1.0000   1.0000   1.0000   1.0000   1.0000   1.0000
     1.0000   1.0000   1.0000   1.0000   1.0000   1.0000

          k =-0.5000-0.2887 0.0000 (  4586 PWs)   bands (ev):

    -8.7889  -8.2596  -8.0112  -7.9235  -7.3038  -6.8889   2.4702   2.7893
     3.1229   3.2331   3.7228   3.8096   3.8567   4.0601   4.1415   4.2542
     4.3929   4.6085   4.6655   4.7788   5.0516   5.2169   5.2357   5.5315
     5.6001   5.6940   5.8327   5.8658   5.9017   6.0946   6.2082   6.3285
     6.5176   6.5659   6.6322   6.6518   6.7107   7.0226   7.0586   7.1216
     7.2140   7.5688   7.6634   7.7203   8.3551   8.5620   8.6812   8.7381
     9.0705   9.3361   9.7169   9.7793  10.0171  10.5153

     occupation numbers 
     1.0000   1.0000   1.0000   1.0000   1.0000   1.0000   1.0000   1.0000
     1.0000   1.0000   1.0000   1.0000   1.0000   1.0000   1.0000   1.0000
     1.0000   1.0000   1.0000   1.0000   1.0000   1.0000   1.0000   1.0000
     1.0000   1.0000   1.0000   1.0000   1.0000   1.0000   1.0000   1.0000
     1.0000   1.0000   1.0000   1.0000   1.0000   1.0000   1.0000   1.0000
     1.0000   1.0000   1.0000   1.0000   1.0000   1.0000   1.0000   1.0000
     1.0000   1.0000   1.0000   1.0000   1.0000   1.0000

          k = 0.5000-0.2887 0.0344 (  4592 PWs)   bands (ev):

    -8.7786  -8.2737  -8.0184  -7.9226  -7.2977  -6.8874   2.4697   2.7814
     3.1323   3.2453   3.7731   3.8228   3.8657   4.0379   4.0799   4.2326
     4.5001   4.5553   4.6067   4.7469   5.0599   5.1905   5.2100   5.5154
     5.6087   5.6429   5.7789   5.8406   5.8847   6.0763   6.1933   6.3932
     6.5035   6.5923   6.6541   6.6620   6.6998   7.0150   7.0194   7.2027
     7.2814   7.5844   7.6688   7.7254   8.3435   8.3972   8.7135   8.8153
     9.1542   9.3043   9.7387   9.8758  10.0522  10.5606

     occupation numbers 
     1.0000   1.0000   1.0000   1.0000   1.0000   1.0000   1.0000   1.0000
     1.0000   1.0000   1.0000   1.0000   1.0000   1.0000   1.0000   1.0000
     1.0000   1.0000   1.0000   1.0000   1.0000   1.0000   1.0000   1.0000
     1.0000   1.0000   1.0000   1.0000   1.0000   1.0000   1.0000   1.0000
     1.0000   1.0000   1.0000   1.0000   1.0000   1.0000   1.0000   1.0000
     1.0000   1.0000   1.0000   1.0000   1.0000   1.0000   1.0000   1.0000
     1.0000   1.0000   1.0000   1.0000   1.0000   1.0000

          k =-0.5000-0.2887 0.0344 (  4592 PWs)   bands (ev):

    -8.7889  -8.2596  -8.0112  -7.9235  -7.3038  -6.8889   2.4698   2.7872
     3.1264   3.2345   3.7231   3.8090   3.8600   4.0543   4.1409   4.2539
     4.3925   4.6054   4.6695   4.7736   5.0523   5.2184   5.2381   5.5360
     5.6000   5.6966   5.8290   5.8568   5.9069   6.0946   6.2090   6.3294
     6.5170   6.5678   6.6304   6.6520   6.7104   7.0224   7.0549   7.1277
     7.2084   7.5721   7.6814   7.7368   8.3115   8.4307   8.7765   8.8048
     9.0894   9.2958   9.7207   9.7810  10.0124  10.5140

     occupation numbers 
     1.0000   1.0000   1.0000   1.0000   1.0000   1.0000   1.0000   1.0000
     1.0000   1.0000   1.0000   1.0000   1.0000   1.0000   1.0000   1.0000
     1.0000   1.0000   1.0000   1.0000   1.0000   1.0000   1.0000   1.0000
     1.0000   1.0000   1.0000   1.0000   1.0000   1.0000   1.0000   1.0000
     1.0000   1.0000   1.0000   1.0000   1.0000   1.0000   1.0000   1.0000
     1.0000   1.0000   1.0000   1.0000   1.0000   1.0000   1.0000   1.0000
     1.0000   1.0000   1.0000   1.0000   1.0000   1.0000

          k = 0.5000-0.2887 0.0688 (  4602 PWs)   bands (ev):

    -8.7786  -8.2737  -8.0184  -7.9226  -7.2977  -6.8874   2.4689   2.7774
     3.1416   3.2470   3.7624   3.8287   3.8725   4.0276   4.0813   4.2316
     4.4895   4.5613   4.6127   4.7375   5.0627   5.1924   5.2109   5.5292
     5.6082   5.6423   5.7741   5.8266   5.8907   6.0761   6.1958   6.3953
     6.5028   6.5931   6.6536   6.6623   6.6980   7.0142   7.0178   7.2038
     7.2799   7.5868   7.6872   7.7900   8.2045   8.3151   8.7745   8.9280
     9.1978   9.2503   9.7116   9.8859  10.0456  10.5582

     occupation numbers 
     1.0000   1.0000   1.0000   1.0000   1.0000   1.0000   1.0000   1.0000
     1.0000   1.0000   1.0000   1.0000   1.0000   1.0000   1.0000   1.0000
     1.0000   1.0000   1.0000   1.0000   1.0000   1.0000   1.0000   1.0000
     1.0000   1.0000   1.0000   1.0000   1.0000   1.0000   1.0000   1.0000
     1.0000   1.0000   1.0000   1.0000   1.0000   1.0000   1.0000   1.0000
     1.0000   1.0000   1.0000   1.0000   1.0000   1.0000   1.0000   1.0000
     1.0000   1.0000   1.0000   1.0000   1.0000   1.0000

          k =-0.5000-0.2887 0.0688 (  4602 PWs)   bands (ev):

    -8.7889  -8.2596  -8.0112  -7.9235  -7.3038  -6.8890   2.4689   2.7834
     3.1334   3.2375   3.7236   3.8070   3.8683   4.0415   4.1399   4.2533
     4.3916   4.5994   4.6787   4.7621   5.0535   5.2215   5.2425   5.5455
     5.5998   5.7023   5.8206   5.8425   5.9137   6.0947   6.2105   6.3312
     6.5158   6.5720   6.6267   6.6523   6.7098   7.0220   7.0486   7.1405
     7.1958   7.5764   7.7199   7.7837   8.2383   8.2703   8.8719   8.9184
     9.1323   9.2015   9.7101   9.7952  10.0030  10.5114

     occupation numbers 
     1.0000   1.0000   1.0000   1.0000   1.0000   1.0000   1.0000   1.0000
     1.0000   1.0000   1.0000   1.0000   1.0000   1.0000   1.0000   1.0000
     1.0000   1.0000   1.0000   1.0000   1.0000   1.0000   1.0000   1.0000
     1.0000   1.0000   1.0000   1.0000   1.0000   1.0000   1.0000   1.0000
     1.0000   1.0000   1.0000   1.0000   1.0000   1.0000   1.0000   1.0000
     1.0000   1.0000   1.0000   1.0000   1.0000   1.0000   1.0000   1.0000
     1.0000   1.0000   1.0000   1.0000   1.0000   1.0000

          k = 0.5000-0.2887-0.1032 (  4608 PWs)   bands (ev):

    -8.7786  -8.2737  -8.0184  -7.9226  -7.2977  -6.8874   2.4685   2.7755
     3.1463   3.2479   3.7577   3.8307   3.8766   4.0221   4.0819   4.2311
     4.4848   4.5641   4.6158   4.7323   5.0640   5.1930   5.2116   5.5366
     5.6079   5.6415   5.7717   5.8203   5.8928   6.0761   6.1970   6.3963
     6.5024   6.5933   6.6537   6.6626   6.6969   7.0138   7.0171   7.2044
     7.2792   7.5876   7.6971   7.8396   8.1231   8.2846   8.7933   9.0143
     9.1317   9.2823   9.6913   9.8922  10.0423  10.5569

     occupation numbers 
     1.0000   1.0000   1.0000   1.0000   1.0000   1.0000   1.0000   1.0000
     1.0000   1.0000   1.0000   1.0000   1.0000   1.0000   1.0000   1.0000
     1.0000   1.0000   1.0000   1.0000   1.0000   1.0000   1.0000   1.0000
     1.0000   1.0000   1.0000   1.0000   1.0000   1.0000   1.0000   1.0000
     1.0000   1.0000   1.0000   1.0000   1.0000   1.0000   1.0000   1.0000
     1.0000   1.0000   1.0000   1.0000   1.0000   1.0000   1.0000   1.0000
     1.0000   1.0000   1.0000   1.0000   1.0000   1.0000

          k =-0.5000-0.2887-0.1032 (  4608 PWs)   bands (ev):

    -8.7889  -8.2596  -8.0112  -7.9235  -7.3038  -6.8890   2.4685   2.7815
     3.1368   3.2390   3.7237   3.8059   3.8734   4.0342   4.1395   4.2530
     4.3912   4.5965   4.6844   4.7551   5.0541   5.2232   5.2446   5.5504
     5.5998   5.7054   5.8160   5.8362   5.9162   6.0947   6.2113   6.3321
     6.5152   6.5742   6.6247   6.6524   6.7094   7.0217   7.0458   7.1484
     7.1879   7.5778   7.7391   7.8205   8.1906   8.2077   8.8988   9.0399
     9.0689   9.1796   9.6992   9.8044   9.9983  10.5100

     occupation numbers 
     1.0000   1.0000   1.0000   1.0000   1.0000   1.0000   1.0000   1.0000
     1.0000   1.0000   1.0000   1.0000   1.0000   1.0000   1.0000   1.0000
     1.0000   1.0000   1.0000   1.0000   1.0000   1.0000   1.0000   1.0000
     1.0000   1.0000   1.0000   1.0000   1.0000   1.0000   1.0000   1.0000
     1.0000   1.0000   1.0000   1.0000   1.0000   1.0000   1.0000   1.0000
     1.0000   1.0000   1.0000   1.0000   1.0000   1.0000   1.0000   1.0000
     1.0000   1.0000   1.0000   1.0000   1.0000   1.0000

          k =-0.1667 0.2887 0.0000 (  4609 PWs)   bands (ev):

    -9.1426  -8.5797  -8.2839  -8.1644  -7.5787  -7.0691   2.7039   2.8684
     3.2117   3.4656   3.5647   3.7907   3.8069   3.8970   3.9648   4.0889
     4.2270   4.3658   4.4437   4.6372   4.8242   5.0036   5.1070   5.2379
     5.3767   5.4433   5.6612   5.6966   5.7506   6.0018   6.1677   6.4247
     6.4417   6.4930   6.5766   6.9161   6.9802   7.5171   7.6248   7.8312
     8.0061   8.3038   8.4756   8.5985   8.6835   8.9791   9.0594   9.4781
     9.6782   9.7169  10.0176  10.1735  10.7717  10.7967

     occupation numbers 
     1.0000   1.0000   1.0000   1.0000   1.0000   1.0000   1.0000   1.0000
     1.0000   1.0000   1.0000   1.0000   1.0000   1.0000   1.0000   1.0000
     1.0000   1.0000   1.0000   1.0000   1.0000   1.0000   1.0000   1.0000
     1.0000   1.0000   1.0000   1.0000   1.0000   1.0000   1.0000   1.0000
     1.0000   1.0000   1.0000   1.0000   1.0000   1.0000   1.0000   1.0000
     1.0000   1.0000   1.0000   1.0000   1.0000   1.0000   1.0000   1.0000
     1.0000   1.0000   1.0000   1.0000   1.0000   1.0000

          k = 0.3333 0.0000 0.0000 (  4609 PWs)   bands (ev):

    -9.1359  -8.5739  -8.2816  -8.1660  -7.5789  -7.0714   2.6819   2.8648
     3.2007   3.4700   3.5998   3.7843   3.8423   3.9134   4.0010   4.1654
     4.2684   4.3794   4.4800   4.6563   4.8197   5.0075   5.1640   5.2271
     5.4200   5.4325   5.6674   5.6935   5.7789   5.9673   6.1192   6.4048
     6.4181   6.5055   6.5757   6.9139   6.9483   7.4367   7.5549   7.7900
     8.0638   8.2627   8.4859   8.5720   8.6377   8.9348   9.0494   9.4368
     9.5819   9.7126  10.0805  10.1808  10.7116  10.7898

     occupation numbers 
     1.0000   1.0000   1.0000   1.0000   1.0000   1.0000   1.0000   1.0000
     1.0000   1.0000   1.0000   1.0000   1.0000   1.0000   1.0000   1.0000
     1.0000   1.0000   1.0000   1.0000   1.0000   1.0000   1.0000   1.0000
     1.0000   1.0000   1.0000   1.0000   1.0000   1.0000   1.0000   1.0000
     1.0000   1.0000   1.0000   1.0000   1.0000   1.0000   1.0000   1.0000
     1.0000   1.0000   1.0000   1.0000   1.0000   1.0000   1.0000   1.0000
     1.0000   1.0000   1.0000   1.0000   1.0000   1.0000

          k =-0.1667-0.2887 0.0344 (  4612 PWs)   bands (ev):

    -9.1465  -8.5748  -8.2790  -8.1668  -7.5802  -7.0701   2.7278   2.8652
     3.1961   3.4525   3.5449   3.7421   3.7956   3.8719   3.9638   4.1140
     4.2702   4.3961   4.5033   4.6525   4.7925   4.9922   5.1577   5.2486
     5.3989   5.4592   5.6695   5.7000   5.8032   5.9641   6.1174   6.3964
     6.4317   6.5216   6.5795   6.9089   6.9766   7.4554   7.6445   7.8258
     8.0564   8.2558   8.4937   8.5918   8.7068   8.9468   9.0834   9.4351
     9.6183   9.6814  10.0795  10.1724  10.7420  10.7932

     occupation numbers 
     1.0000   1.0000   1.0000   1.0000   1.0000   1.0000   1.0000   1.0000
     1.0000   1.0000   1.0000   1.0000   1.0000   1.0000   1.0000   1.0000
     1.0000   1.0000   1.0000   1.0000   1.0000   1.0000   1.0000   1.0000
     1.0000   1.0000   1.0000   1.0000   1.0000   1.0000   1.0000   1.0000
     1.0000   1.0000   1.0000   1.0000   1.0000   1.0000   1.0000   1.0000
     1.0000   1.0000   1.0000   1.0000   1.0000   1.0000   1.0000   1.0000
     1.0000   1.0000   1.0000   1.0000   1.0000   1.0000

          k =-0.1667 0.2887-0.0344 (  4612 PWs)   bands (ev):

    -9.1426  -8.5802  -8.2819  -8.1661  -7.5786  -7.0691   2.7035   2.8672
     3.2140   3.4611   3.5796   3.7854   3.8076   3.8945   3.9625   4.0861
     4.2299   4.3609   4.4396   4.6363   4.8254   5.0002   5.1087   5.2368
     5.3781   5.4445   5.6720   5.6957   5.7502   6.0035   6.1752   6.4090
     6.4409   6.5185   6.5854   6.9086   6.9815   7.4419   7.6161   7.8714
     8.0256   8.2504   8.4845   8.6208   8.7151   8.9772   9.1099   9.4675
     9.6281   9.6946  10.0348  10.1768  10.7741  10.7994

     occupation numbers 
     1.0000   1.0000   1.0000   1.0000   1.0000   1.0000   1.0000   1.0000
     1.0000   1.0000   1.0000   1.0000   1.0000   1.0000   1.0000   1.0000
     1.0000   1.0000   1.0000   1.0000   1.0000   1.0000   1.0000   1.0000
     1.0000   1.0000   1.0000   1.0000   1.0000   1.0000   1.0000   1.0000
     1.0000   1.0000   1.0000   1.0000   1.0000   1.0000   1.0000   1.0000
     1.0000   1.0000   1.0000   1.0000   1.0000   1.0000   1.0000   1.0000
     1.0000   1.0000   1.0000   1.0000   1.0000   1.0000

          k = 0.1667-0.2887-0.0344 (  4612 PWs)   bands (ev):

    -9.1426  -8.5802  -8.2818  -8.1662  -7.5786  -7.0691   2.7036   2.8671
     3.2141   3.4659   3.5681   3.7914   3.8164   3.8948   3.9541   4.0874
     4.2271   4.3607   4.4410   4.6363   4.8294   5.0002   5.1046   5.2391
     5.3709   5.4479   5.6612   5.6968   5.7572   6.0039   6.1904   6.4000
     6.4409   6.5223   6.5830   6.9082   6.9794   7.4514   7.5976   7.8635
     8.0371   8.2519   8.4878   8.6234   8.7195   8.9804   9.1021   9.4715
     9.6244   9.6845  10.0354  10.1837  10.7751  10.7978

     occupation numbers 
     1.0000   1.0000   1.0000   1.0000   1.0000   1.0000   1.0000   1.0000
     1.0000   1.0000   1.0000   1.0000   1.0000   1.0000   1.0000   1.0000
     1.0000   1.0000   1.0000   1.0000   1.0000   1.0000   1.0000   1.0000
     1.0000   1.0000   1.0000   1.0000   1.0000   1.0000   1.0000   1.0000
     1.0000   1.0000   1.0000   1.0000   1.0000   1.0000   1.0000   1.0000
     1.0000   1.0000   1.0000   1.0000   1.0000   1.0000   1.0000   1.0000
     1.0000   1.0000   1.0000   1.0000   1.0000   1.0000

          k = 0.3333 0.0000 0.0344 (  4612 PWs)   bands (ev):

    -9.1359  -8.5744  -8.2795  -8.1677  -7.5787  -7.0714   2.6814   2.8632
     3.2035   3.4677   3.6127   3.7717   3.8566   3.9101   3.9930   4.1630
     4.2703   4.3765   4.4782   4.6476   4.8319   4.9983   5.1545   5.2253
     5.4223   5.4347   5.6667   5.6937   5.7919   5.9674   6.1586   6.3836
     6.4150   6.5223   6.5881   6.9096   6.9408   7.3750   7.5168   7.8311
     8.0683   8.2263   8.4909   8.5909   8.7076   8.9200   9.0973   9.4321
     9.5322   9.6792  10.0932  10.1821  10.7165  10.7925

     occupation numbers 
     1.0000   1.0000   1.0000   1.0000   1.0000   1.0000   1.0000   1.0000
     1.0000   1.0000   1.0000   1.0000   1.0000   1.0000   1.0000   1.0000
     1.0000   1.0000   1.0000   1.0000   1.0000   1.0000   1.0000   1.0000
     1.0000   1.0000   1.0000   1.0000   1.0000   1.0000   1.0000   1.0000
     1.0000   1.0000   1.0000   1.0000   1.0000   1.0000   1.0000   1.0000
     1.0000   1.0000   1.0000   1.0000   1.0000   1.0000   1.0000   1.0000
     1.0000   1.0000   1.0000   1.0000   1.0000   1.0000

          k =-0.3333-0.0000 0.0344 (  4612 PWs)   bands (ev):

    -9.1359  -8.5743  -8.2798  -8.1675  -7.5787  -7.0714   2.6815   2.8637
     3.2019   3.4693   3.6080   3.8010   3.8284   3.9110   3.9903   4.1707
     4.2634   4.3778   4.4755   4.6611   4.8143   5.0033   5.1735   5.2292
     5.4172   5.4332   5.6663   5.6938   5.7861   5.9677   6.1267   6.3913
     6.4163   6.5265   6.5836   6.9042   6.9537   7.3976   7.5404   7.8135
     8.0789   8.2048   8.4822   8.5786   8.6957   8.9354   9.0932   9.4247
     9.5570   9.6784  10.0949  10.1834  10.7121  10.7913

     occupation numbers 
     1.0000   1.0000   1.0000   1.0000   1.0000   1.0000   1.0000   1.0000
     1.0000   1.0000   1.0000   1.0000   1.0000   1.0000   1.0000   1.0000
     1.0000   1.0000   1.0000   1.0000   1.0000   1.0000   1.0000   1.0000
     1.0000   1.0000   1.0000   1.0000   1.0000   1.0000   1.0000   1.0000
     1.0000   1.0000   1.0000   1.0000   1.0000   1.0000   1.0000   1.0000
     1.0000   1.0000   1.0000   1.0000   1.0000   1.0000   1.0000   1.0000
     1.0000   1.0000   1.0000   1.0000   1.0000   1.0000

          k =-0.1667-0.2887 0.0688 (  4615 PWs)   bands (ev):

    -9.1464  -8.5758  -8.2747  -8.1704  -7.5799  -7.0701   2.7269   2.8629
     3.1994   3.4473   3.5661   3.7499   3.7904   3.8655   3.9543   4.1122
     4.2635   4.3952   4.4976   4.6504   4.7951   4.9843   5.1594   5.2479
     5.3992   5.4634   5.6712   5.6976   5.8162   5.9648   6.1598   6.3643
     6.4298   6.5430   6.6268   6.8844   6.9800   7.3105   7.6524   7.8599
     8.1033   8.1948   8.4416   8.6371   8.7722   9.0129   9.1840   9.3843
     9.5144   9.6277  10.1033  10.1853  10.7462  10.7972

     occupation numbers 
     1.0000   1.0000   1.0000   1.0000   1.0000   1.0000   1.0000   1.0000
     1.0000   1.0000   1.0000   1.0000   1.0000   1.0000   1.0000   1.0000
     1.0000   1.0000   1.0000   1.0000   1.0000   1.0000   1.0000   1.0000
     1.0000   1.0000   1.0000   1.0000   1.0000   1.0000   1.0000   1.0000
     1.0000   1.0000   1.0000   1.0000   1.0000   1.0000   1.0000   1.0000
     1.0000   1.0000   1.0000   1.0000   1.0000   1.0000   1.0000   1.0000
     1.0000   1.0000   1.0000   1.0000   1.0000   1.0000

          k =-0.1667 0.2887-0.0688 (  4615 PWs)   bands (ev):

    -9.1425  -8.5812  -8.2776  -8.1697  -7.5783  -7.0692   2.7028   2.8647
     3.2185   3.4578   3.5986   3.7800   3.8179   3.8894   3.9485   4.0820
     4.2328   4.3508   4.4335   4.6349   4.8313   4.9940   5.1080   5.2367
     5.3744   5.4496   5.6789   5.6951   5.7591   6.0069   6.2074   6.3806
     6.4406   6.5471   6.6282   6.8822   6.9832   7.3088   7.6101   7.8954
     8.0834   8.1992   8.4389   8.6526   8.7918   9.0408   9.1922   9.4420
     9.5027   9.6403  10.0646  10.1889  10.7763  10.8061

     occupation numbers 
     1.0000   1.0000   1.0000   1.0000   1.0000   1.0000   1.0000   1.0000
     1.0000   1.0000   1.0000   1.0000   1.0000   1.0000   1.0000   1.0000
     1.0000   1.0000   1.0000   1.0000   1.0000   1.0000   1.0000   1.0000
     1.0000   1.0000   1.0000   1.0000   1.0000   1.0000   1.0000   1.0000
     1.0000   1.0000   1.0000   1.0000   1.0000   1.0000   1.0000   1.0000
     1.0000   1.0000   1.0000   1.0000   1.0000   1.0000   1.0000   1.0000
     1.0000   1.0000   1.0000   1.0000   1.0000   1.0000

          k = 0.1667-0.2887-0.0688 (  4615 PWs)   bands (ev):

    -9.1425  -8.5812  -8.2775  -8.1698  -7.5783  -7.0692   2.7028   2.8646
     3.2186   3.4619   3.5865   3.7901   3.8260   3.8903   3.9375   4.0834
     4.2298   4.3508   4.4350   4.6349   4.8353   4.9936   5.1043   5.2388
     5.3684   5.4521   5.6688   5.6959   5.7655   6.0071   6.2259   6.3703
     6.4403   6.5497   6.6268   6.8806   6.9807   7.3113   7.6014   7.8891
     8.0912   8.2011   8.4414   8.6508   8.8012   9.0471   9.1822   9.4482
     9.4932   9.6341  10.0647  10.1951  10.7772  10.8047

     occupation numbers 
     1.0000   1.0000   1.0000   1.0000   1.0000   1.0000   1.0000   1.0000
     1.0000   1.0000   1.0000   1.0000   1.0000   1.0000   1.0000   1.0000
     1.0000   1.0000   1.0000   1.0000   1.0000   1.0000   1.0000   1.0000
     1.0000   1.0000   1.0000   1.0000   1.0000   1.0000   1.0000   1.0000
     1.0000   1.0000   1.0000   1.0000   1.0000   1.0000   1.0000   1.0000
     1.0000   1.0000   1.0000   1.0000   1.0000   1.0000   1.0000   1.0000
     1.0000   1.0000   1.0000   1.0000   1.0000   1.0000

          k = 0.3333 0.0000 0.0688 (  4615 PWs)   bands (ev):

    -9.1358  -8.5753  -8.2755  -8.1711  -7.5785  -7.0714   2.6806   2.8607
     3.2074   3.4654   3.6360   3.7662   3.8683   3.9045   3.9692   4.1664
     4.2666   4.3726   4.4718   4.6448   4.8383   4.9853   5.1554   5.2257
     5.4211   5.4374   5.6650   5.6938   5.8094   5.9677   6.2212   6.3414
     6.4140   6.5424   6.6358   6.8776   6.9420   7.2538   7.5148   7.8567
     8.0815   8.2008   8.4212   8.6400   8.7800   9.0112   9.1735   9.3949
     9.4311   9.6174  10.1170  10.1860  10.7202  10.7976

     occupation numbers 
     1.0000   1.0000   1.0000   1.0000   1.0000   1.0000   1.0000   1.0000
     1.0000   1.0000   1.0000   1.0000   1.0000   1.0000   1.0000   1.0000
     1.0000   1.0000   1.0000   1.0000   1.0000   1.0000   1.0000   1.0000
     1.0000   1.0000   1.0000   1.0000   1.0000   1.0000   1.0000   1.0000
     1.0000   1.0000   1.0000   1.0000   1.0000   1.0000   1.0000   1.0000
     1.0000   1.0000   1.0000   1.0000   1.0000   1.0000   1.0000   1.0000
     1.0000   1.0000   1.0000   1.0000   1.0000   1.0000

          k =-0.3333-0.0000 0.0688 (  4615 PWs)   bands (ev):

    -9.1358  -8.5752  -8.2758  -8.1708  -7.5785  -7.0714   2.6807   2.8612
     3.2058   3.4667   3.6299   3.7990   3.8349   3.9059   3.9698   4.1741
     4.2593   4.3739   4.4696   4.6569   4.8211   4.9920   5.1721   5.2292
     5.4165   5.4360   5.6651   5.6939   5.8050   5.9680   6.1777   6.3593
     6.4147   6.5453   6.6267   6.8804   6.9539   7.2799   7.5247   7.8473
     8.0949   8.1759   8.4194   8.6248   8.7772   9.0043   9.1702   9.3813
     9.4793   9.6095  10.1185  10.1874  10.7164  10.7960

     occupation numbers 
     1.0000   1.0000   1.0000   1.0000   1.0000   1.0000   1.0000   1.0000
     1.0000   1.0000   1.0000   1.0000   1.0000   1.0000   1.0000   1.0000
     1.0000   1.0000   1.0000   1.0000   1.0000   1.0000   1.0000   1.0000
     1.0000   1.0000   1.0000   1.0000   1.0000   1.0000   1.0000   1.0000
     1.0000   1.0000   1.0000   1.0000   1.0000   1.0000   1.0000   1.0000
     1.0000   1.0000   1.0000   1.0000   1.0000   1.0000   1.0000   1.0000
     1.0000   1.0000   1.0000   1.0000   1.0000   1.0000

          k =-0.1667 0.2887 0.1032 (  4600 PWs)   bands (ev):

    -9.1425  -8.5817  -8.2753  -8.1717  -7.5781  -7.0692   2.7024   2.8635
     3.2209   3.4583   3.6022   3.7837   3.8272   3.8874   3.9341   4.0808
     4.2327   4.3459   4.4315   4.6343   4.8362   4.9908   5.1060   5.2377
     5.3703   5.4528   5.6761   5.6950   5.7677   6.0085   6.2360   6.3619
     6.4403   6.5538   6.6724   6.8530   6.9835   7.2460   7.6081   7.8961
     8.1106   8.1932   8.4097   8.6542   8.8278   9.1267   9.2431   9.3837
     9.4326   9.6118  10.0776  10.1972  10.7766  10.8098

     occupation numbers 
     1.0000   1.0000   1.0000   1.0000   1.0000   1.0000   1.0000   1.0000
     1.0000   1.0000   1.0000   1.0000   1.0000   1.0000   1.0000   1.0000
     1.0000   1.0000   1.0000   1.0000   1.0000   1.0000   1.0000   1.0000
     1.0000   1.0000   1.0000   1.0000   1.0000   1.0000   1.0000   1.0000
     1.0000   1.0000   1.0000   1.0000   1.0000   1.0000   1.0000   1.0000
     1.0000   1.0000   1.0000   1.0000   1.0000   1.0000   1.0000   1.0000
     1.0000   1.0000   1.0000   1.0000   1.0000   1.0000

          k = 0.3333 0.0000-0.1032 (  4600 PWs)   bands (ev):

    -9.1358  -8.5757  -8.2736  -8.1727  -7.5784  -7.0714   2.6803   2.8597
     3.2086   3.4651   3.6454   3.7766   3.8610   3.9033   3.9557   4.1722
     4.2607   4.3716   4.4677   4.6493   4.8328   4.9833   5.1635   5.2277
     5.4183   5.4380   5.6645   5.6938   5.8155   5.9680   6.2369   6.3259
     6.4140   6.5482   6.6744   6.8499   6.9488   7.2068   7.5210   7.8572
     8.0888   8.2009   8.3830   8.6420   8.7965   9.1274   9.2375   9.2643
     9.4297   9.5812  10.1285  10.1887  10.7197  10.7996

     occupation numbers 
     1.0000   1.0000   1.0000   1.0000   1.0000   1.0000   1.0000   1.0000
     1.0000   1.0000   1.0000   1.0000   1.0000   1.0000   1.0000   1.0000
     1.0000   1.0000   1.0000   1.0000   1.0000   1.0000   1.0000   1.0000
     1.0000   1.0000   1.0000   1.0000   1.0000   1.0000   1.0000   1.0000
     1.0000   1.0000   1.0000   1.0000   1.0000   1.0000   1.0000   1.0000
     1.0000   1.0000   1.0000   1.0000   1.0000   1.0000   1.0000   1.0000
     1.0000   1.0000   1.0000   1.0000   1.0000   1.0000

          k =-0.1667 0.4811 0.0000 (  4586 PWs)   bands (ev):

    -8.8060  -8.2781  -8.0192  -7.9245  -7.3059  -6.8847   2.7163   2.9507
     3.2587   3.4213   3.5528   3.8442   3.9452   3.9968   4.0988   4.2100
     4.3838   4.5099   4.5807   4.7115   4.9675   5.1036   5.2671   5.4391
     5.4887   5.5940   5.6572   5.8684   5.9572   6.1137   6.1993   6.3760
     6.4862   6.6132   6.6187   6.7272   6.8458   7.0339   7.1724   7.2114
     7.2790   7.6492   7.7053   7.9136   8.1204   8.2190   8.6078   8.7749
     8.8890   9.2536   9.3140   9.8165  10.0452  10.2847

     occupation numbers 
     1.0000   1.0000   1.0000   1.0000   1.0000   1.0000   1.0000   1.0000
     1.0000   1.0000   1.0000   1.0000   1.0000   1.0000   1.0000   1.0000
     1.0000   1.0000   1.0000   1.0000   1.0000   1.0000   1.0000   1.0000
     1.0000   1.0000   1.0000   1.0000   1.0000   1.0000   1.0000   1.0000
     1.0000   1.0000   1.0000   1.0000   1.0000   1.0000   1.0000   1.0000
     1.0000   1.0000   1.0000   1.0000   1.0000   1.0000   1.0000   1.0000
     1.0000   1.0000   1.0000   1.0000   1.0000   1.0000

          k =-0.3333 0.3849 0.0000 (  4586 PWs)   bands (ev):

    -8.7928  -8.2784  -8.0212  -7.9254  -7.3036  -6.8869   2.6806   2.9419
     3.2874   3.4767   3.6436   3.8430   3.9447   4.0018   4.0773   4.2177
     4.3991   4.5321   4.6481   4.7512   4.9617   5.1128   5.2657   5.3998
     5.4798   5.6034   5.6584   5.8497   5.9621   6.1121   6.1865   6.3662
     6.4892   6.5961   6.6162   6.7284   6.8442   7.0141   7.1412   7.2032
     7.2574   7.6328   7.7039   7.8773   8.1042   8.2170   8.5734   8.7608
     8.8318   9.2397   9.3033   9.8275  10.0074  10.2724

     occupation numbers 
     1.0000   1.0000   1.0000   1.0000   1.0000   1.0000   1.0000   1.0000
     1.0000   1.0000   1.0000   1.0000   1.0000   1.0000   1.0000   1.0000
     1.0000   1.0000   1.0000   1.0000   1.0000   1.0000   1.0000   1.0000
     1.0000   1.0000   1.0000   1.0000   1.0000   1.0000   1.0000   1.0000
     1.0000   1.0000   1.0000   1.0000   1.0000   1.0000   1.0000   1.0000
     1.0000   1.0000   1.0000   1.0000   1.0000   1.0000   1.0000   1.0000
     1.0000   1.0000   1.0000   1.0000   1.0000   1.0000

          k = 0.5000 0.0962 0.0000 (  4586 PWs)   bands (ev):

    -8.7939  -8.2684  -8.0168  -7.9264  -7.3070  -6.8891   2.6907   2.9424
     3.2670   3.4154   3.6382   3.8767   3.9302   4.0120   4.1936   4.2739
     4.4704   4.5311   4.6104   4.7914   4.9549   5.1678   5.3050   5.4098
     5.5623   5.5972   5.6946   5.8508   5.9311   6.0313   6.1876   6.3720
     6.4614   6.5740   6.6347   6.7145   6.8292   7.0123   7.1174   7.1496
     7.2344   7.5374   7.6618   7.8580   8.1153   8.1414   8.6222   8.7331
     8.8363   9.1927   9.3148   9.7954  10.0214  10.2289

     occupation numbers 
     1.0000   1.0000   1.0000   1.0000   1.0000   1.0000   1.0000   1.0000
     1.0000   1.0000   1.0000   1.0000   1.0000   1.0000   1.0000   1.0000
     1.0000   1.0000   1.0000   1.0000   1.0000   1.0000   1.0000   1.0000
     1.0000   1.0000   1.0000   1.0000   1.0000   1.0000   1.0000   1.0000
     1.0000   1.0000   1.0000   1.0000   1.0000   1.0000   1.0000   1.0000
     1.0000   1.0000   1.0000   1.0000   1.0000   1.0000   1.0000   1.0000
     1.0000   1.0000   1.0000   1.0000   1.0000   1.0000

          k =-0.3333-0.3849 0.0000 (  4586 PWs)   bands (ev):

    -8.8002  -8.2682  -8.0159  -7.9260  -7.3080  -6.8881   2.6942   2.9509
     3.2824   3.4271   3.5905   3.8515   3.9114   3.9739   4.1525   4.2357
     4.4617   4.5467   4.6232   4.7848   4.9418   5.1763   5.2916   5.3850
     5.5438   5.6583   5.7046   5.8609   5.9621   6.0167   6.1828   6.3540
     6.4787   6.6052   6.6340   6.7292   6.8273   7.0250   7.1362   7.1790
     7.2695   7.5655   7.6984   7.8407   8.1052   8.1627   8.6279   8.7557
     8.8276   9.1840   9.2997   9.8110   9.9983  10.2352

     occupation numbers 
     1.0000   1.0000   1.0000   1.0000   1.0000   1.0000   1.0000   1.0000
     1.0000   1.0000   1.0000   1.0000   1.0000   1.0000   1.0000   1.0000
     1.0000   1.0000   1.0000   1.0000   1.0000   1.0000   1.0000   1.0000
     1.0000   1.0000   1.0000   1.0000   1.0000   1.0000   1.0000   1.0000
     1.0000   1.0000   1.0000   1.0000   1.0000   1.0000   1.0000   1.0000
     1.0000   1.0000   1.0000   1.0000   1.0000   1.0000   1.0000   1.0000
     1.0000   1.0000   1.0000   1.0000   1.0000   1.0000

          k = 0.5000-0.0962 0.0000 (  4586 PWs)   bands (ev):

    -8.7889  -8.2754  -8.0204  -7.9260  -7.3039  -6.8883   2.6797   2.9373
     3.2908   3.4456   3.6590   3.8331   3.9532   4.0340   4.1363   4.2651
     4.4483   4.5351   4.6452   4.7809   4.9698   5.0999   5.2949   5.4091
     5.5211   5.5687   5.6762   5.8401   5.9522   6.0704   6.1939   6.3586
     6.4614   6.5692   6.6283   6.7162   6.8562   7.0172   7.1111   7.1670
     7.2311   7.5669   7.6429   7.8700   8.1359   8.1819   8.5395   8.7291
     8.8610   9.2075   9.3408   9.8530  10.0023  10.2649

     occupation numbers 
     1.0000   1.0000   1.0000   1.0000   1.0000   1.0000   1.0000   1.0000
     1.0000   1.0000   1.0000   1.0000   1.0000   1.0000   1.0000   1.0000
     1.0000   1.0000   1.0000   1.0000   1.0000   1.0000   1.0000   1.0000
     1.0000   1.0000   1.0000   1.0000   1.0000   1.0000   1.0000   1.0000
     1.0000   1.0000   1.0000   1.0000   1.0000   1.0000   1.0000   1.0000
     1.0000   1.0000   1.0000   1.0000   1.0000   1.0000   1.0000   1.0000
     1.0000   1.0000   1.0000   1.0000   1.0000   1.0000

          k =-0.1667-0.4811 0.0344 (  4582 PWs)   bands (ev):

    -8.8084  -8.2749  -8.0175  -7.9248  -7.3072  -6.8851   2.7190   2.9517
     3.2838   3.4017   3.5295   3.8311   3.9075   3.9999   4.0940   4.2103
     4.4323   4.5369   4.5982   4.7244   4.9675   5.0899   5.2752   5.4342
     5.5146   5.6164   5.6799   5.8718   5.9944   6.0513   6.2133   6.3162
     6.5057   6.5826   6.6346   6.7603   6.8689   7.0361   7.1572   7.2035
     7.2900   7.6051   7.6770   7.9034   8.0945   8.2527   8.5377   8.8095
     8.8786   9.1884   9.4074   9.8153  10.0387  10.2752

     occupation numbers 
     1.0000   1.0000   1.0000   1.0000   1.0000   1.0000   1.0000   1.0000
     1.0000   1.0000   1.0000   1.0000   1.0000   1.0000   1.0000   1.0000
     1.0000   1.0000   1.0000   1.0000   1.0000   1.0000   1.0000   1.0000
     1.0000   1.0000   1.0000   1.0000   1.0000   1.0000   1.0000   1.0000
     1.0000   1.0000   1.0000   1.0000   1.0000   1.0000   1.0000   1.0000
     1.0000   1.0000   1.0000   1.0000   1.0000   1.0000   1.0000   1.0000
     1.0000   1.0000   1.0000   1.0000   1.0000   1.0000

          k =-0.1667 0.4811-0.0344 (  4582 PWs)   bands (ev):

    -8.8060  -8.2781  -8.0192  -7.9246  -7.3059  -6.8847   2.7157   2.9496
     3.2593   3.4197   3.5623   3.8502   3.9230   4.0075   4.1091   4.2013
     4.3798   4.5079   4.5741   4.7182   4.9711   5.0977   5.2694   5.4305
     5.4861   5.6109   5.6541   5.8660   5.9700   6.1120   6.2021   6.3428
     6.5112   6.5828   6.6328   6.7513   6.8588   7.0220   7.1679   7.2308
     7.2767   7.6065   7.7063   7.9112   8.0981   8.2814   8.5721   8.7775
     8.8805   9.2534   9.3584   9.7990  10.0424  10.2823

     occupation numbers 
     1.0000   1.0000   1.0000   1.0000   1.0000   1.0000   1.0000   1.0000
     1.0000   1.0000   1.0000   1.0000   1.0000   1.0000   1.0000   1.0000
     1.0000   1.0000   1.0000   1.0000   1.0000   1.0000   1.0000   1.0000
     1.0000   1.0000   1.0000   1.0000   1.0000   1.0000   1.0000   1.0000
     1.0000   1.0000   1.0000   1.0000   1.0000   1.0000   1.0000   1.0000
     1.0000   1.0000   1.0000   1.0000   1.0000   1.0000   1.0000   1.0000
     1.0000   1.0000   1.0000   1.0000   1.0000   1.0000

          k = 0.1667-0.4811-0.0344 (  4582 PWs)   bands (ev):

    -8.8060  -8.2781  -8.0191  -7.9246  -7.3059  -6.8847   2.7161   2.9479
     3.2639   3.4165   3.5603   3.8455   3.9554   3.9912   4.0841   4.2139
     4.3907   4.4935   4.5818   4.7169   4.9634   5.1055   5.2741   5.4291
     5.5056   5.5707   5.6701   5.8715   5.9442   6.1272   6.2043   6.4008
     6.4640   6.5857   6.6292   6.7329   6.8558   7.0358   7.1706   7.2073
     7.2772   7.6617   7.7198   7.8548   8.1622   8.2303   8.5203   8.7978
     8.9305   9.2514   9.3328   9.8059  10.0396  10.2837

     occupation numbers 
     1.0000   1.0000   1.0000   1.0000   1.0000   1.0000   1.0000   1.0000
     1.0000   1.0000   1.0000   1.0000   1.0000   1.0000   1.0000   1.0000
     1.0000   1.0000   1.0000   1.0000   1.0000   1.0000   1.0000   1.0000
     1.0000   1.0000   1.0000   1.0000   1.0000   1.0000   1.0000   1.0000
     1.0000   1.0000   1.0000   1.0000   1.0000   1.0000   1.0000   1.0000
     1.0000   1.0000   1.0000   1.0000   1.0000   1.0000   1.0000   1.0000
     1.0000   1.0000   1.0000   1.0000   1.0000   1.0000

          k =-0.3333 0.3849 0.0344 (  4582 PWs)   bands (ev):

    -8.7928  -8.2784  -8.0211  -7.9254  -7.3036  -6.8869   2.6802   2.9404
     3.2867   3.4828   3.6457   3.8534   3.9242   4.0093   4.0794   4.2203
     4.3858   4.5349   4.6384   4.7609   4.9640   5.1068   5.2692   5.3897
     5.4858   5.5975   5.6724   5.8480   5.9660   6.1213   6.1892   6.3312
     6.5125   6.5720   6.6277   6.7462   6.8594   7.0002   7.1524   7.2093
     7.2546   7.5937   7.6969   7.8909   8.0790   8.2659   8.5434   8.7374
     8.8564   9.2265   9.3504   9.8120  10.0046  10.2701

     occupation numbers 
     1.0000   1.0000   1.0000   1.0000   1.0000   1.0000   1.0000   1.0000
     1.0000   1.0000   1.0000   1.0000   1.0000   1.0000   1.0000   1.0000
     1.0000   1.0000   1.0000   1.0000   1.0000   1.0000   1.0000   1.0000
     1.0000   1.0000   1.0000   1.0000   1.0000   1.0000   1.0000   1.0000
     1.0000   1.0000   1.0000   1.0000   1.0000   1.0000   1.0000   1.0000
     1.0000   1.0000   1.0000   1.0000   1.0000   1.0000   1.0000   1.0000
     1.0000   1.0000   1.0000   1.0000   1.0000   1.0000

          k = 0.5000 0.0962 0.0344 (  4582 PWs)   bands (ev):

    -8.7939  -8.2684  -8.0168  -7.9265  -7.3070  -6.8891   2.6902   2.9402
     3.2697   3.4172   3.6398   3.8855   3.9177   4.0198   4.1945   4.2679
     4.4618   4.5377   4.6198   4.7692   4.9629   5.1631   5.3034   5.4048
     5.5657   5.5933   5.7059   5.8479   5.9483   6.0395   6.1932   6.3255
     6.4877   6.5601   6.6254   6.7433   6.8466   7.0055   7.1073   7.1668
     7.2243   7.5238   7.6466   7.8666   8.0808   8.1951   8.5478   8.7590
     8.8558   9.1947   9.3504   9.7787  10.0161  10.2276

     occupation numbers 
     1.0000   1.0000   1.0000   1.0000   1.0000   1.0000   1.0000   1.0000
     1.0000   1.0000   1.0000   1.0000   1.0000   1.0000   1.0000   1.0000
     1.0000   1.0000   1.0000   1.0000   1.0000   1.0000   1.0000   1.0000
     1.0000   1.0000   1.0000   1.0000   1.0000   1.0000   1.0000   1.0000
     1.0000   1.0000   1.0000   1.0000   1.0000   1.0000   1.0000   1.0000
     1.0000   1.0000   1.0000   1.0000   1.0000   1.0000   1.0000   1.0000
     1.0000   1.0000   1.0000   1.0000   1.0000   1.0000

          k =-0.5000-0.0962 0.0344 (  4582 PWs)   bands (ev):

    -8.7939  -8.2684  -8.0168  -7.9264  -7.3070  -6.8891   2.6904   2.9409
     3.2667   3.4133   3.6549   3.8688   3.9371   4.0101   4.1763   4.2834
     4.4730   4.5285   4.5890   4.8135   4.9474   5.1692   5.3087   5.4119
     5.5517   5.5951   5.7083   5.8565   5.9094   6.0417   6.1931   6.3828
     6.4578   6.5616   6.6317   6.7195   6.8357   7.0085   7.1165   7.1494
     7.2450   7.5443   7.6721   7.7989   8.0807   8.2342   8.5569   8.7322
     8.8655   9.1976   9.3279   9.7931  10.0174  10.2261

     occupation numbers 
     1.0000   1.0000   1.0000   1.0000   1.0000   1.0000   1.0000   1.0000
     1.0000   1.0000   1.0000   1.0000   1.0000   1.0000   1.0000   1.0000
     1.0000   1.0000   1.0000   1.0000   1.0000   1.0000   1.0000   1.0000
     1.0000   1.0000   1.0000   1.0000   1.0000   1.0000   1.0000   1.0000
     1.0000   1.0000   1.0000   1.0000   1.0000   1.0000   1.0000   1.0000
     1.0000   1.0000   1.0000   1.0000   1.0000   1.0000   1.0000   1.0000
     1.0000   1.0000   1.0000   1.0000   1.0000   1.0000

          k = 0.3333-0.3849 0.0344 (  4582 PWs)   bands (ev):

    -8.7928  -8.2784  -8.0212  -7.9254  -7.3036  -6.8869   2.6804   2.9393
     3.2914   3.4740   3.6531   3.8387   3.9626   3.9969   4.0602   4.2170
     4.4131   4.5085   4.6450   4.7611   4.9568   5.1143   5.2704   5.3922
     5.4939   5.5931   5.6685   5.8528   5.9480   6.1235   6.1857   6.3980
     6.4605   6.5693   6.6288   6.7332   6.8536   7.0234   7.1366   7.1938
     7.2575   7.6430   7.7284   7.8135   8.1677   8.2104   8.4923   8.7524
     8.8831   9.2512   9.3183   9.8179  10.0010  10.2710

     occupation numbers 
     1.0000   1.0000   1.0000   1.0000   1.0000   1.0000   1.0000   1.0000
     1.0000   1.0000   1.0000   1.0000   1.0000   1.0000   1.0000   1.0000
     1.0000   1.0000   1.0000   1.0000   1.0000   1.0000   1.0000   1.0000
     1.0000   1.0000   1.0000   1.0000   1.0000   1.0000   1.0000   1.0000
     1.0000   1.0000   1.0000   1.0000   1.0000   1.0000   1.0000   1.0000
     1.0000   1.0000   1.0000   1.0000   1.0000   1.0000   1.0000   1.0000
     1.0000   1.0000   1.0000   1.0000   1.0000   1.0000

          k =-0.3333-0.3849-0.0344 (  4582 PWs)   bands (ev):

    -8.8002  -8.2683  -8.0159  -7.9261  -7.3080  -6.8881   2.6937   2.9489
     3.2838   3.4311   3.5917   3.8634   3.8904   3.9845   4.1607   4.2256
     4.4525   4.5527   4.6292   4.7685   4.9450   5.1740   5.2871   5.3830
     5.5543   5.6524   5.7145   5.8566   5.9703   6.0330   6.1826   6.3183
     6.5043   6.5762   6.6342   6.7560   6.8481   7.0154   7.1469   7.1806
     7.2481   7.5625   7.6885   7.8353   8.0759   8.2231   8.5454   8.7390
     8.9076   9.1633   9.3419   9.7947   9.9926  10.2337

     occupation numbers 
     1.0000   1.0000   1.0000   1.0000   1.0000   1.0000   1.0000   1.0000
     1.0000   1.0000   1.0000   1.0000   1.0000   1.0000   1.0000   1.0000
     1.0000   1.0000   1.0000   1.0000   1.0000   1.0000   1.0000   1.0000
     1.0000   1.0000   1.0000   1.0000   1.0000   1.0000   1.0000   1.0000
     1.0000   1.0000   1.0000   1.0000   1.0000   1.0000   1.0000   1.0000
     1.0000   1.0000   1.0000   1.0000   1.0000   1.0000   1.0000   1.0000
     1.0000   1.0000   1.0000   1.0000   1.0000   1.0000

          k = 0.5000-0.0962-0.0344 (  4582 PWs)   bands (ev):

    -8.7889  -8.2754  -8.0204  -7.9260  -7.3039  -6.8883   2.6792   2.9356
     3.2922   3.4472   3.6633   3.8451   3.9302   4.0436   4.1344   4.2742
     4.4301   4.5346   4.6503   4.7809   4.9669   5.0970   5.2888   5.4166
     5.5261   5.5819   5.6636   5.8351   5.9784   6.0699   6.1952   6.3106
     6.4870   6.5611   6.6238   6.7380   6.8640   7.0087   7.1109   7.1778
     7.2289   7.5442   7.6309   7.9104   8.0924   8.2155   8.5023   8.7897
     8.8118   9.1956   9.3848   9.8423   9.9983  10.2632

     occupation numbers 
     1.0000   1.0000   1.0000   1.0000   1.0000   1.0000   1.0000   1.0000
     1.0000   1.0000   1.0000   1.0000   1.0000   1.0000   1.0000   1.0000
     1.0000   1.0000   1.0000   1.0000   1.0000   1.0000   1.0000   1.0000
     1.0000   1.0000   1.0000   1.0000   1.0000   1.0000   1.0000   1.0000
     1.0000   1.0000   1.0000   1.0000   1.0000   1.0000   1.0000   1.0000
     1.0000   1.0000   1.0000   1.0000   1.0000   1.0000   1.0000   1.0000
     1.0000   1.0000   1.0000   1.0000   1.0000   1.0000

          k =-0.5000 0.0962-0.0344 (  4582 PWs)   bands (ev):

    -8.7889  -8.2754  -8.0204  -7.9260  -7.3039  -6.8883   2.6793   2.9349
     3.2948   3.4434   3.6666   3.8315   3.9653   4.0283   4.1219   4.2674
     4.4571   4.5233   4.6427   4.7816   4.9764   5.0955   5.3032   5.3940
     5.5112   5.5657   5.6969   5.8454   5.9377   6.0803   6.1991   6.3814
     6.4454   6.5545   6.6255   6.7262   6.8669   7.0176   7.1183   7.1613
     7.2315   7.5566   7.6827   7.7879   8.1175   8.2689   8.4726   8.7146
     8.9012   9.2354   9.3399   9.8422   9.9977  10.2627

     occupation numbers 
     1.0000   1.0000   1.0000   1.0000   1.0000   1.0000   1.0000   1.0000
     1.0000   1.0000   1.0000   1.0000   1.0000   1.0000   1.0000   1.0000
     1.0000   1.0000   1.0000   1.0000   1.0000   1.0000   1.0000   1.0000
     1.0000   1.0000   1.0000   1.0000   1.0000   1.0000   1.0000   1.0000
     1.0000   1.0000   1.0000   1.0000   1.0000   1.0000   1.0000   1.0000
     1.0000   1.0000   1.0000   1.0000   1.0000   1.0000   1.0000   1.0000
     1.0000   1.0000   1.0000   1.0000   1.0000   1.0000

          k = 0.3333 0.3849-0.0344 (  4582 PWs)   bands (ev):

    -8.8002  -8.2682  -8.0159  -7.9260  -7.3080  -6.8881   2.6939   2.9493
     3.2796   3.4298   3.6015   3.8423   3.9268   3.9727   4.1318   4.2433
     4.4630   4.5423   4.6059   4.8063   4.9320   5.1797   5.2954   5.3900
     5.5373   5.6532   5.7132   5.8692   5.9353   6.0291   6.1906   6.3733
     6.4617   6.5874   6.6405   6.7343   6.8344   7.0218   7.1375   7.1771
     7.2815   7.5630   7.6969   7.8039   8.0999   8.2248   8.5632   8.7415
     8.8592   9.2136   9.2959   9.8105   9.9933  10.2322

     occupation numbers 
     1.0000   1.0000   1.0000   1.0000   1.0000   1.0000   1.0000   1.0000
     1.0000   1.0000   1.0000   1.0000   1.0000   1.0000   1.0000   1.0000
     1.0000   1.0000   1.0000   1.0000   1.0000   1.0000   1.0000   1.0000
     1.0000   1.0000   1.0000   1.0000   1.0000   1.0000   1.0000   1.0000
     1.0000   1.0000   1.0000   1.0000   1.0000   1.0000   1.0000   1.0000
     1.0000   1.0000   1.0000   1.0000   1.0000   1.0000   1.0000   1.0000
     1.0000   1.0000   1.0000   1.0000   1.0000   1.0000

          k =-0.1667-0.4811 0.0688 (  4582 PWs)   bands (ev):

    -8.8084  -8.2749  -8.0174  -7.9249  -7.3072  -6.8851   2.7181   2.9480
     3.2889   3.3973   3.5436   3.8444   3.8869   4.0036   4.0921   4.2138
     4.4202   4.5240   4.6032   4.7297   4.9689   5.0844   5.2777   5.4302
     5.5071   5.6484   5.6614   5.8695   6.0071   6.0609   6.2203   6.2959
     6.5168   6.5536   6.6343   6.7921   6.8903   7.0193   7.1538   7.2341
     7.2680   7.5919   7.6564   7.9019   8.0627   8.3221   8.4962   8.7213
     8.9646   9.2095   9.4418   9.7901  10.0292  10.2709

     occupation numbers 
     1.0000   1.0000   1.0000   1.0000   1.0000   1.0000   1.0000   1.0000
     1.0000   1.0000   1.0000   1.0000   1.0000   1.0000   1.0000   1.0000
     1.0000   1.0000   1.0000   1.0000   1.0000   1.0000   1.0000   1.0000
     1.0000   1.0000   1.0000   1.0000   1.0000   1.0000   1.0000   1.0000
     1.0000   1.0000   1.0000   1.0000   1.0000   1.0000   1.0000   1.0000
     1.0000   1.0000   1.0000   1.0000   1.0000   1.0000   1.0000   1.0000
     1.0000   1.0000   1.0000   1.0000   1.0000   1.0000

          k =-0.1667 0.4811-0.0688 (  4582 PWs)   bands (ev):

    -8.8060  -8.2781  -8.0190  -7.9246  -7.3059  -6.8847   2.7148   2.9457
     3.2648   3.4142   3.5789   3.8621   3.9037   4.0143   4.1048   4.1962
     4.3825   4.4885   4.5721   4.7283   4.9704   5.0943   5.2786   5.4147
     5.4950   5.6014   5.6685   5.8654   5.9703   6.1259   6.2120   6.3255
     6.5285   6.5445   6.6329   6.7794   6.8862   7.0064   7.1609   7.2428
     7.2828   7.5683   7.6936   7.9245   8.0592   8.3601   8.5327   8.6867
     8.9504   9.2796   9.4013   9.7663  10.0338  10.2788

     occupation numbers 
     1.0000   1.0000   1.0000   1.0000   1.0000   1.0000   1.0000   1.0000
     1.0000   1.0000   1.0000   1.0000   1.0000   1.0000   1.0000   1.0000
     1.0000   1.0000   1.0000   1.0000   1.0000   1.0000   1.0000   1.0000
     1.0000   1.0000   1.0000   1.0000   1.0000   1.0000   1.0000   1.0000
     1.0000   1.0000   1.0000   1.0000   1.0000   1.0000   1.0000   1.0000
     1.0000   1.0000   1.0000   1.0000   1.0000   1.0000   1.0000   1.0000
     1.0000   1.0000   1.0000   1.0000   1.0000   1.0000

          k = 0.1667-0.4811-0.0688 (  4582 PWs)   bands (ev):

    -8.8060  -8.2781  -8.0190  -7.9246  -7.3059  -6.8847   2.7152   2.9441
     3.2694   3.4111   3.5764   3.8536   3.9350   4.0042   4.0779   4.2100
     4.3950   4.4744   4.5770   4.7279   4.9626   5.1020   5.2840   5.4129
     5.5159   5.5654   5.6788   5.8709   5.9457   6.1367   6.2147   6.3835
     6.4693   6.5597   6.6311   6.7631   6.8779   7.0219   7.1706   7.2081
     7.2858   7.6296   7.6975   7.8711   8.0957   8.3695   8.4420   8.7327
     8.9813   9.2856   9.3694   9.7754  10.0308  10.2802

     occupation numbers 
     1.0000   1.0000   1.0000   1.0000   1.0000   1.0000   1.0000   1.0000
     1.0000   1.0000   1.0000   1.0000   1.0000   1.0000   1.0000   1.0000
     1.0000   1.0000   1.0000   1.0000   1.0000   1.0000   1.0000   1.0000
     1.0000   1.0000   1.0000   1.0000   1.0000   1.0000   1.0000   1.0000
     1.0000   1.0000   1.0000   1.0000   1.0000   1.0000   1.0000   1.0000
     1.0000   1.0000   1.0000   1.0000   1.0000   1.0000   1.0000   1.0000
     1.0000   1.0000   1.0000   1.0000   1.0000   1.0000

          k =-0.3333 0.3849 0.0688 (  4582 PWs)   bands (ev):

    -8.7928  -8.2785  -8.0211  -7.9254  -7.3036  -6.8869   2.6794   2.9362
     3.2898   3.4863   3.6574   3.8624   3.9142   4.0165   4.0650   4.2208
     4.3842   4.5152   4.6317   4.7760   4.9615   5.1029   5.2777   5.3751
     5.5024   5.5851   5.6909   5.8481   5.9587   6.1412   6.1927   6.3166
     6.5166   6.5422   6.6309   6.7702   6.8867   6.9897   7.1557   7.2176
     7.2488   7.5657   7.6713   7.9224   8.0414   8.3264   8.5130   8.6471
     8.9163   9.2580   9.3912   9.7834   9.9952  10.2664

     occupation numbers 
     1.0000   1.0000   1.0000   1.0000   1.0000   1.0000   1.0000   1.0000
     1.0000   1.0000   1.0000   1.0000   1.0000   1.0000   1.0000   1.0000
     1.0000   1.0000   1.0000   1.0000   1.0000   1.0000   1.0000   1.0000
     1.0000   1.0000   1.0000   1.0000   1.0000   1.0000   1.0000   1.0000
     1.0000   1.0000   1.0000   1.0000   1.0000   1.0000   1.0000   1.0000
     1.0000   1.0000   1.0000   1.0000   1.0000   1.0000   1.0000   1.0000
     1.0000   1.0000   1.0000   1.0000   1.0000   1.0000

          k = 0.5000 0.0962 0.0688 (  4582 PWs)   bands (ev):

    -8.7939  -8.2684  -8.0167  -7.9265  -7.3070  -6.8891   2.6893   2.9366
     3.2720   3.4167   3.6584   3.8803   3.9189   4.0266   4.1741   4.2736
     4.4557   4.5423   4.6023   4.7736   4.9639   5.1602   5.3054   5.4023
     5.5589   5.5906   5.7240   5.8477   5.9467   6.0616   6.2109   6.2894
     6.5063   6.5282   6.6237   6.7713   6.8737   6.9889   7.1017   7.1698
     7.2379   7.5166   7.6113   7.8750   8.0180   8.2950   8.5070   8.6721
     8.9192   9.2198   9.3897   9.7566  10.0064  10.2234

     occupation numbers 
     1.0000   1.0000   1.0000   1.0000   1.0000   1.0000   1.0000   1.0000
     1.0000   1.0000   1.0000   1.0000   1.0000   1.0000   1.0000   1.0000
     1.0000   1.0000   1.0000   1.0000   1.0000   1.0000   1.0000   1.0000
     1.0000   1.0000   1.0000   1.0000   1.0000   1.0000   1.0000   1.0000
     1.0000   1.0000   1.0000   1.0000   1.0000   1.0000   1.0000   1.0000
     1.0000   1.0000   1.0000   1.0000   1.0000   1.0000   1.0000   1.0000
     1.0000   1.0000   1.0000   1.0000   1.0000   1.0000

          k =-0.5000-0.0962 0.0688 (  4582 PWs)   bands (ev):

    -8.7939  -8.2684  -8.0168  -7.9265  -7.3070  -6.8891   2.6894   2.9373
     3.2691   3.4131   3.6743   3.8647   3.9364   4.0166   4.1586   4.2868
     4.4651   4.5360   4.5740   4.8126   4.9504   5.1657   5.3108   5.4078
     5.5460   5.5933   5.7271   5.8580   5.9082   6.0577   6.2057   6.3452
     6.4792   6.5368   6.6269   6.7502   6.8591   6.9938   7.1082   7.1589
     7.2582   7.5383   7.6217   7.8213   8.0247   8.3463   8.4817   8.6716
     8.9159   9.2247   9.3632   9.7742  10.0075  10.2218

     occupation numbers 
     1.0000   1.0000   1.0000   1.0000   1.0000   1.0000   1.0000   1.0000
     1.0000   1.0000   1.0000   1.0000   1.0000   1.0000   1.0000   1.0000
     1.0000   1.0000   1.0000   1.0000   1.0000   1.0000   1.0000   1.0000
     1.0000   1.0000   1.0000   1.0000   1.0000   1.0000   1.0000   1.0000
     1.0000   1.0000   1.0000   1.0000   1.0000   1.0000   1.0000   1.0000
     1.0000   1.0000   1.0000   1.0000   1.0000   1.0000   1.0000   1.0000
     1.0000   1.0000   1.0000   1.0000   1.0000   1.0000

          k = 0.3333-0.3849 0.0688 (  4582 PWs)   bands (ev):

    -8.7928  -8.2785  -8.0211  -7.9254  -7.3036  -6.8869   2.6796   2.9352
     3.2943   3.4779   3.6645   3.8432   3.9583   4.0071   4.0411   4.2179
     4.4150   4.4874   4.6354   4.7775   4.9542   5.1100   5.2795   5.3763
     5.5131   5.5786   5.6879   5.8539   5.9403   6.1402   6.1875   6.3917
     6.4492   6.5515   6.6316   6.7574   6.8762   7.0164   7.1433   7.1886
     7.2599   7.6222   7.6822   7.8511   8.1012   8.3480   8.4061   8.6931
     8.9265   9.2859   9.3571   9.7905   9.9915  10.2673

     occupation numbers 
     1.0000   1.0000   1.0000   1.0000   1.0000   1.0000   1.0000   1.0000
     1.0000   1.0000   1.0000   1.0000   1.0000   1.0000   1.0000   1.0000
     1.0000   1.0000   1.0000   1.0000   1.0000   1.0000   1.0000   1.0000
     1.0000   1.0000   1.0000   1.0000   1.0000   1.0000   1.0000   1.0000
     1.0000   1.0000   1.0000   1.0000   1.0000   1.0000   1.0000   1.0000
     1.0000   1.0000   1.0000   1.0000   1.0000   1.0000   1.0000   1.0000
     1.0000   1.0000   1.0000   1.0000   1.0000   1.0000

          k =-0.3333-0.3849-0.0688 (  4582 PWs)   bands (ev):

    -8.8002  -8.2683  -8.0158  -7.9261  -7.3080  -6.8881   2.6928   2.9453
     3.2823   3.4377   3.6042   3.8579   3.8923   3.9961   4.1427   4.2270
     4.4448   4.5535   4.6153   4.7758   4.9398   5.1754   5.2867   5.3852
     5.5585   5.6442   5.7283   5.8570   5.9591   6.0604   6.1916   6.2985
     6.5180   6.5375   6.6344   6.7852   6.8782   6.9986   7.1471   7.1981
     7.2328   7.5602   7.6423   7.8544   8.0322   8.3245   8.4870   8.6533
     8.9713   9.1951   9.3722   9.7755   9.9815  10.2292

     occupation numbers 
     1.0000   1.0000   1.0000   1.0000   1.0000   1.0000   1.0000   1.0000
     1.0000   1.0000   1.0000   1.0000   1.0000   1.0000   1.0000   1.0000
     1.0000   1.0000   1.0000   1.0000   1.0000   1.0000   1.0000   1.0000
     1.0000   1.0000   1.0000   1.0000   1.0000   1.0000   1.0000   1.0000
     1.0000   1.0000   1.0000   1.0000   1.0000   1.0000   1.0000   1.0000
     1.0000   1.0000   1.0000   1.0000   1.0000   1.0000   1.0000   1.0000
     1.0000   1.0000   1.0000   1.0000   1.0000   1.0000

          k = 0.5000-0.0962-0.0688 (  4582 PWs)   bands (ev):

    -8.7889  -8.2754  -8.0203  -7.9260  -7.3039  -6.8883   2.6784   2.9316
     3.2972   3.4468   3.6752   3.8621   3.9104   4.0505   4.1181   4.2851
     4.4189   4.5228   4.6536   4.7817   4.9697   5.0903   5.2896   5.4130
     5.5202   5.5828   5.6783   5.8337   5.9888   6.0863   6.2057   6.2759
     6.4996   6.5385   6.6203   6.7666   6.8835   6.9978   7.1141   7.1968
     7.2194   7.5218   7.6150   7.9232   8.0347   8.2787   8.4843   8.6928
     8.8858   9.2191   9.4263   9.8176   9.9898  10.2594

     occupation numbers 
     1.0000   1.0000   1.0000   1.0000   1.0000   1.0000   1.0000   1.0000
     1.0000   1.0000   1.0000   1.0000   1.0000   1.0000   1.0000   1.0000
     1.0000   1.0000   1.0000   1.0000   1.0000   1.0000   1.0000   1.0000
     1.0000   1.0000   1.0000   1.0000   1.0000   1.0000   1.0000   1.0000
     1.0000   1.0000   1.0000   1.0000   1.0000   1.0000   1.0000   1.0000
     1.0000   1.0000   1.0000   1.0000   1.0000   1.0000   1.0000   1.0000
     1.0000   1.0000   1.0000   1.0000   1.0000   1.0000

          k =-0.5000 0.0962-0.0688 (  4582 PWs)   bands (ev):

    -8.7889  -8.2754  -8.0203  -7.9260  -7.3039  -6.8883   2.6785   2.9309
     3.2999   3.4431   3.6783   3.8408   3.9523   4.0367   4.1053   4.2766
     4.4478   4.5115   4.6457   4.7826   4.9798   5.0883   5.3026   5.3912
     5.5087   5.5696   5.7052   5.8429   5.9505   6.0908   6.2068   6.3457
     6.4591   6.5384   6.6239   6.7540   6.8850   7.0081   7.1266   7.1620
     7.2372   7.5315   7.6494   7.8154   8.0643   8.3584   8.4279   8.6646
     8.9230   9.2637   9.3802   9.8186   9.9891  10.2589

     occupation numbers 
     1.0000   1.0000   1.0000   1.0000   1.0000   1.0000   1.0000   1.0000
     1.0000   1.0000   1.0000   1.0000   1.0000   1.0000   1.0000   1.0000
     1.0000   1.0000   1.0000   1.0000   1.0000   1.0000   1.0000   1.0000
     1.0000   1.0000   1.0000   1.0000   1.0000   1.0000   1.0000   1.0000
     1.0000   1.0000   1.0000   1.0000   1.0000   1.0000   1.0000   1.0000
     1.0000   1.0000   1.0000   1.0000   1.0000   1.0000   1.0000   1.0000
     1.0000   1.0000   1.0000   1.0000   1.0000   1.0000

          k = 0.3333 0.3849-0.0688 (  4582 PWs)   bands (ev):

    -8.8002  -8.2683  -8.0158  -7.9261  -7.3080  -6.8881   2.6930   2.9457
     3.2785   3.4360   3.6144   3.8391   3.9241   3.9877   4.1142   4.2429
     4.4538   4.5447   4.5949   4.8103   4.9273   5.1803   5.2947   5.3911
     5.5433   5.6451   5.7278   5.8719   5.9259   6.0482   6.1996   6.3525
     6.4694   6.5568   6.6405   6.7655   6.8606   7.0062   7.1448   7.1794
     7.2803   7.5580   7.6369   7.8463   8.0346   8.3599   8.4702   8.6542
     8.9416   9.2367   9.3280   9.7940   9.9820  10.2276

     occupation numbers 
     1.0000   1.0000   1.0000   1.0000   1.0000   1.0000   1.0000   1.0000
     1.0000   1.0000   1.0000   1.0000   1.0000   1.0000   1.0000   1.0000
     1.0000   1.0000   1.0000   1.0000   1.0000   1.0000   1.0000   1.0000
     1.0000   1.0000   1.0000   1.0000   1.0000   1.0000   1.0000   1.0000
     1.0000   1.0000   1.0000   1.0000   1.0000   1.0000   1.0000   1.0000
     1.0000   1.0000   1.0000   1.0000   1.0000   1.0000   1.0000   1.0000
     1.0000   1.0000   1.0000   1.0000   1.0000   1.0000

          k =-0.1667 0.4811 0.1032 (  4586 PWs)   bands (ev):

    -8.8060  -8.2782  -8.0190  -7.9247  -7.3059  -6.8847   2.7146   2.9430
     3.2698   3.4103   3.5857   3.8646   3.9074   4.0143   4.0882   4.2011
     4.3907   4.4719   4.5733   4.7328   4.9661   5.0966   5.2863   5.4063
     5.5076   5.5820   5.6786   5.8672   5.9592   6.1366   6.2197   6.3429
     6.4993   6.5460   6.6311   6.7860   6.8960   7.0037   7.1638   7.2222
     7.2986   7.5705   7.6867   7.9386   8.0289   8.3917   8.5220   8.6341
     8.9898   9.3084   9.3992   9.7529  10.0279  10.2777

     occupation numbers 
     1.0000   1.0000   1.0000   1.0000   1.0000   1.0000   1.0000   1.0000
     1.0000   1.0000   1.0000   1.0000   1.0000   1.0000   1.0000   1.0000
     1.0000   1.0000   1.0000   1.0000   1.0000   1.0000   1.0000   1.0000
     1.0000   1.0000   1.0000   1.0000   1.0000   1.0000   1.0000   1.0000
     1.0000   1.0000   1.0000   1.0000   1.0000   1.0000   1.0000   1.0000
     1.0000   1.0000   1.0000   1.0000   1.0000   1.0000   1.0000   1.0000
     1.0000   1.0000   1.0000   1.0000   1.0000   1.0000

          k =-0.3333 0.3849-0.1032 (  4586 PWs)   bands (ev):

    -8.7928  -8.2785  -8.0211  -7.9254  -7.3036  -6.8869   2.6791   2.9337
     3.2934   3.4840   3.6667   3.8551   3.9319   4.0207   4.0421   4.2191
     4.3983   4.4929   4.6308   4.7833   4.9566   5.1046   5.2835   5.3686
     5.5166   5.5751   5.6975   5.8507   5.9473   6.1482   6.1918   6.3434
     6.4795   6.5454   6.6307   6.7763   6.8942   6.9969   7.1511   7.2008
     7.2600   7.5743   7.6590   7.9356   8.0211   8.3570   8.4898   8.6070
     8.9376   9.2994   9.3884   9.7711   9.9885  10.2650

     occupation numbers 
     1.0000   1.0000   1.0000   1.0000   1.0000   1.0000   1.0000   1.0000
     1.0000   1.0000   1.0000   1.0000   1.0000   1.0000   1.0000   1.0000
     1.0000   1.0000   1.0000   1.0000   1.0000   1.0000   1.0000   1.0000
     1.0000   1.0000   1.0000   1.0000   1.0000   1.0000   1.0000   1.0000
     1.0000   1.0000   1.0000   1.0000   1.0000   1.0000   1.0000   1.0000
     1.0000   1.0000   1.0000   1.0000   1.0000   1.0000   1.0000   1.0000
     1.0000   1.0000   1.0000   1.0000   1.0000   1.0000

          k = 0.5000 0.0962-0.1032 (  4586 PWs)   bands (ev):

    -8.7939  -8.2685  -8.0167  -7.9265  -7.3070  -6.8891   2.6889   2.9352
     3.2716   3.4148   3.6762   3.8680   3.9300   4.0254   4.1556   4.2824
     4.4569   4.5432   4.5783   4.7943   4.9586   5.1614   5.3091   5.4033
     5.5497   5.5919   5.7324   5.8513   5.9295   6.0685   6.2179   6.2999
     6.4972   6.5210   6.6257   6.7751   6.8806   6.9796   7.1050   7.1602
     7.2639   7.5193   7.5891   7.8884   7.9710   8.3539   8.5426   8.5773
     8.9382   9.2423   9.3914   9.7544  10.0019  10.2205

     occupation numbers 
     1.0000   1.0000   1.0000   1.0000   1.0000   1.0000   1.0000   1.0000
     1.0000   1.0000   1.0000   1.0000   1.0000   1.0000   1.0000   1.0000
     1.0000   1.0000   1.0000   1.0000   1.0000   1.0000   1.0000   1.0000
     1.0000   1.0000   1.0000   1.0000   1.0000   1.0000   1.0000   1.0000
     1.0000   1.0000   1.0000   1.0000   1.0000   1.0000   1.0000   1.0000
     1.0000   1.0000   1.0000   1.0000   1.0000   1.0000   1.0000   1.0000
     1.0000   1.0000   1.0000   1.0000   1.0000   1.0000

          k =-0.3333-0.3849 0.1032 (  4586 PWs)   bands (ev):

    -8.8002  -8.2683  -8.0158  -7.9261  -7.3080  -6.8881   2.6924   2.9437
     3.2798   3.4399   3.6158   3.8442   3.9099   4.0001   4.1170   4.2359
     4.4450   4.5496   4.5991   4.7955   4.9320   5.1783   5.2905   5.3885
     5.5538   5.6412   5.7338   5.8630   5.9415   6.0636   6.2009   6.3155
     6.4913   6.5393   6.6372   6.7905   6.8843   6.9917   7.1464   7.1890
     7.2611   7.5548   7.6091   7.9004   7.9794   8.3877   8.5229   8.5471
     8.9792   9.2388   9.3615   9.7754   9.9760  10.2260

     occupation numbers 
     1.0000   1.0000   1.0000   1.0000   1.0000   1.0000   1.0000   1.0000
     1.0000   1.0000   1.0000   1.0000   1.0000   1.0000   1.0000   1.0000
     1.0000   1.0000   1.0000   1.0000   1.0000   1.0000   1.0000   1.0000
     1.0000   1.0000   1.0000   1.0000   1.0000   1.0000   1.0000   1.0000
     1.0000   1.0000   1.0000   1.0000   1.0000   1.0000   1.0000   1.0000
     1.0000   1.0000   1.0000   1.0000   1.0000   1.0000   1.0000   1.0000
     1.0000   1.0000   1.0000   1.0000   1.0000   1.0000

          k = 0.5000-0.0962 0.1032 (  4586 PWs)   bands (ev):

    -8.7889  -8.2754  -8.0203  -7.9261  -7.3039  -6.8883   2.6780   2.9294
     3.3010   3.4449   3.6825   3.8577   3.9228   4.0493   4.1027   4.2851
     4.4279   4.5118   4.6514   4.7826   4.9760   5.0860   5.2953   5.4024
     5.5123   5.5758   5.6976   5.8366   5.9753   6.0964   6.2123   6.2919
     6.4823   6.5323   6.6221   6.7740   6.8938   6.9965   7.1233   7.1776
     7.2369   7.5135   7.6109   7.9039   8.0078   8.3173   8.5304   8.5938
     8.9214   9.2567   9.4248   9.8044   9.9851  10.2572

     occupation numbers 
     1.0000   1.0000   1.0000   1.0000   1.0000   1.0000   1.0000   1.0000
     1.0000   1.0000   1.0000   1.0000   1.0000   1.0000   1.0000   1.0000
     1.0000   1.0000   1.0000   1.0000   1.0000   1.0000   1.0000   1.0000
     1.0000   1.0000   1.0000   1.0000   1.0000   1.0000   1.0000   1.0000
     1.0000   1.0000   1.0000   1.0000   1.0000   1.0000   1.0000   1.0000
     1.0000   1.0000   1.0000   1.0000   1.0000   1.0000   1.0000   1.0000
     1.0000   1.0000   1.0000   1.0000   1.0000   1.0000

          k =-0.3333-0.5774 0.0344 (  4590 PWs)   bands (ev):

    -8.6842  -8.1768  -7.9334  -7.8446  -7.2120  -6.8280   3.1038   3.1907
     3.2614   3.5742   3.7857   3.9072   3.9574   4.0384   4.1081   4.3947
     4.5215   4.5868   4.6460   4.8476   4.9857   5.2002   5.2281   5.3485
     5.4012   5.5175   5.7869   5.8169   5.8718   6.0899   6.2737   6.2955
     6.3195   6.4636   6.4988   6.6200   6.7781   6.9147   7.0166   7.0346
     7.2179   7.3014   7.4711   7.5922   7.7368   8.0618   8.2470   8.5132
     8.6077   8.9759   9.2010   9.4768   9.6451   9.7668

     occupation numbers 
     1.0000   1.0000   1.0000   1.0000   1.0000   1.0000   1.0000   1.0000
     1.0000   1.0000   1.0000   1.0000   1.0000   1.0000   1.0000   1.0000
     1.0000   1.0000   1.0000   1.0000   1.0000   1.0000   1.0000   1.0000
     1.0000   1.0000   1.0000   1.0000   1.0000   1.0000   1.0000   1.0000
     1.0000   1.0000   1.0000   1.0000   1.0000   1.0000   1.0000   1.0000
     1.0000   1.0000   1.0000   1.0000   1.0000   1.0000   1.0000   1.0000
     1.0000   1.0000   1.0000   1.0000   1.0000   1.0000

          k =-0.3333-0.5774 0.0688 (  4587 PWs)   bands (ev):

    -8.6842  -8.1768  -7.9334  -7.8446  -7.2120  -6.8280   3.1035   3.1867
     3.2573   3.5743   3.8013   3.9198   3.9813   4.0343   4.0919   4.3745
     4.5036   4.5751   4.6575   4.8502   4.9823   5.1963   5.2203   5.3543
     5.4181   5.5229   5.7880   5.8307   5.8755   6.0912   6.2496   6.2709
     6.3196   6.4770   6.5315   6.6319   6.7952   6.8945   6.9508   6.9943
     7.2417   7.3203   7.5702   7.6202   7.7249   7.9342   8.2622   8.5389
     8.6578   8.9380   9.1765   9.4683   9.6595   9.7818

     occupation numbers 
     1.0000   1.0000   1.0000   1.0000   1.0000   1.0000   1.0000   1.0000
     1.0000   1.0000   1.0000   1.0000   1.0000   1.0000   1.0000   1.0000
     1.0000   1.0000   1.0000   1.0000   1.0000   1.0000   1.0000   1.0000
     1.0000   1.0000   1.0000   1.0000   1.0000   1.0000   1.0000   1.0000
     1.0000   1.0000   1.0000   1.0000   1.0000   1.0000   1.0000   1.0000
     1.0000   1.0000   1.0000   1.0000   1.0000   1.0000   1.0000   1.0000
     1.0000   1.0000   1.0000   1.0000   1.0000   1.0000

     highest occupied level (ev):    11.5917

!    total energy              =   -1084.50126703 Ry
     estimated scf accuracy    <          3.9E-09 Ry

     The total energy is the sum of the following terms:
     one-electron contribution =    -375.76962439 Ry
     hartree contribution      =     324.74743868 Ry
     xc contribution           =    -330.41864248 Ry
     ewald contribution        =    -703.06043883 Ry

     convergence has been achieved in  32 iterations

     Forces acting on atoms (cartesian axes, Ry/au):

     atom    1 type  1   force =     0.01195682   -0.01388721   -0.05333758
     atom    2 type  1   force =     0.04526203    0.02004680   -0.06806159
     atom    3 type  2   force =     0.02201045   -0.03479576   -0.00553663
     atom    4 type  2   force =    -0.00875323    0.01414384    0.08415106
     atom    5 type  1   force =    -0.00760804   -0.01352744    0.05047196
     atom    6 type  1   force =    -0.02089212    0.03411802    0.01673370
     atom    7 type  2   force =    -0.02200347   -0.02743249   -0.01539621
     atom    8 type  2   force =     0.00673215    0.01347747   -0.02134302
     atom    9 type  1   force =     0.00477605    0.00279445   -0.12962692
     atom   10 type  1   force =     0.02014460    0.02614392   -0.06565455
     atom   11 type  2   force =    -0.04022627   -0.01478312    0.14017654
     atom   12 type  2   force =    -0.01139898   -0.00629849    0.06742325
     The non-local contrib.  to forces
     atom    1 type  1   force =     0.03042188   -0.03492454    0.00960308
     atom    2 type  1   force =     0.12053537    0.05038479   -0.03713313
     atom    3 type  2   force =    -0.01691311    0.03669213   -0.18538445
     atom    4 type  2   force =     0.02598769   -0.01574131    0.06381319
     atom    5 type  1   force =    -0.01785684   -0.05200960   -0.14968721
     atom    6 type  1   force =    -0.04477314    0.08554337   -0.14320967
     atom    7 type  2   force =     0.02232620    0.00492932    0.00015393
     atom    8 type  2   force =    -0.01254543    0.02424916   -0.19629473
     atom    9 type  1   force =     0.00696289    0.00161336   -0.12042126
     atom   10 type  1   force =     0.04558326    0.06986893   -0.07840289
     atom   11 type  2   force =     0.03572124   -0.00281512    0.04674136
     atom   12 type  2   force =     0.03877003    0.03055471   -0.01313005
     The ionic contribution  to forces
     atom    1 type  1   force =     0.24308027   -0.30840801   -3.30614943
     atom    2 type  1   force =     0.85587843    0.37803959    0.79330844
     atom    3 type  2   force =     0.33055525   -0.58329944   -0.77971479
     atom    4 type  2   force =    -0.17494629    0.25384320   -0.22078974
     atom    5 type  1   force =    -0.15995161   -0.41648631    2.97691379
     atom    6 type  1   force =    -0.35824720    0.69645944   -1.72076351
     atom    7 type  2   force =    -0.33885093   -0.27790157   -0.06727555
     atom    8 type  2   force =     0.13246512    0.07319370    1.32781897
     atom    9 type  1   force =    -0.05455350   -0.03708398   -1.25465079
     atom   10 type  1   force =     0.33036075    0.48917407   -0.78983704
     atom   11 type  2   force =    -0.56939238   -0.11347347    2.25913583
     atom   12 type  2   force =    -0.23639793   -0.15405721    0.78200381
     The local contribution  to forces
     atom    1 type  1   force =    -0.25848022    0.32589006    3.23710205
     atom    2 type  1   force =    -0.91937414   -0.40342707   -0.83441862
     atom    3 type  2   force =    -0.29166037    0.51194261    0.95778944
     atom    4 type  2   force =     0.14040028   -0.22401562    0.24215022
     atom    5 type  1   force =     0.16836104    0.45053223   -2.77901232
     atom    6 type  1   force =     0.37747581   -0.73924446    1.87478369
     atom    7 type  2   force =     0.29460382    0.24544502    0.05162556
     atom    8 type  2   force =    -0.11326301   -0.08365911   -1.15469974
     atom    9 type  1   force =     0.05321373    0.03864220    1.22416305
     atom   10 type  1   force =    -0.35111885   -0.52596744    0.79027926
     atom   11 type  2   force =     0.49354791    0.10140581   -2.16448743
     atom   12 type  2   force =     0.18653562    0.11746082   -0.70121462
     The core correction contribution to forces
     atom    1 type  1   force =    -0.00306513    0.00355332    0.00616234
     atom    2 type  1   force =    -0.01177247   -0.00494848    0.01029908
     atom    3 type  2   force =     0.00002845   -0.00013133    0.00171758
     atom    4 type  2   force =    -0.00019478    0.00005768   -0.00096757
     atom    5 type  1   force =     0.00183836    0.00443379    0.00215881
     atom    6 type  1   force =     0.00465114   -0.00863716    0.00580202
     atom    7 type  2   force =    -0.00008284    0.00009414    0.00008103
     atom    8 type  2   force =     0.00007586   -0.00030678    0.00178035
     atom    9 type  1   force =    -0.00084895   -0.00037788    0.02134884
     atom   10 type  1   force =    -0.00467856   -0.00692787    0.01227920
     atom   11 type  2   force =    -0.00010344    0.00009963   -0.00115013
     atom   12 type  2   force =    -0.00030617   -0.00025722   -0.00020341
     The Hubbard contrib.    to forces
     atom    1 type  1   force =     0.00000000    0.00000000    0.00000000
     atom    2 type  1   force =     0.00000000    0.00000000    0.00000000
     atom    3 type  2   force =     0.00000000    0.00000000    0.00000000
     atom    4 type  2   force =     0.00000000    0.00000000    0.00000000
     atom    5 type  1   force =     0.00000000    0.00000000    0.00000000
     atom    6 type  1   force =     0.00000000    0.00000000    0.00000000
     atom    7 type  2   force =     0.00000000    0.00000000    0.00000000
     atom    8 type  2   force =     0.00000000    0.00000000    0.00000000
     atom    9 type  1   force =     0.00000000    0.00000000    0.00000000
     atom   10 type  1   force =     0.00000000    0.00000000    0.00000000
     atom   11 type  2   force =     0.00000000    0.00000000    0.00000000
     atom   12 type  2   force =     0.00000000    0.00000000    0.00000000
     The SCF correction term to forces
     atom    1 type  1   force =    -0.00000013    0.00000176   -0.00005353
     atom    2 type  1   force =    -0.00000531   -0.00000223   -0.00011527
     atom    3 type  2   force =     0.00000008    0.00000007    0.00005767
     atom    4 type  2   force =    -0.00000029   -0.00000032   -0.00005295
     atom    5 type  1   force =     0.00000086    0.00000225    0.00010098
     atom    6 type  1   force =     0.00000111   -0.00000337    0.00012326
     atom    7 type  2   force =     0.00000012    0.00000040    0.00002091
     atom    8 type  2   force =    -0.00000055    0.00000030    0.00005422
     atom    9 type  1   force =     0.00000173    0.00000054   -0.00006466
     atom   10 type  1   force =    -0.00000216   -0.00000397    0.00002900
     atom   11 type  2   force =     0.00000025   -0.00000018   -0.00006099
     atom   12 type  2   force =    -0.00000070    0.00000021   -0.00003039

     Total force =     0.273144     Total SCF correction =     0.000247

     init_run     :      8.80s CPU      5.38s WALL (       1 calls)
     electrons    :    617.75s CPU    322.14s WALL (       1 calls)
     forces       :      2.79s CPU      1.48s WALL (       1 calls)

     Called by init_run:
     wfcinit      :      6.27s CPU      3.30s WALL (       1 calls)
     wfcinit:atom :      0.07s CPU      0.04s WALL (      14 calls)
     wfcinit:wfcr :      5.78s CPU      2.93s WALL (      14 calls)
     potinit      :      0.60s CPU      0.38s WALL (       1 calls)
     hinit0       :      1.75s CPU      1.57s WALL (       1 calls)

     Called by electrons:
     c_bands      :    535.46s CPU    281.36s WALL (      32 calls)
     sum_band     :     71.25s CPU     34.36s WALL (      32 calls)
     v_of_rho     :      6.65s CPU      3.89s WALL (      33 calls)
     v_h          :      0.36s CPU      0.25s WALL (      33 calls)
     v_xc         :      6.47s CPU      3.75s WALL (      34 calls)
     newd         :      2.90s CPU      1.51s WALL (      33 calls)
     mix_rho      :      1.01s CPU      0.67s WALL (      32 calls)

     Called by c_bands:
     init_us_2    :      4.56s CPU      2.23s WALL (     924 calls)
     init_us_2:cp :      4.55s CPU      2.22s WALL (     924 calls)
     cegterg      :    487.21s CPU    245.21s WALL (     448 calls)

     Called by sum_band:
     sum_band:wei :      0.02s CPU      0.01s WALL (      32 calls)
     sum_band:loo :     66.23s CPU     31.41s WALL (      32 calls)
     sum_band:buf :      0.72s CPU      0.39s WALL (     448 calls)
     sum_band:ini :      1.94s CPU      0.91s WALL (     448 calls)
     sum_band:cal :      9.26s CPU      4.64s WALL (     448 calls)
     sum_band:bec :      0.17s CPU      0.13s WALL (     448 calls)
     addusdens    :      3.31s CPU      1.63s WALL (      32 calls)
     addusd:skk   :      0.03s CPU      0.01s WALL (      64 calls)
     addusd:dgemm :      0.76s CPU      0.36s WALL (      64 calls)
     addusd:qvan2 :      2.04s CPU      0.96s WALL (      64 calls)

     Called by *egterg:
     cdiaghg      :     31.79s CPU     24.85s WALL (    2873 calls)
     cegterg:over :     34.28s CPU     18.07s WALL (    2425 calls)
     cegterg:upda :     17.83s CPU      8.04s WALL (    2425 calls)
     cegterg:last :     32.33s CPU     15.91s WALL (    1238 calls)
     h_psi        :    333.87s CPU    160.15s WALL (    2887 calls)
     s_psi        :     27.85s CPU     12.94s WALL (    2887 calls)
     g_psi        :      1.37s CPU      0.81s WALL (    2425 calls)

     Called by h_psi:
     h_psi:calbec :     35.72s CPU     17.64s WALL (    2887 calls)
     vloc_psi     :    270.81s CPU    128.43s WALL (    2887 calls)
     add_vuspsi   :     26.14s CPU     13.50s WALL (    2887 calls)

     General routines
     calbec       :     46.12s CPU     22.87s WALL (    3391 calls)
     fft          :      4.31s CPU      3.03s WALL (     438 calls)
     ffts         :      0.21s CPU      0.14s WALL (      65 calls)
     fftw         :    281.99s CPU    133.53s WALL (  172504 calls)
     interpolate  :      0.38s CPU      0.27s WALL (      33 calls)

     Parallel routines

     PWSCF        :  10m29.76s CPU   5m29.42s WALL


   This run was terminated on:  13:57:20  24Sep2025            

=------------------------------------------------------------------------------=
   JOB DONE.
=------------------------------------------------------------------------------=
