
     Program PWSCF v.7.2 starts on 23Sep2025 at 17:20:33 

     This program is part of the open-source Quantum ESPRESSO suite
     for quantum simulation of materials; please cite
         "P. Giannozzi et al., J. Phys.:Condens. Matter 21 395502 (2009);
         "P. Giannozzi et al., J. Phys.:Condens. Matter 29 465901 (2017);
         "P. Giannozzi et al., J. Chem. Phys. 152 154105 (2020);
          URL http://www.quantum-espresso.org", 
     in publications or presentations arising from this work. More details at
     http://www.quantum-espresso.org/quote

     Parallel version (MPI), running on    16 processors

     MPI processes distributed on     1 nodes
     112270 MiB available memory on the printing compute node when the environment starts

     Reading input from /home/jvc/QEspresso7.2/ZnO_database/scripts/random_1x1x2.in/ZnO-3.20-1.68-112-0.06-2.in
Warning: card &CELL ignored
Warning: card / ignored
Warning: card &FCP ignored
Warning: card / ignored
Warning: card &RISM ignored
Warning: card / ignored

     Current dimensions of program PWSCF are:
     Max number of different atomic species (ntypx) = 10
     Max number of k-points (npk) =  40000
     Max angular momentum in pseudopotentials (lmaxx) =  4
     file Zn.upf: wavefunction(s)  3D renormalized

     K-points division:     npool     =       4
     R & G space division:  proc/nbgrp/npool/nimage =       4
     Subspace diagonalization in iterative solution of the eigenvalue problem:
     a serial algorithm will be used


     Parallelization info
     --------------------
     sticks:   dense  smooth     PW     G-vecs:    dense   smooth      PW
     Min         253     127     37                21811     7723    1263
     Max         254     129     38                21818     7727    1274
     Sum        1015     511    151                87255    30901    5085

     Using Slab Decomposition



     bravais-lattice index     =            0
     lattice parameter (alat)  =       6.0553  a.u.
     unit-cell volume          =     645.6482 (a.u.)^3
     number of atoms/cell      =            8
     number of atomic types    =            2
     number of electrons       =        72.00
     number of Kohn-Sham states=           36
     kinetic-energy cutoff     =      50.0000  Ry
     charge density cutoff     =     400.0000  Ry
     scf convergence threshold =      1.0E-08
     mixing beta               =       0.3000
     number of iterations used =            8  plain     mixing
     Exchange-correlation= PBE
                           (   1   4   3   4   0   0   0)

     celldm(1)=   6.055277  celldm(2)=   0.000000  celldm(3)=   0.000000
     celldm(4)=   0.000000  celldm(5)=   0.000000  celldm(6)=   0.000000

     crystal axes: (cart. coord. in units of alat)
               a(1) = (   1.000000   0.000000   0.000000 )  
               a(2) = (  -0.500000   0.866025   0.000000 )  
               a(3) = (   0.000000   0.000000   3.357865 )  

     reciprocal axes: (cart. coord. in units 2 pi/alat)
               b(1) = (  1.000000  0.577350 -0.000000 )  
               b(2) = (  0.000000  1.154701  0.000000 )  
               b(3) = (  0.000000 -0.000000  0.297808 )  


     PseudoPot. # 1 for Zn read from file:
     /home/jvc/QEspresso7.2/ZnO_database/pseudos/Zn.upf
     MD5 check sum: 7f56cabf9682ed8c977c2f7d0c5985c5
     Pseudo is Ultrasoft + core correction, Zval = 12.0
     Generated using &quot;atomic&quot; code by A. Dal Corso  v.6.2.2
     Using radial grid of 1201 points,  6 beta functions with: 
                l(1) =   0
                l(2) =   0
                l(3) =   1
                l(4) =   1
                l(5) =   2
                l(6) =   2
     Q(r) pseudized with 0 coefficients 


     PseudoPot. # 2 for O  read from file:
     /home/jvc/QEspresso7.2/ZnO_database/pseudos/O.upf
     MD5 check sum: 91400c9766925bcf19f520983a725ff0
     Pseudo is Ultrasoft + core correction, Zval =  6.0
     Generated using &quot;atomic&quot; code by A. Dal Corso  v.6.3MaX
     Using radial grid of 1095 points,  4 beta functions with: 
                l(1) =   0
                l(2) =   0
                l(3) =   1
                l(4) =   1
     Q(r) pseudized with 0 coefficients 


     atomic species   valence    mass     pseudopotential
        Zn            12.00    65.38000     Zn( 1.00)
        O              6.00    15.99900     O ( 1.00)

     No symmetry found


                                    s                        frac. trans.

      isym =  1     identity                                     

 cryst.   s( 1) = (     1          0          0      )
                  (     0          1          0      )
                  (     0          0          1      )

 cart.    s( 1) = (  1.0000000  0.0000000  0.0000000 )
                  (  0.0000000  1.0000000  0.0000000 )
                  (  0.0000000  0.0000000  1.0000000 )


   Cartesian axes

     site n.     atom                  positions (alat units)
         1           Zn  tau(   1) = (   0.4641919   0.2977109   0.8283879  )
         2           Zn  tau(   2) = (   0.0054926   0.5702466  -0.0090589  )
         3           O   tau(   3) = (   0.5083160   0.3179104   1.4937600  )
         4           O   tau(   4) = (   0.0389201   0.5745711   0.6282949  )
         5           Zn  tau(   5) = (   0.5130089   0.2932800   2.5491053  )
         6           Zn  tau(   6) = (   0.0203892   0.5638754   1.6849206  )
         7           O   tau(   7) = (   0.4830838   0.2906278   3.1282628  )
         8           O   tau(   8) = (  -0.0055086   0.5533544   2.3455569  )

   Crystallographic axes

     site n.     atom                  positions (cryst. coord.)
         1           Zn  tau(   1) = (  0.6360754  0.3437670  0.2467007  )
         2           Zn  tau(   2) = (  0.3347246  0.6584640 -0.0026978  )
         3           O   tau(   3) = (  0.6918616  0.3670913  0.4448541  )
         4           O   tau(   4) = (  0.3706489  0.6634575  0.1871114  )
         5           Zn  tau(   5) = (  0.6823342  0.3386505  0.7591446  )
         6           Zn  tau(   6) = (  0.3459428  0.6511073  0.5017833  )
         7           O   tau(   7) = (  0.6508778  0.3355881  0.9316225  )
         8           O   tau(   8) = (  0.3139707  0.6389586  0.6985262  )

     number of k points=   112
                       cart. coord. in units 2pi/alat
        k(    1) = (   0.0000000   0.0000000   0.0000000), wk =   0.0092593
        k(    2) = (   0.0000000   0.0000000   0.0496347), wk =   0.0185185
        k(    3) = (   0.0000000   0.0000000   0.0992694), wk =   0.0185185
        k(    4) = (   0.0000000   0.0000000  -0.1489041), wk =   0.0092593
        k(    5) = (   0.0000000   0.1924501   0.0000000), wk =   0.0185185
        k(    6) = (   0.0000000   0.1924501   0.0496347), wk =   0.0185185
        k(    7) = (   0.0000000   0.1924501   0.0992694), wk =   0.0185185
        k(    8) = (   0.0000000   0.1924501  -0.1489041), wk =   0.0185185
        k(    9) = (   0.0000000   0.3849002   0.0000000), wk =   0.0185185
        k(   10) = (   0.0000000   0.3849002   0.0496347), wk =   0.0185185
        k(   11) = (   0.0000000   0.3849002   0.0992694), wk =   0.0185185
        k(   12) = (   0.0000000   0.3849002  -0.1489041), wk =   0.0185185
        k(   13) = (   0.0000000  -0.5773503   0.0000000), wk =   0.0092593
        k(   14) = (   0.0000000  -0.5773503   0.0496347), wk =   0.0185185
        k(   15) = (   0.0000000  -0.5773503   0.0992694), wk =   0.0185185
        k(   16) = (   0.0000000  -0.5773503  -0.1489041), wk =   0.0092593
        k(   17) = (   0.1666667   0.2886751   0.0000000), wk =   0.0185185
        k(   18) = (   0.1666667   0.2886751   0.0496347), wk =   0.0185185
        k(   19) = (   0.1666667   0.2886751   0.0992694), wk =   0.0185185
        k(   20) = (   0.1666667   0.2886751  -0.1489041), wk =   0.0185185
        k(   21) = (   0.1666667   0.4811252   0.0000000), wk =   0.0185185
        k(   22) = (   0.1666667   0.4811252   0.0496347), wk =   0.0185185
        k(   23) = (   0.1666667   0.4811252   0.0992694), wk =   0.0185185
        k(   24) = (   0.1666667   0.4811252  -0.1489041), wk =   0.0185185
        k(   25) = (   0.3333333   0.5773503   0.0000000), wk =   0.0185185
        k(   26) = (   0.3333333   0.5773503   0.0496347), wk =   0.0185185
        k(   27) = (   0.3333333   0.5773503   0.0992694), wk =   0.0185185
        k(   28) = (   0.3333333   0.5773503  -0.1489041), wk =   0.0185185
        k(   29) = (  -0.1666667   0.0962250   0.0000000), wk =   0.0185185
        k(   30) = (   0.1666667   0.0962250   0.0000000), wk =   0.0185185
        k(   31) = (   0.0000000  -0.1924501   0.0496347), wk =   0.0185185
        k(   32) = (  -0.1666667   0.0962250   0.0496347), wk =   0.0185185
        k(   33) = (   0.1666667   0.0962250   0.0496347), wk =   0.0185185
        k(   34) = (  -0.1666667  -0.0962250   0.0496347), wk =   0.0185185
        k(   35) = (   0.1666667  -0.0962250   0.0496347), wk =   0.0185185
        k(   36) = (   0.0000000  -0.1924501   0.0992694), wk =   0.0185185
        k(   37) = (  -0.1666667   0.0962250   0.0992694), wk =   0.0185185
        k(   38) = (   0.1666667   0.0962250   0.0992694), wk =   0.0185185
        k(   39) = (  -0.1666667  -0.0962250   0.0992694), wk =   0.0185185
        k(   40) = (   0.1666667  -0.0962250   0.0992694), wk =   0.0185185
        k(   41) = (  -0.1666667   0.0962250  -0.1489041), wk =   0.0185185
        k(   42) = (   0.1666667   0.0962250  -0.1489041), wk =   0.0185185
        k(   43) = (  -0.3333333   0.1924501   0.0000000), wk =   0.0185185
        k(   44) = (   0.3333333   0.1924501   0.0000000), wk =   0.0185185
        k(   45) = (   0.0000000  -0.3849002   0.0496347), wk =   0.0185185
        k(   46) = (  -0.3333333   0.1924501   0.0496347), wk =   0.0185185
        k(   47) = (   0.3333333   0.1924501   0.0496347), wk =   0.0185185
        k(   48) = (  -0.3333333  -0.1924501   0.0496347), wk =   0.0185185
        k(   49) = (   0.3333333  -0.1924501   0.0496347), wk =   0.0185185
        k(   50) = (   0.0000000  -0.3849002   0.0992694), wk =   0.0185185
        k(   51) = (  -0.3333333   0.1924501   0.0992694), wk =   0.0185185
        k(   52) = (   0.3333333   0.1924501   0.0992694), wk =   0.0185185
        k(   53) = (  -0.3333333  -0.1924501   0.0992694), wk =   0.0185185
        k(   54) = (   0.3333333  -0.1924501   0.0992694), wk =   0.0185185
        k(   55) = (  -0.3333333   0.1924501  -0.1489041), wk =   0.0185185
        k(   56) = (   0.3333333   0.1924501  -0.1489041), wk =   0.0185185
        k(   57) = (   0.5000000  -0.2886751   0.0000000), wk =   0.0092593
        k(   58) = (  -0.5000000  -0.2886751   0.0000000), wk =   0.0092593
        k(   59) = (   0.5000000  -0.2886751   0.0496347), wk =   0.0185185
        k(   60) = (  -0.5000000  -0.2886751   0.0496347), wk =   0.0185185
        k(   61) = (   0.5000000  -0.2886751   0.0992694), wk =   0.0185185
        k(   62) = (  -0.5000000  -0.2886751   0.0992694), wk =   0.0185185
        k(   63) = (   0.5000000  -0.2886751  -0.1489041), wk =   0.0092593
        k(   64) = (  -0.5000000  -0.2886751  -0.1489041), wk =   0.0092593
        k(   65) = (  -0.1666667   0.2886751   0.0000000), wk =   0.0185185
        k(   66) = (   0.3333333  -0.0000000   0.0000000), wk =   0.0185185
        k(   67) = (  -0.1666667  -0.2886751   0.0496347), wk =   0.0185185
        k(   68) = (  -0.1666667   0.2886751  -0.0496347), wk =   0.0185185
        k(   69) = (   0.1666667  -0.2886751  -0.0496347), wk =   0.0185185
        k(   70) = (   0.3333333  -0.0000000   0.0496347), wk =   0.0185185
        k(   71) = (  -0.3333333   0.0000000   0.0496347), wk =   0.0185185
        k(   72) = (  -0.1666667  -0.2886751   0.0992694), wk =   0.0185185
        k(   73) = (  -0.1666667   0.2886751  -0.0992694), wk =   0.0185185
        k(   74) = (   0.1666667  -0.2886751  -0.0992694), wk =   0.0185185
        k(   75) = (   0.3333333  -0.0000000   0.0992694), wk =   0.0185185
        k(   76) = (  -0.3333333   0.0000000   0.0992694), wk =   0.0185185
        k(   77) = (  -0.1666667   0.2886751   0.1489041), wk =   0.0185185
        k(   78) = (   0.3333333  -0.0000000  -0.1489041), wk =   0.0185185
        k(   79) = (  -0.1666667   0.4811252   0.0000000), wk =   0.0185185
        k(   80) = (  -0.3333333   0.3849002   0.0000000), wk =   0.0185185
        k(   81) = (   0.5000000   0.0962250   0.0000000), wk =   0.0185185
        k(   82) = (  -0.3333333  -0.3849002   0.0000000), wk =   0.0185185
        k(   83) = (   0.5000000  -0.0962250   0.0000000), wk =   0.0185185
        k(   84) = (  -0.1666667  -0.4811252   0.0496347), wk =   0.0185185
        k(   85) = (  -0.1666667   0.4811252  -0.0496347), wk =   0.0185185
        k(   86) = (   0.1666667  -0.4811252  -0.0496347), wk =   0.0185185
        k(   87) = (  -0.3333333   0.3849002   0.0496347), wk =   0.0185185
        k(   88) = (   0.5000000   0.0962250   0.0496347), wk =   0.0185185
        k(   89) = (  -0.5000000  -0.0962250   0.0496347), wk =   0.0185185
        k(   90) = (   0.3333333  -0.3849002   0.0496347), wk =   0.0185185
        k(   91) = (  -0.3333333  -0.3849002  -0.0496347), wk =   0.0185185
        k(   92) = (   0.5000000  -0.0962250  -0.0496347), wk =   0.0185185
        k(   93) = (  -0.5000000   0.0962250  -0.0496347), wk =   0.0185185
        k(   94) = (   0.3333333   0.3849002  -0.0496347), wk =   0.0185185
        k(   95) = (  -0.1666667  -0.4811252   0.0992694), wk =   0.0185185
        k(   96) = (  -0.1666667   0.4811252  -0.0992694), wk =   0.0185185
        k(   97) = (   0.1666667  -0.4811252  -0.0992694), wk =   0.0185185
        k(   98) = (  -0.3333333   0.3849002   0.0992694), wk =   0.0185185
        k(   99) = (   0.5000000   0.0962250   0.0992694), wk =   0.0185185
        k(  100) = (  -0.5000000  -0.0962250   0.0992694), wk =   0.0185185
        k(  101) = (   0.3333333  -0.3849002   0.0992694), wk =   0.0185185
        k(  102) = (  -0.3333333  -0.3849002  -0.0992694), wk =   0.0185185
        k(  103) = (   0.5000000  -0.0962250  -0.0992694), wk =   0.0185185
        k(  104) = (  -0.5000000   0.0962250  -0.0992694), wk =   0.0185185
        k(  105) = (   0.3333333   0.3849002  -0.0992694), wk =   0.0185185
        k(  106) = (  -0.1666667   0.4811252   0.1489041), wk =   0.0185185
        k(  107) = (  -0.3333333   0.3849002  -0.1489041), wk =   0.0185185
        k(  108) = (   0.5000000   0.0962250  -0.1489041), wk =   0.0185185
        k(  109) = (  -0.3333333  -0.3849002   0.1489041), wk =   0.0185185
        k(  110) = (   0.5000000  -0.0962250   0.1489041), wk =   0.0185185
        k(  111) = (  -0.3333333  -0.5773503   0.0496347), wk =   0.0185185
        k(  112) = (  -0.3333333  -0.5773503   0.0992694), wk =   0.0185185

                       cryst. coord.
        k(    1) = (   0.0000000   0.0000000   0.0000000), wk =   0.0092593
        k(    2) = (   0.0000000   0.0000000   0.1666667), wk =   0.0185185
        k(    3) = (   0.0000000   0.0000000   0.3333333), wk =   0.0185185
        k(    4) = (   0.0000000   0.0000000  -0.5000000), wk =   0.0092593
        k(    5) = (   0.0000000   0.1666667   0.0000000), wk =   0.0185185
        k(    6) = (   0.0000000   0.1666667   0.1666667), wk =   0.0185185
        k(    7) = (   0.0000000   0.1666667   0.3333333), wk =   0.0185185
        k(    8) = (   0.0000000   0.1666667  -0.5000000), wk =   0.0185185
        k(    9) = (   0.0000000   0.3333333   0.0000000), wk =   0.0185185
        k(   10) = (   0.0000000   0.3333333   0.1666667), wk =   0.0185185
        k(   11) = (   0.0000000   0.3333333   0.3333333), wk =   0.0185185
        k(   12) = (   0.0000000   0.3333333  -0.5000000), wk =   0.0185185
        k(   13) = (   0.0000000  -0.5000000   0.0000000), wk =   0.0092593
        k(   14) = (   0.0000000  -0.5000000   0.1666667), wk =   0.0185185
        k(   15) = (   0.0000000  -0.5000000   0.3333333), wk =   0.0185185
        k(   16) = (   0.0000000  -0.5000000  -0.5000000), wk =   0.0092593
        k(   17) = (   0.1666667   0.1666667   0.0000000), wk =   0.0185185
        k(   18) = (   0.1666667   0.1666667   0.1666667), wk =   0.0185185
        k(   19) = (   0.1666667   0.1666667   0.3333333), wk =   0.0185185
        k(   20) = (   0.1666667   0.1666667  -0.5000000), wk =   0.0185185
        k(   21) = (   0.1666667   0.3333333   0.0000000), wk =   0.0185185
        k(   22) = (   0.1666667   0.3333333   0.1666667), wk =   0.0185185
        k(   23) = (   0.1666667   0.3333333   0.3333333), wk =   0.0185185
        k(   24) = (   0.1666667   0.3333333  -0.5000000), wk =   0.0185185
        k(   25) = (   0.3333333   0.3333333   0.0000000), wk =   0.0185185
        k(   26) = (   0.3333333   0.3333333   0.1666667), wk =   0.0185185
        k(   27) = (   0.3333333   0.3333333   0.3333333), wk =   0.0185185
        k(   28) = (   0.3333333   0.3333333  -0.5000000), wk =   0.0185185
        k(   29) = (  -0.1666667   0.1666667   0.0000000), wk =   0.0185185
        k(   30) = (   0.1666667   0.0000000   0.0000000), wk =   0.0185185
        k(   31) = (   0.0000000  -0.1666667   0.1666667), wk =   0.0185185
        k(   32) = (  -0.1666667   0.1666667   0.1666667), wk =   0.0185185
        k(   33) = (   0.1666667   0.0000000   0.1666667), wk =   0.0185185
        k(   34) = (  -0.1666667   0.0000000   0.1666667), wk =   0.0185185
        k(   35) = (   0.1666667  -0.1666667   0.1666667), wk =   0.0185185
        k(   36) = (   0.0000000  -0.1666667   0.3333333), wk =   0.0185185
        k(   37) = (  -0.1666667   0.1666667   0.3333333), wk =   0.0185185
        k(   38) = (   0.1666667   0.0000000   0.3333333), wk =   0.0185185
        k(   39) = (  -0.1666667   0.0000000   0.3333333), wk =   0.0185185
        k(   40) = (   0.1666667  -0.1666667   0.3333333), wk =   0.0185185
        k(   41) = (  -0.1666667   0.1666667  -0.5000000), wk =   0.0185185
        k(   42) = (   0.1666667   0.0000000  -0.5000000), wk =   0.0185185
        k(   43) = (  -0.3333333   0.3333333   0.0000000), wk =   0.0185185
        k(   44) = (   0.3333333   0.0000000   0.0000000), wk =   0.0185185
        k(   45) = (   0.0000000  -0.3333333   0.1666667), wk =   0.0185185
        k(   46) = (  -0.3333333   0.3333333   0.1666667), wk =   0.0185185
        k(   47) = (   0.3333333   0.0000000   0.1666667), wk =   0.0185185
        k(   48) = (  -0.3333333   0.0000000   0.1666667), wk =   0.0185185
        k(   49) = (   0.3333333  -0.3333333   0.1666667), wk =   0.0185185
        k(   50) = (   0.0000000  -0.3333333   0.3333333), wk =   0.0185185
        k(   51) = (  -0.3333333   0.3333333   0.3333333), wk =   0.0185185
        k(   52) = (   0.3333333   0.0000000   0.3333333), wk =   0.0185185
        k(   53) = (  -0.3333333   0.0000000   0.3333333), wk =   0.0185185
        k(   54) = (   0.3333333  -0.3333333   0.3333333), wk =   0.0185185
        k(   55) = (  -0.3333333   0.3333333  -0.5000000), wk =   0.0185185
        k(   56) = (   0.3333333   0.0000000  -0.5000000), wk =   0.0185185
        k(   57) = (   0.5000000  -0.5000000   0.0000000), wk =   0.0092593
        k(   58) = (  -0.5000000  -0.0000000   0.0000000), wk =   0.0092593
        k(   59) = (   0.5000000  -0.5000000   0.1666667), wk =   0.0185185
        k(   60) = (  -0.5000000  -0.0000000   0.1666667), wk =   0.0185185
        k(   61) = (   0.5000000  -0.5000000   0.3333333), wk =   0.0185185
        k(   62) = (  -0.5000000  -0.0000000   0.3333333), wk =   0.0185185
        k(   63) = (   0.5000000  -0.5000000  -0.5000000), wk =   0.0092593
        k(   64) = (  -0.5000000  -0.0000000  -0.5000000), wk =   0.0092593
        k(   65) = (  -0.1666667   0.3333333   0.0000000), wk =   0.0185185
        k(   66) = (   0.3333333  -0.1666667   0.0000000), wk =   0.0185185
        k(   67) = (  -0.1666667  -0.1666667   0.1666667), wk =   0.0185185
        k(   68) = (  -0.1666667   0.3333333  -0.1666667), wk =   0.0185185
        k(   69) = (   0.1666667  -0.3333333  -0.1666667), wk =   0.0185185
        k(   70) = (   0.3333333  -0.1666667   0.1666667), wk =   0.0185185
        k(   71) = (  -0.3333333   0.1666667   0.1666667), wk =   0.0185185
        k(   72) = (  -0.1666667  -0.1666667   0.3333333), wk =   0.0185185
        k(   73) = (  -0.1666667   0.3333333  -0.3333333), wk =   0.0185185
        k(   74) = (   0.1666667  -0.3333333  -0.3333333), wk =   0.0185185
        k(   75) = (   0.3333333  -0.1666667   0.3333333), wk =   0.0185185
        k(   76) = (  -0.3333333   0.1666667   0.3333333), wk =   0.0185185
        k(   77) = (  -0.1666667   0.3333333   0.5000000), wk =   0.0185185
        k(   78) = (   0.3333333  -0.1666667  -0.5000000), wk =   0.0185185
        k(   79) = (  -0.1666667   0.5000000   0.0000000), wk =   0.0185185
        k(   80) = (  -0.3333333   0.5000000   0.0000000), wk =   0.0185185
        k(   81) = (   0.5000000  -0.1666667   0.0000000), wk =   0.0185185
        k(   82) = (  -0.3333333  -0.1666667   0.0000000), wk =   0.0185185
        k(   83) = (   0.5000000  -0.3333333   0.0000000), wk =   0.0185185
        k(   84) = (  -0.1666667  -0.3333333   0.1666667), wk =   0.0185185
        k(   85) = (  -0.1666667   0.5000000  -0.1666667), wk =   0.0185185
        k(   86) = (   0.1666667  -0.5000000  -0.1666667), wk =   0.0185185
        k(   87) = (  -0.3333333   0.5000000   0.1666667), wk =   0.0185185
        k(   88) = (   0.5000000  -0.1666667   0.1666667), wk =   0.0185185
        k(   89) = (  -0.5000000   0.1666667   0.1666667), wk =   0.0185185
        k(   90) = (   0.3333333  -0.5000000   0.1666667), wk =   0.0185185
        k(   91) = (  -0.3333333  -0.1666667  -0.1666667), wk =   0.0185185
        k(   92) = (   0.5000000  -0.3333333  -0.1666667), wk =   0.0185185
        k(   93) = (  -0.5000000   0.3333333  -0.1666667), wk =   0.0185185
        k(   94) = (   0.3333333   0.1666667  -0.1666667), wk =   0.0185185
        k(   95) = (  -0.1666667  -0.3333333   0.3333333), wk =   0.0185185
        k(   96) = (  -0.1666667   0.5000000  -0.3333333), wk =   0.0185185
        k(   97) = (   0.1666667  -0.5000000  -0.3333333), wk =   0.0185185
        k(   98) = (  -0.3333333   0.5000000   0.3333333), wk =   0.0185185
        k(   99) = (   0.5000000  -0.1666667   0.3333333), wk =   0.0185185
        k(  100) = (  -0.5000000   0.1666667   0.3333333), wk =   0.0185185
        k(  101) = (   0.3333333  -0.5000000   0.3333333), wk =   0.0185185
        k(  102) = (  -0.3333333  -0.1666667  -0.3333333), wk =   0.0185185
        k(  103) = (   0.5000000  -0.3333333  -0.3333333), wk =   0.0185185
        k(  104) = (  -0.5000000   0.3333333  -0.3333333), wk =   0.0185185
        k(  105) = (   0.3333333   0.1666667  -0.3333333), wk =   0.0185185
        k(  106) = (  -0.1666667   0.5000000   0.5000000), wk =   0.0185185
        k(  107) = (  -0.3333333   0.5000000  -0.5000000), wk =   0.0185185
        k(  108) = (   0.5000000  -0.1666667  -0.5000000), wk =   0.0185185
        k(  109) = (  -0.3333333  -0.1666667   0.5000000), wk =   0.0185185
        k(  110) = (   0.5000000  -0.3333333   0.5000000), wk =   0.0185185
        k(  111) = (  -0.3333333  -0.3333333   0.1666667), wk =   0.0185185
        k(  112) = (  -0.3333333  -0.3333333   0.3333333), wk =   0.0185185

     Dense  grid:    87255 G-vectors     FFT dimensions: (  40,  40, 135)

     Smooth grid:    30901 G-vectors     FFT dimensions: (  27,  27,  96)

     Dynamical RAM for                 wfc:       0.53 MB

     Dynamical RAM for     wfc (w. buffer):      15.34 MB

     Dynamical RAM for           str. fact:       0.67 MB

     Dynamical RAM for           local pot:       0.00 MB

     Dynamical RAM for          nlocal pot:       1.53 MB

     Dynamical RAM for                qrad:       3.21 MB

     Dynamical RAM for          rho,v,vnew:       2.24 MB

     Dynamical RAM for               rhoin:       0.75 MB

     Dynamical RAM for            rho*nmix:       5.33 MB

     Dynamical RAM for           G-vectors:       1.31 MB

     Dynamical RAM for          h,s,v(r/c):       0.24 MB

     Dynamical RAM for          <psi|beta>:       0.06 MB

     Dynamical RAM for                 psi:       1.06 MB

     Dynamical RAM for                hpsi:       1.06 MB

     Dynamical RAM for                spsi:       1.06 MB

     Dynamical RAM for      wfcinit/wfcrot:       1.59 MB

     Dynamical RAM for           addusdens:      16.06 MB

     Dynamical RAM for          addusforce:      16.49 MB

     Estimated static dynamical RAM per process >      28.12 MB

     Estimated max dynamical RAM per process >      49.93 MB

     Estimated total dynamical RAM >     735.04 MB

     Check: negative core charge=   -0.000002

     Initial potential from superposition of free atoms

     starting charge      71.9851, renormalised to      72.0000
     Starting wfcs are   52 randomized atomic wfcs

     total cpu time spent up to now is        4.3 secs

     Self-consistent Calculation

     iteration #  1     ecut=    50.00 Ry     beta= 0.30
     Davidson diagonalization with overlap

---- Real-time Memory Report at c_bands before calling an iterative solver
            64 MiB given to the printing process from OS
             0 MiB allocation reported by mallinfo(arena+hblkhd)
        111644 MiB available memory on the node where the printing process lives
------------------
     ethr =  1.00E-02,  avg # of iterations =  2.0

     total cpu time spent up to now is        9.3 secs

     total energy              =    -722.89569667 Ry
     estimated scf accuracy    <       1.42720654 Ry

     iteration #  2     ecut=    50.00 Ry     beta= 0.30
     Davidson diagonalization with overlap

---- Real-time Memory Report at c_bands before calling an iterative solver
            80 MiB given to the printing process from OS
             0 MiB allocation reported by mallinfo(arena+hblkhd)
        111357 MiB available memory on the node where the printing process lives
------------------
     ethr =  1.98E-03,  avg # of iterations =  2.0

     total cpu time spent up to now is       15.3 secs

     total energy              =    -723.07680636 Ry
     estimated scf accuracy    <       0.19899415 Ry

     iteration #  3     ecut=    50.00 Ry     beta= 0.30
     Davidson diagonalization with overlap

---- Real-time Memory Report at c_bands before calling an iterative solver
            81 MiB given to the printing process from OS
             0 MiB allocation reported by mallinfo(arena+hblkhd)
        111358 MiB available memory on the node where the printing process lives
------------------
     ethr =  2.76E-04,  avg # of iterations =  6.5

     total cpu time spent up to now is       26.3 secs

     total energy              =    -723.16309954 Ry
     estimated scf accuracy    <       0.14609953 Ry

     iteration #  4     ecut=    50.00 Ry     beta= 0.30
     Davidson diagonalization with overlap

---- Real-time Memory Report at c_bands before calling an iterative solver
            81 MiB given to the printing process from OS
             0 MiB allocation reported by mallinfo(arena+hblkhd)
        111361 MiB available memory on the node where the printing process lives
------------------
     ethr =  2.03E-04,  avg # of iterations =  4.9

     total cpu time spent up to now is       34.8 secs

     total energy              =    -723.23522699 Ry
     estimated scf accuracy    <       0.04313539 Ry

     iteration #  5     ecut=    50.00 Ry     beta= 0.30
     Davidson diagonalization with overlap

---- Real-time Memory Report at c_bands before calling an iterative solver
            81 MiB given to the printing process from OS
             0 MiB allocation reported by mallinfo(arena+hblkhd)
        111359 MiB available memory on the node where the printing process lives
------------------
     ethr =  5.99E-05,  avg # of iterations =  4.1

     total cpu time spent up to now is       42.9 secs

     total energy              =    -723.20289269 Ry
     estimated scf accuracy    <       0.11081322 Ry

     iteration #  6     ecut=    50.00 Ry     beta= 0.30
     Davidson diagonalization with overlap

---- Real-time Memory Report at c_bands before calling an iterative solver
            81 MiB given to the printing process from OS
             0 MiB allocation reported by mallinfo(arena+hblkhd)
        111364 MiB available memory on the node where the printing process lives
------------------
     ethr =  5.99E-05,  avg # of iterations =  3.0

     total cpu time spent up to now is       49.2 secs

     total energy              =    -723.19178369 Ry
     estimated scf accuracy    <       0.02391563 Ry

     iteration #  7     ecut=    50.00 Ry     beta= 0.30
     Davidson diagonalization with overlap

---- Real-time Memory Report at c_bands before calling an iterative solver
            82 MiB given to the printing process from OS
             0 MiB allocation reported by mallinfo(arena+hblkhd)
        111372 MiB available memory on the node where the printing process lives
------------------
     ethr =  3.32E-05,  avg # of iterations =  7.9

     total cpu time spent up to now is       62.5 secs

     total energy              =    -723.20862768 Ry
     estimated scf accuracy    <       0.08657689 Ry

     iteration #  8     ecut=    50.00 Ry     beta= 0.30
     Davidson diagonalization with overlap

---- Real-time Memory Report at c_bands before calling an iterative solver
            82 MiB given to the printing process from OS
             0 MiB allocation reported by mallinfo(arena+hblkhd)
        111376 MiB available memory on the node where the printing process lives
------------------
     ethr =  3.32E-05,  avg # of iterations =  4.0

     total cpu time spent up to now is       69.0 secs

     total energy              =    -723.21167903 Ry
     estimated scf accuracy    <       0.02594869 Ry

     iteration #  9     ecut=    50.00 Ry     beta= 0.30
     Davidson diagonalization with overlap

---- Real-time Memory Report at c_bands before calling an iterative solver
            82 MiB given to the printing process from OS
             0 MiB allocation reported by mallinfo(arena+hblkhd)
        111384 MiB available memory on the node where the printing process lives
------------------
     ethr =  3.32E-05,  avg # of iterations =  1.9

     total cpu time spent up to now is       74.3 secs

     total energy              =    -723.21412473 Ry
     estimated scf accuracy    <       0.01672323 Ry

     iteration # 10     ecut=    50.00 Ry     beta= 0.30
     Davidson diagonalization with overlap

---- Real-time Memory Report at c_bands before calling an iterative solver
            82 MiB given to the printing process from OS
             0 MiB allocation reported by mallinfo(arena+hblkhd)
        111391 MiB available memory on the node where the printing process lives
------------------
     ethr =  2.32E-05,  avg # of iterations =  2.0

     total cpu time spent up to now is       79.4 secs

     total energy              =    -723.21495450 Ry
     estimated scf accuracy    <       0.01376565 Ry

     iteration # 11     ecut=    50.00 Ry     beta= 0.30
     Davidson diagonalization with overlap

---- Real-time Memory Report at c_bands before calling an iterative solver
            82 MiB given to the printing process from OS
             0 MiB allocation reported by mallinfo(arena+hblkhd)
        111391 MiB available memory on the node where the printing process lives
------------------
     ethr =  1.91E-05,  avg # of iterations =  1.0

     total cpu time spent up to now is       84.0 secs

     total energy              =    -723.21520995 Ry
     estimated scf accuracy    <       0.01188226 Ry

     iteration # 12     ecut=    50.00 Ry     beta= 0.30
     Davidson diagonalization with overlap

---- Real-time Memory Report at c_bands before calling an iterative solver
            82 MiB given to the printing process from OS
             0 MiB allocation reported by mallinfo(arena+hblkhd)
        111392 MiB available memory on the node where the printing process lives
------------------
     ethr =  1.65E-05,  avg # of iterations =  1.2

     total cpu time spent up to now is       88.7 secs

     total energy              =    -723.21431388 Ry
     estimated scf accuracy    <       0.00994542 Ry

     iteration # 13     ecut=    50.00 Ry     beta= 0.30
     Davidson diagonalization with overlap

---- Real-time Memory Report at c_bands before calling an iterative solver
            82 MiB given to the printing process from OS
             0 MiB allocation reported by mallinfo(arena+hblkhd)
        111393 MiB available memory on the node where the printing process lives
------------------
     ethr =  1.38E-05,  avg # of iterations =  1.3

     total cpu time spent up to now is       93.5 secs

     total energy              =    -723.21342671 Ry
     estimated scf accuracy    <       0.00667704 Ry

     iteration # 14     ecut=    50.00 Ry     beta= 0.30
     Davidson diagonalization with overlap

---- Real-time Memory Report at c_bands before calling an iterative solver
            82 MiB given to the printing process from OS
             0 MiB allocation reported by mallinfo(arena+hblkhd)
        111393 MiB available memory on the node where the printing process lives
------------------
     ethr =  9.27E-06,  avg # of iterations =  2.2

     total cpu time spent up to now is       98.8 secs

     total energy              =    -723.21319548 Ry
     estimated scf accuracy    <       0.00268076 Ry

     iteration # 15     ecut=    50.00 Ry     beta= 0.30
     Davidson diagonalization with overlap

---- Real-time Memory Report at c_bands before calling an iterative solver
            82 MiB given to the printing process from OS
             0 MiB allocation reported by mallinfo(arena+hblkhd)
        111393 MiB available memory on the node where the printing process lives
------------------
     ethr =  3.72E-06,  avg # of iterations =  4.7

     total cpu time spent up to now is      106.8 secs

     total energy              =    -723.21420186 Ry
     estimated scf accuracy    <       0.00003903 Ry

     iteration # 16     ecut=    50.00 Ry     beta= 0.30
     Davidson diagonalization with overlap

---- Real-time Memory Report at c_bands before calling an iterative solver
            82 MiB given to the printing process from OS
             0 MiB allocation reported by mallinfo(arena+hblkhd)
        111392 MiB available memory on the node where the printing process lives
------------------
     ethr =  5.42E-08,  avg # of iterations =  8.3

     total cpu time spent up to now is      120.9 secs

     total energy              =    -723.21429119 Ry
     estimated scf accuracy    <       0.00003798 Ry

     iteration # 17     ecut=    50.00 Ry     beta= 0.30
     Davidson diagonalization with overlap

---- Real-time Memory Report at c_bands before calling an iterative solver
            82 MiB given to the printing process from OS
             0 MiB allocation reported by mallinfo(arena+hblkhd)
        111391 MiB available memory on the node where the printing process lives
------------------
     ethr =  5.27E-08,  avg # of iterations =  1.8

     total cpu time spent up to now is      125.9 secs

     total energy              =    -723.21427773 Ry
     estimated scf accuracy    <       0.00004948 Ry

     iteration # 18     ecut=    50.00 Ry     beta= 0.30
     Davidson diagonalization with overlap

---- Real-time Memory Report at c_bands before calling an iterative solver
            82 MiB given to the printing process from OS
             0 MiB allocation reported by mallinfo(arena+hblkhd)
        111391 MiB available memory on the node where the printing process lives
------------------
     ethr =  5.27E-08,  avg # of iterations =  2.7

     total cpu time spent up to now is      131.4 secs

     total energy              =    -723.21428179 Ry
     estimated scf accuracy    <       0.00001880 Ry

     iteration # 19     ecut=    50.00 Ry     beta= 0.30
     Davidson diagonalization with overlap

---- Real-time Memory Report at c_bands before calling an iterative solver
            82 MiB given to the printing process from OS
             0 MiB allocation reported by mallinfo(arena+hblkhd)
        111391 MiB available memory on the node where the printing process lives
------------------
     ethr =  2.61E-08,  avg # of iterations =  5.5

     total cpu time spent up to now is      139.0 secs

     total energy              =    -723.21430278 Ry
     estimated scf accuracy    <       0.00003025 Ry

     iteration # 20     ecut=    50.00 Ry     beta= 0.30
     Davidson diagonalization with overlap

---- Real-time Memory Report at c_bands before calling an iterative solver
            82 MiB given to the printing process from OS
             0 MiB allocation reported by mallinfo(arena+hblkhd)
        111391 MiB available memory on the node where the printing process lives
------------------
     ethr =  2.61E-08,  avg # of iterations =  4.9

     total cpu time spent up to now is      147.1 secs

     total energy              =    -723.21429213 Ry
     estimated scf accuracy    <       0.00010595 Ry

     iteration # 21     ecut=    50.00 Ry     beta= 0.30
     Davidson diagonalization with overlap

---- Real-time Memory Report at c_bands before calling an iterative solver
            82 MiB given to the printing process from OS
             0 MiB allocation reported by mallinfo(arena+hblkhd)
        111391 MiB available memory on the node where the printing process lives
------------------
     ethr =  2.61E-08,  avg # of iterations =  2.9

     total cpu time spent up to now is      152.8 secs

     total energy              =    -723.21426149 Ry
     estimated scf accuracy    <       0.00007280 Ry

     iteration # 22     ecut=    50.00 Ry     beta= 0.30
     Davidson diagonalization with overlap

---- Real-time Memory Report at c_bands before calling an iterative solver
            82 MiB given to the printing process from OS
             0 MiB allocation reported by mallinfo(arena+hblkhd)
        111391 MiB available memory on the node where the printing process lives
------------------
     ethr =  2.61E-08,  avg # of iterations =  6.9

     total cpu time spent up to now is      164.0 secs

     total energy              =    -723.21427879 Ry
     estimated scf accuracy    <       0.00000852 Ry

     iteration # 23     ecut=    50.00 Ry     beta= 0.30
     Davidson diagonalization with overlap

---- Real-time Memory Report at c_bands before calling an iterative solver
            82 MiB given to the printing process from OS
             0 MiB allocation reported by mallinfo(arena+hblkhd)
        111391 MiB available memory on the node where the printing process lives
------------------
     ethr =  1.18E-08,  avg # of iterations =  4.2

     total cpu time spent up to now is      170.5 secs

     total energy              =    -723.21428026 Ry
     estimated scf accuracy    <       0.00000156 Ry

     iteration # 24     ecut=    50.00 Ry     beta= 0.30
     Davidson diagonalization with overlap

---- Real-time Memory Report at c_bands before calling an iterative solver
            82 MiB given to the printing process from OS
             0 MiB allocation reported by mallinfo(arena+hblkhd)
        111391 MiB available memory on the node where the printing process lives
------------------
     ethr =  2.16E-09,  avg # of iterations =  6.7

     total cpu time spent up to now is      181.0 secs

     total energy              =    -723.21427979 Ry
     estimated scf accuracy    <       0.00000352 Ry

     iteration # 25     ecut=    50.00 Ry     beta= 0.30
     Davidson diagonalization with overlap

---- Real-time Memory Report at c_bands before calling an iterative solver
            82 MiB given to the printing process from OS
             0 MiB allocation reported by mallinfo(arena+hblkhd)
        111391 MiB available memory on the node where the printing process lives
------------------
     ethr =  2.16E-09,  avg # of iterations =  4.5

     total cpu time spent up to now is      189.0 secs

     total energy              =    -723.21428045 Ry
     estimated scf accuracy    <       0.00000003 Ry

     iteration # 26     ecut=    50.00 Ry     beta= 0.30
     Davidson diagonalization with overlap

---- Real-time Memory Report at c_bands before calling an iterative solver
            82 MiB given to the printing process from OS
             0 MiB allocation reported by mallinfo(arena+hblkhd)
        111391 MiB available memory on the node where the printing process lives
------------------
     c_bands:  1 eigenvalues not converged
     ethr =  4.16E-11,  avg # of iterations =  8.3

     total cpu time spent up to now is      202.5 secs

     total energy              =    -723.21428049 Ry
     estimated scf accuracy    <       0.00000006 Ry

     iteration # 27     ecut=    50.00 Ry     beta= 0.30
     Davidson diagonalization with overlap

---- Real-time Memory Report at c_bands before calling an iterative solver
            82 MiB given to the printing process from OS
             0 MiB allocation reported by mallinfo(arena+hblkhd)
        111391 MiB available memory on the node where the printing process lives
------------------
     ethr =  4.16E-11,  avg # of iterations =  6.0

     total cpu time spent up to now is      209.7 secs

     End of self-consistent calculation

          k = 0.0000 0.0000 0.0000 (  3849 PWs)   bands (ev):

   -11.2112 -10.9045 -10.4668  -9.8379   0.6664   0.9116   1.0177   1.2390
     1.2823   1.3808   1.4993   1.5330   1.8189   1.9054   2.0469   2.1892
     2.3157   2.3712   2.4539   2.4642   2.9513   2.9774   3.1084   3.2366
     3.2483   4.7538   5.0175   6.2127   6.3784   6.5925   6.6825   6.9680
     7.0764   7.2436   7.5643   7.5967

     occupation numbers 
     1.0000   1.0000   1.0000   1.0000   1.0000   1.0000   1.0000   1.0000
     1.0000   1.0000   1.0000   1.0000   1.0000   1.0000   1.0000   1.0000
     1.0000   1.0000   1.0000   1.0000   1.0000   1.0000   1.0000   1.0000
     1.0000   1.0000   1.0000   1.0000   1.0000   1.0000   1.0000   1.0000
     1.0000   1.0000   1.0000   1.0000

          k = 0.0000 0.0000 0.0496 (  3832 PWs)   bands (ev):

   -11.2094 -10.9088 -10.4633  -9.8389   0.6662   0.9119   1.0195   1.2390
     1.2827   1.3814   1.4992   1.5280   1.8177   1.8981   2.0436   2.1886
     2.3149   2.3718   2.4538   2.4642   2.9516   2.9762   3.1748   3.2370
     3.2524   4.4787   5.2996   6.2170   6.3784   6.5815   6.6798   6.9516
     6.9953   7.1489   7.5653   7.5947

     occupation numbers 
     1.0000   1.0000   1.0000   1.0000   1.0000   1.0000   1.0000   1.0000
     1.0000   1.0000   1.0000   1.0000   1.0000   1.0000   1.0000   1.0000
     1.0000   1.0000   1.0000   1.0000   1.0000   1.0000   1.0000   1.0000
     1.0000   1.0000   1.0000   1.0000   1.0000   1.0000   1.0000   1.0000
     1.0000   1.0000   1.0000   1.0000

          k = 0.0000 0.0000 0.0993 (  3844 PWs)   bands (ev):

   -11.2058 -10.9173 -10.4565  -9.8409   0.6657   0.9125   1.0229   1.2389
     1.2835   1.3827   1.4983   1.5182   1.8151   1.8841   2.0382   2.1874
     2.3135   2.3722   2.4533   2.4638   2.9517   2.9750   3.2355   3.2403
     3.3648   4.1391   5.6627   6.2265   6.3775   6.5414   6.6520   6.6902
     6.9927   7.1320   7.5649   7.5913

     occupation numbers 
     1.0000   1.0000   1.0000   1.0000   1.0000   1.0000   1.0000   1.0000
     1.0000   1.0000   1.0000   1.0000   1.0000   1.0000   1.0000   1.0000
     1.0000   1.0000   1.0000   1.0000   1.0000   1.0000   1.0000   1.0000
     1.0000   1.0000   1.0000   1.0000   1.0000   1.0000   1.0000   1.0000
     1.0000   1.0000   1.0000   1.0000

          k = 0.0000 0.0000-0.1489 (  3838 PWs)   bands (ev):

   -11.2040 -10.9215 -10.4531  -9.8419   0.6654   0.9128   1.0245   1.2388
     1.2839   1.3833   1.4974   1.5136   1.8136   1.8775   2.0361   2.1869
     2.3131   2.3725   2.4533   2.4638   2.9520   2.9748   3.2364   3.2422
     3.5027   3.9462   5.8826   6.2337   6.3658   6.4099   6.5804   6.6766
     6.9984   7.1320   7.5646   7.5896

     occupation numbers 
     1.0000   1.0000   1.0000   1.0000   1.0000   1.0000   1.0000   1.0000
     1.0000   1.0000   1.0000   1.0000   1.0000   1.0000   1.0000   1.0000
     1.0000   1.0000   1.0000   1.0000   1.0000   1.0000   1.0000   1.0000
     1.0000   1.0000   1.0000   1.0000   1.0000   1.0000   1.0000   1.0000
     1.0000   1.0000   1.0000   1.0000

          k = 0.0000 0.1925 0.0000 (  3836 PWs)   bands (ev):

   -11.0754 -10.7981 -10.3529  -9.7407   0.6841   0.9231   1.1269   1.2525
     1.2955   1.4063   1.5419   1.5780   1.8102   1.9827   2.1244   2.2196
     2.3310   2.3551   2.4548   2.5216   2.9596   2.9748   3.0893   3.2476
     3.2586   4.7630   4.9685   5.4711   5.8336   5.9959   6.2796   6.4179
     6.6585   6.7315   7.1164   7.3849

     occupation numbers 
     1.0000   1.0000   1.0000   1.0000   1.0000   1.0000   1.0000   1.0000
     1.0000   1.0000   1.0000   1.0000   1.0000   1.0000   1.0000   1.0000
     1.0000   1.0000   1.0000   1.0000   1.0000   1.0000   1.0000   1.0000
     1.0000   1.0000   1.0000   1.0000   1.0000   1.0000   1.0000   1.0000
     1.0000   1.0000   1.0000   1.0000

          k = 0.0000 0.1925 0.0496 (  3836 PWs)   bands (ev):

   -11.0741 -10.8010 -10.3506  -9.7413   0.6857   0.9234   1.1303   1.2488
     1.2972   1.4079   1.5370   1.5777   1.8106   1.9662   2.1220   2.2144
     2.3337   2.3587   2.4549   2.5143   2.9481   2.9625   3.1763   3.2465
     3.2777   4.5273   5.1668   5.4878   5.7787   6.0033   6.3083   6.4103
     6.6574   6.7428   7.0888   7.3831

     occupation numbers 
     1.0000   1.0000   1.0000   1.0000   1.0000   1.0000   1.0000   1.0000
     1.0000   1.0000   1.0000   1.0000   1.0000   1.0000   1.0000   1.0000
     1.0000   1.0000   1.0000   1.0000   1.0000   1.0000   1.0000   1.0000
     1.0000   1.0000   1.0000   1.0000   1.0000   1.0000   1.0000   1.0000
     1.0000   1.0000   1.0000   1.0000

          k = 0.0000 0.1925 0.0993 (  3838 PWs)   bands (ev):

   -11.0713 -10.8071 -10.3461  -9.7426   0.6867   0.9306   1.1318   1.2481
     1.2959   1.4082   1.5268   1.5776   1.7948   1.9614   2.1205   2.2012
     2.3343   2.3639   2.4549   2.4969   2.9474   2.9631   3.2062   3.2453
     3.4552   4.2070   5.3593   5.5367   5.7200   6.0141   6.2630   6.3827
     6.7326   6.7671   7.0190   7.3776

     occupation numbers 
     1.0000   1.0000   1.0000   1.0000   1.0000   1.0000   1.0000   1.0000
     1.0000   1.0000   1.0000   1.0000   1.0000   1.0000   1.0000   1.0000
     1.0000   1.0000   1.0000   1.0000   1.0000   1.0000   1.0000   1.0000
     1.0000   1.0000   1.0000   1.0000   1.0000   1.0000   1.0000   1.0000
     1.0000   1.0000   1.0000   1.0000

          k = 0.0000 0.1925-0.1489 (  3848 PWs)   bands (ev):

   -11.0698 -10.8101 -10.3439  -9.7432   0.6862   0.9377   1.1299   1.2512
     1.2924   1.4068   1.5214   1.5777   1.7810   1.9710   2.1212   2.1916
     2.3335   2.3656   2.4548   2.4876   2.9533   2.9646   3.2002   3.2451
     3.6250   4.0012   5.4235   5.5472   5.7495   6.0164   6.1909   6.3662
     6.7730   6.8283   6.9524   7.3743

     occupation numbers 
     1.0000   1.0000   1.0000   1.0000   1.0000   1.0000   1.0000   1.0000
     1.0000   1.0000   1.0000   1.0000   1.0000   1.0000   1.0000   1.0000
     1.0000   1.0000   1.0000   1.0000   1.0000   1.0000   1.0000   1.0000
     1.0000   1.0000   1.0000   1.0000   1.0000   1.0000   1.0000   1.0000
     1.0000   1.0000   1.0000   1.0000

          k = 0.0000 0.3849 0.0000 (  3858 PWs)   bands (ev):

   -10.7852 -10.5836 -10.1165  -9.5393   0.6475   0.8825   1.1870   1.3200
     1.4977   1.5573   1.6688   1.7354   1.8505   2.0570   2.2734   2.3676
     2.4084   2.4296   2.4966   2.7599   2.8742   3.0099   3.1543   3.2853
     3.4153   3.9437   4.2056   4.3618   5.0491   5.4062   5.6406   5.8465
     5.9899   6.2523   6.7290   6.9848

     occupation numbers 
     1.0000   1.0000   1.0000   1.0000   1.0000   1.0000   1.0000   1.0000
     1.0000   1.0000   1.0000   1.0000   1.0000   1.0000   1.0000   1.0000
     1.0000   1.0000   1.0000   1.0000   1.0000   1.0000   1.0000   1.0000
     1.0000   1.0000   1.0000   1.0000   1.0000   1.0000   1.0000   1.0000
     1.0000   1.0000   1.0000   1.0000

          k = 0.0000 0.3849 0.0496 (  3860 PWs)   bands (ev):

   -10.7847 -10.5845 -10.1161  -9.5394   0.6489   0.8854   1.1863   1.3196
     1.5010   1.5588   1.6662   1.7349   1.8514   2.0415   2.2735   2.3558
     2.3942   2.4463   2.4991   2.7374   2.8675   3.0098   3.1700   3.2847
     3.4974   3.9081   4.1978   4.4113   5.0092   5.3552   5.5409   5.9070
     6.0410   6.2786   6.7314   6.9829

     occupation numbers 
     1.0000   1.0000   1.0000   1.0000   1.0000   1.0000   1.0000   1.0000
     1.0000   1.0000   1.0000   1.0000   1.0000   1.0000   1.0000   1.0000
     1.0000   1.0000   1.0000   1.0000   1.0000   1.0000   1.0000   1.0000
     1.0000   1.0000   1.0000   1.0000   1.0000   1.0000   1.0000   1.0000
     1.0000   1.0000   1.0000   1.0000

          k = 0.0000 0.3849 0.0993 (  3861 PWs)   bands (ev):

   -10.7835 -10.5864 -10.1151  -9.5396   0.6501   0.8953   1.1842   1.3257
     1.5000   1.5605   1.6578   1.7313   1.8292   2.0457   2.2725   2.3436
     2.3902   2.4631   2.5030   2.6566   2.9194   3.0104   3.1439   3.2863
     3.6794   3.8572   4.1980   4.4571   4.9112   5.2513   5.4997   5.8610
     6.1831   6.3284   6.7328   6.9771

     occupation numbers 
     1.0000   1.0000   1.0000   1.0000   1.0000   1.0000   1.0000   1.0000
     1.0000   1.0000   1.0000   1.0000   1.0000   1.0000   1.0000   1.0000
     1.0000   1.0000   1.0000   1.0000   1.0000   1.0000   1.0000   1.0000
     1.0000   1.0000   1.0000   1.0000   1.0000   1.0000   1.0000   1.0000
     1.0000   1.0000   1.0000   1.0000

          k = 0.0000 0.3849-0.1489 (  3864 PWs)   bands (ev):

   -10.7829 -10.5874 -10.1145  -9.5397   0.6499   0.9022   1.1827   1.3337
     1.4940   1.5596   1.6512   1.7274   1.8127   2.0622   2.2712   2.3432
     2.3897   2.4763   2.5053   2.6078   2.9618   3.0118   3.1096   3.2870
     3.7647   3.8559   4.2149   4.4266   4.8724   5.2131   5.4892   5.8372
     6.2377   6.3548   6.7319   6.9728

     occupation numbers 
     1.0000   1.0000   1.0000   1.0000   1.0000   1.0000   1.0000   1.0000
     1.0000   1.0000   1.0000   1.0000   1.0000   1.0000   1.0000   1.0000
     1.0000   1.0000   1.0000   1.0000   1.0000   1.0000   1.0000   1.0000
     1.0000   1.0000   1.0000   1.0000   1.0000   1.0000   1.0000   1.0000
     1.0000   1.0000   1.0000   1.0000

          k = 0.0000-0.5774 0.0000 (  3878 PWs)   bands (ev):

   -10.6262 -10.4793  -9.9939  -9.4346   0.6670   0.8555   1.1901   1.3584
     1.5587   1.6425   1.7992   1.8535   1.9708   2.1194   2.3487   2.4336
     2.4811   2.5432   2.5811   2.6626   3.0163   3.0573   3.1704   3.3242
     3.3424   3.4709   3.7037   4.0153   4.3730   5.0789   5.4630   5.7700
     5.8745   6.0086   6.4502   6.7785

     occupation numbers 
     1.0000   1.0000   1.0000   1.0000   1.0000   1.0000   1.0000   1.0000
     1.0000   1.0000   1.0000   1.0000   1.0000   1.0000   1.0000   1.0000
     1.0000   1.0000   1.0000   1.0000   1.0000   1.0000   1.0000   1.0000
     1.0000   1.0000   1.0000   1.0000   1.0000   1.0000   1.0000   1.0000
     1.0000   1.0000   1.0000   1.0000

          k = 0.0000-0.5774 0.0496 (  3864 PWs)   bands (ev):

   -10.6260 -10.4796  -9.9938  -9.4346   0.6684   0.8597   1.1871   1.3563
     1.5630   1.6391   1.7991   1.8545   1.9615   2.1207   2.3493   2.4348
     2.4833   2.5423   2.5826   2.6592   3.0054   3.0559   3.1790   3.3177
     3.3414   3.4799   3.7046   4.0099   4.4336   5.0864   5.3803   5.6769
     5.9420   6.0491   6.4680   6.7764

     occupation numbers 
     1.0000   1.0000   1.0000   1.0000   1.0000   1.0000   1.0000   1.0000
     1.0000   1.0000   1.0000   1.0000   1.0000   1.0000   1.0000   1.0000
     1.0000   1.0000   1.0000   1.0000   1.0000   1.0000   1.0000   1.0000
     1.0000   1.0000   1.0000   1.0000   1.0000   1.0000   1.0000   1.0000
     1.0000   1.0000   1.0000   1.0000

          k = 0.0000-0.5774 0.0993 (  3864 PWs)   bands (ev):

   -10.6256 -10.4801  -9.9937  -9.4346   0.6713   0.8686   1.1805   1.3523
     1.5738   1.6295   1.7984   1.8570   1.9431   2.1228   2.3504   2.4359
     2.4884   2.5406   2.5865   2.6515   2.9865   3.0543   3.1919   3.3063
     3.3403   3.4951   3.7068   3.9983   4.5983   5.0628   5.2157   5.5857
     5.9880   6.1222   6.4981   6.7735

     occupation numbers 
     1.0000   1.0000   1.0000   1.0000   1.0000   1.0000   1.0000   1.0000
     1.0000   1.0000   1.0000   1.0000   1.0000   1.0000   1.0000   1.0000
     1.0000   1.0000   1.0000   1.0000   1.0000   1.0000   1.0000   1.0000
     1.0000   1.0000   1.0000   1.0000   1.0000   1.0000   1.0000   1.0000
     1.0000   1.0000   1.0000   1.0000

          k = 0.0000-0.5774-0.1489 (  3860 PWs)   bands (ev):

   -10.6254 -10.4804  -9.9936  -9.4346   0.6727   0.8732   1.1769   1.3503
     1.5820   1.6220   1.7979   1.8584   1.9341   2.1237   2.3510   2.4358
     2.4914   2.5398   2.5893   2.6469   2.9783   3.0538   3.1969   3.3015
     3.3400   3.5017   3.7081   3.9923   4.7726   4.9148   5.1830   5.5497
     6.0037   6.1532   6.5103   6.7727

     occupation numbers 
     1.0000   1.0000   1.0000   1.0000   1.0000   1.0000   1.0000   1.0000
     1.0000   1.0000   1.0000   1.0000   1.0000   1.0000   1.0000   1.0000
     1.0000   1.0000   1.0000   1.0000   1.0000   1.0000   1.0000   1.0000
     1.0000   1.0000   1.0000   1.0000   1.0000   1.0000   1.0000   1.0000
     1.0000   1.0000   1.0000   1.0000

          k = 0.1667 0.2887 0.0000 (  3851 PWs)   bands (ev):

   -10.8727 -10.6384 -10.1698  -9.5873   0.7851   0.8825   1.0787   1.2646
     1.3556   1.5094   1.5605   1.6910   1.9154   2.0340   2.2062   2.3296
     2.4086   2.4373   2.5054   2.6404   2.9499   3.0225   3.0753   3.2745
     3.4304   4.5084   4.6020   4.8991   5.0204   5.4766   5.7490   5.8180
     6.0339   6.1091   6.7379   6.9197

     occupation numbers 
     1.0000   1.0000   1.0000   1.0000   1.0000   1.0000   1.0000   1.0000
     1.0000   1.0000   1.0000   1.0000   1.0000   1.0000   1.0000   1.0000
     1.0000   1.0000   1.0000   1.0000   1.0000   1.0000   1.0000   1.0000
     1.0000   1.0000   1.0000   1.0000   1.0000   1.0000   1.0000   1.0000
     1.0000   1.0000   1.0000   1.0000

          k = 0.1667 0.2887 0.0496 (  3848 PWs)   bands (ev):

   -10.8720 -10.6397 -10.1690  -9.5875   0.7867   0.8870   1.0789   1.2585
     1.3651   1.5119   1.5560   1.6808   1.9123   2.0336   2.1922   2.3254
     2.4045   2.4402   2.5097   2.6330   2.9417   3.0117   3.1154   3.2583
     3.5092   4.4041   4.6676   4.8915   5.0363   5.4512   5.6411   5.7748
     6.1378   6.1802   6.7290   6.9095

     occupation numbers 
     1.0000   1.0000   1.0000   1.0000   1.0000   1.0000   1.0000   1.0000
     1.0000   1.0000   1.0000   1.0000   1.0000   1.0000   1.0000   1.0000
     1.0000   1.0000   1.0000   1.0000   1.0000   1.0000   1.0000   1.0000
     1.0000   1.0000   1.0000   1.0000   1.0000   1.0000   1.0000   1.0000
     1.0000   1.0000   1.0000   1.0000

          k = 0.1667 0.2887 0.0993 (  3851 PWs)   bands (ev):

   -10.8706 -10.6423 -10.1674  -9.5879   0.7897   0.8943   1.0808   1.2620
     1.3640   1.5122   1.5502   1.6667   1.8993   2.0444   2.1683   2.3233
     2.4039   2.4454   2.5088   2.5966   2.9532   3.0032   3.1497   3.2495
     3.6976   4.2100   4.7279   4.9004   5.0708   5.3857   5.5136   5.7343
     6.1924   6.3426   6.7060   6.8963

     occupation numbers 
     1.0000   1.0000   1.0000   1.0000   1.0000   1.0000   1.0000   1.0000
     1.0000   1.0000   1.0000   1.0000   1.0000   1.0000   1.0000   1.0000
     1.0000   1.0000   1.0000   1.0000   1.0000   1.0000   1.0000   1.0000
     1.0000   1.0000   1.0000   1.0000   1.0000   1.0000   1.0000   1.0000
     1.0000   1.0000   1.0000   1.0000

          k = 0.1667 0.2887-0.1489 (  3852 PWs)   bands (ev):

   -10.8699 -10.6437 -10.1665  -9.5881   0.7911   0.8969   1.0827   1.2744
     1.3497   1.5092   1.5507   1.6626   1.8913   2.0559   2.1566   2.3229
     2.4062   2.4532   2.4995   2.5734   2.9671   2.9974   3.1552   3.2524
     3.8818   4.0262   4.7457   4.9166   5.0967   5.3336   5.4789   5.7137
     6.2166   6.4048   6.6900   6.8943

     occupation numbers 
     1.0000   1.0000   1.0000   1.0000   1.0000   1.0000   1.0000   1.0000
     1.0000   1.0000   1.0000   1.0000   1.0000   1.0000   1.0000   1.0000
     1.0000   1.0000   1.0000   1.0000   1.0000   1.0000   1.0000   1.0000
     1.0000   1.0000   1.0000   1.0000   1.0000   1.0000   1.0000   1.0000
     1.0000   1.0000   1.0000   1.0000

          k = 0.1667 0.4811 0.0000 (  3861 PWs)   bands (ev):

   -10.6377 -10.4791  -9.9880  -9.4333   0.7911   1.0082   1.1896   1.4240
     1.5668   1.5805   1.6940   1.7929   1.9868   2.1142   2.3317   2.4039
     2.4583   2.5224   2.6269   2.8188   2.8819   3.0622   3.1855   3.3143
     3.5979   3.7490   3.9208   4.0701   4.5180   4.7336   5.1257   5.3136
     5.7148   5.8904   6.1913   6.5367

     occupation numbers 
     1.0000   1.0000   1.0000   1.0000   1.0000   1.0000   1.0000   1.0000
     1.0000   1.0000   1.0000   1.0000   1.0000   1.0000   1.0000   1.0000
     1.0000   1.0000   1.0000   1.0000   1.0000   1.0000   1.0000   1.0000
     1.0000   1.0000   1.0000   1.0000   1.0000   1.0000   1.0000   1.0000
     1.0000   1.0000   1.0000   1.0000

          k = 0.1667 0.4811 0.0496 (  3859 PWs)   bands (ev):

   -10.6376 -10.4793  -9.9880  -9.4333   0.7927   1.0131   1.1914   1.4173
     1.5664   1.5800   1.6983   1.7954   1.9864   2.0975   2.3272   2.3944
     2.4548   2.5349   2.6347   2.7933   2.9015   3.0713   3.1740   3.3195
     3.6162   3.7133   3.9573   4.0854   4.5275   4.7732   5.0181   5.3593
     5.6389   5.9526   6.1800   6.5510

     occupation numbers 
     1.0000   1.0000   1.0000   1.0000   1.0000   1.0000   1.0000   1.0000
     1.0000   1.0000   1.0000   1.0000   1.0000   1.0000   1.0000   1.0000
     1.0000   1.0000   1.0000   1.0000   1.0000   1.0000   1.0000   1.0000
     1.0000   1.0000   1.0000   1.0000   1.0000   1.0000   1.0000   1.0000
     1.0000   1.0000   1.0000   1.0000

          k = 0.1667 0.4811 0.0993 (  3854 PWs)   bands (ev):

   -10.6372 -10.4798  -9.9878  -9.4333   0.7955   1.0237   1.1936   1.4125
     1.5634   1.5866   1.6808   1.8056   1.9531   2.1169   2.3175   2.3844
     2.4583   2.5410   2.6450   2.7500   2.9297   3.0843   3.1560   3.3385
     3.6014   3.6907   3.9852   4.1654   4.5442   4.8170   4.9229   5.3101
     5.5900   6.0126   6.1715   6.5709

     occupation numbers 
     1.0000   1.0000   1.0000   1.0000   1.0000   1.0000   1.0000   1.0000
     1.0000   1.0000   1.0000   1.0000   1.0000   1.0000   1.0000   1.0000
     1.0000   1.0000   1.0000   1.0000   1.0000   1.0000   1.0000   1.0000
     1.0000   1.0000   1.0000   1.0000   1.0000   1.0000   1.0000   1.0000
     1.0000   1.0000   1.0000   1.0000

          k = 0.1667 0.4811-0.1489 (  3854 PWs)   bands (ev):

   -10.6370 -10.4801  -9.9877  -9.4333   0.7967   1.0294   1.1939   1.4146
     1.5618   1.5985   1.6539   1.8089   1.9354   2.1422   2.3113   2.3807
     2.4655   2.5385   2.6456   2.7299   2.9412   3.0877   3.1502   3.3545
     3.5704   3.6945   3.9906   4.2254   4.5520   4.7547   4.9997   5.2191
     5.5910   6.0281   6.1756   6.5770

     occupation numbers 
     1.0000   1.0000   1.0000   1.0000   1.0000   1.0000   1.0000   1.0000
     1.0000   1.0000   1.0000   1.0000   1.0000   1.0000   1.0000   1.0000
     1.0000   1.0000   1.0000   1.0000   1.0000   1.0000   1.0000   1.0000
     1.0000   1.0000   1.0000   1.0000   1.0000   1.0000   1.0000   1.0000
     1.0000   1.0000   1.0000   1.0000

          k = 0.3333 0.5774 0.0000 (  3873 PWs)   bands (ev):

   -10.5516 -10.4299  -9.9113  -9.3796   0.9304   1.2525   1.2918   1.4376
     1.6948   1.7753   1.8327   1.9598   2.1603   2.3109   2.3405   2.4131
     2.4942   2.5293   2.5989   2.8424   2.9103   3.1569   3.2023   3.2604
     3.4255   3.5386   3.6434   3.8047   3.9560   4.3662   4.5934   5.0889
     5.4470   5.6132   5.9535   6.1727

     occupation numbers 
     1.0000   1.0000   1.0000   1.0000   1.0000   1.0000   1.0000   1.0000
     1.0000   1.0000   1.0000   1.0000   1.0000   1.0000   1.0000   1.0000
     1.0000   1.0000   1.0000   1.0000   1.0000   1.0000   1.0000   1.0000
     1.0000   1.0000   1.0000   1.0000   1.0000   1.0000   1.0000   1.0000
     1.0000   1.0000   1.0000   1.0000

          k = 0.3333 0.5774 0.0496 (  3867 PWs)   bands (ev):

   -10.5516 -10.4299  -9.9114  -9.3795   0.9305   1.2539   1.3005   1.4459
     1.6994   1.7560   1.8321   1.9523   2.1553   2.3020   2.3448   2.4117
     2.4885   2.4976   2.6436   2.8406   2.9179   3.1443   3.2194   3.2412
     3.4470   3.5462   3.6640   3.7938   3.9498   4.2655   4.6839   5.1204
     5.4633   5.5973   5.9281   6.1566

     occupation numbers 
     1.0000   1.0000   1.0000   1.0000   1.0000   1.0000   1.0000   1.0000
     1.0000   1.0000   1.0000   1.0000   1.0000   1.0000   1.0000   1.0000
     1.0000   1.0000   1.0000   1.0000   1.0000   1.0000   1.0000   1.0000
     1.0000   1.0000   1.0000   1.0000   1.0000   1.0000   1.0000   1.0000
     1.0000   1.0000   1.0000   1.0000

          k = 0.3333 0.5774 0.0993 (  3873 PWs)   bands (ev):

   -10.5516 -10.4299  -9.9114  -9.3796   0.9320   1.2593   1.3157   1.4516
     1.7088   1.7451   1.8241   1.9263   2.1464   2.2813   2.3422   2.4091
     2.4638   2.4989   2.7026   2.8256   2.9446   3.1215   3.2081   3.2293
     3.4952   3.5744   3.7040   3.7843   3.9269   4.1155   4.8024   5.1904
     5.4977   5.5783   5.8538   6.1243

     occupation numbers 
     1.0000   1.0000   1.0000   1.0000   1.0000   1.0000   1.0000   1.0000
     1.0000   1.0000   1.0000   1.0000   1.0000   1.0000   1.0000   1.0000
     1.0000   1.0000   1.0000   1.0000   1.0000   1.0000   1.0000   1.0000
     1.0000   1.0000   1.0000   1.0000   1.0000   1.0000   1.0000   1.0000
     1.0000   1.0000   1.0000   1.0000

          k = 0.3333 0.5774-0.1489 (  3876 PWs)   bands (ev):

   -10.5516 -10.4299  -9.9114  -9.3796   0.9334   1.2632   1.3224   1.4482
     1.7057   1.7674   1.8156   1.9031   2.1436   2.2677   2.3385   2.4081
     2.4566   2.5047   2.7377   2.8056   2.9652   3.1087   3.1841   3.2334
     3.5192   3.6022   3.7149   3.8034   3.8991   4.0424   4.8516   5.2288
     5.5026   5.6031   5.7902   6.1082

     occupation numbers 
     1.0000   1.0000   1.0000   1.0000   1.0000   1.0000   1.0000   1.0000
     1.0000   1.0000   1.0000   1.0000   1.0000   1.0000   1.0000   1.0000
     1.0000   1.0000   1.0000   1.0000   1.0000   1.0000   1.0000   1.0000
     1.0000   1.0000   1.0000   1.0000   1.0000   1.0000   1.0000   1.0000
     1.0000   1.0000   1.0000   1.0000

          k =-0.1667 0.0962 0.0000 (  3836 PWs)   bands (ev):

   -11.0702 -10.7963 -10.3455  -9.7398   0.6515   0.9305   1.1021   1.2324
     1.3797   1.4643   1.5112   1.6690   1.8858   1.9645   2.1458   2.2351
     2.3043   2.3579   2.4634   2.5051   2.9582   2.9847   3.0685   3.2356
     3.2721   4.7400   4.9546   5.3526   5.7870   6.0252   6.1528   6.3887
     6.6361   6.7716   7.0601   7.3447

     occupation numbers 
     1.0000   1.0000   1.0000   1.0000   1.0000   1.0000   1.0000   1.0000
     1.0000   1.0000   1.0000   1.0000   1.0000   1.0000   1.0000   1.0000
     1.0000   1.0000   1.0000   1.0000   1.0000   1.0000   1.0000   1.0000
     1.0000   1.0000   1.0000   1.0000   1.0000   1.0000   1.0000   1.0000
     1.0000   1.0000   1.0000   1.0000

          k = 0.1667 0.0962 0.0000 (  3836 PWs)   bands (ev):

   -11.0801 -10.7988 -10.3459  -9.7380   0.6891   0.9364   1.0259   1.2464
     1.3314   1.3885   1.4937   1.6738   1.8476   1.9811   2.1126   2.3007
     2.3226   2.3533   2.4651   2.5020   2.9510   2.9819   3.0816   3.2376
     3.2795   4.7505   4.9785   5.4669   5.8852   6.0128   6.1851   6.4042
     6.5818   6.8063   7.0873   7.3369

     occupation numbers 
     1.0000   1.0000   1.0000   1.0000   1.0000   1.0000   1.0000   1.0000
     1.0000   1.0000   1.0000   1.0000   1.0000   1.0000   1.0000   1.0000
     1.0000   1.0000   1.0000   1.0000   1.0000   1.0000   1.0000   1.0000
     1.0000   1.0000   1.0000   1.0000   1.0000   1.0000   1.0000   1.0000
     1.0000   1.0000   1.0000   1.0000

          k = 0.0000-0.1925 0.0496 (  3836 PWs)   bands (ev):

   -11.0740 -10.8011 -10.3506  -9.7413   0.6836   0.9298   1.1252   1.2555
     1.2924   1.4050   1.5372   1.5780   1.7962   1.9919   2.1256   2.2077
     2.3294   2.3567   2.4547   2.5081   2.9596   2.9844   3.1200   3.2459
     3.3085   4.5204   5.1696   5.4711   5.8607   5.9952   6.2135   6.3990
     6.7068   6.7505   7.0862   7.3816

     occupation numbers 
     1.0000   1.0000   1.0000   1.0000   1.0000   1.0000   1.0000   1.0000
     1.0000   1.0000   1.0000   1.0000   1.0000   1.0000   1.0000   1.0000
     1.0000   1.0000   1.0000   1.0000   1.0000   1.0000   1.0000   1.0000
     1.0000   1.0000   1.0000   1.0000   1.0000   1.0000   1.0000   1.0000
     1.0000   1.0000   1.0000   1.0000

          k =-0.1667 0.0962 0.0496 (  3836 PWs)   bands (ev):

   -11.0689 -10.7991 -10.3434  -9.7404   0.6529   0.9341   1.1040   1.2278
     1.3773   1.4660   1.5090   1.6631   1.8843   1.9694   2.1339   2.2350
     2.2982   2.3574   2.4636   2.4969   2.9605   2.9694   3.1397   3.2370
     3.2978   4.5164   5.1347   5.3514   5.8169   6.0140   6.1044   6.3793
     6.6783   6.7805   7.0321   7.3431

     occupation numbers 
     1.0000   1.0000   1.0000   1.0000   1.0000   1.0000   1.0000   1.0000
     1.0000   1.0000   1.0000   1.0000   1.0000   1.0000   1.0000   1.0000
     1.0000   1.0000   1.0000   1.0000   1.0000   1.0000   1.0000   1.0000
     1.0000   1.0000   1.0000   1.0000   1.0000   1.0000   1.0000   1.0000
     1.0000   1.0000   1.0000   1.0000

          k = 0.1667 0.0962 0.0496 (  3836 PWs)   bands (ev):

   -11.0789 -10.8017 -10.3437  -9.7386   0.6895   0.9409   1.0262   1.2475
     1.3328   1.3895   1.4870   1.6638   1.8440   1.9768   2.1079   2.3026
     2.3210   2.3519   2.4656   2.5042   2.9527   2.9664   3.1172   3.2372
     3.3360   4.5266   5.1519   5.4667   5.8970   6.0277   6.1346   6.3953
     6.6286   6.8147   7.0499   7.3340

     occupation numbers 
     1.0000   1.0000   1.0000   1.0000   1.0000   1.0000   1.0000   1.0000
     1.0000   1.0000   1.0000   1.0000   1.0000   1.0000   1.0000   1.0000
     1.0000   1.0000   1.0000   1.0000   1.0000   1.0000   1.0000   1.0000
     1.0000   1.0000   1.0000   1.0000   1.0000   1.0000   1.0000   1.0000
     1.0000   1.0000   1.0000   1.0000

          k =-0.1667-0.0962 0.0496 (  3836 PWs)   bands (ev):

   -11.0789 -10.8017 -10.3437  -9.7386   0.6897   0.9382   1.0290   1.2456
     1.3309   1.3837   1.4956   1.6689   1.8486   1.9861   2.0915   2.2990
     2.3245   2.3523   2.4643   2.4906   2.9465   2.9772   3.1586   3.2380
     3.3001   4.5129   5.1824   5.5006   5.8263   6.0064   6.1724   6.3982
     6.6135   6.8163   7.0704   7.3342

     occupation numbers 
     1.0000   1.0000   1.0000   1.0000   1.0000   1.0000   1.0000   1.0000
     1.0000   1.0000   1.0000   1.0000   1.0000   1.0000   1.0000   1.0000
     1.0000   1.0000   1.0000   1.0000   1.0000   1.0000   1.0000   1.0000
     1.0000   1.0000   1.0000   1.0000   1.0000   1.0000   1.0000   1.0000
     1.0000   1.0000   1.0000   1.0000

          k = 0.1667-0.0962 0.0496 (  3836 PWs)   bands (ev):

   -11.0689 -10.7992 -10.3434  -9.7404   0.6525   0.9356   1.1002   1.2351
     1.3808   1.4573   1.5108   1.6624   1.8865   1.9498   2.1450   2.2328
     2.3106   2.3594   2.4630   2.4965   2.9439   2.9736   3.1447   3.2341
     3.3066   4.5069   5.1345   5.3960   5.7155   6.0333   6.1646   6.3865
     6.6433   6.7772   7.0478   7.3437

     occupation numbers 
     1.0000   1.0000   1.0000   1.0000   1.0000   1.0000   1.0000   1.0000
     1.0000   1.0000   1.0000   1.0000   1.0000   1.0000   1.0000   1.0000
     1.0000   1.0000   1.0000   1.0000   1.0000   1.0000   1.0000   1.0000
     1.0000   1.0000   1.0000   1.0000   1.0000   1.0000   1.0000   1.0000
     1.0000   1.0000   1.0000   1.0000

          k = 0.0000-0.1925 0.0993 (  3838 PWs)   bands (ev):

   -11.0712 -10.8071 -10.3461  -9.7426   0.6847   0.9372   1.1267   1.2549
     1.2907   1.4052   1.5269   1.5780   1.7825   1.9853   2.1239   2.1931
     2.3315   2.3620   2.4548   2.4923   2.9581   2.9711   3.1797   3.2454
     3.4705   4.2007   5.3684   5.4854   5.8371   6.0032   6.1686   6.3744
     6.7558   6.7992   7.0080   7.3763

     occupation numbers 
     1.0000   1.0000   1.0000   1.0000   1.0000   1.0000   1.0000   1.0000
     1.0000   1.0000   1.0000   1.0000   1.0000   1.0000   1.0000   1.0000
     1.0000   1.0000   1.0000   1.0000   1.0000   1.0000   1.0000   1.0000
     1.0000   1.0000   1.0000   1.0000   1.0000   1.0000   1.0000   1.0000
     1.0000   1.0000   1.0000   1.0000

          k =-0.1667 0.0962 0.0993 (  3838 PWs)   bands (ev):

   -11.0662 -10.8048 -10.3392  -9.7416   0.6553   0.9435   1.1033   1.2255
     1.3755   1.4603   1.5071   1.6507   1.8833   1.9590   2.1238   2.2326
     2.3000   2.3584   2.4634   2.4842   2.9483   2.9675   3.2007   3.2368
     3.4559   4.2011   5.2999   5.3953   5.8056   5.9771   6.0785   6.3667
     6.7391   6.8059   6.9716   7.3405

     occupation numbers 
     1.0000   1.0000   1.0000   1.0000   1.0000   1.0000   1.0000   1.0000
     1.0000   1.0000   1.0000   1.0000   1.0000   1.0000   1.0000   1.0000
     1.0000   1.0000   1.0000   1.0000   1.0000   1.0000   1.0000   1.0000
     1.0000   1.0000   1.0000   1.0000   1.0000   1.0000   1.0000   1.0000
     1.0000   1.0000   1.0000   1.0000

          k = 0.1667 0.0962 0.0993 (  3838 PWs)   bands (ev):

   -11.0762 -10.8074 -10.3394  -9.7398   0.6906   0.9472   1.0297   1.2482
     1.3337   1.3841   1.4823   1.6489   1.8414   1.9761   2.0868   2.3025
     2.3217   2.3502   2.4655   2.4952   2.9471   2.9647   3.1701   3.2371
     3.4994   4.2012   5.3444   5.4997   5.8784   6.0158   6.0715   6.3766
     6.7301   6.8301   6.9738   7.3284

     occupation numbers 
     1.0000   1.0000   1.0000   1.0000   1.0000   1.0000   1.0000   1.0000
     1.0000   1.0000   1.0000   1.0000   1.0000   1.0000   1.0000   1.0000
     1.0000   1.0000   1.0000   1.0000   1.0000   1.0000   1.0000   1.0000
     1.0000   1.0000   1.0000   1.0000   1.0000   1.0000   1.0000   1.0000
     1.0000   1.0000   1.0000   1.0000

          k =-0.1667-0.0962 0.0993 (  3838 PWs)   bands (ev):

   -11.0763 -10.8074 -10.3395  -9.7398   0.6908   0.9445   1.0326   1.2459
     1.3314   1.3788   1.4917   1.6537   1.8461   1.9862   2.0690   2.2987
     2.3252   2.3508   2.4642   2.4846   2.9443   2.9708   3.1964   3.2375
     3.4765   4.1968   5.3498   5.5994   5.7423   6.0042   6.1145   6.3797
     6.7075   6.8330   7.0021   7.3286

     occupation numbers 
     1.0000   1.0000   1.0000   1.0000   1.0000   1.0000   1.0000   1.0000
     1.0000   1.0000   1.0000   1.0000   1.0000   1.0000   1.0000   1.0000
     1.0000   1.0000   1.0000   1.0000   1.0000   1.0000   1.0000   1.0000
     1.0000   1.0000   1.0000   1.0000   1.0000   1.0000   1.0000   1.0000
     1.0000   1.0000   1.0000   1.0000

          k = 0.1667-0.0962 0.0993 (  3838 PWs)   bands (ev):

   -11.0662 -10.8049 -10.3392  -9.7416   0.6548   0.9448   1.1000   1.2328
     1.3791   1.4506   1.5090   1.6502   1.8856   1.9405   2.1349   2.2307
     2.3111   2.3604   2.4628   2.4824   2.9385   2.9702   3.2018   3.2341
     3.4668   4.1919   5.2730   5.5129   5.6364   6.0370   6.1124   6.3718
     6.7121   6.7924   6.9960   7.3411

     occupation numbers 
     1.0000   1.0000   1.0000   1.0000   1.0000   1.0000   1.0000   1.0000
     1.0000   1.0000   1.0000   1.0000   1.0000   1.0000   1.0000   1.0000
     1.0000   1.0000   1.0000   1.0000   1.0000   1.0000   1.0000   1.0000
     1.0000   1.0000   1.0000   1.0000   1.0000   1.0000   1.0000   1.0000
     1.0000   1.0000   1.0000   1.0000

          k =-0.1667 0.0962-0.1489 (  3848 PWs)   bands (ev):

   -11.0649 -10.8077 -10.3371  -9.7421   0.6562   0.9492   1.1012   1.2278
     1.3761   1.4519   1.5075   1.6444   1.8837   1.9449   2.1254   2.2307
     2.3064   2.3598   2.4630   2.4777   2.9411   2.9685   3.2102   3.2353
     3.6237   3.9943   5.3191   5.5010   5.7149   5.9938   6.0769   6.3620
     6.7630   6.8268   6.9345   7.3395

     occupation numbers 
     1.0000   1.0000   1.0000   1.0000   1.0000   1.0000   1.0000   1.0000
     1.0000   1.0000   1.0000   1.0000   1.0000   1.0000   1.0000   1.0000
     1.0000   1.0000   1.0000   1.0000   1.0000   1.0000   1.0000   1.0000
     1.0000   1.0000   1.0000   1.0000   1.0000   1.0000   1.0000   1.0000
     1.0000   1.0000   1.0000   1.0000

          k = 0.1667 0.0962-0.1489 (  3848 PWs)   bands (ev):

   -11.0749 -10.8102 -10.3373  -9.7405   0.6912   0.9490   1.0330   1.2477
     1.3328   1.3781   1.4851   1.6437   1.8424   1.9803   2.0691   2.3003
     2.3240   2.3500   2.4647   2.4868   2.9444   2.9671   3.1919   3.2371
     3.6585   3.9865   5.3985   5.5983   5.7925   5.9882   6.0740   6.3681
     6.8052   6.8272   6.9259   7.3256

     occupation numbers 
     1.0000   1.0000   1.0000   1.0000   1.0000   1.0000   1.0000   1.0000
     1.0000   1.0000   1.0000   1.0000   1.0000   1.0000   1.0000   1.0000
     1.0000   1.0000   1.0000   1.0000   1.0000   1.0000   1.0000   1.0000
     1.0000   1.0000   1.0000   1.0000   1.0000   1.0000   1.0000   1.0000
     1.0000   1.0000   1.0000   1.0000

          k =-0.3333 0.1925 0.0000 (  3858 PWs)   bands (ev):

   -10.7660 -10.5810 -10.0924  -9.5372   0.6324   0.9206   1.1875   1.3840
     1.6036   1.6173   1.7958   1.8226   1.9869   2.1091   2.3153   2.3647
     2.4108   2.4459   2.5045   2.7030   2.8700   2.9921   3.1108   3.2705
     3.4309   3.8244   4.1650   4.2641   4.9331   5.2506   5.5541   5.7604
     5.8108   6.1220   6.5483   6.8926

     occupation numbers 
     1.0000   1.0000   1.0000   1.0000   1.0000   1.0000   1.0000   1.0000
     1.0000   1.0000   1.0000   1.0000   1.0000   1.0000   1.0000   1.0000
     1.0000   1.0000   1.0000   1.0000   1.0000   1.0000   1.0000   1.0000
     1.0000   1.0000   1.0000   1.0000   1.0000   1.0000   1.0000   1.0000
     1.0000   1.0000   1.0000   1.0000

          k = 0.3333 0.1925 0.0000 (  3858 PWs)   bands (ev):

   -10.8040 -10.5832 -10.0931  -9.5312   0.6650   0.8752   1.0378   1.2888
     1.4673   1.5274   1.6572   1.8636   2.0223   2.0928   2.3069   2.3772
     2.4283   2.5008   2.5746   2.6831   2.8803   3.0076   3.1337   3.2722
     3.4176   3.9682   4.2041   4.3144   5.0222   5.4259   5.6751   5.7775
     5.9830   6.2346   6.5785   6.8268

     occupation numbers 
     1.0000   1.0000   1.0000   1.0000   1.0000   1.0000   1.0000   1.0000
     1.0000   1.0000   1.0000   1.0000   1.0000   1.0000   1.0000   1.0000
     1.0000   1.0000   1.0000   1.0000   1.0000   1.0000   1.0000   1.0000
     1.0000   1.0000   1.0000   1.0000   1.0000   1.0000   1.0000   1.0000
     1.0000   1.0000   1.0000   1.0000

          k = 0.0000-0.3849 0.0496 (  3860 PWs)   bands (ev):

   -10.7846 -10.5846 -10.1160  -9.5394   0.6473   0.8892   1.1858   1.3264
     1.4925   1.5566   1.6643   1.7329   1.8309   2.0732   2.2723   2.3702
     2.4031   2.4427   2.4949   2.6824   2.9576   3.0122   3.0973   3.2876
     3.4861   3.9809   4.1737   4.3636   5.0298   5.4311   5.4670   5.8935
     6.0562   6.2815   6.7300   6.9806

     occupation numbers 
     1.0000   1.0000   1.0000   1.0000   1.0000   1.0000   1.0000   1.0000
     1.0000   1.0000   1.0000   1.0000   1.0000   1.0000   1.0000   1.0000
     1.0000   1.0000   1.0000   1.0000   1.0000   1.0000   1.0000   1.0000
     1.0000   1.0000   1.0000   1.0000   1.0000   1.0000   1.0000   1.0000
     1.0000   1.0000   1.0000   1.0000

          k =-0.3333 0.1925 0.0496 (  3860 PWs)   bands (ev):

   -10.7656 -10.5816 -10.0922  -9.5373   0.6306   0.9357   1.1926   1.3730
     1.5862   1.6188   1.7763   1.8240   2.0068   2.1170   2.3305   2.3428
     2.4150   2.4427   2.5072   2.6345   2.9440   2.9988   3.0755   3.2710
     3.4744   3.8410   4.1598   4.2763   4.9067   5.2616   5.4248   5.7661
     5.8714   6.1450   6.5675   6.8909

     occupation numbers 
     1.0000   1.0000   1.0000   1.0000   1.0000   1.0000   1.0000   1.0000
     1.0000   1.0000   1.0000   1.0000   1.0000   1.0000   1.0000   1.0000
     1.0000   1.0000   1.0000   1.0000   1.0000   1.0000   1.0000   1.0000
     1.0000   1.0000   1.0000   1.0000   1.0000   1.0000   1.0000   1.0000
     1.0000   1.0000   1.0000   1.0000

          k = 0.3333 0.1925 0.0496 (  3860 PWs)   bands (ev):

   -10.8036 -10.5839 -10.0928  -9.5313   0.6676   0.8756   1.0378   1.2956
     1.4727   1.5359   1.6406   1.8328   2.0278   2.0999   2.3212   2.3621
     2.4171   2.4994   2.5760   2.6579   2.9483   3.0105   3.0684   3.2715
     3.4998   3.9641   4.1731   4.3585   5.0135   5.3919   5.4766   5.8707
     6.0687   6.2669   6.5736   6.8192

     occupation numbers 
     1.0000   1.0000   1.0000   1.0000   1.0000   1.0000   1.0000   1.0000
     1.0000   1.0000   1.0000   1.0000   1.0000   1.0000   1.0000   1.0000
     1.0000   1.0000   1.0000   1.0000   1.0000   1.0000   1.0000   1.0000
     1.0000   1.0000   1.0000   1.0000   1.0000   1.0000   1.0000   1.0000
     1.0000   1.0000   1.0000   1.0000

          k =-0.3333-0.1925 0.0496 (  3860 PWs)   bands (ev):

   -10.8036 -10.5839 -10.0927  -9.5313   0.6644   0.8827   1.0379   1.2904
     1.4629   1.5178   1.6574   1.8819   2.0223   2.0844   2.2786   2.3818
     2.4418   2.5013   2.5710   2.6318   2.8915   3.0068   3.1686   3.2715
     3.4710   3.9770   4.1311   4.3947   4.9925   5.4126   5.4994   5.8736
     6.0158   6.2730   6.5877   6.8200

     occupation numbers 
     1.0000   1.0000   1.0000   1.0000   1.0000   1.0000   1.0000   1.0000
     1.0000   1.0000   1.0000   1.0000   1.0000   1.0000   1.0000   1.0000
     1.0000   1.0000   1.0000   1.0000   1.0000   1.0000   1.0000   1.0000
     1.0000   1.0000   1.0000   1.0000   1.0000   1.0000   1.0000   1.0000
     1.0000   1.0000   1.0000   1.0000

          k = 0.3333-0.1925 0.0496 (  3860 PWs)   bands (ev):

   -10.7656 -10.5816 -10.0921  -9.5373   0.6355   0.9207   1.1891   1.4037
     1.5865   1.6154   1.7990   1.8101   1.9761   2.1051   2.2906   2.3728
     2.4231   2.4473   2.5011   2.6959   2.8541   2.9954   3.1502   3.2690
     3.4763   3.8160   4.1368   4.3243   4.9044   5.2394   5.3805   5.7661
     5.9357   6.1440   6.5544   6.8905

     occupation numbers 
     1.0000   1.0000   1.0000   1.0000   1.0000   1.0000   1.0000   1.0000
     1.0000   1.0000   1.0000   1.0000   1.0000   1.0000   1.0000   1.0000
     1.0000   1.0000   1.0000   1.0000   1.0000   1.0000   1.0000   1.0000
     1.0000   1.0000   1.0000   1.0000   1.0000   1.0000   1.0000   1.0000
     1.0000   1.0000   1.0000   1.0000

          k = 0.0000-0.3849 0.0993 (  3861 PWs)   bands (ev):

   -10.7835 -10.5865 -10.1150  -9.5396   0.6485   0.8991   1.1837   1.3341
     1.4898   1.5572   1.6553   1.7287   1.8145   2.0748   2.2711   2.3576
     2.3913   2.4727   2.4957   2.6194   2.9864   3.0162   3.0789   3.2874
     3.6302   3.9675   4.1773   4.3846   4.9548   5.2797   5.4626   5.8614
     6.1870   6.3315   6.7317   6.9745

     occupation numbers 
     1.0000   1.0000   1.0000   1.0000   1.0000   1.0000   1.0000   1.0000
     1.0000   1.0000   1.0000   1.0000   1.0000   1.0000   1.0000   1.0000
     1.0000   1.0000   1.0000   1.0000   1.0000   1.0000   1.0000   1.0000
     1.0000   1.0000   1.0000   1.0000   1.0000   1.0000   1.0000   1.0000
     1.0000   1.0000   1.0000   1.0000

          k =-0.3333 0.1925 0.0993 (  3861 PWs)   bands (ev):

   -10.7648 -10.5829 -10.0916  -9.5374   0.6320   0.9518   1.2006   1.3820
     1.5459   1.6185   1.7595   1.8198   2.0146   2.1204   2.2871   2.3644
     2.4274   2.4473   2.5069   2.5832   2.9573   3.0134   3.0868   3.2707
     3.5723   3.8327   4.1796   4.3217   4.8311   5.2061   5.2919   5.7247
     6.0042   6.1851   6.5928   6.8874

     occupation numbers 
     1.0000   1.0000   1.0000   1.0000   1.0000   1.0000   1.0000   1.0000
     1.0000   1.0000   1.0000   1.0000   1.0000   1.0000   1.0000   1.0000
     1.0000   1.0000   1.0000   1.0000   1.0000   1.0000   1.0000   1.0000
     1.0000   1.0000   1.0000   1.0000   1.0000   1.0000   1.0000   1.0000
     1.0000   1.0000   1.0000   1.0000

          k = 0.3333 0.1925 0.0993 (  3861 PWs)   bands (ev):

   -10.8028 -10.5854 -10.0920  -9.5315   0.6697   0.8835   1.0378   1.3057
     1.4765   1.5310   1.6216   1.8197   2.0330   2.1020   2.2894   2.3690
     2.4185   2.4988   2.5745   2.6105   2.9894   3.0183   3.0511   3.2708
     3.6503   3.9262   4.1317   4.4599   4.9543   5.1905   5.4832   5.8212
     6.2133   6.3283   6.5738   6.8033

     occupation numbers 
     1.0000   1.0000   1.0000   1.0000   1.0000   1.0000   1.0000   1.0000
     1.0000   1.0000   1.0000   1.0000   1.0000   1.0000   1.0000   1.0000
     1.0000   1.0000   1.0000   1.0000   1.0000   1.0000   1.0000   1.0000
     1.0000   1.0000   1.0000   1.0000   1.0000   1.0000   1.0000   1.0000
     1.0000   1.0000   1.0000   1.0000

          k =-0.3333-0.1925 0.0993 (  3861 PWs)   bands (ev):

   -10.8028 -10.5854 -10.0920  -9.5315   0.6665   0.8909   1.0378   1.3003
     1.4639   1.5108   1.6454   1.8644   2.0307   2.0852   2.2551   2.3831
     2.4413   2.5002   2.5647   2.5913   2.9314   3.0057   3.1464   3.2708
     3.6344   3.9339   4.1072   4.4861   4.9271   5.2211   5.4865   5.8214
     6.1756   6.3324   6.5908   6.8043

     occupation numbers 
     1.0000   1.0000   1.0000   1.0000   1.0000   1.0000   1.0000   1.0000
     1.0000   1.0000   1.0000   1.0000   1.0000   1.0000   1.0000   1.0000
     1.0000   1.0000   1.0000   1.0000   1.0000   1.0000   1.0000   1.0000
     1.0000   1.0000   1.0000   1.0000   1.0000   1.0000   1.0000   1.0000
     1.0000   1.0000   1.0000   1.0000

          k = 0.3333-0.1925 0.0993 (  3861 PWs)   bands (ev):

   -10.7648 -10.5830 -10.0916  -9.5374   0.6368   0.9357   1.1961   1.4268
     1.5324   1.6161   1.7710   1.8135   1.9867   2.1077   2.2725   2.3752
     2.4350   2.4490   2.5004   2.6241   2.9032   2.9994   3.1495   3.2693
     3.5930   3.7938   4.1570   4.3819   4.8151   5.1523   5.3044   5.7253
     6.0406   6.1889   6.5797   6.8868

     occupation numbers 
     1.0000   1.0000   1.0000   1.0000   1.0000   1.0000   1.0000   1.0000
     1.0000   1.0000   1.0000   1.0000   1.0000   1.0000   1.0000   1.0000
     1.0000   1.0000   1.0000   1.0000   1.0000   1.0000   1.0000   1.0000
     1.0000   1.0000   1.0000   1.0000   1.0000   1.0000   1.0000   1.0000
     1.0000   1.0000   1.0000   1.0000

          k =-0.3333 0.1925-0.1489 (  3864 PWs)   bands (ev):

   -10.7644 -10.5836 -10.0913  -9.5374   0.6350   0.9517   1.2025   1.4193
     1.5066   1.6173   1.7566   1.8161   2.0051   2.1149   2.2673   2.3747
     2.4314   2.4585   2.5031   2.5764   2.9408   3.0058   3.1220   3.2702
     3.6542   3.7811   4.2089   4.3725   4.7570   5.1142   5.3020   5.7047
     6.0627   6.2073   6.5989   6.8855

     occupation numbers 
     1.0000   1.0000   1.0000   1.0000   1.0000   1.0000   1.0000   1.0000
     1.0000   1.0000   1.0000   1.0000   1.0000   1.0000   1.0000   1.0000
     1.0000   1.0000   1.0000   1.0000   1.0000   1.0000   1.0000   1.0000
     1.0000   1.0000   1.0000   1.0000   1.0000   1.0000   1.0000   1.0000
     1.0000   1.0000   1.0000   1.0000

          k = 0.3333 0.1925-0.1489 (  3864 PWs)   bands (ev):

   -10.8024 -10.5861 -10.0916  -9.5316   0.6691   0.8913   1.0377   1.3091
     1.4731   1.5126   1.6280   1.8334   2.0349   2.0962   2.2565   2.3806
     2.4287   2.4993   2.5665   2.5876   2.9685   3.0058   3.1039   3.2707
     3.7799   3.8356   4.1287   4.5318   4.8748   5.1270   5.5018   5.7884
     6.2544   6.3600   6.5812   6.7950

     occupation numbers 
     1.0000   1.0000   1.0000   1.0000   1.0000   1.0000   1.0000   1.0000
     1.0000   1.0000   1.0000   1.0000   1.0000   1.0000   1.0000   1.0000
     1.0000   1.0000   1.0000   1.0000   1.0000   1.0000   1.0000   1.0000
     1.0000   1.0000   1.0000   1.0000   1.0000   1.0000   1.0000   1.0000
     1.0000   1.0000   1.0000   1.0000

          k = 0.5000-0.2887 0.0000 (  3878 PWs)   bands (ev):

   -10.5938 -10.4820  -9.9601  -9.4325   0.7082   0.9332   1.3178   1.4369
     1.6307   1.7241   1.9177   1.9455   2.0349   2.2286   2.4425   2.4880
     2.5195   2.5440   2.5692   2.5991   2.9710   3.0219   3.0832   3.1830
     3.3256   3.4472   3.6527   3.8300   4.5846   4.8076   5.2560   5.4763
     5.6786   5.8369   6.2049   6.6601

     occupation numbers 
     1.0000   1.0000   1.0000   1.0000   1.0000   1.0000   1.0000   1.0000
     1.0000   1.0000   1.0000   1.0000   1.0000   1.0000   1.0000   1.0000
     1.0000   1.0000   1.0000   1.0000   1.0000   1.0000   1.0000   1.0000
     1.0000   1.0000   1.0000   1.0000   1.0000   1.0000   1.0000   1.0000
     1.0000   1.0000   1.0000   1.0000

          k =-0.5000-0.2887 0.0000 (  3878 PWs)   bands (ev):

   -10.6573 -10.4742  -9.9607  -9.4240   0.6755   0.8423   1.0548   1.3462
     1.5365   1.5958   1.7543   2.0268   2.1129   2.2275   2.4283   2.4714
     2.4911   2.5493   2.6663   2.6978   3.0172   3.0537   3.1870   3.2690
     3.3519   3.4390   3.5026   3.9906   4.4786   5.0785   5.5966   5.7114
     5.8738   5.9767   6.1369   6.5587

     occupation numbers 
     1.0000   1.0000   1.0000   1.0000   1.0000   1.0000   1.0000   1.0000
     1.0000   1.0000   1.0000   1.0000   1.0000   1.0000   1.0000   1.0000
     1.0000   1.0000   1.0000   1.0000   1.0000   1.0000   1.0000   1.0000
     1.0000   1.0000   1.0000   1.0000   1.0000   1.0000   1.0000   1.0000
     1.0000   1.0000   1.0000   1.0000

          k = 0.5000-0.2887 0.0496 (  3864 PWs)   bands (ev):

   -10.5937 -10.4820  -9.9602  -9.4325   0.7094   0.9426   1.3105   1.4459
     1.6177   1.7193   1.8984   1.9518   2.0392   2.2406   2.4352   2.4941
     2.5204   2.5426   2.5639   2.6053   2.9601   3.0202   3.0906   3.1868
     3.3256   3.4504   3.6483   3.8282   4.6250   4.8229   5.2426   5.4425
     5.6500   5.8498   6.2214   6.6575

     occupation numbers 
     1.0000   1.0000   1.0000   1.0000   1.0000   1.0000   1.0000   1.0000
     1.0000   1.0000   1.0000   1.0000   1.0000   1.0000   1.0000   1.0000
     1.0000   1.0000   1.0000   1.0000   1.0000   1.0000   1.0000   1.0000
     1.0000   1.0000   1.0000   1.0000   1.0000   1.0000   1.0000   1.0000
     1.0000   1.0000   1.0000   1.0000

          k =-0.5000-0.2887 0.0496 (  3864 PWs)   bands (ev):

   -10.6572 -10.4743  -9.9607  -9.4240   0.6776   0.8457   1.0543   1.3434
     1.5397   1.5924   1.7585   2.0035   2.1171   2.2330   2.4211   2.4657
     2.5130   2.5501   2.6621   2.6971   3.0068   3.0534   3.1681   3.3001
     3.3530   3.4363   3.4970   3.9923   4.5319   5.0973   5.4991   5.6087
     5.9575   6.0185   6.1588   6.5486

     occupation numbers 
     1.0000   1.0000   1.0000   1.0000   1.0000   1.0000   1.0000   1.0000
     1.0000   1.0000   1.0000   1.0000   1.0000   1.0000   1.0000   1.0000
     1.0000   1.0000   1.0000   1.0000   1.0000   1.0000   1.0000   1.0000
     1.0000   1.0000   1.0000   1.0000   1.0000   1.0000   1.0000   1.0000
     1.0000   1.0000   1.0000   1.0000

          k = 0.5000-0.2887 0.0993 (  3864 PWs)   bands (ev):

   -10.5937 -10.4821  -9.9602  -9.4324   0.7119   0.9628   1.2945   1.4711
     1.5799   1.7127   1.8761   1.9520   2.0457   2.2655   2.4209   2.5005
     2.5247   2.5387   2.5563   2.6153   2.9414   3.0179   3.1003   3.1946
     3.3254   3.4572   3.6394   3.8248   4.7191   4.8666   5.1861   5.3718
     5.6006   5.8840   6.2444   6.6520

     occupation numbers 
     1.0000   1.0000   1.0000   1.0000   1.0000   1.0000   1.0000   1.0000
     1.0000   1.0000   1.0000   1.0000   1.0000   1.0000   1.0000   1.0000
     1.0000   1.0000   1.0000   1.0000   1.0000   1.0000   1.0000   1.0000
     1.0000   1.0000   1.0000   1.0000   1.0000   1.0000   1.0000   1.0000
     1.0000   1.0000   1.0000   1.0000

          k =-0.5000-0.2887 0.0993 (  3864 PWs)   bands (ev):

   -10.6570 -10.4746  -9.9606  -9.4240   0.6818   0.8527   1.0530   1.3378
     1.5485   1.5828   1.7684   1.9609   2.1216   2.2421   2.4099   2.4647
     2.5427   2.5543   2.6510   2.6952   2.9869   3.0524   3.1488   3.3391
     3.3639   3.4257   3.4857   3.9944   4.6748   5.1415   5.2801   5.4954
     6.0417   6.0844   6.1959   6.5259

     occupation numbers 
     1.0000   1.0000   1.0000   1.0000   1.0000   1.0000   1.0000   1.0000
     1.0000   1.0000   1.0000   1.0000   1.0000   1.0000   1.0000   1.0000
     1.0000   1.0000   1.0000   1.0000   1.0000   1.0000   1.0000   1.0000
     1.0000   1.0000   1.0000   1.0000   1.0000   1.0000   1.0000   1.0000
     1.0000   1.0000   1.0000   1.0000

          k = 0.5000-0.2887-0.1489 (  3860 PWs)   bands (ev):

   -10.5936 -10.4821  -9.9602  -9.4324   0.7132   0.9740   1.2856   1.4961
     1.5471   1.7106   1.8681   1.9505   2.0482   2.2790   2.4129   2.5021
     2.5280   2.5361   2.5535   2.6199   2.9331   3.0171   3.1037   3.1984
     3.3254   3.4609   3.6348   3.8232   4.7725   4.9137   5.1232   5.3330
     5.5860   5.9012   6.2525   6.6491

     occupation numbers 
     1.0000   1.0000   1.0000   1.0000   1.0000   1.0000   1.0000   1.0000
     1.0000   1.0000   1.0000   1.0000   1.0000   1.0000   1.0000   1.0000
     1.0000   1.0000   1.0000   1.0000   1.0000   1.0000   1.0000   1.0000
     1.0000   1.0000   1.0000   1.0000   1.0000   1.0000   1.0000   1.0000
     1.0000   1.0000   1.0000   1.0000

          k =-0.5000-0.2887-0.1489 (  3860 PWs)   bands (ev):

   -10.6569 -10.4747  -9.9606  -9.4240   0.6840   0.8563   1.0522   1.3350
     1.5565   1.5743   1.7746   1.9401   2.1231   2.2460   2.4053   2.4651
     2.5488   2.5655   2.6430   2.6943   2.9776   3.0519   3.1428   3.3452
     3.3909   3.4080   3.4802   3.9951   4.7977   5.1095   5.1907   5.4405
     6.0730   6.1149   6.2105   6.5128

     occupation numbers 
     1.0000   1.0000   1.0000   1.0000   1.0000   1.0000   1.0000   1.0000
     1.0000   1.0000   1.0000   1.0000   1.0000   1.0000   1.0000   1.0000
     1.0000   1.0000   1.0000   1.0000   1.0000   1.0000   1.0000   1.0000
     1.0000   1.0000   1.0000   1.0000   1.0000   1.0000   1.0000   1.0000
     1.0000   1.0000   1.0000   1.0000

          k =-0.1667 0.2887 0.0000 (  3851 PWs)   bands (ev):

   -10.8498 -10.6354 -10.1692  -9.5911   0.6629   0.9739   1.1721   1.3225
     1.5104   1.5783   1.6573   1.7363   1.9571   2.0682   2.1331   2.2988
     2.3782   2.3996   2.4882   2.6305   2.9119   3.0074   3.0613   3.2751
     3.4154   4.2121   4.5155   4.7683   5.0070   5.4009   5.6810   5.9064
     6.0721   6.1034   6.7860   6.8453

     occupation numbers 
     1.0000   1.0000   1.0000   1.0000   1.0000   1.0000   1.0000   1.0000
     1.0000   1.0000   1.0000   1.0000   1.0000   1.0000   1.0000   1.0000
     1.0000   1.0000   1.0000   1.0000   1.0000   1.0000   1.0000   1.0000
     1.0000   1.0000   1.0000   1.0000   1.0000   1.0000   1.0000   1.0000
     1.0000   1.0000   1.0000   1.0000

          k = 0.3333-0.0000 0.0000 (  3851 PWs)   bands (ev):

   -10.8612 -10.6358 -10.1543  -9.5858   0.6802   0.9301   1.1128   1.3039
     1.4467   1.5766   1.6453   1.8000   1.9794   2.1118   2.2364   2.3392
     2.3931   2.4767   2.4927   2.6318   2.9629   2.9939   3.0305   3.2524
     3.4195   4.3545   4.5047   4.5660   5.0325   5.3718   5.6214   5.8336
     5.9430   6.2065   6.6869   6.8782

     occupation numbers 
     1.0000   1.0000   1.0000   1.0000   1.0000   1.0000   1.0000   1.0000
     1.0000   1.0000   1.0000   1.0000   1.0000   1.0000   1.0000   1.0000
     1.0000   1.0000   1.0000   1.0000   1.0000   1.0000   1.0000   1.0000
     1.0000   1.0000   1.0000   1.0000   1.0000   1.0000   1.0000   1.0000
     1.0000   1.0000   1.0000   1.0000

          k =-0.1667-0.2887 0.0496 (  3848 PWs)   bands (ev):

   -10.8720 -10.6397 -10.1690  -9.5875   0.7865   0.8850   1.0807   1.2762
     1.3421   1.5077   1.5594   1.6883   1.9057   2.0443   2.1971   2.3298
     2.4086   2.4446   2.4967   2.6051   2.9715   3.0087   3.0994   3.2745
     3.4974   4.3983   4.6591   4.9102   5.0478   5.4412   5.6532   5.7726
     6.1308   6.1651   6.7284   6.9196

     occupation numbers 
     1.0000   1.0000   1.0000   1.0000   1.0000   1.0000   1.0000   1.0000
     1.0000   1.0000   1.0000   1.0000   1.0000   1.0000   1.0000   1.0000
     1.0000   1.0000   1.0000   1.0000   1.0000   1.0000   1.0000   1.0000
     1.0000   1.0000   1.0000   1.0000   1.0000   1.0000   1.0000   1.0000
     1.0000   1.0000   1.0000   1.0000

          k =-0.1667 0.2887-0.0496 (  3848 PWs)   bands (ev):

   -10.8490 -10.6367 -10.1685  -9.5913   0.6644   0.9793   1.1714   1.3284
     1.5114   1.5694   1.6594   1.7257   1.9488   2.0624   2.1348   2.3009
     2.3728   2.4039   2.4849   2.6035   2.9307   2.9973   3.0878   3.2754
     3.4777   4.1940   4.4822   4.7790   5.0226   5.3716   5.5847   5.8882
     6.1230   6.1793   6.7817   6.8452

     occupation numbers 
     1.0000   1.0000   1.0000   1.0000   1.0000   1.0000   1.0000   1.0000
     1.0000   1.0000   1.0000   1.0000   1.0000   1.0000   1.0000   1.0000
     1.0000   1.0000   1.0000   1.0000   1.0000   1.0000   1.0000   1.0000
     1.0000   1.0000   1.0000   1.0000   1.0000   1.0000   1.0000   1.0000
     1.0000   1.0000   1.0000   1.0000

          k = 0.1667-0.2887-0.0496 (  3848 PWs)   bands (ev):

   -10.8491 -10.6366 -10.1685  -9.5912   0.6635   0.9829   1.1693   1.3245
     1.5093   1.5785   1.6427   1.7374   1.9598   2.0747   2.1191   2.2918
     2.3767   2.3981   2.4883   2.6081   2.9007   3.0113   3.1130   3.2648
     3.4726   4.1698   4.5362   4.7756   4.9898   5.3654   5.6072   5.8933
     6.1249   6.1640   6.7869   6.8406

     occupation numbers 
     1.0000   1.0000   1.0000   1.0000   1.0000   1.0000   1.0000   1.0000
     1.0000   1.0000   1.0000   1.0000   1.0000   1.0000   1.0000   1.0000
     1.0000   1.0000   1.0000   1.0000   1.0000   1.0000   1.0000   1.0000
     1.0000   1.0000   1.0000   1.0000   1.0000   1.0000   1.0000   1.0000
     1.0000   1.0000   1.0000   1.0000

          k = 0.3333-0.0000 0.0496 (  3848 PWs)   bands (ev):

   -10.8606 -10.6369 -10.1536  -9.5859   0.6824   0.9338   1.1136   1.3052
     1.4494   1.5861   1.6350   1.7792   1.9810   2.1038   2.2325   2.3333
     2.3965   2.4717   2.4939   2.6242   2.9468   2.9840   3.0813   3.2479
     3.4901   4.2811   4.5209   4.6058   5.0349   5.3600   5.4527   5.8187
     6.0840   6.2399   6.6763   6.8751

     occupation numbers 
     1.0000   1.0000   1.0000   1.0000   1.0000   1.0000   1.0000   1.0000
     1.0000   1.0000   1.0000   1.0000   1.0000   1.0000   1.0000   1.0000
     1.0000   1.0000   1.0000   1.0000   1.0000   1.0000   1.0000   1.0000
     1.0000   1.0000   1.0000   1.0000   1.0000   1.0000   1.0000   1.0000
     1.0000   1.0000   1.0000   1.0000

          k =-0.3333 0.0000 0.0496 (  3848 PWs)   bands (ev):

   -10.8606 -10.6369 -10.1536  -9.5859   0.6801   0.9398   1.1116   1.3053
     1.4461   1.5631   1.6439   1.7988   1.9871   2.1194   2.2177   2.3362
     2.3889   2.4740   2.4967   2.5985   2.9563   2.9849   3.0899   3.2519
     3.4739   4.2738   4.5327   4.6240   5.0217   5.2907   5.5642   5.8081
     6.0400   6.2379   6.6868   6.8770

     occupation numbers 
     1.0000   1.0000   1.0000   1.0000   1.0000   1.0000   1.0000   1.0000
     1.0000   1.0000   1.0000   1.0000   1.0000   1.0000   1.0000   1.0000
     1.0000   1.0000   1.0000   1.0000   1.0000   1.0000   1.0000   1.0000
     1.0000   1.0000   1.0000   1.0000   1.0000   1.0000   1.0000   1.0000
     1.0000   1.0000   1.0000   1.0000

          k =-0.1667-0.2887 0.0993 (  3851 PWs)   bands (ev):

   -10.8706 -10.6424 -10.1673  -9.5879   0.7895   0.8921   1.0827   1.2837
     1.3361   1.5074   1.5550   1.6742   1.8945   2.0549   2.1714   2.3251
     2.4073   2.4567   2.4897   2.5767   2.9777   2.9953   3.1377   3.2625
     3.6888   4.2068   4.7175   4.9181   5.0925   5.3584   5.5328   5.7273
     6.1910   6.3267   6.7055   6.9078

     occupation numbers 
     1.0000   1.0000   1.0000   1.0000   1.0000   1.0000   1.0000   1.0000
     1.0000   1.0000   1.0000   1.0000   1.0000   1.0000   1.0000   1.0000
     1.0000   1.0000   1.0000   1.0000   1.0000   1.0000   1.0000   1.0000
     1.0000   1.0000   1.0000   1.0000   1.0000   1.0000   1.0000   1.0000
     1.0000   1.0000   1.0000   1.0000

          k =-0.1667 0.2887-0.0993 (  3851 PWs)   bands (ev):

   -10.8476 -10.6393 -10.1670  -9.5916   0.6665   0.9944   1.1675   1.3383
     1.5150   1.5521   1.6443   1.7204   1.9429   2.0611   2.1262   2.2926
     2.3707   2.4098   2.4816   2.5665   2.9303   3.0001   3.1349   3.2685
     3.6452   4.0867   4.4871   4.7796   5.0211   5.3173   5.4740   5.8653
     6.1617   6.3139   6.7770   6.8392

     occupation numbers 
     1.0000   1.0000   1.0000   1.0000   1.0000   1.0000   1.0000   1.0000
     1.0000   1.0000   1.0000   1.0000   1.0000   1.0000   1.0000   1.0000
     1.0000   1.0000   1.0000   1.0000   1.0000   1.0000   1.0000   1.0000
     1.0000   1.0000   1.0000   1.0000   1.0000   1.0000   1.0000   1.0000
     1.0000   1.0000   1.0000   1.0000

          k = 0.1667-0.2887-0.0993 (  3851 PWs)   bands (ev):

   -10.8476 -10.6392 -10.1671  -9.5916   0.6656   0.9989   1.1642   1.3342
     1.5110   1.5633   1.6302   1.7304   1.9536   2.0736   2.1090   2.2858
     2.3713   2.4049   2.4848   2.5715   2.9103   3.0087   3.1555   3.2593
     3.6395   4.0672   4.5386   4.7801   4.9747   5.3232   5.4888   5.8680
     6.1640   6.3037   6.7821   6.8349

     occupation numbers 
     1.0000   1.0000   1.0000   1.0000   1.0000   1.0000   1.0000   1.0000
     1.0000   1.0000   1.0000   1.0000   1.0000   1.0000   1.0000   1.0000
     1.0000   1.0000   1.0000   1.0000   1.0000   1.0000   1.0000   1.0000
     1.0000   1.0000   1.0000   1.0000   1.0000   1.0000   1.0000   1.0000
     1.0000   1.0000   1.0000   1.0000

          k = 0.3333-0.0000 0.0993 (  3851 PWs)   bands (ev):

   -10.8594 -10.6391 -10.1523  -9.5862   0.6843   0.9473   1.1135   1.3081
     1.4533   1.5802   1.6187   1.7621   1.9873   2.1003   2.2138   2.3291
     2.3948   2.4655   2.4986   2.5914   2.9435   2.9826   3.1307   3.2441
     3.6688   4.1124   4.5965   4.6621   4.9839   5.2296   5.3908   5.7837
     6.1963   6.3289   6.6595   6.8697

     occupation numbers 
     1.0000   1.0000   1.0000   1.0000   1.0000   1.0000   1.0000   1.0000
     1.0000   1.0000   1.0000   1.0000   1.0000   1.0000   1.0000   1.0000
     1.0000   1.0000   1.0000   1.0000   1.0000   1.0000   1.0000   1.0000
     1.0000   1.0000   1.0000   1.0000   1.0000   1.0000   1.0000   1.0000
     1.0000   1.0000   1.0000   1.0000

          k =-0.3333 0.0000 0.0993 (  3851 PWs)   bands (ev):

   -10.8594 -10.6391 -10.1524  -9.5862   0.6820   0.9543   1.1104   1.3087
     1.4507   1.5492   1.6364   1.7802   1.9946   2.1175   2.1941   2.3299
     2.3881   2.4699   2.5014   2.5710   2.9496   2.9826   3.1370   3.2473
     3.6502   4.1162   4.5902   4.7049   4.9619   5.1778   5.4641   5.7752
     6.1754   6.3158   6.6724   6.8723

     occupation numbers 
     1.0000   1.0000   1.0000   1.0000   1.0000   1.0000   1.0000   1.0000
     1.0000   1.0000   1.0000   1.0000   1.0000   1.0000   1.0000   1.0000
     1.0000   1.0000   1.0000   1.0000   1.0000   1.0000   1.0000   1.0000
     1.0000   1.0000   1.0000   1.0000   1.0000   1.0000   1.0000   1.0000
     1.0000   1.0000   1.0000   1.0000

          k =-0.1667 0.2887 0.1489 (  3852 PWs)   bands (ev):

   -10.8469 -10.6405 -10.1663  -9.5917   0.6670   1.0052   1.1631   1.3423
     1.5194   1.5410   1.6310   1.7234   1.9449   2.0653   2.1150   2.2850
     2.3703   2.4123   2.4812   2.5539   2.9226   3.0047   3.1580   3.2619
     3.8014   3.9497   4.5222   4.7695   4.9907   5.3154   5.4278   5.8563
     6.1804   6.3655   6.7766   6.8331

     occupation numbers 
     1.0000   1.0000   1.0000   1.0000   1.0000   1.0000   1.0000   1.0000
     1.0000   1.0000   1.0000   1.0000   1.0000   1.0000   1.0000   1.0000
     1.0000   1.0000   1.0000   1.0000   1.0000   1.0000   1.0000   1.0000
     1.0000   1.0000   1.0000   1.0000   1.0000   1.0000   1.0000   1.0000
     1.0000   1.0000   1.0000   1.0000

          k = 0.3333-0.0000-0.1489 (  3852 PWs)   bands (ev):

   -10.8588 -10.6402 -10.1517  -9.5864   0.6841   0.9582   1.1115   1.3102
     1.4559   1.5525   1.6251   1.7639   1.9934   2.1055   2.1960   2.3282
     2.3905   2.4660   2.5025   2.5692   2.9466   2.9823   3.1469   3.2440
     3.8478   3.9431   4.6410   4.7333   4.8805   5.1715   5.4040   5.7642
     6.2219   6.3746   6.6543   6.8680

     occupation numbers 
     1.0000   1.0000   1.0000   1.0000   1.0000   1.0000   1.0000   1.0000
     1.0000   1.0000   1.0000   1.0000   1.0000   1.0000   1.0000   1.0000
     1.0000   1.0000   1.0000   1.0000   1.0000   1.0000   1.0000   1.0000
     1.0000   1.0000   1.0000   1.0000   1.0000   1.0000   1.0000   1.0000
     1.0000   1.0000   1.0000   1.0000

          k =-0.1667 0.4811 0.0000 (  3861 PWs)   bands (ev):

   -10.6229 -10.4804  -9.9878  -9.4353   0.7838   1.0246   1.2007   1.4789
     1.5712   1.7222   1.7900   1.8503   2.0162   2.1238   2.3239   2.3981
     2.4400   2.4925   2.6135   2.7673   2.8364   3.0058   3.1680   3.2788
     3.4605   3.6955   3.8476   4.0788   4.4821   4.6843   5.1488   5.3375
     5.7253   5.8959   6.2691   6.4727

     occupation numbers 
     1.0000   1.0000   1.0000   1.0000   1.0000   1.0000   1.0000   1.0000
     1.0000   1.0000   1.0000   1.0000   1.0000   1.0000   1.0000   1.0000
     1.0000   1.0000   1.0000   1.0000   1.0000   1.0000   1.0000   1.0000
     1.0000   1.0000   1.0000   1.0000   1.0000   1.0000   1.0000   1.0000
     1.0000   1.0000   1.0000   1.0000

          k =-0.3333 0.3849 0.0000 (  3861 PWs)   bands (ev):

   -10.6071 -10.4814  -9.9710  -9.4343   0.7823   1.0689   1.3124   1.4183
     1.6600   1.7511   1.9036   1.9287   2.0880   2.2124   2.2848   2.3868
     2.4647   2.5047   2.5919   2.7280   2.8195   3.0061   3.1432   3.2225
     3.4203   3.6556   3.7794   4.0963   4.3572   4.6708   5.0708   5.2631
     5.5772   5.8509   6.1555   6.3857

     occupation numbers 
     1.0000   1.0000   1.0000   1.0000   1.0000   1.0000   1.0000   1.0000
     1.0000   1.0000   1.0000   1.0000   1.0000   1.0000   1.0000   1.0000
     1.0000   1.0000   1.0000   1.0000   1.0000   1.0000   1.0000   1.0000
     1.0000   1.0000   1.0000   1.0000   1.0000   1.0000   1.0000   1.0000
     1.0000   1.0000   1.0000   1.0000

          k = 0.5000 0.0962 0.0000 (  3861 PWs)   bands (ev):

   -10.6464 -10.4763  -9.9632  -9.4274   0.8195   0.9755   1.0918   1.4664
     1.5184   1.6736   1.7651   1.9344   2.1063   2.1950   2.4079   2.4378
     2.4787   2.6132   2.6623   2.8277   2.9208   3.0392   3.1623   3.2717
     3.4015   3.6022   3.6822   4.1267   4.4262   4.6477   5.0852   5.3440
     5.7091   5.9389   6.1209   6.3528

     occupation numbers 
     1.0000   1.0000   1.0000   1.0000   1.0000   1.0000   1.0000   1.0000
     1.0000   1.0000   1.0000   1.0000   1.0000   1.0000   1.0000   1.0000
     1.0000   1.0000   1.0000   1.0000   1.0000   1.0000   1.0000   1.0000
     1.0000   1.0000   1.0000   1.0000   1.0000   1.0000   1.0000   1.0000
     1.0000   1.0000   1.0000   1.0000

          k =-0.3333-0.3849 0.0000 (  3861 PWs)   bands (ev):

   -10.6531 -10.4767  -9.9715  -9.4280   0.8466   0.9650   1.0661   1.4111
     1.5312   1.6011   1.6720   1.8986   2.0844   2.1601   2.3479   2.4209
     2.4664   2.5764   2.6461   2.7980   2.9392   3.0428   3.1868   3.2967
     3.5268   3.7201   3.8582   4.1378   4.5087   4.7595   5.0944   5.3145
     5.7592   5.8858   6.0933   6.3765

     occupation numbers 
     1.0000   1.0000   1.0000   1.0000   1.0000   1.0000   1.0000   1.0000
     1.0000   1.0000   1.0000   1.0000   1.0000   1.0000   1.0000   1.0000
     1.0000   1.0000   1.0000   1.0000   1.0000   1.0000   1.0000   1.0000
     1.0000   1.0000   1.0000   1.0000   1.0000   1.0000   1.0000   1.0000
     1.0000   1.0000   1.0000   1.0000

          k = 0.5000-0.0962 0.0000 (  3861 PWs)   bands (ev):

   -10.6154 -10.4795  -9.9629  -9.4317   0.7798   1.0569   1.2912   1.4520
     1.6048   1.6974   1.8543   1.9871   2.0601   2.1622   2.3899   2.4400
     2.5215   2.5558   2.6211   2.7867   2.9062   3.0268   3.1148   3.2461
     3.3954   3.5796   3.7118   4.0773   4.3402   4.6479   5.0106   5.2004
     5.5920   5.8673   6.0953   6.4324

     occupation numbers 
     1.0000   1.0000   1.0000   1.0000   1.0000   1.0000   1.0000   1.0000
     1.0000   1.0000   1.0000   1.0000   1.0000   1.0000   1.0000   1.0000
     1.0000   1.0000   1.0000   1.0000   1.0000   1.0000   1.0000   1.0000
     1.0000   1.0000   1.0000   1.0000   1.0000   1.0000   1.0000   1.0000
     1.0000   1.0000   1.0000   1.0000

          k =-0.1667-0.4811 0.0496 (  3859 PWs)   bands (ev):

   -10.6375 -10.4794  -9.9879  -9.4333   0.7923   1.0136   1.1901   1.4265
     1.5667   1.5847   1.6726   1.7990   1.9622   2.1433   2.3291   2.3979
     2.4660   2.5179   2.6261   2.7849   2.9090   3.0648   3.1793   3.3309
     3.5670   3.7529   3.9234   4.1299   4.5066   4.7448   5.0630   5.3941
     5.5871   5.9510   6.1968   6.5431

     occupation numbers 
     1.0000   1.0000   1.0000   1.0000   1.0000   1.0000   1.0000   1.0000
     1.0000   1.0000   1.0000   1.0000   1.0000   1.0000   1.0000   1.0000
     1.0000   1.0000   1.0000   1.0000   1.0000   1.0000   1.0000   1.0000
     1.0000   1.0000   1.0000   1.0000   1.0000   1.0000   1.0000   1.0000
     1.0000   1.0000   1.0000   1.0000

          k =-0.1667 0.4811-0.0496 (  3859 PWs)   bands (ev):

   -10.6227 -10.4806  -9.9878  -9.4353   0.7848   1.0307   1.1986   1.4924
     1.5713   1.6953   1.7902   1.8488   2.0141   2.1337   2.3217   2.3975
     2.4292   2.4998   2.6112   2.7452   2.8656   2.9951   3.1618   3.2892
     3.4522   3.6982   3.8592   4.1253   4.4588   4.7144   5.0568   5.4187
     5.6301   5.9380   6.2654   6.4916

     occupation numbers 
     1.0000   1.0000   1.0000   1.0000   1.0000   1.0000   1.0000   1.0000
     1.0000   1.0000   1.0000   1.0000   1.0000   1.0000   1.0000   1.0000
     1.0000   1.0000   1.0000   1.0000   1.0000   1.0000   1.0000   1.0000
     1.0000   1.0000   1.0000   1.0000   1.0000   1.0000   1.0000   1.0000
     1.0000   1.0000   1.0000   1.0000

          k = 0.1667-0.4811-0.0496 (  3859 PWs)   bands (ev):

   -10.6228 -10.4806  -9.9878  -9.4353   0.7856   1.0301   1.1976   1.4827
     1.5611   1.7434   1.7785   1.8501   2.0022   2.1248   2.3236   2.3862
     2.4442   2.4948   2.6167   2.7613   2.8266   3.0180   3.1630   3.2988
     3.4450   3.6726   3.8976   4.0786   4.4955   4.7023   5.1316   5.2998
     5.6837   5.9356   6.2646   6.4884

     occupation numbers 
     1.0000   1.0000   1.0000   1.0000   1.0000   1.0000   1.0000   1.0000
     1.0000   1.0000   1.0000   1.0000   1.0000   1.0000   1.0000   1.0000
     1.0000   1.0000   1.0000   1.0000   1.0000   1.0000   1.0000   1.0000
     1.0000   1.0000   1.0000   1.0000   1.0000   1.0000   1.0000   1.0000
     1.0000   1.0000   1.0000   1.0000

          k =-0.3333 0.3849 0.0496 (  3859 PWs)   bands (ev):

   -10.6070 -10.4815  -9.9710  -9.4343   0.7825   1.0802   1.3070   1.4316
     1.6512   1.7299   1.8997   1.9206   2.0985   2.2216   2.3037   2.3759
     2.4583   2.4879   2.5973   2.7110   2.8425   2.9886   3.1524   3.2406
     3.4056   3.6434   3.8014   4.1371   4.3390   4.6775   4.9978   5.3597
     5.5616   5.7927   6.1598   6.4027

     occupation numbers 
     1.0000   1.0000   1.0000   1.0000   1.0000   1.0000   1.0000   1.0000
     1.0000   1.0000   1.0000   1.0000   1.0000   1.0000   1.0000   1.0000
     1.0000   1.0000   1.0000   1.0000   1.0000   1.0000   1.0000   1.0000
     1.0000   1.0000   1.0000   1.0000   1.0000   1.0000   1.0000   1.0000
     1.0000   1.0000   1.0000   1.0000

          k = 0.5000 0.0962 0.0496 (  3859 PWs)   bands (ev):

   -10.6463 -10.4764  -9.9632  -9.4274   0.8219   0.9807   1.0886   1.4685
     1.5299   1.6677   1.7534   1.9136   2.1181   2.2126   2.3780   2.4427
     2.4861   2.6056   2.6606   2.8104   2.9335   3.0478   3.1642   3.2990
     3.3906   3.5957   3.6576   4.1844   4.4335   4.6747   5.0052   5.3856
     5.6083   6.0122   6.1295   6.3446

     occupation numbers 
     1.0000   1.0000   1.0000   1.0000   1.0000   1.0000   1.0000   1.0000
     1.0000   1.0000   1.0000   1.0000   1.0000   1.0000   1.0000   1.0000
     1.0000   1.0000   1.0000   1.0000   1.0000   1.0000   1.0000   1.0000
     1.0000   1.0000   1.0000   1.0000   1.0000   1.0000   1.0000   1.0000
     1.0000   1.0000   1.0000   1.0000

          k =-0.5000-0.0962 0.0496 (  3859 PWs)   bands (ev):

   -10.6463 -10.4764  -9.9632  -9.4274   0.8195   0.9832   1.0908   1.4766
     1.5006   1.6827   1.7632   1.9293   2.1046   2.1845   2.3942   2.4377
     2.4976   2.6207   2.6625   2.7995   2.9354   3.0326   3.1486   3.2818
     3.4004   3.5814   3.7475   4.1102   4.4433   4.6830   5.0201   5.3482
     5.7026   5.9306   6.1279   6.3631

     occupation numbers 
     1.0000   1.0000   1.0000   1.0000   1.0000   1.0000   1.0000   1.0000
     1.0000   1.0000   1.0000   1.0000   1.0000   1.0000   1.0000   1.0000
     1.0000   1.0000   1.0000   1.0000   1.0000   1.0000   1.0000   1.0000
     1.0000   1.0000   1.0000   1.0000   1.0000   1.0000   1.0000   1.0000
     1.0000   1.0000   1.0000   1.0000

          k = 0.3333-0.3849 0.0496 (  3859 PWs)   bands (ev):

   -10.6070 -10.4815  -9.9710  -9.4343   0.7837   1.0754   1.3123   1.4291
     1.6415   1.7550   1.8989   1.9273   2.0757   2.2167   2.2707   2.3993
     2.4438   2.5146   2.5902   2.7477   2.8054   3.0247   3.1302   3.2361
     3.4154   3.6370   3.8168   4.0847   4.3713   4.7062   5.0442   5.2331
     5.5446   5.8897   6.1495   6.3885

     occupation numbers 
     1.0000   1.0000   1.0000   1.0000   1.0000   1.0000   1.0000   1.0000
     1.0000   1.0000   1.0000   1.0000   1.0000   1.0000   1.0000   1.0000
     1.0000   1.0000   1.0000   1.0000   1.0000   1.0000   1.0000   1.0000
     1.0000   1.0000   1.0000   1.0000   1.0000   1.0000   1.0000   1.0000
     1.0000   1.0000   1.0000   1.0000

          k =-0.3333-0.3849-0.0496 (  3859 PWs)   bands (ev):

   -10.6530 -10.4769  -9.9714  -9.4280   0.8491   0.9690   1.0648   1.4130
     1.5373   1.6012   1.6714   1.8663   2.0827   2.1779   2.3611   2.3986
     2.4701   2.5719   2.6458   2.7821   2.9476   3.0506   3.1844   3.3282
     3.5074   3.7319   3.8202   4.2020   4.5117   4.7844   5.0056   5.3890
     5.6094   5.9782   6.1043   6.3750

     occupation numbers 
     1.0000   1.0000   1.0000   1.0000   1.0000   1.0000   1.0000   1.0000
     1.0000   1.0000   1.0000   1.0000   1.0000   1.0000   1.0000   1.0000
     1.0000   1.0000   1.0000   1.0000   1.0000   1.0000   1.0000   1.0000
     1.0000   1.0000   1.0000   1.0000   1.0000   1.0000   1.0000   1.0000
     1.0000   1.0000   1.0000   1.0000

          k = 0.5000-0.0962-0.0496 (  3859 PWs)   bands (ev):

   -10.6153 -10.4796  -9.9629  -9.4317   0.7785   1.0697   1.2948   1.4598
     1.6095   1.6587   1.8409   1.9757   2.0783   2.1926   2.3775   2.4352
     2.5092   2.5654   2.6201   2.7658   2.9276   3.0304   3.1000   3.2610
     3.3875   3.5806   3.7144   4.1006   4.3489   4.6571   4.9392   5.2932
     5.5530   5.8271   6.1089   6.4415

     occupation numbers 
     1.0000   1.0000   1.0000   1.0000   1.0000   1.0000   1.0000   1.0000
     1.0000   1.0000   1.0000   1.0000   1.0000   1.0000   1.0000   1.0000
     1.0000   1.0000   1.0000   1.0000   1.0000   1.0000   1.0000   1.0000
     1.0000   1.0000   1.0000   1.0000   1.0000   1.0000   1.0000   1.0000
     1.0000   1.0000   1.0000   1.0000

          k =-0.5000 0.0962-0.0496 (  3859 PWs)   bands (ev):

   -10.6153 -10.4796  -9.9629  -9.4316   0.7825   1.0617   1.2909   1.4562
     1.5872   1.7212   1.8514   1.9745   2.0481   2.1591   2.3737   2.4342
     2.5368   2.5524   2.6236   2.7881   2.9055   3.0273   3.1312   3.2582
     3.3939   3.5331   3.7573   4.0804   4.3507   4.6955   4.9612   5.1659
     5.5771   5.9157   6.0765   6.4324

     occupation numbers 
     1.0000   1.0000   1.0000   1.0000   1.0000   1.0000   1.0000   1.0000
     1.0000   1.0000   1.0000   1.0000   1.0000   1.0000   1.0000   1.0000
     1.0000   1.0000   1.0000   1.0000   1.0000   1.0000   1.0000   1.0000
     1.0000   1.0000   1.0000   1.0000   1.0000   1.0000   1.0000   1.0000
     1.0000   1.0000   1.0000   1.0000

          k = 0.3333 0.3849-0.0496 (  3859 PWs)   bands (ev):

   -10.6529 -10.4769  -9.9714  -9.4280   0.8475   0.9689   1.0699   1.4107
     1.5225   1.5973   1.6740   1.9122   2.0738   2.1554   2.3156   2.4318
     2.4900   2.5805   2.6449   2.7673   2.9496   3.0614   3.1691   3.2958
     3.5402   3.7091   3.8908   4.1419   4.5108   4.7963   5.0021   5.3908
     5.6614   5.9195   6.1029   6.3877

     occupation numbers 
     1.0000   1.0000   1.0000   1.0000   1.0000   1.0000   1.0000   1.0000
     1.0000   1.0000   1.0000   1.0000   1.0000   1.0000   1.0000   1.0000
     1.0000   1.0000   1.0000   1.0000   1.0000   1.0000   1.0000   1.0000
     1.0000   1.0000   1.0000   1.0000   1.0000   1.0000   1.0000   1.0000
     1.0000   1.0000   1.0000   1.0000

          k =-0.1667-0.4811 0.0993 (  3854 PWs)   bands (ev):

   -10.6372 -10.4799  -9.9878  -9.4333   0.7952   1.0241   1.1921   1.4219
     1.5644   1.5967   1.6498   1.8051   1.9419   2.1540   2.3183   2.3848
     2.4695   2.5282   2.6335   2.7468   2.9335   3.0769   3.1627   3.3518
     3.5539   3.7210   3.9643   4.2086   4.5125   4.7690   4.9898   5.3498
     5.5373   6.0084   6.1887   6.5636

     occupation numbers 
     1.0000   1.0000   1.0000   1.0000   1.0000   1.0000   1.0000   1.0000
     1.0000   1.0000   1.0000   1.0000   1.0000   1.0000   1.0000   1.0000
     1.0000   1.0000   1.0000   1.0000   1.0000   1.0000   1.0000   1.0000
     1.0000   1.0000   1.0000   1.0000   1.0000   1.0000   1.0000   1.0000
     1.0000   1.0000   1.0000   1.0000

          k =-0.1667 0.4811-0.0993 (  3854 PWs)   bands (ev):

   -10.6224 -10.4811  -9.9877  -9.4353   0.7877   1.0433   1.1924   1.5192
     1.5567   1.6741   1.7887   1.8467   2.0016   2.1429   2.3185   2.3778
     2.4323   2.5079   2.6146   2.7189   2.8829   2.9939   3.1530   3.3211
     3.4276   3.6752   3.9160   4.1826   4.4469   4.7842   4.9646   5.3500
     5.6086   5.9788   6.2544   6.5236

     occupation numbers 
     1.0000   1.0000   1.0000   1.0000   1.0000   1.0000   1.0000   1.0000
     1.0000   1.0000   1.0000   1.0000   1.0000   1.0000   1.0000   1.0000
     1.0000   1.0000   1.0000   1.0000   1.0000   1.0000   1.0000   1.0000
     1.0000   1.0000   1.0000   1.0000   1.0000   1.0000   1.0000   1.0000
     1.0000   1.0000   1.0000   1.0000

          k = 0.1667-0.4811-0.0993 (  3854 PWs)   bands (ev):

   -10.6224 -10.4810  -9.9877  -9.4353   0.7885   1.0428   1.1914   1.5012
     1.5509   1.7289   1.7730   1.8494   1.9884   2.1338   2.3209   2.3748
     2.4394   2.5025   2.6191   2.7286   2.8515   3.0169   3.1544   3.3346
     3.4147   3.6613   3.9449   4.1236   4.5024   4.7466   5.0568   5.2474
     5.6389   5.9870   6.2503   6.5211

     occupation numbers 
     1.0000   1.0000   1.0000   1.0000   1.0000   1.0000   1.0000   1.0000
     1.0000   1.0000   1.0000   1.0000   1.0000   1.0000   1.0000   1.0000
     1.0000   1.0000   1.0000   1.0000   1.0000   1.0000   1.0000   1.0000
     1.0000   1.0000   1.0000   1.0000   1.0000   1.0000   1.0000   1.0000
     1.0000   1.0000   1.0000   1.0000

          k =-0.3333 0.3849 0.0993 (  3854 PWs)   bands (ev):

   -10.6068 -10.4817  -9.9710  -9.4342   0.7840   1.0997   1.3001   1.4669
     1.6080   1.7132   1.8921   1.9155   2.0966   2.2374   2.3029   2.3719
     2.4267   2.5003   2.6011   2.6969   2.8673   2.9803   3.1482   3.2859
     3.3761   3.6203   3.8530   4.1604   4.3459   4.7163   4.9323   5.3917
     5.4806   5.8147   6.1503   6.4201

     occupation numbers 
     1.0000   1.0000   1.0000   1.0000   1.0000   1.0000   1.0000   1.0000
     1.0000   1.0000   1.0000   1.0000   1.0000   1.0000   1.0000   1.0000
     1.0000   1.0000   1.0000   1.0000   1.0000   1.0000   1.0000   1.0000
     1.0000   1.0000   1.0000   1.0000   1.0000   1.0000   1.0000   1.0000
     1.0000   1.0000   1.0000   1.0000

          k = 0.5000 0.0962 0.0993 (  3854 PWs)   bands (ev):

   -10.6461 -10.4767  -9.9631  -9.4274   0.8245   0.9950   1.0831   1.4757
     1.5333   1.6670   1.7361   1.8938   2.1242   2.2239   2.3403   2.4466
     2.5059   2.6047   2.6581   2.7774   2.9506   3.0565   3.1421   3.3440
     3.3816   3.5451   3.7095   4.2188   4.4862   4.7505   4.8876   5.2949
     5.6154   6.0401   6.1438   6.3476

     occupation numbers 
     1.0000   1.0000   1.0000   1.0000   1.0000   1.0000   1.0000   1.0000
     1.0000   1.0000   1.0000   1.0000   1.0000   1.0000   1.0000   1.0000
     1.0000   1.0000   1.0000   1.0000   1.0000   1.0000   1.0000   1.0000
     1.0000   1.0000   1.0000   1.0000   1.0000   1.0000   1.0000   1.0000
     1.0000   1.0000   1.0000   1.0000

          k =-0.5000-0.0962 0.0993 (  3854 PWs)   bands (ev):

   -10.6461 -10.4767  -9.9631  -9.4274   0.8221   0.9977   1.0852   1.4851
     1.4995   1.6868   1.7466   1.9039   2.1125   2.1915   2.3651   2.4414
     2.5139   2.6219   2.6603   2.7618   2.9581   3.0395   3.1307   3.3128
     3.3964   3.5540   3.7775   4.1488   4.4914   4.7627   4.8958   5.2854
     5.6631   5.9925   6.1323   6.3671

     occupation numbers 
     1.0000   1.0000   1.0000   1.0000   1.0000   1.0000   1.0000   1.0000
     1.0000   1.0000   1.0000   1.0000   1.0000   1.0000   1.0000   1.0000
     1.0000   1.0000   1.0000   1.0000   1.0000   1.0000   1.0000   1.0000
     1.0000   1.0000   1.0000   1.0000   1.0000   1.0000   1.0000   1.0000
     1.0000   1.0000   1.0000   1.0000

          k = 0.3333-0.3849 0.0993 (  3854 PWs)   bands (ev):

   -10.6068 -10.4817  -9.9710  -9.4342   0.7852   1.0942   1.3060   1.4626
     1.6047   1.7347   1.8892   1.9190   2.0775   2.2331   2.2652   2.4065
     2.4299   2.5002   2.5971   2.7179   2.8450   3.0139   3.1298   3.2765
     3.3892   3.6170   3.8680   4.1001   4.3864   4.7398   4.9878   5.2176
     5.5237   5.8909   6.1408   6.4072

     occupation numbers 
     1.0000   1.0000   1.0000   1.0000   1.0000   1.0000   1.0000   1.0000
     1.0000   1.0000   1.0000   1.0000   1.0000   1.0000   1.0000   1.0000
     1.0000   1.0000   1.0000   1.0000   1.0000   1.0000   1.0000   1.0000
     1.0000   1.0000   1.0000   1.0000   1.0000   1.0000   1.0000   1.0000
     1.0000   1.0000   1.0000   1.0000

          k =-0.3333-0.3849-0.0993 (  3854 PWs)   bands (ev):

   -10.6527 -10.4772  -9.9713  -9.4280   0.8526   0.9773   1.0671   1.4151
     1.5371   1.5930   1.6753   1.8439   2.0765   2.1909   2.3151   2.4229
     2.4871   2.5706   2.6431   2.7456   2.9600   3.0729   3.1681   3.3544
     3.5067   3.7088   3.8379   4.2694   4.5328   4.8241   4.9101   5.3899
     5.5246   6.0040   6.1296   6.3856

     occupation numbers 
     1.0000   1.0000   1.0000   1.0000   1.0000   1.0000   1.0000   1.0000
     1.0000   1.0000   1.0000   1.0000   1.0000   1.0000   1.0000   1.0000
     1.0000   1.0000   1.0000   1.0000   1.0000   1.0000   1.0000   1.0000
     1.0000   1.0000   1.0000   1.0000   1.0000   1.0000   1.0000   1.0000
     1.0000   1.0000   1.0000   1.0000

          k = 0.5000-0.0962-0.0993 (  3854 PWs)   bands (ev):

   -10.6151 -10.4798  -9.9629  -9.4316   0.7800   1.0885   1.2975   1.4784
     1.5842   1.6423   1.8285   1.9624   2.0783   2.2323   2.3235   2.4341
     2.5155   2.5719   2.6251   2.7461   2.9439   3.0366   3.0960   3.2965
     3.3768   3.5297   3.7637   4.1219   4.3822   4.7027   4.8677   5.2814
     5.5088   5.8550   6.0988   6.4493

     occupation numbers 
     1.0000   1.0000   1.0000   1.0000   1.0000   1.0000   1.0000   1.0000
     1.0000   1.0000   1.0000   1.0000   1.0000   1.0000   1.0000   1.0000
     1.0000   1.0000   1.0000   1.0000   1.0000   1.0000   1.0000   1.0000
     1.0000   1.0000   1.0000   1.0000   1.0000   1.0000   1.0000   1.0000
     1.0000   1.0000   1.0000   1.0000

          k =-0.5000 0.0962-0.0993 (  3854 PWs)   bands (ev):

   -10.6152 -10.4797  -9.9629  -9.4316   0.7839   1.0799   1.2939   1.4728
     1.5631   1.7132   1.8254   1.9598   2.0541   2.1863   2.3421   2.4333
     2.5347   2.5582   2.6291   2.7615   2.9295   3.0370   3.1173   3.3036
     3.3806   3.4926   3.7945   4.1013   4.3845   4.7417   4.9084   5.1166
     5.5685   5.9206   6.0719   6.4400

     occupation numbers 
     1.0000   1.0000   1.0000   1.0000   1.0000   1.0000   1.0000   1.0000
     1.0000   1.0000   1.0000   1.0000   1.0000   1.0000   1.0000   1.0000
     1.0000   1.0000   1.0000   1.0000   1.0000   1.0000   1.0000   1.0000
     1.0000   1.0000   1.0000   1.0000   1.0000   1.0000   1.0000   1.0000
     1.0000   1.0000   1.0000   1.0000

          k = 0.3333 0.3849-0.0993 (  3854 PWs)   bands (ev):

   -10.6527 -10.4773  -9.9713  -9.4280   0.8510   0.9770   1.0727   1.4138
     1.5157   1.5952   1.6760   1.8891   2.0641   2.1720   2.2907   2.4377
     2.5056   2.5801   2.6444   2.7281   2.9640   3.0866   3.1481   3.3190
     3.5427   3.6914   3.8963   4.2116   4.5329   4.8375   4.9100   5.3971
     5.5477   5.9776   6.1176   6.3981

     occupation numbers 
     1.0000   1.0000   1.0000   1.0000   1.0000   1.0000   1.0000   1.0000
     1.0000   1.0000   1.0000   1.0000   1.0000   1.0000   1.0000   1.0000
     1.0000   1.0000   1.0000   1.0000   1.0000   1.0000   1.0000   1.0000
     1.0000   1.0000   1.0000   1.0000   1.0000   1.0000   1.0000   1.0000
     1.0000   1.0000   1.0000   1.0000

          k =-0.1667 0.4811 0.1489 (  3854 PWs)   bands (ev):

   -10.6222 -10.4813  -9.9877  -9.4353   0.7895   1.0500   1.1882   1.5277
     1.5431   1.6857   1.7836   1.8472   1.9897   2.1423   2.3179   2.3694
     2.4357   2.5087   2.6197   2.7092   2.8770   3.0038   3.1501   3.3517
     3.4006   3.6611   3.9521   4.1776   4.4812   4.7922   4.9901   5.2241
     5.6363   5.9997   6.2444   6.5372

     occupation numbers 
     1.0000   1.0000   1.0000   1.0000   1.0000   1.0000   1.0000   1.0000
     1.0000   1.0000   1.0000   1.0000   1.0000   1.0000   1.0000   1.0000
     1.0000   1.0000   1.0000   1.0000   1.0000   1.0000   1.0000   1.0000
     1.0000   1.0000   1.0000   1.0000   1.0000   1.0000   1.0000   1.0000
     1.0000   1.0000   1.0000   1.0000

          k =-0.3333 0.3849-0.1489 (  3854 PWs)   bands (ev):

   -10.6067 -10.4818  -9.9710  -9.4342   0.7854   1.1072   1.2991   1.4969
     1.5705   1.7138   1.8873   1.9147   2.0873   2.2465   2.2746   2.3929
     2.4209   2.4997   2.6032   2.6928   2.8761   2.9871   3.1382   3.3203
     3.3516   3.6101   3.8847   4.1318   4.3834   4.7336   4.9538   5.2550
     5.5115   5.8650   6.1381   6.4216

     occupation numbers 
     1.0000   1.0000   1.0000   1.0000   1.0000   1.0000   1.0000   1.0000
     1.0000   1.0000   1.0000   1.0000   1.0000   1.0000   1.0000   1.0000
     1.0000   1.0000   1.0000   1.0000   1.0000   1.0000   1.0000   1.0000
     1.0000   1.0000   1.0000   1.0000   1.0000   1.0000   1.0000   1.0000
     1.0000   1.0000   1.0000   1.0000

          k = 0.5000 0.0962-0.1489 (  3854 PWs)   bands (ev):

   -10.6460 -10.4768  -9.9631  -9.4274   0.8246   1.0046   1.0802   1.4790
     1.5238   1.6765   1.7312   1.8893   2.1204   2.2122   2.3391   2.4459
     2.5172   2.6135   2.6575   2.7549   2.9616   3.0579   3.1209   3.3420
     3.3946   3.5290   3.7591   4.1983   4.5379   4.7748   4.8666   5.2013
     5.6583   6.0314   6.1399   6.3596

     occupation numbers 
     1.0000   1.0000   1.0000   1.0000   1.0000   1.0000   1.0000   1.0000
     1.0000   1.0000   1.0000   1.0000   1.0000   1.0000   1.0000   1.0000
     1.0000   1.0000   1.0000   1.0000   1.0000   1.0000   1.0000   1.0000
     1.0000   1.0000   1.0000   1.0000   1.0000   1.0000   1.0000   1.0000
     1.0000   1.0000   1.0000   1.0000

          k =-0.3333-0.3849 0.1489 (  3854 PWs)   bands (ev):

   -10.6526 -10.4774  -9.9713  -9.4280   0.8535   0.9813   1.0711   1.4163
     1.5230   1.5921   1.6777   1.8535   2.0683   2.1902   2.2855   2.4383
     2.5027   2.5747   2.6423   2.7208   2.9676   3.0906   3.1491   3.3459
     3.5300   3.6840   3.8768   4.2721   4.5666   4.7637   4.9706   5.2885
     5.5671   5.9971   6.1334   6.3972

     occupation numbers 
     1.0000   1.0000   1.0000   1.0000   1.0000   1.0000   1.0000   1.0000
     1.0000   1.0000   1.0000   1.0000   1.0000   1.0000   1.0000   1.0000
     1.0000   1.0000   1.0000   1.0000   1.0000   1.0000   1.0000   1.0000
     1.0000   1.0000   1.0000   1.0000   1.0000   1.0000   1.0000   1.0000
     1.0000   1.0000   1.0000   1.0000

          k = 0.5000-0.0962 0.1489 (  3854 PWs)   bands (ev):

   -10.6151 -10.4798  -9.9629  -9.4316   0.7827   1.0940   1.2968   1.4911
     1.5516   1.6703   1.8199   1.9568   2.0667   2.2302   2.3067   2.4349
     2.5255   2.5671   2.6326   2.7408   2.9453   3.0462   3.0954   3.3334
     3.3646   3.4873   3.7979   4.1188   4.4117   4.7108   4.9135   5.1296
     5.5505   5.8975   6.0797   6.4478

     occupation numbers 
     1.0000   1.0000   1.0000   1.0000   1.0000   1.0000   1.0000   1.0000
     1.0000   1.0000   1.0000   1.0000   1.0000   1.0000   1.0000   1.0000
     1.0000   1.0000   1.0000   1.0000   1.0000   1.0000   1.0000   1.0000
     1.0000   1.0000   1.0000   1.0000   1.0000   1.0000   1.0000   1.0000
     1.0000   1.0000   1.0000   1.0000

          k =-0.3333-0.5774 0.0496 (  3867 PWs)   bands (ev):

   -10.5516 -10.4299  -9.9113  -9.3796   0.9319   1.2573   1.2965   1.4345
     1.6955   1.7974   1.8221   1.9358   2.1574   2.2954   2.3387   2.4144
     2.4827   2.5178   2.6422   2.8335   2.9265   3.1530   3.1792   3.2582
     3.4472   3.5633   3.6510   3.8065   3.9407   4.2602   4.6867   5.1199
     5.4750   5.6002   5.9129   6.1599

     occupation numbers 
     1.0000   1.0000   1.0000   1.0000   1.0000   1.0000   1.0000   1.0000
     1.0000   1.0000   1.0000   1.0000   1.0000   1.0000   1.0000   1.0000
     1.0000   1.0000   1.0000   1.0000   1.0000   1.0000   1.0000   1.0000
     1.0000   1.0000   1.0000   1.0000   1.0000   1.0000   1.0000   1.0000
     1.0000   1.0000   1.0000   1.0000

          k =-0.3333-0.5774 0.0993 (  3873 PWs)   bands (ev):

   -10.5516 -10.4299  -9.9114  -9.3796   0.9334   1.2626   1.3119   1.4393
     1.6995   1.7981   1.8155   1.9024   2.1494   2.2739   2.3382   2.4118
     2.4626   2.5097   2.7071   2.8159   2.9538   3.1258   3.1743   3.2433
     3.4934   3.5994   3.6804   3.8068   3.9113   4.1134   4.8033   5.1879
     5.5137   5.5866   5.8306   6.1280

     occupation numbers 
     1.0000   1.0000   1.0000   1.0000   1.0000   1.0000   1.0000   1.0000
     1.0000   1.0000   1.0000   1.0000   1.0000   1.0000   1.0000   1.0000
     1.0000   1.0000   1.0000   1.0000   1.0000   1.0000   1.0000   1.0000
     1.0000   1.0000   1.0000   1.0000   1.0000   1.0000   1.0000   1.0000
     1.0000   1.0000   1.0000   1.0000

     highest occupied level (ev):     7.5967

!    total energy              =    -723.21428050 Ry
     estimated scf accuracy    <          4.4E-09 Ry

     The total energy is the sum of the following terms:
     one-electron contribution =    -308.33743050 Ry
     hartree contribution      =     236.83865006 Ry
     xc contribution           =    -219.21975105 Ry
     ewald contribution        =    -432.49574900 Ry

     convergence has been achieved in  27 iterations

     Forces acting on atoms (cartesian axes, Ry/au):

     atom    1 type  1   force =     0.10775408   -0.05697708    0.06262398
     atom    2 type  1   force =    -0.02193324    0.01146793    0.00803719
     atom    3 type  2   force =     0.02117934   -0.04041255   -0.04643270
     atom    4 type  2   force =    -0.10935700    0.05957878   -0.04369965
     atom    5 type  1   force =    -0.02338597   -0.02578929   -0.06198428
     atom    6 type  1   force =    -0.02422478    0.03545450    0.04365074
     atom    7 type  2   force =     0.02241583   -0.01337726    0.07744930
     atom    8 type  2   force =     0.02755174    0.03005497   -0.03964458
     The non-local contrib.  to forces
     atom    1 type  1   force =     0.32345301   -0.15316633    0.18819560
     atom    2 type  1   force =    -0.12046298    0.04126224    0.14360417
     atom    3 type  2   force =    -0.07408134    0.10693880    0.08667112
     atom    4 type  2   force =     0.20629807   -0.06175751    0.10070261
     atom    5 type  1   force =    -0.06854655   -0.11219293    0.01220786
     atom    6 type  1   force =    -0.05994665    0.16789518    0.12973947
     atom    7 type  2   force =    -0.02875171    0.02081228    0.12866451
     atom    8 type  2   force =    -0.05961782   -0.07061758    0.11892957
     The ionic contribution  to forces
     atom    1 type  1   force =     2.47987837   -1.22694626    4.42577676
     atom    2 type  1   force =    -0.96285859    0.34145860    4.55342243
     atom    3 type  2   force =     0.75995112   -1.08009628   -2.02879986
     atom    4 type  2   force =    -2.38208943    1.10340516    0.13234544
     atom    5 type  1   force =    -0.40294527   -0.85139858   -5.22379811
     atom    6 type  1   force =    -0.47543540    1.28065030    0.09590557
     atom    7 type  2   force =     0.42350580   -0.35937857    1.98948615
     atom    8 type  2   force =     0.55999340    0.79230564   -3.94433839
     The local contribution  to forces
     atom    1 type  1   force =    -2.66639832    1.30976850   -4.53296899
     atom    2 type  1   force =     1.05177550   -0.36780651   -4.67973991
     atom    3 type  2   force =    -0.66521040    0.93346161    1.89620147
     atom    4 type  2   force =     2.06762476   -0.98224264   -0.27614323
     atom    5 type  1   force =     0.44186660    0.92808009    5.14165074
     atom    6 type  1   force =     0.50560091   -1.39881181   -0.16830578
     atom    7 type  2   force =    -0.37245391    0.32527107   -2.03908168
     atom    8 type  2   force =    -0.47322197   -0.69208167    3.78646103
     The core correction contribution to forces
     atom    1 type  1   force =    -0.02916299    0.01336001   -0.01833432
     atom    2 type  1   force =     0.00961571   -0.00344358   -0.00941461
     atom    3 type  2   force =     0.00052031   -0.00071900   -0.00042377
     atom    4 type  2   force =    -0.00119836    0.00017722   -0.00061309
     atom    5 type  1   force =     0.00623648    0.00971821    0.00794091
     atom    6 type  1   force =     0.00555258   -0.01427334   -0.01353464
     atom    7 type  2   force =     0.00011821   -0.00008443   -0.00170190
     atom    8 type  2   force =     0.00039726    0.00044885   -0.00071787
     The Hubbard contrib.    to forces
     atom    1 type  1   force =     0.00000000    0.00000000    0.00000000
     atom    2 type  1   force =     0.00000000    0.00000000    0.00000000
     atom    3 type  2   force =     0.00000000    0.00000000    0.00000000
     atom    4 type  2   force =     0.00000000    0.00000000    0.00000000
     atom    5 type  1   force =     0.00000000    0.00000000    0.00000000
     atom    6 type  1   force =     0.00000000    0.00000000    0.00000000
     atom    7 type  2   force =     0.00000000    0.00000000    0.00000000
     atom    8 type  2   force =     0.00000000    0.00000000    0.00000000
     The SCF correction term to forces
     atom    1 type  1   force =    -0.00001692    0.00000706   -0.00004774
     atom    2 type  1   force =    -0.00000381   -0.00000276    0.00016243
     atom    3 type  2   force =    -0.00000129    0.00000237   -0.00008434
     atom    4 type  2   force =     0.00000703   -0.00000339    0.00000594
     atom    5 type  1   force =     0.00000183    0.00000398    0.00001164
     atom    6 type  1   force =     0.00000285   -0.00000577   -0.00015655
     atom    7 type  2   force =    -0.00000349    0.00000246    0.00007954
     atom    8 type  2   force =    -0.00000006   -0.00000022    0.00001841

     Total force =     0.244601     Total SCF correction =     0.000260

     init_run     :      3.81s CPU      3.97s WALL (       1 calls)
     electrons    :    196.13s CPU    205.38s WALL (       1 calls)
     forces       :      1.02s CPU      1.03s WALL (       1 calls)

     Called by init_run:
     wfcinit      :      2.40s CPU      2.52s WALL (       1 calls)
     wfcinit:atom :      0.04s CPU      0.04s WALL (      28 calls)
     wfcinit:wfcr :      2.18s CPU      2.30s WALL (      28 calls)
     potinit      :      0.47s CPU      0.48s WALL (       1 calls)
     hinit0       :      0.85s CPU      0.86s WALL (       1 calls)

     Called by electrons:
     c_bands      :    172.75s CPU    180.60s WALL (      27 calls)
     sum_band     :     20.38s CPU     21.68s WALL (      27 calls)
     v_of_rho     :      1.53s CPU      1.60s WALL (      28 calls)
     v_h          :      0.08s CPU      0.09s WALL (      28 calls)
     v_xc         :      1.50s CPU      1.57s WALL (      29 calls)
     newd         :      1.18s CPU      1.20s WALL (      28 calls)
     mix_rho      :      0.22s CPU      0.24s WALL (      27 calls)

     Called by c_bands:
     init_us_2    :      1.52s CPU      1.55s WALL (    1568 calls)
     init_us_2:cp :      1.51s CPU      1.54s WALL (    1568 calls)
     cegterg      :    152.24s CPU    160.02s WALL (     756 calls)

     Called by sum_band:
     sum_band:wei :      0.00s CPU      0.00s WALL (      27 calls)
     sum_band:loo :     18.59s CPU     19.80s WALL (      27 calls)
     sum_band:buf :      0.12s CPU      0.13s WALL (     756 calls)
     sum_band:ini :      0.70s CPU      0.72s WALL (     756 calls)
     sum_band:cal :      1.99s CPU      2.06s WALL (     756 calls)
     sum_band:bec :      0.05s CPU      0.05s WALL (     756 calls)
     addusdens    :      1.30s CPU      1.35s WALL (      27 calls)
                                        0.00s GPU  (      27 calls)
     addusd:skk   :      0.01s CPU      0.01s WALL (      54 calls)
                                        0.00s GPU  (      54 calls)

     Called by *egterg:
     cdiaghg      :     14.57s CPU     14.61s WALL (    4093 calls)
     cegterg:over :      6.48s CPU      6.71s WALL (    3337 calls)
     cegterg:upda :      4.20s CPU      4.22s WALL (    3337 calls)
     cegterg:last :      8.74s CPU      8.77s WALL (    2117 calls)
     h_psi        :    109.56s CPU    117.04s WALL (    4121 calls)
     s_psi        :      7.46s CPU      7.50s WALL (    4121 calls)
     g_psi        :      0.62s CPU      0.62s WALL (    3337 calls)

     Called by h_psi:
     h_psi:calbec :      6.99s CPU      7.34s WALL (    4121 calls)
     vloc_psi     :     94.54s CPU    101.62s WALL (    4121 calls)
     add_vuspsi   :      7.65s CPU      7.71s WALL (    4121 calls)

     General routines
     calbec       :      9.25s CPU      9.67s WALL (    4989 calls)
     fft          :      0.99s CPU      1.09s WALL (     373 calls)
     ffts         :      0.19s CPU      0.19s WALL (      55 calls)
     fftw         :     96.50s CPU    103.91s WALL (  200032 calls)
     interpolate  :      0.22s CPU      0.23s WALL (      28 calls)

     Parallel routines

     PWSCF        :   3m21.32s CPU   3m30.76s WALL


   This run was terminated on:  17:24: 3  23Sep2025            

=------------------------------------------------------------------------------=
   JOB DONE.
=------------------------------------------------------------------------------=
Note: The following floating-point exceptions are signalling: IEEE_INVALID_FLAG
Note: The following floating-point exceptions are signalling: IEEE_INVALID_FLAG
Note: The following floating-point exceptions are signalling: IEEE_INVALID_FLAG
Note: The following floating-point exceptions are signalling: IEEE_INVALID_FLAG
