
     Program PWSCF v.7.2 starts on 23Sep2025 at 16:36:18 

     This program is part of the open-source Quantum ESPRESSO suite
     for quantum simulation of materials; please cite
         "P. Giannozzi et al., J. Phys.:Condens. Matter 21 395502 (2009);
         "P. Giannozzi et al., J. Phys.:Condens. Matter 29 465901 (2017);
         "P. Giannozzi et al., J. Chem. Phys. 152 154105 (2020);
          URL http://www.quantum-espresso.org", 
     in publications or presentations arising from this work. More details at
     http://www.quantum-espresso.org/quote

     Parallel version (MPI), running on    16 processors

     MPI processes distributed on     1 nodes
     112301 MiB available memory on the printing compute node when the environment starts

     Reading input from /home/jvc/QEspresso7.2/ZnO_database/scripts/random_1x1x2.in/ZnO-3.20-1.55-112-0.06-2.in
Warning: card &CELL ignored
Warning: card / ignored
Warning: card &FCP ignored
Warning: card / ignored
Warning: card &RISM ignored
Warning: card / ignored

     Current dimensions of program PWSCF are:
     Max number of different atomic species (ntypx) = 10
     Max number of k-points (npk) =  40000
     Max angular momentum in pseudopotentials (lmaxx) =  4
     file Zn.upf: wavefunction(s)  3D renormalized

     K-points division:     npool     =       4
     R & G space division:  proc/nbgrp/npool/nimage =       4
     Subspace diagonalization in iterative solution of the eigenvalue problem:
     a serial algorithm will be used


     Parallelization info
     --------------------
     sticks:   dense  smooth     PW     G-vecs:    dense   smooth      PW
     Min         253     127     37                20145     7135    1181
     Max         254     129     38                20154     7137    1192
     Sum        1015     511    151                80597    28543    4757

     Using Slab Decomposition



     bravais-lattice index     =            0
     lattice parameter (alat)  =       6.0553  a.u.
     unit-cell volume          =     595.9829 (a.u.)^3
     number of atoms/cell      =            8
     number of atomic types    =            2
     number of electrons       =        72.00
     number of Kohn-Sham states=           36
     kinetic-energy cutoff     =      50.0000  Ry
     charge density cutoff     =     400.0000  Ry
     scf convergence threshold =      1.0E-08
     mixing beta               =       0.3000
     number of iterations used =            8  plain     mixing
     Exchange-correlation= PBE
                           (   1   4   3   4   0   0   0)

     celldm(1)=   6.055277  celldm(2)=   0.000000  celldm(3)=   0.000000
     celldm(4)=   0.000000  celldm(5)=   0.000000  celldm(6)=   0.000000

     crystal axes: (cart. coord. in units of alat)
               a(1) = (   1.000000   0.000000   0.000000 )  
               a(2) = (  -0.500000   0.866025   0.000000 )  
               a(3) = (   0.000000   0.000000   3.099568 )  

     reciprocal axes: (cart. coord. in units 2 pi/alat)
               b(1) = (  1.000000  0.577350 -0.000000 )  
               b(2) = (  0.000000  1.154701  0.000000 )  
               b(3) = (  0.000000 -0.000000  0.322626 )  


     PseudoPot. # 1 for Zn read from file:
     /home/jvc/QEspresso7.2/ZnO_database/pseudos/Zn.upf
     MD5 check sum: 7f56cabf9682ed8c977c2f7d0c5985c5
     Pseudo is Ultrasoft + core correction, Zval = 12.0
     Generated using &quot;atomic&quot; code by A. Dal Corso  v.6.2.2
     Using radial grid of 1201 points,  6 beta functions with: 
                l(1) =   0
                l(2) =   0
                l(3) =   1
                l(4) =   1
                l(5) =   2
                l(6) =   2
     Q(r) pseudized with 0 coefficients 


     PseudoPot. # 2 for O  read from file:
     /home/jvc/QEspresso7.2/ZnO_database/pseudos/O.upf
     MD5 check sum: 91400c9766925bcf19f520983a725ff0
     Pseudo is Ultrasoft + core correction, Zval =  6.0
     Generated using &quot;atomic&quot; code by A. Dal Corso  v.6.3MaX
     Using radial grid of 1095 points,  4 beta functions with: 
                l(1) =   0
                l(2) =   0
                l(3) =   1
                l(4) =   1
     Q(r) pseudized with 0 coefficients 


     atomic species   valence    mass     pseudopotential
        Zn            12.00    65.38000     Zn( 1.00)
        O              6.00    15.99900     O ( 1.00)

     No symmetry found


                                    s                        frac. trans.

      isym =  1     identity                                     

 cryst.   s( 1) = (     1          0          0      )
                  (     0          1          0      )
                  (     0          0          1      )

 cart.    s( 1) = (  1.0000000  0.0000000  0.0000000 )
                  (  0.0000000  1.0000000  0.0000000 )
                  (  0.0000000  0.0000000  1.0000000 )


   Cartesian axes

     site n.     atom                  positions (alat units)
         1           Zn  tau(   1) = (   0.4577752   0.2704382   0.7832569  )
         2           Zn  tau(   2) = (  -0.0046944   0.5911307   0.0115712  )
         3           O   tau(   3) = (   0.4768648   0.3156672   1.3898529  )
         4           O   tau(   4) = (   0.0048978   0.5823730   0.5956019  )
         5           Zn  tau(   5) = (   0.4614424   0.2526641   2.2949089  )
         6           Zn  tau(   6) = (   0.0204051   0.5912179   1.5283908  )
         7           O   tau(   7) = (   0.5288768   0.2665509   2.9539198  )
         8           O   tau(   8) = (  -0.0134736   0.5811810   2.1183386  )

   Crystallographic axes

     site n.     atom                  positions (cryst. coord.)
         1           Zn  tau(   1) = (  0.6139127  0.3122751  0.2526987  )
         2           Zn  tau(   2) = (  0.3365950  0.6825789  0.0037332  )
         3           O   tau(   3) = (  0.6591154  0.3645011  0.4484021  )
         4           O   tau(   4) = (  0.3411310  0.6724665  0.1921564  )
         5           Zn  tau(   5) = (  0.6073181  0.2917514  0.7403963  )
         6           Zn  tau(   6) = (  0.3617449  0.6826796  0.4930980  )
         7           O   tau(   7) = (  0.6827700  0.3077864  0.9530101  )
         8           O   tau(   8) = (  0.3220715  0.6710901  0.6834303  )

     number of k points=   112
                       cart. coord. in units 2pi/alat
        k(    1) = (   0.0000000   0.0000000   0.0000000), wk =   0.0092593
        k(    2) = (   0.0000000   0.0000000   0.0537709), wk =   0.0185185
        k(    3) = (   0.0000000   0.0000000   0.1075419), wk =   0.0185185
        k(    4) = (   0.0000000   0.0000000  -0.1613128), wk =   0.0092593
        k(    5) = (   0.0000000   0.1924501   0.0000000), wk =   0.0185185
        k(    6) = (   0.0000000   0.1924501   0.0537709), wk =   0.0185185
        k(    7) = (   0.0000000   0.1924501   0.1075419), wk =   0.0185185
        k(    8) = (   0.0000000   0.1924501  -0.1613128), wk =   0.0185185
        k(    9) = (   0.0000000   0.3849002   0.0000000), wk =   0.0185185
        k(   10) = (   0.0000000   0.3849002   0.0537709), wk =   0.0185185
        k(   11) = (   0.0000000   0.3849002   0.1075419), wk =   0.0185185
        k(   12) = (   0.0000000   0.3849002  -0.1613128), wk =   0.0185185
        k(   13) = (   0.0000000  -0.5773503   0.0000000), wk =   0.0092593
        k(   14) = (   0.0000000  -0.5773503   0.0537709), wk =   0.0185185
        k(   15) = (   0.0000000  -0.5773503   0.1075419), wk =   0.0185185
        k(   16) = (   0.0000000  -0.5773503  -0.1613128), wk =   0.0092593
        k(   17) = (   0.1666667   0.2886751   0.0000000), wk =   0.0185185
        k(   18) = (   0.1666667   0.2886751   0.0537709), wk =   0.0185185
        k(   19) = (   0.1666667   0.2886751   0.1075419), wk =   0.0185185
        k(   20) = (   0.1666667   0.2886751  -0.1613128), wk =   0.0185185
        k(   21) = (   0.1666667   0.4811252   0.0000000), wk =   0.0185185
        k(   22) = (   0.1666667   0.4811252   0.0537709), wk =   0.0185185
        k(   23) = (   0.1666667   0.4811252   0.1075419), wk =   0.0185185
        k(   24) = (   0.1666667   0.4811252  -0.1613128), wk =   0.0185185
        k(   25) = (   0.3333333   0.5773503   0.0000000), wk =   0.0185185
        k(   26) = (   0.3333333   0.5773503   0.0537709), wk =   0.0185185
        k(   27) = (   0.3333333   0.5773503   0.1075419), wk =   0.0185185
        k(   28) = (   0.3333333   0.5773503  -0.1613128), wk =   0.0185185
        k(   29) = (  -0.1666667   0.0962250   0.0000000), wk =   0.0185185
        k(   30) = (   0.1666667   0.0962250   0.0000000), wk =   0.0185185
        k(   31) = (   0.0000000  -0.1924501   0.0537709), wk =   0.0185185
        k(   32) = (  -0.1666667   0.0962250   0.0537709), wk =   0.0185185
        k(   33) = (   0.1666667   0.0962250   0.0537709), wk =   0.0185185
        k(   34) = (  -0.1666667  -0.0962250   0.0537709), wk =   0.0185185
        k(   35) = (   0.1666667  -0.0962250   0.0537709), wk =   0.0185185
        k(   36) = (   0.0000000  -0.1924501   0.1075419), wk =   0.0185185
        k(   37) = (  -0.1666667   0.0962250   0.1075419), wk =   0.0185185
        k(   38) = (   0.1666667   0.0962250   0.1075419), wk =   0.0185185
        k(   39) = (  -0.1666667  -0.0962250   0.1075419), wk =   0.0185185
        k(   40) = (   0.1666667  -0.0962250   0.1075419), wk =   0.0185185
        k(   41) = (  -0.1666667   0.0962250  -0.1613128), wk =   0.0185185
        k(   42) = (   0.1666667   0.0962250  -0.1613128), wk =   0.0185185
        k(   43) = (  -0.3333333   0.1924501   0.0000000), wk =   0.0185185
        k(   44) = (   0.3333333   0.1924501   0.0000000), wk =   0.0185185
        k(   45) = (   0.0000000  -0.3849002   0.0537709), wk =   0.0185185
        k(   46) = (  -0.3333333   0.1924501   0.0537709), wk =   0.0185185
        k(   47) = (   0.3333333   0.1924501   0.0537709), wk =   0.0185185
        k(   48) = (  -0.3333333  -0.1924501   0.0537709), wk =   0.0185185
        k(   49) = (   0.3333333  -0.1924501   0.0537709), wk =   0.0185185
        k(   50) = (   0.0000000  -0.3849002   0.1075419), wk =   0.0185185
        k(   51) = (  -0.3333333   0.1924501   0.1075419), wk =   0.0185185
        k(   52) = (   0.3333333   0.1924501   0.1075419), wk =   0.0185185
        k(   53) = (  -0.3333333  -0.1924501   0.1075419), wk =   0.0185185
        k(   54) = (   0.3333333  -0.1924501   0.1075419), wk =   0.0185185
        k(   55) = (  -0.3333333   0.1924501  -0.1613128), wk =   0.0185185
        k(   56) = (   0.3333333   0.1924501  -0.1613128), wk =   0.0185185
        k(   57) = (   0.5000000  -0.2886751   0.0000000), wk =   0.0092593
        k(   58) = (  -0.5000000  -0.2886751   0.0000000), wk =   0.0092593
        k(   59) = (   0.5000000  -0.2886751   0.0537709), wk =   0.0185185
        k(   60) = (  -0.5000000  -0.2886751   0.0537709), wk =   0.0185185
        k(   61) = (   0.5000000  -0.2886751   0.1075419), wk =   0.0185185
        k(   62) = (  -0.5000000  -0.2886751   0.1075419), wk =   0.0185185
        k(   63) = (   0.5000000  -0.2886751  -0.1613128), wk =   0.0092593
        k(   64) = (  -0.5000000  -0.2886751  -0.1613128), wk =   0.0092593
        k(   65) = (  -0.1666667   0.2886751   0.0000000), wk =   0.0185185
        k(   66) = (   0.3333333  -0.0000000   0.0000000), wk =   0.0185185
        k(   67) = (  -0.1666667  -0.2886751   0.0537709), wk =   0.0185185
        k(   68) = (  -0.1666667   0.2886751  -0.0537709), wk =   0.0185185
        k(   69) = (   0.1666667  -0.2886751  -0.0537709), wk =   0.0185185
        k(   70) = (   0.3333333  -0.0000000   0.0537709), wk =   0.0185185
        k(   71) = (  -0.3333333   0.0000000   0.0537709), wk =   0.0185185
        k(   72) = (  -0.1666667  -0.2886751   0.1075419), wk =   0.0185185
        k(   73) = (  -0.1666667   0.2886751  -0.1075419), wk =   0.0185185
        k(   74) = (   0.1666667  -0.2886751  -0.1075419), wk =   0.0185185
        k(   75) = (   0.3333333  -0.0000000   0.1075419), wk =   0.0185185
        k(   76) = (  -0.3333333   0.0000000   0.1075419), wk =   0.0185185
        k(   77) = (  -0.1666667   0.2886751   0.1613128), wk =   0.0185185
        k(   78) = (   0.3333333  -0.0000000  -0.1613128), wk =   0.0185185
        k(   79) = (  -0.1666667   0.4811252   0.0000000), wk =   0.0185185
        k(   80) = (  -0.3333333   0.3849002   0.0000000), wk =   0.0185185
        k(   81) = (   0.5000000   0.0962250   0.0000000), wk =   0.0185185
        k(   82) = (  -0.3333333  -0.3849002   0.0000000), wk =   0.0185185
        k(   83) = (   0.5000000  -0.0962250   0.0000000), wk =   0.0185185
        k(   84) = (  -0.1666667  -0.4811252   0.0537709), wk =   0.0185185
        k(   85) = (  -0.1666667   0.4811252  -0.0537709), wk =   0.0185185
        k(   86) = (   0.1666667  -0.4811252  -0.0537709), wk =   0.0185185
        k(   87) = (  -0.3333333   0.3849002   0.0537709), wk =   0.0185185
        k(   88) = (   0.5000000   0.0962250   0.0537709), wk =   0.0185185
        k(   89) = (  -0.5000000  -0.0962250   0.0537709), wk =   0.0185185
        k(   90) = (   0.3333333  -0.3849002   0.0537709), wk =   0.0185185
        k(   91) = (  -0.3333333  -0.3849002  -0.0537709), wk =   0.0185185
        k(   92) = (   0.5000000  -0.0962250  -0.0537709), wk =   0.0185185
        k(   93) = (  -0.5000000   0.0962250  -0.0537709), wk =   0.0185185
        k(   94) = (   0.3333333   0.3849002  -0.0537709), wk =   0.0185185
        k(   95) = (  -0.1666667  -0.4811252   0.1075419), wk =   0.0185185
        k(   96) = (  -0.1666667   0.4811252  -0.1075419), wk =   0.0185185
        k(   97) = (   0.1666667  -0.4811252  -0.1075419), wk =   0.0185185
        k(   98) = (  -0.3333333   0.3849002   0.1075419), wk =   0.0185185
        k(   99) = (   0.5000000   0.0962250   0.1075419), wk =   0.0185185
        k(  100) = (  -0.5000000  -0.0962250   0.1075419), wk =   0.0185185
        k(  101) = (   0.3333333  -0.3849002   0.1075419), wk =   0.0185185
        k(  102) = (  -0.3333333  -0.3849002  -0.1075419), wk =   0.0185185
        k(  103) = (   0.5000000  -0.0962250  -0.1075419), wk =   0.0185185
        k(  104) = (  -0.5000000   0.0962250  -0.1075419), wk =   0.0185185
        k(  105) = (   0.3333333   0.3849002  -0.1075419), wk =   0.0185185
        k(  106) = (  -0.1666667   0.4811252   0.1613128), wk =   0.0185185
        k(  107) = (  -0.3333333   0.3849002  -0.1613128), wk =   0.0185185
        k(  108) = (   0.5000000   0.0962250  -0.1613128), wk =   0.0185185
        k(  109) = (  -0.3333333  -0.3849002   0.1613128), wk =   0.0185185
        k(  110) = (   0.5000000  -0.0962250   0.1613128), wk =   0.0185185
        k(  111) = (  -0.3333333  -0.5773503   0.0537709), wk =   0.0185185
        k(  112) = (  -0.3333333  -0.5773503   0.1075419), wk =   0.0185185

                       cryst. coord.
        k(    1) = (   0.0000000   0.0000000   0.0000000), wk =   0.0092593
        k(    2) = (   0.0000000   0.0000000   0.1666667), wk =   0.0185185
        k(    3) = (   0.0000000   0.0000000   0.3333333), wk =   0.0185185
        k(    4) = (   0.0000000   0.0000000  -0.5000000), wk =   0.0092593
        k(    5) = (   0.0000000   0.1666667   0.0000000), wk =   0.0185185
        k(    6) = (   0.0000000   0.1666667   0.1666667), wk =   0.0185185
        k(    7) = (   0.0000000   0.1666667   0.3333333), wk =   0.0185185
        k(    8) = (   0.0000000   0.1666667  -0.5000000), wk =   0.0185185
        k(    9) = (   0.0000000   0.3333333   0.0000000), wk =   0.0185185
        k(   10) = (   0.0000000   0.3333333   0.1666667), wk =   0.0185185
        k(   11) = (   0.0000000   0.3333333   0.3333333), wk =   0.0185185
        k(   12) = (   0.0000000   0.3333333  -0.5000000), wk =   0.0185185
        k(   13) = (   0.0000000  -0.5000000   0.0000000), wk =   0.0092593
        k(   14) = (   0.0000000  -0.5000000   0.1666667), wk =   0.0185185
        k(   15) = (   0.0000000  -0.5000000   0.3333333), wk =   0.0185185
        k(   16) = (   0.0000000  -0.5000000  -0.5000000), wk =   0.0092593
        k(   17) = (   0.1666667   0.1666667   0.0000000), wk =   0.0185185
        k(   18) = (   0.1666667   0.1666667   0.1666667), wk =   0.0185185
        k(   19) = (   0.1666667   0.1666667   0.3333333), wk =   0.0185185
        k(   20) = (   0.1666667   0.1666667  -0.5000000), wk =   0.0185185
        k(   21) = (   0.1666667   0.3333333   0.0000000), wk =   0.0185185
        k(   22) = (   0.1666667   0.3333333   0.1666667), wk =   0.0185185
        k(   23) = (   0.1666667   0.3333333   0.3333333), wk =   0.0185185
        k(   24) = (   0.1666667   0.3333333  -0.5000000), wk =   0.0185185
        k(   25) = (   0.3333333   0.3333333   0.0000000), wk =   0.0185185
        k(   26) = (   0.3333333   0.3333333   0.1666667), wk =   0.0185185
        k(   27) = (   0.3333333   0.3333333   0.3333333), wk =   0.0185185
        k(   28) = (   0.3333333   0.3333333  -0.5000000), wk =   0.0185185
        k(   29) = (  -0.1666667   0.1666667   0.0000000), wk =   0.0185185
        k(   30) = (   0.1666667  -0.0000000   0.0000000), wk =   0.0185185
        k(   31) = (   0.0000000  -0.1666667   0.1666667), wk =   0.0185185
        k(   32) = (  -0.1666667   0.1666667   0.1666667), wk =   0.0185185
        k(   33) = (   0.1666667  -0.0000000   0.1666667), wk =   0.0185185
        k(   34) = (  -0.1666667   0.0000000   0.1666667), wk =   0.0185185
        k(   35) = (   0.1666667  -0.1666667   0.1666667), wk =   0.0185185
        k(   36) = (   0.0000000  -0.1666667   0.3333333), wk =   0.0185185
        k(   37) = (  -0.1666667   0.1666667   0.3333333), wk =   0.0185185
        k(   38) = (   0.1666667  -0.0000000   0.3333333), wk =   0.0185185
        k(   39) = (  -0.1666667   0.0000000   0.3333333), wk =   0.0185185
        k(   40) = (   0.1666667  -0.1666667   0.3333333), wk =   0.0185185
        k(   41) = (  -0.1666667   0.1666667  -0.5000000), wk =   0.0185185
        k(   42) = (   0.1666667  -0.0000000  -0.5000000), wk =   0.0185185
        k(   43) = (  -0.3333333   0.3333333   0.0000000), wk =   0.0185185
        k(   44) = (   0.3333333  -0.0000000   0.0000000), wk =   0.0185185
        k(   45) = (   0.0000000  -0.3333333   0.1666667), wk =   0.0185185
        k(   46) = (  -0.3333333   0.3333333   0.1666667), wk =   0.0185185
        k(   47) = (   0.3333333  -0.0000000   0.1666667), wk =   0.0185185
        k(   48) = (  -0.3333333   0.0000000   0.1666667), wk =   0.0185185
        k(   49) = (   0.3333333  -0.3333333   0.1666667), wk =   0.0185185
        k(   50) = (   0.0000000  -0.3333333   0.3333333), wk =   0.0185185
        k(   51) = (  -0.3333333   0.3333333   0.3333333), wk =   0.0185185
        k(   52) = (   0.3333333  -0.0000000   0.3333333), wk =   0.0185185
        k(   53) = (  -0.3333333   0.0000000   0.3333333), wk =   0.0185185
        k(   54) = (   0.3333333  -0.3333333   0.3333333), wk =   0.0185185
        k(   55) = (  -0.3333333   0.3333333  -0.5000000), wk =   0.0185185
        k(   56) = (   0.3333333  -0.0000000  -0.5000000), wk =   0.0185185
        k(   57) = (   0.5000000  -0.5000000   0.0000000), wk =   0.0092593
        k(   58) = (  -0.5000000   0.0000000   0.0000000), wk =   0.0092593
        k(   59) = (   0.5000000  -0.5000000   0.1666667), wk =   0.0185185
        k(   60) = (  -0.5000000   0.0000000   0.1666667), wk =   0.0185185
        k(   61) = (   0.5000000  -0.5000000   0.3333333), wk =   0.0185185
        k(   62) = (  -0.5000000   0.0000000   0.3333333), wk =   0.0185185
        k(   63) = (   0.5000000  -0.5000000  -0.5000000), wk =   0.0092593
        k(   64) = (  -0.5000000   0.0000000  -0.5000000), wk =   0.0092593
        k(   65) = (  -0.1666667   0.3333333   0.0000000), wk =   0.0185185
        k(   66) = (   0.3333333  -0.1666667   0.0000000), wk =   0.0185185
        k(   67) = (  -0.1666667  -0.1666667   0.1666667), wk =   0.0185185
        k(   68) = (  -0.1666667   0.3333333  -0.1666667), wk =   0.0185185
        k(   69) = (   0.1666667  -0.3333333  -0.1666667), wk =   0.0185185
        k(   70) = (   0.3333333  -0.1666667   0.1666667), wk =   0.0185185
        k(   71) = (  -0.3333333   0.1666667   0.1666667), wk =   0.0185185
        k(   72) = (  -0.1666667  -0.1666667   0.3333333), wk =   0.0185185
        k(   73) = (  -0.1666667   0.3333333  -0.3333333), wk =   0.0185185
        k(   74) = (   0.1666667  -0.3333333  -0.3333333), wk =   0.0185185
        k(   75) = (   0.3333333  -0.1666667   0.3333333), wk =   0.0185185
        k(   76) = (  -0.3333333   0.1666667   0.3333333), wk =   0.0185185
        k(   77) = (  -0.1666667   0.3333333   0.5000000), wk =   0.0185185
        k(   78) = (   0.3333333  -0.1666667  -0.5000000), wk =   0.0185185
        k(   79) = (  -0.1666667   0.5000000   0.0000000), wk =   0.0185185
        k(   80) = (  -0.3333333   0.5000000   0.0000000), wk =   0.0185185
        k(   81) = (   0.5000000  -0.1666667   0.0000000), wk =   0.0185185
        k(   82) = (  -0.3333333  -0.1666667   0.0000000), wk =   0.0185185
        k(   83) = (   0.5000000  -0.3333333   0.0000000), wk =   0.0185185
        k(   84) = (  -0.1666667  -0.3333333   0.1666667), wk =   0.0185185
        k(   85) = (  -0.1666667   0.5000000  -0.1666667), wk =   0.0185185
        k(   86) = (   0.1666667  -0.5000000  -0.1666667), wk =   0.0185185
        k(   87) = (  -0.3333333   0.5000000   0.1666667), wk =   0.0185185
        k(   88) = (   0.5000000  -0.1666667   0.1666667), wk =   0.0185185
        k(   89) = (  -0.5000000   0.1666667   0.1666667), wk =   0.0185185
        k(   90) = (   0.3333333  -0.5000000   0.1666667), wk =   0.0185185
        k(   91) = (  -0.3333333  -0.1666667  -0.1666667), wk =   0.0185185
        k(   92) = (   0.5000000  -0.3333333  -0.1666667), wk =   0.0185185
        k(   93) = (  -0.5000000   0.3333333  -0.1666667), wk =   0.0185185
        k(   94) = (   0.3333333   0.1666667  -0.1666667), wk =   0.0185185
        k(   95) = (  -0.1666667  -0.3333333   0.3333333), wk =   0.0185185
        k(   96) = (  -0.1666667   0.5000000  -0.3333333), wk =   0.0185185
        k(   97) = (   0.1666667  -0.5000000  -0.3333333), wk =   0.0185185
        k(   98) = (  -0.3333333   0.5000000   0.3333333), wk =   0.0185185
        k(   99) = (   0.5000000  -0.1666667   0.3333333), wk =   0.0185185
        k(  100) = (  -0.5000000   0.1666667   0.3333333), wk =   0.0185185
        k(  101) = (   0.3333333  -0.5000000   0.3333333), wk =   0.0185185
        k(  102) = (  -0.3333333  -0.1666667  -0.3333333), wk =   0.0185185
        k(  103) = (   0.5000000  -0.3333333  -0.3333333), wk =   0.0185185
        k(  104) = (  -0.5000000   0.3333333  -0.3333333), wk =   0.0185185
        k(  105) = (   0.3333333   0.1666667  -0.3333333), wk =   0.0185185
        k(  106) = (  -0.1666667   0.5000000   0.5000000), wk =   0.0185185
        k(  107) = (  -0.3333333   0.5000000  -0.5000000), wk =   0.0185185
        k(  108) = (   0.5000000  -0.1666667  -0.5000000), wk =   0.0185185
        k(  109) = (  -0.3333333  -0.1666667   0.5000000), wk =   0.0185185
        k(  110) = (   0.5000000  -0.3333333   0.5000000), wk =   0.0185185
        k(  111) = (  -0.3333333  -0.3333333   0.1666667), wk =   0.0185185
        k(  112) = (  -0.3333333  -0.3333333   0.3333333), wk =   0.0185185

     Dense  grid:    80597 G-vectors     FFT dimensions: (  40,  40, 120)

     Smooth grid:    28543 G-vectors     FFT dimensions: (  27,  27,  90)

     Dynamical RAM for                 wfc:       0.49 MB

     Dynamical RAM for     wfc (w. buffer):      14.16 MB

     Dynamical RAM for           str. fact:       0.61 MB

     Dynamical RAM for           local pot:       0.00 MB

     Dynamical RAM for          nlocal pot:       1.41 MB

     Dynamical RAM for                qrad:       3.21 MB

     Dynamical RAM for          rho,v,vnew:       2.02 MB

     Dynamical RAM for               rhoin:       0.67 MB

     Dynamical RAM for            rho*nmix:       4.92 MB

     Dynamical RAM for           G-vectors:       1.21 MB

     Dynamical RAM for          h,s,v(r/c):       0.24 MB

     Dynamical RAM for          <psi|beta>:       0.06 MB

     Dynamical RAM for                 psi:       0.98 MB

     Dynamical RAM for                hpsi:       0.98 MB

     Dynamical RAM for                spsi:       0.98 MB

     Dynamical RAM for      wfcinit/wfcrot:       1.47 MB

     Dynamical RAM for           addusdens:      14.83 MB

     Dynamical RAM for          addusforce:      15.23 MB

     Estimated static dynamical RAM per process >      26.05 MB

     Estimated max dynamical RAM per process >      46.21 MB

     Estimated total dynamical RAM >     680.27 MB

     Check: negative core charge=   -0.000002

     Initial potential from superposition of free atoms

     starting charge      71.9851, renormalised to      72.0000
     Starting wfcs are   52 randomized atomic wfcs

     total cpu time spent up to now is        4.2 secs

     Self-consistent Calculation

     iteration #  1     ecut=    50.00 Ry     beta= 0.30
     Davidson diagonalization with overlap

---- Real-time Memory Report at c_bands before calling an iterative solver
            63 MiB given to the printing process from OS
             0 MiB allocation reported by mallinfo(arena+hblkhd)
        111656 MiB available memory on the node where the printing process lives
------------------
     ethr =  1.00E-02,  avg # of iterations =  2.0

     total cpu time spent up to now is        8.9 secs

     total energy              =    -722.87458777 Ry
     estimated scf accuracy    <       1.39660330 Ry

     iteration #  2     ecut=    50.00 Ry     beta= 0.30
     Davidson diagonalization with overlap

---- Real-time Memory Report at c_bands before calling an iterative solver
            78 MiB given to the printing process from OS
             0 MiB allocation reported by mallinfo(arena+hblkhd)
        111428 MiB available memory on the node where the printing process lives
------------------
     ethr =  1.94E-03,  avg # of iterations =  2.0

     total cpu time spent up to now is       14.6 secs

     total energy              =    -723.02335702 Ry
     estimated scf accuracy    <       0.22108872 Ry

     iteration #  3     ecut=    50.00 Ry     beta= 0.30
     Davidson diagonalization with overlap

---- Real-time Memory Report at c_bands before calling an iterative solver
            78 MiB given to the printing process from OS
             0 MiB allocation reported by mallinfo(arena+hblkhd)
        111431 MiB available memory on the node where the printing process lives
------------------
     ethr =  3.07E-04,  avg # of iterations =  6.3

     total cpu time spent up to now is       24.8 secs

     total energy              =    -723.12930743 Ry
     estimated scf accuracy    <       0.15916149 Ry

     iteration #  4     ecut=    50.00 Ry     beta= 0.30
     Davidson diagonalization with overlap

---- Real-time Memory Report at c_bands before calling an iterative solver
            78 MiB given to the printing process from OS
             0 MiB allocation reported by mallinfo(arena+hblkhd)
        111448 MiB available memory on the node where the printing process lives
------------------
     ethr =  2.21E-04,  avg # of iterations =  4.0

     total cpu time spent up to now is       31.4 secs

     total energy              =    -723.18517818 Ry
     estimated scf accuracy    <       0.01087224 Ry

     iteration #  5     ecut=    50.00 Ry     beta= 0.30
     Davidson diagonalization with overlap

---- Real-time Memory Report at c_bands before calling an iterative solver
            78 MiB given to the printing process from OS
             0 MiB allocation reported by mallinfo(arena+hblkhd)
        111455 MiB available memory on the node where the printing process lives
------------------
     ethr =  1.51E-05,  avg # of iterations = 10.3

     total cpu time spent up to now is       47.3 secs

     total energy              =    -723.21131831 Ry
     estimated scf accuracy    <       0.37365320 Ry

     iteration #  6     ecut=    50.00 Ry     beta= 0.30
     Davidson diagonalization with overlap

---- Real-time Memory Report at c_bands before calling an iterative solver
            79 MiB given to the printing process from OS
             0 MiB allocation reported by mallinfo(arena+hblkhd)
        111452 MiB available memory on the node where the printing process lives
------------------
     ethr =  1.51E-05,  avg # of iterations =  6.3

     total cpu time spent up to now is       57.1 secs

     total energy              =    -723.11312813 Ry
     estimated scf accuracy    <       0.17297082 Ry

     iteration #  7     ecut=    50.00 Ry     beta= 0.30
     Davidson diagonalization with overlap

---- Real-time Memory Report at c_bands before calling an iterative solver
            79 MiB given to the printing process from OS
             0 MiB allocation reported by mallinfo(arena+hblkhd)
        111450 MiB available memory on the node where the printing process lives
------------------
     ethr =  1.51E-05,  avg # of iterations =  9.9

     total cpu time spent up to now is       72.9 secs

     total energy              =    -723.16821169 Ry
     estimated scf accuracy    <       0.05184855 Ry

     iteration #  8     ecut=    50.00 Ry     beta= 0.30
     Davidson diagonalization with overlap

---- Real-time Memory Report at c_bands before calling an iterative solver
            79 MiB given to the printing process from OS
             0 MiB allocation reported by mallinfo(arena+hblkhd)
        111457 MiB available memory on the node where the printing process lives
------------------
     ethr =  1.51E-05,  avg # of iterations =  6.3

     total cpu time spent up to now is       82.7 secs

     total energy              =    -723.17585815 Ry
     estimated scf accuracy    <       0.00109826 Ry

     iteration #  9     ecut=    50.00 Ry     beta= 0.30
     Davidson diagonalization with overlap

---- Real-time Memory Report at c_bands before calling an iterative solver
            79 MiB given to the printing process from OS
             0 MiB allocation reported by mallinfo(arena+hblkhd)
        111457 MiB available memory on the node where the printing process lives
------------------
     ethr =  1.53E-06,  avg # of iterations =  5.5

     total cpu time spent up to now is       92.5 secs

     total energy              =    -723.17651719 Ry
     estimated scf accuracy    <       0.00002535 Ry

     iteration # 10     ecut=    50.00 Ry     beta= 0.30
     Davidson diagonalization with overlap

---- Real-time Memory Report at c_bands before calling an iterative solver
            80 MiB given to the printing process from OS
             0 MiB allocation reported by mallinfo(arena+hblkhd)
        111456 MiB available memory on the node where the printing process lives
------------------
     ethr =  3.52E-08,  avg # of iterations =  7.5

     total cpu time spent up to now is      104.9 secs

     total energy              =    -723.17656008 Ry
     estimated scf accuracy    <       0.00000356 Ry

     iteration # 11     ecut=    50.00 Ry     beta= 0.30
     Davidson diagonalization with overlap

---- Real-time Memory Report at c_bands before calling an iterative solver
            80 MiB given to the printing process from OS
             0 MiB allocation reported by mallinfo(arena+hblkhd)
        111456 MiB available memory on the node where the printing process lives
------------------
     ethr =  4.94E-09,  avg # of iterations =  9.3

     total cpu time spent up to now is      118.9 secs

     total energy              =    -723.17656026 Ry
     estimated scf accuracy    <       0.00004134 Ry

     iteration # 12     ecut=    50.00 Ry     beta= 0.30
     Davidson diagonalization with overlap

---- Real-time Memory Report at c_bands before calling an iterative solver
            80 MiB given to the printing process from OS
             0 MiB allocation reported by mallinfo(arena+hblkhd)
        111457 MiB available memory on the node where the printing process lives
------------------
     ethr =  4.94E-09,  avg # of iterations =  5.1

     total cpu time spent up to now is      127.6 secs

     total energy              =    -723.17655988 Ry
     estimated scf accuracy    <       0.00001269 Ry

     iteration # 13     ecut=    50.00 Ry     beta= 0.30
     Davidson diagonalization with overlap

---- Real-time Memory Report at c_bands before calling an iterative solver
            80 MiB given to the printing process from OS
             0 MiB allocation reported by mallinfo(arena+hblkhd)
        111457 MiB available memory on the node where the printing process lives
------------------
     ethr =  4.94E-09,  avg # of iterations =  2.1

     total cpu time spent up to now is      132.6 secs

     total energy              =    -723.17655673 Ry
     estimated scf accuracy    <       0.00000751 Ry

     iteration # 14     ecut=    50.00 Ry     beta= 0.30
     Davidson diagonalization with overlap

---- Real-time Memory Report at c_bands before calling an iterative solver
            80 MiB given to the printing process from OS
             0 MiB allocation reported by mallinfo(arena+hblkhd)
        111457 MiB available memory on the node where the printing process lives
------------------
     ethr =  4.94E-09,  avg # of iterations =  6.5

     total cpu time spent up to now is      142.3 secs

     total energy              =    -723.17655951 Ry
     estimated scf accuracy    <       0.00000042 Ry

     iteration # 15     ecut=    50.00 Ry     beta= 0.30
     Davidson diagonalization with overlap

---- Real-time Memory Report at c_bands before calling an iterative solver
            80 MiB given to the printing process from OS
             0 MiB allocation reported by mallinfo(arena+hblkhd)
        111457 MiB available memory on the node where the printing process lives
------------------
     ethr =  5.81E-10,  avg # of iterations =  3.6

     total cpu time spent up to now is      148.8 secs

     total energy              =    -723.17655939 Ry
     estimated scf accuracy    <       0.00000046 Ry

     iteration # 16     ecut=    50.00 Ry     beta= 0.30
     Davidson diagonalization with overlap

---- Real-time Memory Report at c_bands before calling an iterative solver
            80 MiB given to the printing process from OS
             0 MiB allocation reported by mallinfo(arena+hblkhd)
        111457 MiB available memory on the node where the printing process lives
------------------
     ethr =  5.81E-10,  avg # of iterations =  2.0

     total cpu time spent up to now is      153.8 secs

     total energy              =    -723.17655938 Ry
     estimated scf accuracy    <       0.00000012 Ry

     iteration # 17     ecut=    50.00 Ry     beta= 0.30
     Davidson diagonalization with overlap

---- Real-time Memory Report at c_bands before calling an iterative solver
            80 MiB given to the printing process from OS
             0 MiB allocation reported by mallinfo(arena+hblkhd)
        111457 MiB available memory on the node where the printing process lives
------------------
     ethr =  1.68E-10,  avg # of iterations =  5.8

     total cpu time spent up to now is      162.4 secs

     total energy              =    -723.17655945 Ry
     estimated scf accuracy    <       0.00000001 Ry

     iteration # 18     ecut=    50.00 Ry     beta= 0.30
     Davidson diagonalization with overlap

---- Real-time Memory Report at c_bands before calling an iterative solver
            80 MiB given to the printing process from OS
             0 MiB allocation reported by mallinfo(arena+hblkhd)
        111457 MiB available memory on the node where the printing process lives
------------------
     ethr =  1.88E-11,  avg # of iterations =  3.9

     total cpu time spent up to now is      169.3 secs

     End of self-consistent calculation

          k = 0.0000 0.0000 0.0000 (  3571 PWs)   bands (ev):

   -10.5065  -9.9754  -9.8469  -9.2092   1.7660   1.8949   1.9799   2.1072
     2.1572   2.1972   2.2867   2.3753   2.5420   2.6274   2.7223   3.0065
     3.5525   3.6770   3.7265   3.7647   3.8023   3.8624   4.2294   4.2540
     4.3506   6.0729   6.3755   7.3132   7.6123   7.7597   7.8709   8.0863
     8.1484   8.3188   8.5721   8.6330

     occupation numbers 
     1.0000   1.0000   1.0000   1.0000   1.0000   1.0000   1.0000   1.0000
     1.0000   1.0000   1.0000   1.0000   1.0000   1.0000   1.0000   1.0000
     1.0000   1.0000   1.0000   1.0000   1.0000   1.0000   1.0000   1.0000
     1.0000   1.0000   1.0000   1.0000   1.0000   1.0000   1.0000   1.0000
     1.0000   1.0000   1.0000   1.0000

          k = 0.0000 0.0000 0.0538 (  3564 PWs)   bands (ev):

   -10.5017 -10.0124  -9.8099  -9.2139   1.7670   1.8951   1.9830   2.1075
     2.1589   2.1903   2.2899   2.3758   2.5383   2.6274   2.7111   2.9980
     3.5564   3.6804   3.7183   3.7599   3.8035   3.8669   4.2300   4.2529
     4.4384   5.7980   6.6395   7.3243   7.6110   7.7317   7.8599   8.0946
     8.1381   8.2062   8.5706   8.6198

     occupation numbers 
     1.0000   1.0000   1.0000   1.0000   1.0000   1.0000   1.0000   1.0000
     1.0000   1.0000   1.0000   1.0000   1.0000   1.0000   1.0000   1.0000
     1.0000   1.0000   1.0000   1.0000   1.0000   1.0000   1.0000   1.0000
     1.0000   1.0000   1.0000   1.0000   1.0000   1.0000   1.0000   1.0000
     1.0000   1.0000   1.0000   1.0000

          k = 0.0000 0.0000 0.1075 (  3540 PWs)   bands (ev):

   -10.4913 -10.0633  -9.7593  -9.2238   1.7695   1.8993   1.9838   2.1075
     2.1531   2.1863   2.2990   2.3767   2.5314   2.6272   2.6872   2.9834
     3.5653   3.6883   3.7018   3.7500   3.8058   3.8753   4.2305   4.2521
     4.6675   5.4193   6.9885   7.3516   7.5936   7.6724   7.8233   7.8950
     8.1413   8.2009   8.5648   8.6056

     occupation numbers 
     1.0000   1.0000   1.0000   1.0000   1.0000   1.0000   1.0000   1.0000
     1.0000   1.0000   1.0000   1.0000   1.0000   1.0000   1.0000   1.0000
     1.0000   1.0000   1.0000   1.0000   1.0000   1.0000   1.0000   1.0000
     1.0000   1.0000   1.0000   1.0000   1.0000   1.0000   1.0000   1.0000
     1.0000   1.0000   1.0000   1.0000

          k = 0.0000 0.0000-0.1613 (  3534 PWs)   bands (ev):

   -10.4858 -10.0843  -9.7386  -9.2290   1.7709   1.9037   1.9808   2.1071
     2.1463   2.1889   2.3049   2.3772   2.5282   2.6270   2.6746   2.9772
     3.5703   3.6917   3.6948   3.7441   3.8067   3.8793   4.2305   4.2517
     4.8961   5.1439   7.2144   7.3815   7.5067   7.6179   7.7537   7.8422
     8.1527   8.2137   8.5610   8.6003

     occupation numbers 
     1.0000   1.0000   1.0000   1.0000   1.0000   1.0000   1.0000   1.0000
     1.0000   1.0000   1.0000   1.0000   1.0000   1.0000   1.0000   1.0000
     1.0000   1.0000   1.0000   1.0000   1.0000   1.0000   1.0000   1.0000
     1.0000   1.0000   1.0000   1.0000   1.0000   1.0000   1.0000   1.0000
     1.0000   1.0000   1.0000   1.0000

          k = 0.0000 0.1925 0.0000 (  3546 PWs)   bands (ev):

   -10.3473  -9.8511  -9.7376  -9.1192   1.6585   1.7819   1.9613   2.1142
     2.2205   2.3366   2.4188   2.5011   2.5712   2.6803   2.8942   3.0934
     3.5183   3.6447   3.7449   3.7688   3.8168   3.9483   4.2307   4.2985
     4.3637   6.0316   6.1981   6.4558   7.0885   7.1409   7.3490   7.5235
     7.6967   7.8430   8.1519   8.3140

     occupation numbers 
     1.0000   1.0000   1.0000   1.0000   1.0000   1.0000   1.0000   1.0000
     1.0000   1.0000   1.0000   1.0000   1.0000   1.0000   1.0000   1.0000
     1.0000   1.0000   1.0000   1.0000   1.0000   1.0000   1.0000   1.0000
     1.0000   1.0000   1.0000   1.0000   1.0000   1.0000   1.0000   1.0000
     1.0000   1.0000   1.0000   1.0000

          k = 0.0000 0.1925 0.0538 (  3534 PWs)   bands (ev):

   -10.3434  -9.8814  -9.7080  -9.1223   1.6622   1.7864   1.9839   2.1050
     2.2206   2.2897   2.4278   2.5004   2.5826   2.6748   2.8801   3.0904
     3.5286   3.6499   3.7279   3.7589   3.8243   3.9499   4.2290   4.2754
     4.4950   5.8099   6.3014   6.5169   7.0146   7.1933   7.2740   7.5627
     7.7148   7.8664   8.1501   8.3155

     occupation numbers 
     1.0000   1.0000   1.0000   1.0000   1.0000   1.0000   1.0000   1.0000
     1.0000   1.0000   1.0000   1.0000   1.0000   1.0000   1.0000   1.0000
     1.0000   1.0000   1.0000   1.0000   1.0000   1.0000   1.0000   1.0000
     1.0000   1.0000   1.0000   1.0000   1.0000   1.0000   1.0000   1.0000
     1.0000   1.0000   1.0000   1.0000

          k = 0.0000 0.1925 0.1075 (  3550 PWs)   bands (ev):

   -10.3353  -9.9231  -9.6681  -9.1285   1.6712   1.8032   2.0097   2.0964
     2.1855   2.2517   2.4356   2.5011   2.5847   2.6738   2.8614   3.0801
     3.5456   3.6603   3.7032   3.7428   3.8290   3.9558   4.2261   4.2637
     4.7620   5.4693   6.4130   6.6174   6.9298   7.1315   7.2363   7.5151
     7.8456   7.9263   8.1269   8.3090

     occupation numbers 
     1.0000   1.0000   1.0000   1.0000   1.0000   1.0000   1.0000   1.0000
     1.0000   1.0000   1.0000   1.0000   1.0000   1.0000   1.0000   1.0000
     1.0000   1.0000   1.0000   1.0000   1.0000   1.0000   1.0000   1.0000
     1.0000   1.0000   1.0000   1.0000   1.0000   1.0000   1.0000   1.0000
     1.0000   1.0000   1.0000   1.0000

          k = 0.0000 0.1925-0.1613 (  3552 PWs)   bands (ev):

   -10.3310  -9.9401  -9.6522  -9.1317   1.6757   1.8220   1.9922   2.1156
     2.1475   2.2572   2.4365   2.5020   2.5785   2.6769   2.8559   3.0733
     3.5523   3.6647   3.6966   3.7345   3.8288   3.9594   4.2247   4.2605
     5.0072   5.2021   6.4822   6.6580   6.9023   7.0316   7.2617   7.4760
     7.9040   8.0051   8.0782   8.3010

     occupation numbers 
     1.0000   1.0000   1.0000   1.0000   1.0000   1.0000   1.0000   1.0000
     1.0000   1.0000   1.0000   1.0000   1.0000   1.0000   1.0000   1.0000
     1.0000   1.0000   1.0000   1.0000   1.0000   1.0000   1.0000   1.0000
     1.0000   1.0000   1.0000   1.0000   1.0000   1.0000   1.0000   1.0000
     1.0000   1.0000   1.0000   1.0000

          k = 0.0000 0.3849 0.0000 (  3562 PWs)   bands (ev):

    -9.9965  -9.6083  -9.5102  -8.9349   1.5105   1.5936   1.9232   2.1871
     2.3742   2.5828   2.6411   2.7875   2.8263   2.8682   3.2184   3.3521
     3.5130   3.6864   3.7762   3.8421   3.8596   4.0311   4.2077   4.2741
     4.5843   5.0484   5.2453   5.3278   5.9664   6.3055   6.7700   6.9804
     7.1530   7.2273   7.5996   7.7170

     occupation numbers 
     1.0000   1.0000   1.0000   1.0000   1.0000   1.0000   1.0000   1.0000
     1.0000   1.0000   1.0000   1.0000   1.0000   1.0000   1.0000   1.0000
     1.0000   1.0000   1.0000   1.0000   1.0000   1.0000   1.0000   1.0000
     1.0000   1.0000   1.0000   1.0000   1.0000   1.0000   1.0000   1.0000
     1.0000   1.0000   1.0000   1.0000

          k = 0.0000 0.3849 0.0538 (  3558 PWs)   bands (ev):

    -9.9948  -9.6189  -9.5008  -8.9353   1.5188   1.5993   1.9307   2.1882
     2.3708   2.5111   2.6659   2.8081   2.8246   2.8636   3.1739   3.3652
     3.5437   3.6878   3.7616   3.8130   3.8584   4.0854   4.1959   4.2697
     4.6354   5.0987   5.1592   5.4035   5.9655   6.3150   6.5667   6.8819
     7.2131   7.4033   7.6020   7.7103

     occupation numbers 
     1.0000   1.0000   1.0000   1.0000   1.0000   1.0000   1.0000   1.0000
     1.0000   1.0000   1.0000   1.0000   1.0000   1.0000   1.0000   1.0000
     1.0000   1.0000   1.0000   1.0000   1.0000   1.0000   1.0000   1.0000
     1.0000   1.0000   1.0000   1.0000   1.0000   1.0000   1.0000   1.0000
     1.0000   1.0000   1.0000   1.0000

          k = 0.0000 0.3849 0.1075 (  3569 PWs)   bands (ev):

    -9.9915  -9.6357  -9.4865  -8.9361   1.5233   1.6319   1.9398   2.1771
     2.3510   2.4399   2.6940   2.8135   2.8278   2.8593   3.1211   3.3658
     3.5932   3.6814   3.7434   3.7806   3.8635   4.1177   4.2094   4.2586
     4.7537   5.0293   5.2420   5.4967   5.9374   6.2350   6.3850   6.7673
     7.2972   7.5267   7.6327   7.7095

     occupation numbers 
     1.0000   1.0000   1.0000   1.0000   1.0000   1.0000   1.0000   1.0000
     1.0000   1.0000   1.0000   1.0000   1.0000   1.0000   1.0000   1.0000
     1.0000   1.0000   1.0000   1.0000   1.0000   1.0000   1.0000   1.0000
     1.0000   1.0000   1.0000   1.0000   1.0000   1.0000   1.0000   1.0000
     1.0000   1.0000   1.0000   1.0000

          k = 0.0000 0.3849-0.1613 (  3562 PWs)   bands (ev):

    -9.9899  -9.6426  -9.4808  -8.9365   1.5207   1.6608   1.9373   2.1602
     2.3350   2.4318   2.7096   2.7992   2.8270   2.8650   3.1054   3.3609
     3.6025   3.6827   3.7411   3.7792   3.8593   4.1050   4.2349   4.2537
     4.8694   4.9097   5.3588   5.5339   5.8956   6.0954   6.4323   6.6978
     7.3374   7.5355   7.6387   7.7349

     occupation numbers 
     1.0000   1.0000   1.0000   1.0000   1.0000   1.0000   1.0000   1.0000
     1.0000   1.0000   1.0000   1.0000   1.0000   1.0000   1.0000   1.0000
     1.0000   1.0000   1.0000   1.0000   1.0000   1.0000   1.0000   1.0000
     1.0000   1.0000   1.0000   1.0000   1.0000   1.0000   1.0000   1.0000
     1.0000   1.0000   1.0000   1.0000

          k = 0.0000-0.5774 0.0000 (  3574 PWs)   bands (ev):

    -9.7926  -9.5080  -9.3845  -8.8403   1.4956   1.5668   1.9556   2.1942
     2.4340   2.6869   2.7651   2.9450   2.9881   3.0284   3.3817   3.5350
     3.6895   3.7697   3.8152   3.8757   3.9283   3.9769   4.1723   4.2853
     4.4381   4.5324   4.5944   4.8269   5.6135   5.7879   6.4281   6.7534
     6.9733   7.0814   7.2213   7.4474

     occupation numbers 
     1.0000   1.0000   1.0000   1.0000   1.0000   1.0000   1.0000   1.0000
     1.0000   1.0000   1.0000   1.0000   1.0000   1.0000   1.0000   1.0000
     1.0000   1.0000   1.0000   1.0000   1.0000   1.0000   1.0000   1.0000
     1.0000   1.0000   1.0000   1.0000   1.0000   1.0000   1.0000   1.0000
     1.0000   1.0000   1.0000   1.0000

          k = 0.0000-0.5774 0.0538 (  3572 PWs)   bands (ev):

    -9.7922  -9.5091  -9.3839  -8.8403   1.5038   1.5808   1.9385   2.1951
     2.4332   2.6422   2.7937   2.9448   2.9752   3.0495   3.3571   3.5382
     3.7020   3.7751   3.8173   3.8715   3.9166   3.9847   4.1748   4.2841
     4.4376   4.5313   4.5912   4.8311   5.6695   5.8143   6.3529   6.7883
     6.8927   7.0790   7.2751   7.4473

     occupation numbers 
     1.0000   1.0000   1.0000   1.0000   1.0000   1.0000   1.0000   1.0000
     1.0000   1.0000   1.0000   1.0000   1.0000   1.0000   1.0000   1.0000
     1.0000   1.0000   1.0000   1.0000   1.0000   1.0000   1.0000   1.0000
     1.0000   1.0000   1.0000   1.0000   1.0000   1.0000   1.0000   1.0000
     1.0000   1.0000   1.0000   1.0000

          k = 0.0000-0.5774 0.1075 (  3564 PWs)   bands (ev):

    -9.7915  -9.5113  -9.3826  -8.8402   1.5210   1.6140   1.8982   2.1969
     2.4316   2.5828   2.8216   2.9410   2.9662   3.0823   3.3078   3.5414
     3.7255   3.7899   3.8235   3.8602   3.8940   3.9962   4.1793   4.2819
     4.4367   4.5290   4.5859   4.8391   5.8113   5.8846   6.2117   6.6220
     6.9385   7.1362   7.3005   7.4396

     occupation numbers 
     1.0000   1.0000   1.0000   1.0000   1.0000   1.0000   1.0000   1.0000
     1.0000   1.0000   1.0000   1.0000   1.0000   1.0000   1.0000   1.0000
     1.0000   1.0000   1.0000   1.0000   1.0000   1.0000   1.0000   1.0000
     1.0000   1.0000   1.0000   1.0000   1.0000   1.0000   1.0000   1.0000
     1.0000   1.0000   1.0000   1.0000

          k = 0.0000-0.5774-0.1613 (  3572 PWs)   bands (ev):

    -9.7911  -9.5124  -9.3819  -8.8402   1.5298   1.6350   1.8731   2.1979
     2.4306   2.5584   2.8308   2.9375   2.9655   3.0996   3.2811   3.5421
     3.7354   3.8029   3.8283   3.8510   3.8806   4.0010   4.1813   4.2808
     4.4361   4.5276   4.5838   4.8429   5.9103   5.9549   6.1105   6.4985
     6.9880   7.1599   7.3112   7.4236

     occupation numbers 
     1.0000   1.0000   1.0000   1.0000   1.0000   1.0000   1.0000   1.0000
     1.0000   1.0000   1.0000   1.0000   1.0000   1.0000   1.0000   1.0000
     1.0000   1.0000   1.0000   1.0000   1.0000   1.0000   1.0000   1.0000
     1.0000   1.0000   1.0000   1.0000   1.0000   1.0000   1.0000   1.0000
     1.0000   1.0000   1.0000   1.0000

          k = 0.1667 0.2887 0.0000 (  3551 PWs)   bands (ev):

   -10.1031  -9.6802  -9.5783  -8.9796   1.6736   1.7226   1.9819   2.1096
     2.2617   2.3599   2.4850   2.6093   2.6886   2.7926   3.1391   3.2690
     3.5614   3.6245   3.7605   3.8276   3.8710   3.9987   4.2283   4.2928
     4.5397   5.5858   5.6657   5.8103   6.0605   6.5296   6.8306   7.0407
     7.1898   7.3718   7.7522   7.8708

     occupation numbers 
     1.0000   1.0000   1.0000   1.0000   1.0000   1.0000   1.0000   1.0000
     1.0000   1.0000   1.0000   1.0000   1.0000   1.0000   1.0000   1.0000
     1.0000   1.0000   1.0000   1.0000   1.0000   1.0000   1.0000   1.0000
     1.0000   1.0000   1.0000   1.0000   1.0000   1.0000   1.0000   1.0000
     1.0000   1.0000   1.0000   1.0000

          k = 0.1667 0.2887 0.0538 (  3557 PWs)   bands (ev):

   -10.1007  -9.6967  -9.5632  -8.9805   1.6878   1.7290   1.9854   2.0962
     2.2513   2.3635   2.4814   2.6086   2.6956   2.7814   3.1010   3.2628
     3.5707   3.6379   3.7534   3.8086   3.8703   4.0048   4.2424   4.2801
     4.6521   5.5080   5.7253   5.8259   6.0627   6.5029   6.7700   6.8699
     7.2068   7.5507   7.7551   7.8707

     occupation numbers 
     1.0000   1.0000   1.0000   1.0000   1.0000   1.0000   1.0000   1.0000
     1.0000   1.0000   1.0000   1.0000   1.0000   1.0000   1.0000   1.0000
     1.0000   1.0000   1.0000   1.0000   1.0000   1.0000   1.0000   1.0000
     1.0000   1.0000   1.0000   1.0000   1.0000   1.0000   1.0000   1.0000
     1.0000   1.0000   1.0000   1.0000

          k = 0.1667 0.2887 0.1075 (  3553 PWs)   bands (ev):

   -10.0961  -9.7208  -9.5419  -8.9823   1.7033   1.7563   1.9933   2.0823
     2.2280   2.3545   2.4715   2.5972   2.7109   2.7536   3.0629   3.2620
     3.6025   3.6490   3.7489   3.7626   3.8701   4.0251   4.2389   4.2616
     4.8904   5.3477   5.7931   5.9120   6.0969   6.3991   6.5719   6.7607
     7.2967   7.6327   7.7853   7.9048

     occupation numbers 
     1.0000   1.0000   1.0000   1.0000   1.0000   1.0000   1.0000   1.0000
     1.0000   1.0000   1.0000   1.0000   1.0000   1.0000   1.0000   1.0000
     1.0000   1.0000   1.0000   1.0000   1.0000   1.0000   1.0000   1.0000
     1.0000   1.0000   1.0000   1.0000   1.0000   1.0000   1.0000   1.0000
     1.0000   1.0000   1.0000   1.0000

          k = 0.1667 0.2887-0.1613 (  3558 PWs)   bands (ev):

   -10.0938  -9.7305  -9.5336  -8.9832   1.7023   1.7822   1.9898   2.0917
     2.2074   2.3433   2.4646   2.5909   2.7137   2.7424   3.0598   3.2645
     3.6233   3.6564   3.7261   3.7568   3.8666   4.0383   4.2218   4.2599
     5.0784   5.1881   5.8043   6.0298   6.1460   6.2807   6.4574   6.7424
     7.3444   7.6210   7.7937   7.9435

     occupation numbers 
     1.0000   1.0000   1.0000   1.0000   1.0000   1.0000   1.0000   1.0000
     1.0000   1.0000   1.0000   1.0000   1.0000   1.0000   1.0000   1.0000
     1.0000   1.0000   1.0000   1.0000   1.0000   1.0000   1.0000   1.0000
     1.0000   1.0000   1.0000   1.0000   1.0000   1.0000   1.0000   1.0000
     1.0000   1.0000   1.0000   1.0000

          k = 0.1667 0.4811 0.0000 (  3557 PWs)   bands (ev):

    -9.8046  -9.5184  -9.3967  -8.8408   1.6632   1.7112   2.0680   2.2907
     2.3837   2.5721   2.7142   2.7674   2.8940   2.9572   3.3819   3.4690
     3.6253   3.7191   3.8074   3.9133   4.0304   4.0722   4.2037   4.3247
     4.4378   4.7111   4.8525   5.0745   5.3028   5.7957   6.0600   6.2653
     6.8466   7.1359   7.2386   7.4059

     occupation numbers 
     1.0000   1.0000   1.0000   1.0000   1.0000   1.0000   1.0000   1.0000
     1.0000   1.0000   1.0000   1.0000   1.0000   1.0000   1.0000   1.0000
     1.0000   1.0000   1.0000   1.0000   1.0000   1.0000   1.0000   1.0000
     1.0000   1.0000   1.0000   1.0000   1.0000   1.0000   1.0000   1.0000
     1.0000   1.0000   1.0000   1.0000

          k = 0.1667 0.4811 0.0538 (  3558 PWs)   bands (ev):

    -9.8041  -9.5201  -9.3956  -8.8407   1.6817   1.7131   2.0684   2.2809
     2.3803   2.5649   2.7101   2.7489   2.8935   2.9814   3.3310   3.4634
     3.6363   3.7488   3.8050   3.9122   3.9919   4.1066   4.2034   4.3378
     4.4333   4.6950   4.8649   5.1226   5.3197   5.8121   5.9442   6.3926
     6.7913   7.0427   7.2466   7.4699

     occupation numbers 
     1.0000   1.0000   1.0000   1.0000   1.0000   1.0000   1.0000   1.0000
     1.0000   1.0000   1.0000   1.0000   1.0000   1.0000   1.0000   1.0000
     1.0000   1.0000   1.0000   1.0000   1.0000   1.0000   1.0000   1.0000
     1.0000   1.0000   1.0000   1.0000   1.0000   1.0000   1.0000   1.0000
     1.0000   1.0000   1.0000   1.0000

          k = 0.1667 0.4811 0.1075 (  3568 PWs)   bands (ev):

    -9.8031  -9.5231  -9.3937  -8.8406   1.6949   1.7488   2.0602   2.2668
     2.3707   2.5282   2.6912   2.7649   2.8911   3.0067   3.2362   3.4792
     3.6694   3.7622   3.8093   3.9083   3.9547   4.1379   4.2065   4.3525
     4.4567   4.6427   4.8950   5.1747   5.3559   5.6950   6.0504   6.5074
     6.6428   6.9517   7.2907   7.4860

     occupation numbers 
     1.0000   1.0000   1.0000   1.0000   1.0000   1.0000   1.0000   1.0000
     1.0000   1.0000   1.0000   1.0000   1.0000   1.0000   1.0000   1.0000
     1.0000   1.0000   1.0000   1.0000   1.0000   1.0000   1.0000   1.0000
     1.0000   1.0000   1.0000   1.0000   1.0000   1.0000   1.0000   1.0000
     1.0000   1.0000   1.0000   1.0000

          k = 0.1667 0.4811-0.1613 (  3554 PWs)   bands (ev):

    -9.8026  -9.5244  -9.3929  -8.8406   1.6919   1.7851   2.0442   2.2667
     2.3593   2.5074   2.6879   2.7821   2.8892   3.0044   3.2017   3.4889
     3.6913   3.7508   3.8208   3.9057   3.9408   4.1457   4.2123   4.3564
     4.4912   4.5990   4.9095   5.2054   5.3361   5.6438   6.2233   6.4222
     6.6094   6.9281   7.3403   7.4454

     occupation numbers 
     1.0000   1.0000   1.0000   1.0000   1.0000   1.0000   1.0000   1.0000
     1.0000   1.0000   1.0000   1.0000   1.0000   1.0000   1.0000   1.0000
     1.0000   1.0000   1.0000   1.0000   1.0000   1.0000   1.0000   1.0000
     1.0000   1.0000   1.0000   1.0000   1.0000   1.0000   1.0000   1.0000
     1.0000   1.0000   1.0000   1.0000

          k = 0.3333 0.5774 0.0000 (  3573 PWs)   bands (ev):

    -9.6752  -9.5051  -9.3471  -8.8045   1.8957   1.9503   2.2078   2.3717
     2.4070   2.5861   2.7264   2.9048   3.0338   3.1141   3.3620   3.4391
     3.6178   3.6646   3.6895   3.7356   4.0074   4.0878   4.2609   4.3139
     4.4502   4.5691   4.7561   4.8797   5.0093   5.2545   5.5556   6.2504
     6.4755   6.6076   7.2814   7.4129

     occupation numbers 
     1.0000   1.0000   1.0000   1.0000   1.0000   1.0000   1.0000   1.0000
     1.0000   1.0000   1.0000   1.0000   1.0000   1.0000   1.0000   1.0000
     1.0000   1.0000   1.0000   1.0000   1.0000   1.0000   1.0000   1.0000
     1.0000   1.0000   1.0000   1.0000   1.0000   1.0000   1.0000   1.0000
     1.0000   1.0000   1.0000   1.0000

          k = 0.3333 0.5774 0.0538 (  3561 PWs)   bands (ev):

    -9.6752  -9.5050  -9.3472  -8.8045   1.9016   1.9723   2.2125   2.3782
     2.3915   2.5671   2.7271   2.9145   3.0299   3.0785   3.3339   3.4250
     3.6166   3.6495   3.7234   3.7570   4.0428   4.0779   4.2709   4.3346
     4.4323   4.5834   4.7604   4.8834   4.9913   5.1334   5.6699   6.2860
     6.4932   6.6274   7.2567   7.3499

     occupation numbers 
     1.0000   1.0000   1.0000   1.0000   1.0000   1.0000   1.0000   1.0000
     1.0000   1.0000   1.0000   1.0000   1.0000   1.0000   1.0000   1.0000
     1.0000   1.0000   1.0000   1.0000   1.0000   1.0000   1.0000   1.0000
     1.0000   1.0000   1.0000   1.0000   1.0000   1.0000   1.0000   1.0000
     1.0000   1.0000   1.0000   1.0000

          k = 0.3333 0.5774 0.1075 (  3570 PWs)   bands (ev):

    -9.6752  -9.5048  -9.3474  -8.8046   1.9243   2.0004   2.2362   2.3707
     2.3863   2.5319   2.7176   2.8900   2.9916   3.0848   3.2809   3.3930
     3.6091   3.6519   3.7404   3.8291   4.0562   4.1163   4.2614   4.3911
     4.4174   4.6019   4.7629   4.8763   4.9297   5.0052   5.8312   6.2973
     6.5786   6.7083   7.1478   7.2355

     occupation numbers 
     1.0000   1.0000   1.0000   1.0000   1.0000   1.0000   1.0000   1.0000
     1.0000   1.0000   1.0000   1.0000   1.0000   1.0000   1.0000   1.0000
     1.0000   1.0000   1.0000   1.0000   1.0000   1.0000   1.0000   1.0000
     1.0000   1.0000   1.0000   1.0000   1.0000   1.0000   1.0000   1.0000
     1.0000   1.0000   1.0000   1.0000

          k = 0.3333 0.5774-0.1613 (  3582 PWs)   bands (ev):

    -9.6752  -9.5047  -9.3476  -8.8046   1.9411   2.0053   2.2619   2.3528
     2.3978   2.5122   2.7107   2.8485   2.9845   3.1071   3.2503   3.3767
     3.6091   3.6540   3.7480   3.8645   4.0439   4.1613   4.2541   4.3614
     4.4801   4.6039   4.7542   4.8195   4.9168   4.9856   5.9092   6.2726
     6.6306   6.8579   6.9681   7.2028

     occupation numbers 
     1.0000   1.0000   1.0000   1.0000   1.0000   1.0000   1.0000   1.0000
     1.0000   1.0000   1.0000   1.0000   1.0000   1.0000   1.0000   1.0000
     1.0000   1.0000   1.0000   1.0000   1.0000   1.0000   1.0000   1.0000
     1.0000   1.0000   1.0000   1.0000   1.0000   1.0000   1.0000   1.0000
     1.0000   1.0000   1.0000   1.0000

          k =-0.1667 0.0962 0.0000 (  3546 PWs)   bands (ev):

   -10.3423  -9.8526  -9.7430  -9.1254   1.6058   1.7999   2.0029   2.1519
     2.2870   2.3159   2.4219   2.4985   2.5992   2.6802   2.7279   3.0963
     3.5264   3.6421   3.7341   3.7817   3.8225   3.9578   4.2247   4.2838
     4.3592   6.0242   6.1619   6.5031   7.1428   7.2029   7.2901   7.5478
     7.6861   7.7875   8.2139   8.3477

     occupation numbers 
     1.0000   1.0000   1.0000   1.0000   1.0000   1.0000   1.0000   1.0000
     1.0000   1.0000   1.0000   1.0000   1.0000   1.0000   1.0000   1.0000
     1.0000   1.0000   1.0000   1.0000   1.0000   1.0000   1.0000   1.0000
     1.0000   1.0000   1.0000   1.0000   1.0000   1.0000   1.0000   1.0000
     1.0000   1.0000   1.0000   1.0000

          k = 0.1667 0.0962 0.0000 (  3546 PWs)   bands (ev):

   -10.3534  -9.8602  -9.7443  -9.1208   1.7460   1.8395   1.9804   2.1249
     2.1722   2.2407   2.3050   2.4916   2.5506   2.6495   2.8947   3.0623
     3.5646   3.6140   3.7311   3.7761   3.8586   3.8838   4.2356   4.2763
     4.3502   6.0599   6.1680   6.7558   6.9881   7.2254   7.4464   7.5408
     7.6864   7.8543   8.1876   8.3688

     occupation numbers 
     1.0000   1.0000   1.0000   1.0000   1.0000   1.0000   1.0000   1.0000
     1.0000   1.0000   1.0000   1.0000   1.0000   1.0000   1.0000   1.0000
     1.0000   1.0000   1.0000   1.0000   1.0000   1.0000   1.0000   1.0000
     1.0000   1.0000   1.0000   1.0000   1.0000   1.0000   1.0000   1.0000
     1.0000   1.0000   1.0000   1.0000

          k = 0.0000-0.1925 0.0538 (  3534 PWs)   bands (ev):

   -10.3435  -9.8804  -9.7090  -9.1222   1.6638   1.7937   1.9537   2.1183
     2.2095   2.3245   2.4183   2.5033   2.5675   2.6827   2.8889   3.0839
     3.5234   3.6483   3.7379   3.7631   3.8169   3.9494   4.2273   4.2745
     4.4814   5.8089   6.4125   6.4544   6.9957   7.1219   7.3396   7.4989
     7.7741   7.8701   8.1488   8.3072

     occupation numbers 
     1.0000   1.0000   1.0000   1.0000   1.0000   1.0000   1.0000   1.0000
     1.0000   1.0000   1.0000   1.0000   1.0000   1.0000   1.0000   1.0000
     1.0000   1.0000   1.0000   1.0000   1.0000   1.0000   1.0000   1.0000
     1.0000   1.0000   1.0000   1.0000   1.0000   1.0000   1.0000   1.0000
     1.0000   1.0000   1.0000   1.0000

          k =-0.1667 0.0962 0.0538 (  3534 PWs)   bands (ev):

   -10.3383  -9.8835  -9.7131  -9.1284   1.6101   1.8048   2.0107   2.1559
     2.2647   2.3115   2.4166   2.5053   2.6025   2.6640   2.7260   3.0904
     3.5324   3.6452   3.7290   3.7733   3.8238   3.9468   4.2257   4.2798
     4.4706   5.7972   6.3070   6.5548   7.0517   7.1839   7.3178   7.5213
     7.7161   7.8147   8.2361   8.3439

     occupation numbers 
     1.0000   1.0000   1.0000   1.0000   1.0000   1.0000   1.0000   1.0000
     1.0000   1.0000   1.0000   1.0000   1.0000   1.0000   1.0000   1.0000
     1.0000   1.0000   1.0000   1.0000   1.0000   1.0000   1.0000   1.0000
     1.0000   1.0000   1.0000   1.0000   1.0000   1.0000   1.0000   1.0000
     1.0000   1.0000   1.0000   1.0000

          k = 0.1667 0.0962 0.0538 (  3534 PWs)   bands (ev):

   -10.3494  -9.8908  -9.7145  -9.1239   1.7611   1.8306   1.9809   2.1209
     2.1747   2.2471   2.3072   2.4816   2.5591   2.6311   2.8830   3.0472
     3.5689   3.6178   3.7218   3.7691   3.8647   3.8775   4.2445   4.2650
     4.4697   5.7994   6.3695   6.7600   6.9900   7.1870   7.3621   7.5230
     7.8062   7.8841   8.1666   8.3589

     occupation numbers 
     1.0000   1.0000   1.0000   1.0000   1.0000   1.0000   1.0000   1.0000
     1.0000   1.0000   1.0000   1.0000   1.0000   1.0000   1.0000   1.0000
     1.0000   1.0000   1.0000   1.0000   1.0000   1.0000   1.0000   1.0000
     1.0000   1.0000   1.0000   1.0000   1.0000   1.0000   1.0000   1.0000
     1.0000   1.0000   1.0000   1.0000

          k =-0.1667-0.0962 0.0538 (  3534 PWs)   bands (ev):

   -10.3496  -9.8891  -9.7162  -9.1237   1.7407   1.8642   1.9763   2.1318
     2.1729   2.2236   2.3065   2.4731   2.5382   2.6575   2.8896   3.0642
     3.5673   3.6216   3.7254   3.7648   3.8622   3.8817   4.2160   4.2541
     4.4785   5.8093   6.3861   6.7735   7.0045   7.1696   7.3601   7.5119
     7.7390   7.8988   8.2020   8.3668

     occupation numbers 
     1.0000   1.0000   1.0000   1.0000   1.0000   1.0000   1.0000   1.0000
     1.0000   1.0000   1.0000   1.0000   1.0000   1.0000   1.0000   1.0000
     1.0000   1.0000   1.0000   1.0000   1.0000   1.0000   1.0000   1.0000
     1.0000   1.0000   1.0000   1.0000   1.0000   1.0000   1.0000   1.0000
     1.0000   1.0000   1.0000   1.0000

          k = 0.1667-0.0962 0.0538 (  3534 PWs)   bands (ev):

   -10.3382  -9.8843  -9.7122  -9.1286   1.6098   1.8125   1.9939   2.1514
     2.2887   2.3144   2.4058   2.4924   2.5967   2.6886   2.7277   3.0769
     3.5381   3.6472   3.7225   3.7690   3.8247   3.9602   4.2320   4.2583
     4.4789   5.8026   6.3128   6.5176   7.0848   7.1891   7.2992   7.5148
     7.7569   7.8251   8.1916   8.3419

     occupation numbers 
     1.0000   1.0000   1.0000   1.0000   1.0000   1.0000   1.0000   1.0000
     1.0000   1.0000   1.0000   1.0000   1.0000   1.0000   1.0000   1.0000
     1.0000   1.0000   1.0000   1.0000   1.0000   1.0000   1.0000   1.0000
     1.0000   1.0000   1.0000   1.0000   1.0000   1.0000   1.0000   1.0000
     1.0000   1.0000   1.0000   1.0000

          k = 0.0000-0.1925 0.1075 (  3550 PWs)   bands (ev):

   -10.3354  -9.9224  -9.6688  -9.1284   1.6719   1.8168   1.9612   2.1193
     2.1794   2.2821   2.4281   2.5032   2.5723   2.6804   2.8692   3.0743
     3.5397   3.6579   3.7143   3.7451   3.8238   3.9554   4.2247   4.2634
     4.7387   5.4879   6.4800   6.6089   6.8741   7.0873   7.2893   7.4789
     7.8836   7.9292   8.1217   8.3012

     occupation numbers 
     1.0000   1.0000   1.0000   1.0000   1.0000   1.0000   1.0000   1.0000
     1.0000   1.0000   1.0000   1.0000   1.0000   1.0000   1.0000   1.0000
     1.0000   1.0000   1.0000   1.0000   1.0000   1.0000   1.0000   1.0000
     1.0000   1.0000   1.0000   1.0000   1.0000   1.0000   1.0000   1.0000
     1.0000   1.0000   1.0000   1.0000

          k =-0.1667 0.0962 0.1075 (  3550 PWs)   bands (ev):

   -10.3297  -9.9268  -9.6718  -9.1349   1.6187   1.8239   2.0092   2.1654
     2.2245   2.3104   2.4019   2.5066   2.6022   2.6572   2.7232   3.0681
     3.5513   3.6546   3.7096   3.7507   3.8269   3.9489   4.2292   4.2663
     4.7346   5.4708   6.4189   6.6287   6.9545   7.1730   7.2841   7.4596
     7.8221   7.8748   8.2300   8.3331

     occupation numbers 
     1.0000   1.0000   1.0000   1.0000   1.0000   1.0000   1.0000   1.0000
     1.0000   1.0000   1.0000   1.0000   1.0000   1.0000   1.0000   1.0000
     1.0000   1.0000   1.0000   1.0000   1.0000   1.0000   1.0000   1.0000
     1.0000   1.0000   1.0000   1.0000   1.0000   1.0000   1.0000   1.0000
     1.0000   1.0000   1.0000   1.0000

          k = 0.1667 0.0962 0.1075 (  3550 PWs)   bands (ev):

   -10.3411  -9.9326  -9.6748  -9.1301   1.7697   1.8488   1.9729   2.1224
     2.1747   2.2491   2.3122   2.4445   2.5417   2.6341   2.8665   3.0383
     3.5767   3.6324   3.7053   3.7491   3.8691   3.8784   4.2424   4.2466
     4.7461   5.4573   6.5778   6.7719   7.0012   7.1080   7.2481   7.4659
     7.9134   7.9810   8.1394   8.3438

     occupation numbers 
     1.0000   1.0000   1.0000   1.0000   1.0000   1.0000   1.0000   1.0000
     1.0000   1.0000   1.0000   1.0000   1.0000   1.0000   1.0000   1.0000
     1.0000   1.0000   1.0000   1.0000   1.0000   1.0000   1.0000   1.0000
     1.0000   1.0000   1.0000   1.0000   1.0000   1.0000   1.0000   1.0000
     1.0000   1.0000   1.0000   1.0000

          k =-0.1667-0.0962 0.1075 (  3550 PWs)   bands (ev):

   -10.3414  -9.9313  -9.6760  -9.1299   1.7487   1.8870   1.9678   2.1350
     2.1710   2.2183   2.3109   2.4356   2.5353   2.6529   2.8735   3.0516
     3.5748   3.6358   3.7100   3.7441   3.8667   3.8811   4.2186   4.2491
     4.7303   5.4792   6.5898   6.7988   7.0210   7.0805   7.2323   7.4531
     7.8623   7.9751   8.1854   8.3548

     occupation numbers 
     1.0000   1.0000   1.0000   1.0000   1.0000   1.0000   1.0000   1.0000
     1.0000   1.0000   1.0000   1.0000   1.0000   1.0000   1.0000   1.0000
     1.0000   1.0000   1.0000   1.0000   1.0000   1.0000   1.0000   1.0000
     1.0000   1.0000   1.0000   1.0000   1.0000   1.0000   1.0000   1.0000
     1.0000   1.0000   1.0000   1.0000

          k = 0.1667-0.0962 0.1075 (  3550 PWs)   bands (ev):

   -10.3296  -9.9275  -9.6711  -9.1350   1.6181   1.8368   1.9828   2.1552
     2.2611   2.3158   2.3858   2.4940   2.5970   2.6807   2.7249   3.0557
     3.5577   3.6574   3.7010   3.7480   3.8280   3.9583   4.2341   4.2541
     4.7375   5.4733   6.4236   6.5968   6.9600   7.2186   7.2570   7.4583
     7.8363   7.9098   8.1766   8.3312

     occupation numbers 
     1.0000   1.0000   1.0000   1.0000   1.0000   1.0000   1.0000   1.0000
     1.0000   1.0000   1.0000   1.0000   1.0000   1.0000   1.0000   1.0000
     1.0000   1.0000   1.0000   1.0000   1.0000   1.0000   1.0000   1.0000
     1.0000   1.0000   1.0000   1.0000   1.0000   1.0000   1.0000   1.0000
     1.0000   1.0000   1.0000   1.0000

          k =-0.1667 0.0962-0.1613 (  3552 PWs)   bands (ev):

   -10.3251  -9.9450  -9.6548  -9.1383   1.6226   1.8441   1.9888   2.1655
     2.2219   2.3139   2.3878   2.5012   2.5993   2.6655   2.7225   3.0525
     3.5659   3.6625   3.6922   3.7385   3.8291   3.9558   4.2321   4.2579
     4.9872   5.2025   6.4606   6.6471   6.9215   7.1784   7.2636   7.4274
     7.8606   7.9435   8.1909   8.3262

     occupation numbers 
     1.0000   1.0000   1.0000   1.0000   1.0000   1.0000   1.0000   1.0000
     1.0000   1.0000   1.0000   1.0000   1.0000   1.0000   1.0000   1.0000
     1.0000   1.0000   1.0000   1.0000   1.0000   1.0000   1.0000   1.0000
     1.0000   1.0000   1.0000   1.0000   1.0000   1.0000   1.0000   1.0000
     1.0000   1.0000   1.0000   1.0000

          k = 0.1667 0.0962-0.1613 (  3552 PWs)   bands (ev):

   -10.3368  -9.9494  -9.6591  -9.1332   1.7625   1.8819   1.9623   2.1288
     2.1701   2.2401   2.3158   2.4146   2.5343   2.6447   2.8622   3.0406
     3.5801   3.6442   3.6985   3.7351   3.8680   3.8828   4.2289   4.2469
     4.9920   5.1948   6.7033   6.7659   7.0049   7.0696   7.1802   7.4306
     7.9304   8.0402   8.1337   8.3412

     occupation numbers 
     1.0000   1.0000   1.0000   1.0000   1.0000   1.0000   1.0000   1.0000
     1.0000   1.0000   1.0000   1.0000   1.0000   1.0000   1.0000   1.0000
     1.0000   1.0000   1.0000   1.0000   1.0000   1.0000   1.0000   1.0000
     1.0000   1.0000   1.0000   1.0000   1.0000   1.0000   1.0000   1.0000
     1.0000   1.0000   1.0000   1.0000

          k =-0.3333 0.1925 0.0000 (  3562 PWs)   bands (ev):

    -9.9732  -9.6168  -9.5304  -8.9556   1.4708   1.6058   1.9890   2.2280
     2.4732   2.5711   2.6149   2.7591   2.8022   2.8884   3.0154   3.3058
     3.5437   3.6771   3.7710   3.8352   3.8738   4.0191   4.2342   4.2802
     4.5434   5.0011   5.2820   5.3577   6.0889   6.2569   6.8162   6.9194
     7.0703   7.2168   7.7703   7.8850

     occupation numbers 
     1.0000   1.0000   1.0000   1.0000   1.0000   1.0000   1.0000   1.0000
     1.0000   1.0000   1.0000   1.0000   1.0000   1.0000   1.0000   1.0000
     1.0000   1.0000   1.0000   1.0000   1.0000   1.0000   1.0000   1.0000
     1.0000   1.0000   1.0000   1.0000   1.0000   1.0000   1.0000   1.0000
     1.0000   1.0000   1.0000   1.0000

          k = 0.3333 0.1925 0.0000 (  3562 PWs)   bands (ev):

   -10.0153  -9.6375  -9.5354  -8.9367   1.6078   1.6959   1.9935   2.1251
     2.2772   2.3344   2.4745   2.6264   2.7616   2.8880   3.2077   3.3387
     3.5358   3.6414   3.7696   3.8258   3.8851   3.9745   4.2204   4.3020
     4.5076   5.1635   5.3210   5.4453   6.0858   6.3476   7.0550   7.0994
     7.2369   7.3447   7.7579   7.8622

     occupation numbers 
     1.0000   1.0000   1.0000   1.0000   1.0000   1.0000   1.0000   1.0000
     1.0000   1.0000   1.0000   1.0000   1.0000   1.0000   1.0000   1.0000
     1.0000   1.0000   1.0000   1.0000   1.0000   1.0000   1.0000   1.0000
     1.0000   1.0000   1.0000   1.0000   1.0000   1.0000   1.0000   1.0000
     1.0000   1.0000   1.0000   1.0000

          k = 0.0000-0.3849 0.0538 (  3558 PWs)   bands (ev):

    -9.9950  -9.6178  -9.5018  -8.9353   1.5071   1.6190   1.9200   2.1773
     2.3691   2.5347   2.6858   2.7739   2.8245   2.8715   3.1966   3.3451
     3.5226   3.6861   3.7849   3.8349   3.8548   4.0208   4.2329   4.2799
     4.6286   5.0393   5.2483   5.3765   5.9306   6.3100   6.7029   6.8345
     7.2070   7.3209   7.6316   7.7140

     occupation numbers 
     1.0000   1.0000   1.0000   1.0000   1.0000   1.0000   1.0000   1.0000
     1.0000   1.0000   1.0000   1.0000   1.0000   1.0000   1.0000   1.0000
     1.0000   1.0000   1.0000   1.0000   1.0000   1.0000   1.0000   1.0000
     1.0000   1.0000   1.0000   1.0000   1.0000   1.0000   1.0000   1.0000
     1.0000   1.0000   1.0000   1.0000

          k =-0.3333 0.1925 0.0538 (  3558 PWs)   bands (ev):

    -9.9713  -9.6289  -9.5198  -8.9560   1.4769   1.6147   1.9816   2.2442
     2.4605   2.5501   2.6204   2.7478   2.7994   2.8858   3.0139   3.2849
     3.5555   3.6771   3.7682   3.8341   3.8775   3.9993   4.2476   4.2968
     4.5975   5.0199   5.2511   5.4184   6.0350   6.2814   6.6612   6.8267
     7.1226   7.3645   7.7764   7.8815

     occupation numbers 
     1.0000   1.0000   1.0000   1.0000   1.0000   1.0000   1.0000   1.0000
     1.0000   1.0000   1.0000   1.0000   1.0000   1.0000   1.0000   1.0000
     1.0000   1.0000   1.0000   1.0000   1.0000   1.0000   1.0000   1.0000
     1.0000   1.0000   1.0000   1.0000   1.0000   1.0000   1.0000   1.0000
     1.0000   1.0000   1.0000   1.0000

          k = 0.3333 0.1925 0.0538 (  3558 PWs)   bands (ev):

   -10.0133  -9.6491  -9.5253  -8.9372   1.6249   1.6965   1.9765   2.1290
     2.2738   2.3464   2.4724   2.6306   2.7714   2.8791   3.1782   3.2733
     3.5637   3.6427   3.7680   3.8220   3.8883   3.9498   4.2492   4.3027
     4.6052   5.1243   5.3598   5.4665   6.0886   6.3571   6.8201   6.9965
     7.3018   7.5278   7.7762   7.8557

     occupation numbers 
     1.0000   1.0000   1.0000   1.0000   1.0000   1.0000   1.0000   1.0000
     1.0000   1.0000   1.0000   1.0000   1.0000   1.0000   1.0000   1.0000
     1.0000   1.0000   1.0000   1.0000   1.0000   1.0000   1.0000   1.0000
     1.0000   1.0000   1.0000   1.0000   1.0000   1.0000   1.0000   1.0000
     1.0000   1.0000   1.0000   1.0000

          k =-0.3333-0.1925 0.0538 (  3558 PWs)   bands (ev):

   -10.0136  -9.6476  -9.5266  -8.9371   1.6027   1.7207   1.9952   2.1279
     2.2751   2.3221   2.4804   2.5995   2.7584   2.8571   3.2141   3.3689
     3.5486   3.6440   3.7658   3.7969   3.8885   4.0109   4.1590   4.2765
     4.5999   5.1410   5.3232   5.5080   6.0653   6.3720   6.8936   6.9786
     7.3402   7.4513   7.7836   7.8499

     occupation numbers 
     1.0000   1.0000   1.0000   1.0000   1.0000   1.0000   1.0000   1.0000
     1.0000   1.0000   1.0000   1.0000   1.0000   1.0000   1.0000   1.0000
     1.0000   1.0000   1.0000   1.0000   1.0000   1.0000   1.0000   1.0000
     1.0000   1.0000   1.0000   1.0000   1.0000   1.0000   1.0000   1.0000
     1.0000   1.0000   1.0000   1.0000

          k = 0.3333-0.1925 0.0538 (  3558 PWs)   bands (ev):

    -9.9711  -9.6302  -9.5185  -8.9561   1.4704   1.6264   1.9876   2.2112
     2.4750   2.5436   2.6098   2.7759   2.8048   2.8873   3.0136   3.2788
     3.5714   3.6805   3.7662   3.8169   3.8456   4.0740   4.2166   4.2682
     4.6006   5.0251   5.2582   5.3889   6.1108   6.2521   6.6246   6.8633
     7.1594   7.2634   7.8126   7.8937

     occupation numbers 
     1.0000   1.0000   1.0000   1.0000   1.0000   1.0000   1.0000   1.0000
     1.0000   1.0000   1.0000   1.0000   1.0000   1.0000   1.0000   1.0000
     1.0000   1.0000   1.0000   1.0000   1.0000   1.0000   1.0000   1.0000
     1.0000   1.0000   1.0000   1.0000   1.0000   1.0000   1.0000   1.0000
     1.0000   1.0000   1.0000   1.0000

          k = 0.0000-0.3849 0.1075 (  3569 PWs)   bands (ev):

    -9.9917  -9.6348  -9.4873  -8.9361   1.5126   1.6537   1.9240   2.1634
     2.3525   2.4663   2.7107   2.7802   2.8230   2.8716   3.1378   3.3531
     3.5603   3.6880   3.7725   3.8029   3.8479   4.0623   4.2405   4.2731
     4.7538   4.9846   5.3241   5.4552   5.8850   6.2468   6.4956   6.7245
     7.2961   7.4662   7.6428   7.7283

     occupation numbers 
     1.0000   1.0000   1.0000   1.0000   1.0000   1.0000   1.0000   1.0000
     1.0000   1.0000   1.0000   1.0000   1.0000   1.0000   1.0000   1.0000
     1.0000   1.0000   1.0000   1.0000   1.0000   1.0000   1.0000   1.0000
     1.0000   1.0000   1.0000   1.0000   1.0000   1.0000   1.0000   1.0000
     1.0000   1.0000   1.0000   1.0000

          k =-0.3333 0.1925 0.1075 (  3569 PWs)   bands (ev):

    -9.9670  -9.6494  -9.5026  -8.9569   1.4825   1.6472   1.9702   2.2473
     2.4314   2.5169   2.6179   2.7535   2.8001   2.8821   3.0112   3.2456
     3.5980   3.6800   3.7546   3.8070   3.8534   4.0415   4.2510   4.2814
     4.7171   5.0223   5.3152   5.4661   5.9766   6.2940   6.4034   6.7331
     7.2107   7.4647   7.8120   7.8994

     occupation numbers 
     1.0000   1.0000   1.0000   1.0000   1.0000   1.0000   1.0000   1.0000
     1.0000   1.0000   1.0000   1.0000   1.0000   1.0000   1.0000   1.0000
     1.0000   1.0000   1.0000   1.0000   1.0000   1.0000   1.0000   1.0000
     1.0000   1.0000   1.0000   1.0000   1.0000   1.0000   1.0000   1.0000
     1.0000   1.0000   1.0000   1.0000

          k = 0.3333 0.1925 0.1075 (  3569 PWs)   bands (ev):

   -10.0095  -9.6671  -9.5102  -8.9381   1.6339   1.7283   1.9566   2.1359
     2.2681   2.3520   2.4733   2.6079   2.7676   2.8356   3.1618   3.2570
     3.6002   3.6458   3.7580   3.7897   3.8930   3.9582   4.2489   4.2671
     4.7954   5.0369   5.4194   5.5623   6.0991   6.3649   6.5220   6.8693
     7.4229   7.6388   7.7912   7.8667

     occupation numbers 
     1.0000   1.0000   1.0000   1.0000   1.0000   1.0000   1.0000   1.0000
     1.0000   1.0000   1.0000   1.0000   1.0000   1.0000   1.0000   1.0000
     1.0000   1.0000   1.0000   1.0000   1.0000   1.0000   1.0000   1.0000
     1.0000   1.0000   1.0000   1.0000   1.0000   1.0000   1.0000   1.0000
     1.0000   1.0000   1.0000   1.0000

          k =-0.3333-0.1925 0.1075 (  3569 PWs)   bands (ev):

   -10.0098  -9.6659  -9.5113  -8.9380   1.6131   1.7515   1.9760   2.1365
     2.2675   2.3238   2.4840   2.5707   2.7538   2.8303   3.2066   3.3144
     3.6019   3.6499   3.7503   3.7690   3.8942   4.0010   4.1695   4.2667
     4.7598   5.0618   5.3887   5.6007   6.0550   6.4166   6.5629   6.8515
     7.4566   7.5868   7.8033   7.8545

     occupation numbers 
     1.0000   1.0000   1.0000   1.0000   1.0000   1.0000   1.0000   1.0000
     1.0000   1.0000   1.0000   1.0000   1.0000   1.0000   1.0000   1.0000
     1.0000   1.0000   1.0000   1.0000   1.0000   1.0000   1.0000   1.0000
     1.0000   1.0000   1.0000   1.0000   1.0000   1.0000   1.0000   1.0000
     1.0000   1.0000   1.0000   1.0000

          k = 0.3333-0.1925 0.1075 (  3569 PWs)   bands (ev):

    -9.9668  -9.6505  -9.5017  -8.9570   1.4764   1.6601   1.9743   2.2076
     2.4607   2.5052   2.6088   2.7727   2.8199   2.8728   3.0121   3.2387
     3.6217   3.6841   3.7525   3.7662   3.8517   4.0999   4.2171   4.2651
     4.7081   5.0499   5.2754   5.4557   6.0875   6.2523   6.3621   6.7539
     7.2268   7.3958   7.8273   7.9292

     occupation numbers 
     1.0000   1.0000   1.0000   1.0000   1.0000   1.0000   1.0000   1.0000
     1.0000   1.0000   1.0000   1.0000   1.0000   1.0000   1.0000   1.0000
     1.0000   1.0000   1.0000   1.0000   1.0000   1.0000   1.0000   1.0000
     1.0000   1.0000   1.0000   1.0000   1.0000   1.0000   1.0000   1.0000
     1.0000   1.0000   1.0000   1.0000

          k =-0.3333 0.1925-0.1613 (  3562 PWs)   bands (ev):

    -9.9646  -9.6587  -9.4951  -8.9574   1.4824   1.6726   1.9636   2.2266
     2.4278   2.5023   2.6122   2.7637   2.8145   2.8718   3.0113   3.2253
     3.6442   3.6843   3.7263   3.7719   3.8540   4.0844   4.2380   4.2650
     4.7704   5.0194   5.3743   5.4817   5.9920   6.1948   6.3468   6.6977
     7.2501   7.4706   7.8206   7.9379

     occupation numbers 
     1.0000   1.0000   1.0000   1.0000   1.0000   1.0000   1.0000   1.0000
     1.0000   1.0000   1.0000   1.0000   1.0000   1.0000   1.0000   1.0000
     1.0000   1.0000   1.0000   1.0000   1.0000   1.0000   1.0000   1.0000
     1.0000   1.0000   1.0000   1.0000   1.0000   1.0000   1.0000   1.0000
     1.0000   1.0000   1.0000   1.0000

          k = 0.3333 0.1925-0.1613 (  3562 PWs)   bands (ev):

   -10.0077  -9.6745  -9.5042  -8.9384   1.6280   1.7588   1.9535   2.1407
     2.2644   2.3423   2.4778   2.5738   2.7500   2.8250   3.1831   3.2685
     3.6256   3.6513   3.7385   3.7691   3.8962   3.9775   4.2125   4.2623
     4.9112   4.9524   5.4398   5.6469   6.1253   6.2840   6.4630   6.8037
     7.4957   7.6427   7.7889   7.8826

     occupation numbers 
     1.0000   1.0000   1.0000   1.0000   1.0000   1.0000   1.0000   1.0000
     1.0000   1.0000   1.0000   1.0000   1.0000   1.0000   1.0000   1.0000
     1.0000   1.0000   1.0000   1.0000   1.0000   1.0000   1.0000   1.0000
     1.0000   1.0000   1.0000   1.0000   1.0000   1.0000   1.0000   1.0000
     1.0000   1.0000   1.0000   1.0000

          k = 0.5000-0.2887 0.0000 (  3574 PWs)   bands (ev):

    -9.7425  -9.5405  -9.4092  -8.8694   1.5182   1.5420   1.9716   2.2560
     2.5607   2.6022   2.7080   2.9135   2.9823   3.0808   3.2999   3.3582
     3.6937   3.7705   3.8187   3.8500   3.8947   3.9479   4.2158   4.2894
     4.3652   4.6169   4.7782   4.8743   5.5101   5.6863   6.4869   6.7135
     6.8555   7.0544   7.5645   7.6467

     occupation numbers 
     1.0000   1.0000   1.0000   1.0000   1.0000   1.0000   1.0000   1.0000
     1.0000   1.0000   1.0000   1.0000   1.0000   1.0000   1.0000   1.0000
     1.0000   1.0000   1.0000   1.0000   1.0000   1.0000   1.0000   1.0000
     1.0000   1.0000   1.0000   1.0000   1.0000   1.0000   1.0000   1.0000
     1.0000   1.0000   1.0000   1.0000

          k =-0.5000-0.2887 0.0000 (  3574 PWs)   bands (ev):

    -9.8164  -9.5485  -9.4238  -8.8401   1.5897   1.6416   1.9756   2.1981
     2.2713   2.4017   2.5799   2.7316   2.9473   3.0210   3.3147   3.4274
     3.7131   3.7550   3.8085   3.9111   3.9499   3.9907   4.2981   4.3222
     4.4498   4.4724   4.7742   4.9924   5.3601   5.9767   6.7762   6.9050
     7.1823   7.3029   7.4454   7.6371

     occupation numbers 
     1.0000   1.0000   1.0000   1.0000   1.0000   1.0000   1.0000   1.0000
     1.0000   1.0000   1.0000   1.0000   1.0000   1.0000   1.0000   1.0000
     1.0000   1.0000   1.0000   1.0000   1.0000   1.0000   1.0000   1.0000
     1.0000   1.0000   1.0000   1.0000   1.0000   1.0000   1.0000   1.0000
     1.0000   1.0000   1.0000   1.0000

          k = 0.5000-0.2887 0.0538 (  3572 PWs)   bands (ev):

    -9.7419  -9.5414  -9.4089  -8.8692   1.5254   1.5546   1.9555   2.2582
     2.5456   2.6002   2.7076   2.9170   2.9785   3.0865   3.2923   3.3503
     3.7057   3.7705   3.8191   3.8532   3.8934   3.9441   4.2165   4.2891
     4.3615   4.6160   4.7756   4.8702   5.5703   5.7177   6.4170   6.7293
     6.8183   7.0424   7.5778   7.6698

     occupation numbers 
     1.0000   1.0000   1.0000   1.0000   1.0000   1.0000   1.0000   1.0000
     1.0000   1.0000   1.0000   1.0000   1.0000   1.0000   1.0000   1.0000
     1.0000   1.0000   1.0000   1.0000   1.0000   1.0000   1.0000   1.0000
     1.0000   1.0000   1.0000   1.0000   1.0000   1.0000   1.0000   1.0000
     1.0000   1.0000   1.0000   1.0000

          k =-0.5000-0.2887 0.0538 (  3572 PWs)   bands (ev):

    -9.8158  -9.5503  -9.4227  -8.8400   1.5999   1.6529   1.9600   2.2001
     2.2719   2.4010   2.5822   2.7232   2.9497   2.9968   3.3162   3.4214
     3.7140   3.7725   3.8086   3.9106   3.9390   3.9947   4.2968   4.3245
     4.4405   4.4772   4.7391   4.9727   5.5012   6.0013   6.6540   6.9525
     7.0449   7.3783   7.4887   7.6359

     occupation numbers 
     1.0000   1.0000   1.0000   1.0000   1.0000   1.0000   1.0000   1.0000
     1.0000   1.0000   1.0000   1.0000   1.0000   1.0000   1.0000   1.0000
     1.0000   1.0000   1.0000   1.0000   1.0000   1.0000   1.0000   1.0000
     1.0000   1.0000   1.0000   1.0000   1.0000   1.0000   1.0000   1.0000
     1.0000   1.0000   1.0000   1.0000

          k = 0.5000-0.2887 0.1075 (  3564 PWs)   bands (ev):

    -9.7407  -9.5434  -9.4083  -8.8690   1.5397   1.5841   1.9188   2.2631
     2.5156   2.5968   2.7069   2.9281   2.9675   3.0961   3.2807   3.3327
     3.7291   3.7700   3.8200   3.8622   3.8884   3.9359   4.2176   4.2889
     4.3543   4.6144   4.7710   4.8638   5.6716   5.8449   6.3029   6.5400
     6.8696   7.0676   7.5721   7.7205

     occupation numbers 
     1.0000   1.0000   1.0000   1.0000   1.0000   1.0000   1.0000   1.0000
     1.0000   1.0000   1.0000   1.0000   1.0000   1.0000   1.0000   1.0000
     1.0000   1.0000   1.0000   1.0000   1.0000   1.0000   1.0000   1.0000
     1.0000   1.0000   1.0000   1.0000   1.0000   1.0000   1.0000   1.0000
     1.0000   1.0000   1.0000   1.0000

          k =-0.5000-0.2887 0.1075 (  3564 PWs)   bands (ev):

    -9.8145  -9.5540  -9.4205  -8.8399   1.6199   1.6818   1.9232   2.2042
     2.2732   2.4009   2.5850   2.7042   2.9395   2.9681   3.3181   3.4107
     3.7152   3.8080   3.8098   3.9092   3.9165   4.0000   4.2944   4.3306
     4.4213   4.4846   4.6865   4.9591   5.8016   6.0647   6.4913   6.6455
     7.1716   7.4140   7.5334   7.6344

     occupation numbers 
     1.0000   1.0000   1.0000   1.0000   1.0000   1.0000   1.0000   1.0000
     1.0000   1.0000   1.0000   1.0000   1.0000   1.0000   1.0000   1.0000
     1.0000   1.0000   1.0000   1.0000   1.0000   1.0000   1.0000   1.0000
     1.0000   1.0000   1.0000   1.0000   1.0000   1.0000   1.0000   1.0000
     1.0000   1.0000   1.0000   1.0000

          k = 0.5000-0.2887-0.1613 (  3572 PWs)   bands (ev):

    -9.7401  -9.5444  -9.4081  -8.8688   1.5468   1.6019   1.8972   2.2657
     2.5006   2.5951   2.7066   2.9399   2.9560   3.0998   3.2777   3.3221
     3.7407   3.7691   3.8204   3.8715   3.8809   3.9315   4.2182   4.2887
     4.3507   4.6137   4.7687   4.8613   5.7083   5.9943   6.2158   6.3996
     6.8993   7.0878   7.5644   7.7415

     occupation numbers 
     1.0000   1.0000   1.0000   1.0000   1.0000   1.0000   1.0000   1.0000
     1.0000   1.0000   1.0000   1.0000   1.0000   1.0000   1.0000   1.0000
     1.0000   1.0000   1.0000   1.0000   1.0000   1.0000   1.0000   1.0000
     1.0000   1.0000   1.0000   1.0000   1.0000   1.0000   1.0000   1.0000
     1.0000   1.0000   1.0000   1.0000

          k =-0.5000-0.2887-0.1613 (  3572 PWs)   bands (ev):

    -9.8138  -9.5558  -9.4194  -8.8399   1.6295   1.7015   1.9001   2.2064
     2.2740   2.4017   2.5848   2.6938   2.9226   2.9679   3.3185   3.4058
     3.7158   3.8083   3.8315   3.8990   3.9100   4.0019   4.2931   4.3348
     4.4102   4.4879   4.6666   4.9562   6.0339   6.1577   6.2920   6.4813
     7.2461   7.3962   7.5732   7.6160

     occupation numbers 
     1.0000   1.0000   1.0000   1.0000   1.0000   1.0000   1.0000   1.0000
     1.0000   1.0000   1.0000   1.0000   1.0000   1.0000   1.0000   1.0000
     1.0000   1.0000   1.0000   1.0000   1.0000   1.0000   1.0000   1.0000
     1.0000   1.0000   1.0000   1.0000   1.0000   1.0000   1.0000   1.0000
     1.0000   1.0000   1.0000   1.0000

          k =-0.1667 0.2887 0.0000 (  3551 PWs)   bands (ev):

   -10.0775  -9.6650  -9.5754  -8.9914   1.5412   1.6530   1.9947   2.1654
     2.3603   2.5176   2.6524   2.7131   2.8300   2.8747   2.9428   3.2850
     3.4915   3.6260   3.7721   3.7976   3.8414   4.0316   4.1701   4.2905
     4.6121   5.3075   5.5604   5.7150   6.0990   6.4698   6.8069   6.9518
     7.1479   7.3060   7.7419   7.8925

     occupation numbers 
     1.0000   1.0000   1.0000   1.0000   1.0000   1.0000   1.0000   1.0000
     1.0000   1.0000   1.0000   1.0000   1.0000   1.0000   1.0000   1.0000
     1.0000   1.0000   1.0000   1.0000   1.0000   1.0000   1.0000   1.0000
     1.0000   1.0000   1.0000   1.0000   1.0000   1.0000   1.0000   1.0000
     1.0000   1.0000   1.0000   1.0000

          k = 0.3333-0.0000 0.0000 (  3551 PWs)   bands (ev):

   -10.0900  -9.6841  -9.5906  -8.9933   1.5861   1.7563   2.0355   2.1980
     2.2738   2.4137   2.5258   2.5960   2.6535   2.7648   2.9397   3.2354
     3.5451   3.6347   3.7664   3.8303   3.8486   4.0290   4.1923   4.3394
     4.4949   5.4892   5.7644   5.9226   6.1125   6.5703   6.8120   7.0302
     7.1944   7.3955   7.7239   7.9515

     occupation numbers 
     1.0000   1.0000   1.0000   1.0000   1.0000   1.0000   1.0000   1.0000
     1.0000   1.0000   1.0000   1.0000   1.0000   1.0000   1.0000   1.0000
     1.0000   1.0000   1.0000   1.0000   1.0000   1.0000   1.0000   1.0000
     1.0000   1.0000   1.0000   1.0000   1.0000   1.0000   1.0000   1.0000
     1.0000   1.0000   1.0000   1.0000

          k =-0.1667-0.2887 0.0538 (  3557 PWs)   bands (ev):

   -10.1010  -9.6949  -9.5649  -8.9804   1.6749   1.7404   1.9818   2.1160
     2.2523   2.3460   2.4778   2.5988   2.6963   2.7771   3.1334   3.2698
     3.5758   3.6266   3.7653   3.8055   3.8632   4.0186   4.2071   4.2801
     4.6362   5.4977   5.7017   5.8692   6.0996   6.4881   6.7264   6.9546
     7.2119   7.4690   7.7479   7.9009

     occupation numbers 
     1.0000   1.0000   1.0000   1.0000   1.0000   1.0000   1.0000   1.0000
     1.0000   1.0000   1.0000   1.0000   1.0000   1.0000   1.0000   1.0000
     1.0000   1.0000   1.0000   1.0000   1.0000   1.0000   1.0000   1.0000
     1.0000   1.0000   1.0000   1.0000   1.0000   1.0000   1.0000   1.0000
     1.0000   1.0000   1.0000   1.0000

          k =-0.1667 0.2887-0.0538 (  3557 PWs)   bands (ev):

   -10.0751  -9.6827  -9.5592  -8.9923   1.5407   1.6716   2.0033   2.1537
     2.3607   2.4745   2.6527   2.7192   2.8221   2.8932   2.9364   3.2606
     3.5027   3.6354   3.7624   3.7819   3.8435   4.0436   4.1847   4.2917
     4.6782   5.2888   5.5761   5.7452   6.0930   6.4191   6.7091   6.8480
     7.2117   7.4185   7.7277   7.9185

     occupation numbers 
     1.0000   1.0000   1.0000   1.0000   1.0000   1.0000   1.0000   1.0000
     1.0000   1.0000   1.0000   1.0000   1.0000   1.0000   1.0000   1.0000
     1.0000   1.0000   1.0000   1.0000   1.0000   1.0000   1.0000   1.0000
     1.0000   1.0000   1.0000   1.0000   1.0000   1.0000   1.0000   1.0000
     1.0000   1.0000   1.0000   1.0000

          k = 0.1667-0.2887-0.0538 (  3557 PWs)   bands (ev):

   -10.0751  -9.6827  -9.5592  -8.9923   1.5464   1.6635   1.9969   2.1711
     2.3553   2.4887   2.6498   2.7167   2.8134   2.8619   2.9464   3.2741
     3.5109   3.6296   3.7650   3.7771   3.8421   4.0362   4.2041   4.2869
     4.6878   5.3252   5.4998   5.7689   6.0965   6.4370   6.6687   6.8566
     7.1886   7.4712   7.7350   7.8981

     occupation numbers 
     1.0000   1.0000   1.0000   1.0000   1.0000   1.0000   1.0000   1.0000
     1.0000   1.0000   1.0000   1.0000   1.0000   1.0000   1.0000   1.0000
     1.0000   1.0000   1.0000   1.0000   1.0000   1.0000   1.0000   1.0000
     1.0000   1.0000   1.0000   1.0000   1.0000   1.0000   1.0000   1.0000
     1.0000   1.0000   1.0000   1.0000

          k = 0.3333-0.0000 0.0538 (  3557 PWs)   bands (ev):

   -10.0873  -9.7030  -9.5734  -8.9944   1.5933   1.7664   2.0457   2.1693
     2.2861   2.3980   2.5091   2.5948   2.6916   2.7588   2.9218   3.1962
     3.5511   3.6460   3.7568   3.8171   3.8554   4.0170   4.2185   4.3146
     4.6159   5.4390   5.7928   5.9457   6.1073   6.5445   6.7393   6.9261
     7.1923   7.5341   7.7124   7.9749

     occupation numbers 
     1.0000   1.0000   1.0000   1.0000   1.0000   1.0000   1.0000   1.0000
     1.0000   1.0000   1.0000   1.0000   1.0000   1.0000   1.0000   1.0000
     1.0000   1.0000   1.0000   1.0000   1.0000   1.0000   1.0000   1.0000
     1.0000   1.0000   1.0000   1.0000   1.0000   1.0000   1.0000   1.0000
     1.0000   1.0000   1.0000   1.0000

          k =-0.3333 0.0000 0.0538 (  3557 PWs)   bands (ev):

   -10.0876  -9.7010  -9.5752  -8.9942   1.5902   1.7724   2.0275   2.1932
     2.2755   2.4256   2.5140   2.6059   2.6218   2.7571   2.9293   3.2340
     3.5639   3.6386   3.7626   3.8102   3.8497   4.0241   4.1981   4.3081
     4.6062   5.4452   5.7880   5.9345   6.1524   6.5109   6.7659   6.9400
     7.1776   7.5206   7.7195   7.9682

     occupation numbers 
     1.0000   1.0000   1.0000   1.0000   1.0000   1.0000   1.0000   1.0000
     1.0000   1.0000   1.0000   1.0000   1.0000   1.0000   1.0000   1.0000
     1.0000   1.0000   1.0000   1.0000   1.0000   1.0000   1.0000   1.0000
     1.0000   1.0000   1.0000   1.0000   1.0000   1.0000   1.0000   1.0000
     1.0000   1.0000   1.0000   1.0000

          k =-0.1667-0.2887 0.1075 (  3553 PWs)   bands (ev):

   -10.0963  -9.7194  -9.5432  -8.9822   1.6884   1.7718   1.9825   2.1125
     2.2204   2.3387   2.4674   2.5921   2.7062   2.7541   3.0922   3.2670
     3.6034   3.6440   3.7514   3.7700   3.8614   4.0363   4.2071   4.2675
     4.8586   5.3511   5.7601   5.9590   6.1671   6.3826   6.5196   6.8013
     7.3016   7.5933   7.7571   7.9383

     occupation numbers 
     1.0000   1.0000   1.0000   1.0000   1.0000   1.0000   1.0000   1.0000
     1.0000   1.0000   1.0000   1.0000   1.0000   1.0000   1.0000   1.0000
     1.0000   1.0000   1.0000   1.0000   1.0000   1.0000   1.0000   1.0000
     1.0000   1.0000   1.0000   1.0000   1.0000   1.0000   1.0000   1.0000
     1.0000   1.0000   1.0000   1.0000

          k =-0.1667 0.2887-0.1075 (  3553 PWs)   bands (ev):

   -10.0701  -9.7091  -9.5358  -8.9943   1.5455   1.7046   2.0182   2.1412
     2.3506   2.4111   2.6523   2.7214   2.8077   2.8844   2.9403   3.2343
     3.5362   3.6482   3.7320   3.7553   3.8478   4.0658   4.2135   4.2841
     4.8650   5.2292   5.6205   5.8164   6.0366   6.2750   6.5576   6.7607
     7.2837   7.5933   7.7006   7.9514

     occupation numbers 
     1.0000   1.0000   1.0000   1.0000   1.0000   1.0000   1.0000   1.0000
     1.0000   1.0000   1.0000   1.0000   1.0000   1.0000   1.0000   1.0000
     1.0000   1.0000   1.0000   1.0000   1.0000   1.0000   1.0000   1.0000
     1.0000   1.0000   1.0000   1.0000   1.0000   1.0000   1.0000   1.0000
     1.0000   1.0000   1.0000   1.0000

          k = 0.1667-0.2887-0.1075 (  3553 PWs)   bands (ev):

   -10.0701  -9.7091  -9.5358  -8.9943   1.5509   1.6957   2.0086   2.1694
     2.3374   2.4195   2.6565   2.7167   2.7944   2.8657   2.9459   3.2470
     3.5475   3.6360   3.7345   3.7534   3.8473   4.0600   4.2343   4.2735
     4.8810   5.2535   5.5571   5.8202   6.0441   6.3246   6.4920   6.7811
     7.2671   7.6283   7.7159   7.9266

     occupation numbers 
     1.0000   1.0000   1.0000   1.0000   1.0000   1.0000   1.0000   1.0000
     1.0000   1.0000   1.0000   1.0000   1.0000   1.0000   1.0000   1.0000
     1.0000   1.0000   1.0000   1.0000   1.0000   1.0000   1.0000   1.0000
     1.0000   1.0000   1.0000   1.0000   1.0000   1.0000   1.0000   1.0000
     1.0000   1.0000   1.0000   1.0000

          k = 0.3333-0.0000 0.1075 (  3553 PWs)   bands (ev):

   -10.0819  -9.7297  -9.5501  -8.9964   1.6048   1.7972   2.0465   2.1350
     2.3029   2.3854   2.4845   2.5986   2.7082   2.7387   2.8919   3.1670
     3.5829   3.6575   3.7437   3.7799   3.8622   4.0148   4.2392   4.2823
     4.8635   5.3061   5.8577   5.9925   6.1183   6.4596   6.6015   6.7827
     7.2725   7.6449   7.7047   8.0184

     occupation numbers 
     1.0000   1.0000   1.0000   1.0000   1.0000   1.0000   1.0000   1.0000
     1.0000   1.0000   1.0000   1.0000   1.0000   1.0000   1.0000   1.0000
     1.0000   1.0000   1.0000   1.0000   1.0000   1.0000   1.0000   1.0000
     1.0000   1.0000   1.0000   1.0000   1.0000   1.0000   1.0000   1.0000
     1.0000   1.0000   1.0000   1.0000

          k =-0.3333 0.0000 0.1075 (  3553 PWs)   bands (ev):

   -10.0822  -9.7283  -9.5514  -8.9962   1.6018   1.8034   2.0275   2.1547
     2.2923   2.4306   2.4701   2.6084   2.6316   2.7500   2.9042   3.1994
     3.5936   3.6539   3.7465   3.7722   3.8601   4.0165   4.2262   4.2793
     4.8390   5.3203   5.8602   5.9606   6.1933   6.4235   6.6127   6.7872
     7.2648   7.6282   7.7234   8.0089

     occupation numbers 
     1.0000   1.0000   1.0000   1.0000   1.0000   1.0000   1.0000   1.0000
     1.0000   1.0000   1.0000   1.0000   1.0000   1.0000   1.0000   1.0000
     1.0000   1.0000   1.0000   1.0000   1.0000   1.0000   1.0000   1.0000
     1.0000   1.0000   1.0000   1.0000   1.0000   1.0000   1.0000   1.0000
     1.0000   1.0000   1.0000   1.0000

          k =-0.1667 0.2887 0.1613 (  3558 PWs)   bands (ev):

   -10.0675  -9.7202  -9.5263  -8.9953   1.5504   1.7185   2.0220   2.1504
     2.3234   2.3940   2.6569   2.7164   2.7957   2.8727   2.9443   3.2302
     3.5646   3.6440   3.7100   3.7476   3.8498   4.0758   4.2352   4.2689
     5.0698   5.1022   5.7186   5.8002   5.9358   6.2395   6.4833   6.7409
     7.3100   7.6688   7.6981   7.9544

     occupation numbers 
     1.0000   1.0000   1.0000   1.0000   1.0000   1.0000   1.0000   1.0000
     1.0000   1.0000   1.0000   1.0000   1.0000   1.0000   1.0000   1.0000
     1.0000   1.0000   1.0000   1.0000   1.0000   1.0000   1.0000   1.0000
     1.0000   1.0000   1.0000   1.0000   1.0000   1.0000   1.0000   1.0000
     1.0000   1.0000   1.0000   1.0000

          k = 0.3333-0.0000-0.1613 (  3558 PWs)   bands (ev):

   -10.0792  -9.7404  -9.5411  -8.9973   1.6092   1.8192   2.0352   2.1251
     2.3075   2.4005   2.4636   2.6040   2.6689   2.7454   2.8853   3.1704
     3.6093   3.6613   3.7331   3.7576   3.8647   4.0160   4.2493   4.2625
     5.0777   5.1391   5.9116   6.0000   6.1379   6.4435   6.4821   6.7440
     7.3130   7.6380   7.7408   8.0353

     occupation numbers 
     1.0000   1.0000   1.0000   1.0000   1.0000   1.0000   1.0000   1.0000
     1.0000   1.0000   1.0000   1.0000   1.0000   1.0000   1.0000   1.0000
     1.0000   1.0000   1.0000   1.0000   1.0000   1.0000   1.0000   1.0000
     1.0000   1.0000   1.0000   1.0000   1.0000   1.0000   1.0000   1.0000
     1.0000   1.0000   1.0000   1.0000

          k =-0.1667 0.4811 0.0000 (  3557 PWs)   bands (ev):

    -9.7882  -9.5145  -9.3930  -8.8483   1.6528   1.6851   2.0595   2.2231
     2.4323   2.6632   2.8007   2.8827   3.0223   3.0927   3.3588   3.4966
     3.5900   3.6737   3.7436   3.8340   3.9412   4.0586   4.1441   4.1854
     4.4727   4.7183   4.8000   5.1102   5.2341   5.7479   6.0141   6.3109
     6.8921   7.0960   7.2257   7.3883

     occupation numbers 
     1.0000   1.0000   1.0000   1.0000   1.0000   1.0000   1.0000   1.0000
     1.0000   1.0000   1.0000   1.0000   1.0000   1.0000   1.0000   1.0000
     1.0000   1.0000   1.0000   1.0000   1.0000   1.0000   1.0000   1.0000
     1.0000   1.0000   1.0000   1.0000   1.0000   1.0000   1.0000   1.0000
     1.0000   1.0000   1.0000   1.0000

          k =-0.3333 0.3849 0.0000 (  3557 PWs)   bands (ev):

    -9.7642  -9.5296  -9.4055  -8.8628   1.6294   1.7000   2.0920   2.2307
     2.5168   2.6354   2.7442   2.9210   3.0054   3.1030   3.2394   3.4154
     3.6110   3.7003   3.7370   3.8061   3.9485   4.0375   4.1359   4.2462
     4.4594   4.7700   4.8291   5.0753   5.2487   5.7327   6.0130   6.2992
     6.9071   7.0600   7.2437   7.5699

     occupation numbers 
     1.0000   1.0000   1.0000   1.0000   1.0000   1.0000   1.0000   1.0000
     1.0000   1.0000   1.0000   1.0000   1.0000   1.0000   1.0000   1.0000
     1.0000   1.0000   1.0000   1.0000   1.0000   1.0000   1.0000   1.0000
     1.0000   1.0000   1.0000   1.0000   1.0000   1.0000   1.0000   1.0000
     1.0000   1.0000   1.0000   1.0000

          k = 0.5000 0.0962 0.0000 (  3557 PWs)   bands (ev):

    -9.8059  -9.5446  -9.4220  -8.8484   1.7190   1.7832   2.1376   2.1834
     2.3579   2.4128   2.6217   2.7498   2.8418   2.9110   3.2659   3.3725
     3.5594   3.7354   3.8317   3.8872   3.9630   4.0900   4.2173   4.3289
     4.6137   4.7497   4.9694   5.1543   5.4322   5.6848   6.1899   6.3230
     7.0590   7.1705   7.3340   7.5341

     occupation numbers 
     1.0000   1.0000   1.0000   1.0000   1.0000   1.0000   1.0000   1.0000
     1.0000   1.0000   1.0000   1.0000   1.0000   1.0000   1.0000   1.0000
     1.0000   1.0000   1.0000   1.0000   1.0000   1.0000   1.0000   1.0000
     1.0000   1.0000   1.0000   1.0000   1.0000   1.0000   1.0000   1.0000
     1.0000   1.0000   1.0000   1.0000

          k =-0.3333-0.3849 0.0000 (  3557 PWs)   bands (ev):

    -9.8166  -9.5385  -9.4163  -8.8407   1.7428   1.7850   2.1296   2.2025
     2.2725   2.4409   2.5448   2.7097   2.8867   2.9509   3.3099   3.4208
     3.6135   3.7268   3.8258   3.9241   4.0174   4.0769   4.2431   4.3825
     4.5019   4.7025   4.9361   5.1272   5.4007   5.6367   6.2115   6.3214
     7.0008   7.2355   7.3784   7.4730

     occupation numbers 
     1.0000   1.0000   1.0000   1.0000   1.0000   1.0000   1.0000   1.0000
     1.0000   1.0000   1.0000   1.0000   1.0000   1.0000   1.0000   1.0000
     1.0000   1.0000   1.0000   1.0000   1.0000   1.0000   1.0000   1.0000
     1.0000   1.0000   1.0000   1.0000   1.0000   1.0000   1.0000   1.0000
     1.0000   1.0000   1.0000   1.0000

          k = 0.5000-0.0962 0.0000 (  3557 PWs)   bands (ev):

    -9.7698  -9.5395  -9.4150  -8.8630   1.6344   1.7077   2.1142   2.3131
     2.4881   2.6312   2.6753   2.8017   2.8319   2.9591   3.1733   3.3950
     3.5877   3.7255   3.7888   3.8475   3.9588   4.0814   4.2219   4.3009
     4.5478   4.8531   4.9193   5.0027   5.3772   5.8240   6.0293   6.2516
     6.8888   7.0991   7.2223   7.6073

     occupation numbers 
     1.0000   1.0000   1.0000   1.0000   1.0000   1.0000   1.0000   1.0000
     1.0000   1.0000   1.0000   1.0000   1.0000   1.0000   1.0000   1.0000
     1.0000   1.0000   1.0000   1.0000   1.0000   1.0000   1.0000   1.0000
     1.0000   1.0000   1.0000   1.0000   1.0000   1.0000   1.0000   1.0000
     1.0000   1.0000   1.0000   1.0000

          k =-0.1667-0.4811 0.0538 (  3558 PWs)   bands (ev):

    -9.8042  -9.5196  -9.3960  -8.8407   1.6620   1.7380   2.0597   2.2902
     2.3780   2.5422   2.7057   2.7950   2.8915   2.9512   3.3271   3.4889
     3.6408   3.7345   3.8077   3.9106   4.0036   4.0927   4.2140   4.3418
     4.4377   4.6804   4.8767   5.0895   5.2879   5.7881   6.0736   6.3168
     6.8231   7.0943   7.2236   7.4243

     occupation numbers 
     1.0000   1.0000   1.0000   1.0000   1.0000   1.0000   1.0000   1.0000
     1.0000   1.0000   1.0000   1.0000   1.0000   1.0000   1.0000   1.0000
     1.0000   1.0000   1.0000   1.0000   1.0000   1.0000   1.0000   1.0000
     1.0000   1.0000   1.0000   1.0000   1.0000   1.0000   1.0000   1.0000
     1.0000   1.0000   1.0000   1.0000

          k =-0.1667 0.4811-0.0538 (  3558 PWs)   bands (ev):

    -9.7877  -9.5160  -9.3921  -8.8483   1.6560   1.7042   2.0486   2.2261
     2.4320   2.6659   2.7695   2.8661   3.0250   3.0923   3.3855   3.4679
     3.5714   3.6879   3.7424   3.8451   3.9485   4.0235   4.1795   4.1972
     4.4812   4.6759   4.8487   5.0846   5.3032   5.7854   5.8665   6.4287
     6.8560   7.0817   7.1586   7.4429

     occupation numbers 
     1.0000   1.0000   1.0000   1.0000   1.0000   1.0000   1.0000   1.0000
     1.0000   1.0000   1.0000   1.0000   1.0000   1.0000   1.0000   1.0000
     1.0000   1.0000   1.0000   1.0000   1.0000   1.0000   1.0000   1.0000
     1.0000   1.0000   1.0000   1.0000   1.0000   1.0000   1.0000   1.0000
     1.0000   1.0000   1.0000   1.0000

          k = 0.1667-0.4811-0.0538 (  3558 PWs)   bands (ev):

    -9.7877  -9.5161  -9.3920  -8.8483   1.6701   1.6880   2.0549   2.2291
     2.4356   2.5945   2.8303   2.8926   3.0160   3.1051   3.2971   3.5054
     3.6107   3.6700   3.7454   3.8310   3.9329   4.0838   4.1595   4.2111
     4.4606   4.6656   4.8369   5.1509   5.2032   5.7600   6.0412   6.3173
     6.8294   7.0421   7.2659   7.4134

     occupation numbers 
     1.0000   1.0000   1.0000   1.0000   1.0000   1.0000   1.0000   1.0000
     1.0000   1.0000   1.0000   1.0000   1.0000   1.0000   1.0000   1.0000
     1.0000   1.0000   1.0000   1.0000   1.0000   1.0000   1.0000   1.0000
     1.0000   1.0000   1.0000   1.0000   1.0000   1.0000   1.0000   1.0000
     1.0000   1.0000   1.0000   1.0000

          k =-0.3333 0.3849 0.0538 (  3558 PWs)   bands (ev):

    -9.7635  -9.5311  -9.4047  -8.8627   1.6361   1.7135   2.0775   2.2455
     2.5148   2.6359   2.7286   2.8971   2.9896   3.0934   3.2578   3.4019
     3.6109   3.6955   3.7391   3.8303   3.9506   4.0167   4.1530   4.2713
     4.4519   4.7241   4.8753   5.0944   5.2798   5.7638   5.9145   6.3634
     6.8225   7.0624   7.2767   7.5735

     occupation numbers 
     1.0000   1.0000   1.0000   1.0000   1.0000   1.0000   1.0000   1.0000
     1.0000   1.0000   1.0000   1.0000   1.0000   1.0000   1.0000   1.0000
     1.0000   1.0000   1.0000   1.0000   1.0000   1.0000   1.0000   1.0000
     1.0000   1.0000   1.0000   1.0000   1.0000   1.0000   1.0000   1.0000
     1.0000   1.0000   1.0000   1.0000

          k = 0.5000 0.0962 0.0538 (  3558 PWs)   bands (ev):

    -9.8051  -9.5469  -9.4206  -8.8484   1.7337   1.7916   2.1347   2.1724
     2.3543   2.4081   2.6270   2.7643   2.8393   2.9031   3.2436   3.3195
     3.5820   3.7466   3.8295   3.8890   3.9679   4.0721   4.2353   4.3308
     4.6375   4.7153   5.0096   5.1625   5.4372   5.7601   6.0497   6.4617
     6.9498   7.1295   7.3007   7.6230

     occupation numbers 
     1.0000   1.0000   1.0000   1.0000   1.0000   1.0000   1.0000   1.0000
     1.0000   1.0000   1.0000   1.0000   1.0000   1.0000   1.0000   1.0000
     1.0000   1.0000   1.0000   1.0000   1.0000   1.0000   1.0000   1.0000
     1.0000   1.0000   1.0000   1.0000   1.0000   1.0000   1.0000   1.0000
     1.0000   1.0000   1.0000   1.0000

          k =-0.5000-0.0962 0.0538 (  3558 PWs)   bands (ev):

    -9.8052  -9.5465  -9.4209  -8.8484   1.7228   1.8012   2.1368   2.1821
     2.3555   2.4229   2.5998   2.7260   2.8377   2.9042   3.2601   3.3839
     3.5751   3.7402   3.8310   3.8834   3.9361   4.1142   4.2020   4.3557
     4.5682   4.7641   4.9673   5.2009   5.4262   5.7300   6.0935   6.4366
     7.0191   7.0687   7.4335   7.5014

     occupation numbers 
     1.0000   1.0000   1.0000   1.0000   1.0000   1.0000   1.0000   1.0000
     1.0000   1.0000   1.0000   1.0000   1.0000   1.0000   1.0000   1.0000
     1.0000   1.0000   1.0000   1.0000   1.0000   1.0000   1.0000   1.0000
     1.0000   1.0000   1.0000   1.0000   1.0000   1.0000   1.0000   1.0000
     1.0000   1.0000   1.0000   1.0000

          k = 0.3333-0.3849 0.0538 (  3558 PWs)   bands (ev):

    -9.7635  -9.5312  -9.4046  -8.8627   1.6346   1.7161   2.0890   2.2248
     2.5115   2.6114   2.7317   2.9351   3.0203   3.1222   3.1945   3.4067
     3.6190   3.7017   3.7369   3.8120   3.9425   4.0458   4.1480   4.2502
     4.4547   4.7433   4.8546   5.0816   5.2569   5.7488   6.0015   6.3492
     6.8784   7.0315   7.1753   7.6330

     occupation numbers 
     1.0000   1.0000   1.0000   1.0000   1.0000   1.0000   1.0000   1.0000
     1.0000   1.0000   1.0000   1.0000   1.0000   1.0000   1.0000   1.0000
     1.0000   1.0000   1.0000   1.0000   1.0000   1.0000   1.0000   1.0000
     1.0000   1.0000   1.0000   1.0000   1.0000   1.0000   1.0000   1.0000
     1.0000   1.0000   1.0000   1.0000

          k =-0.3333-0.3849-0.0538 (  3558 PWs)   bands (ev):

    -9.8159  -9.5407  -9.4148  -8.8407   1.7570   1.7982   2.1140   2.1867
     2.2863   2.4353   2.5624   2.6921   2.8786   2.9625   3.2495   3.4162
     3.6353   3.7349   3.8210   3.9280   4.0218   4.0649   4.2471   4.3764
     4.5319   4.6782   4.9663   5.1340   5.4070   5.7181   6.0761   6.4524
     6.9059   7.1390   7.3872   7.5642

     occupation numbers 
     1.0000   1.0000   1.0000   1.0000   1.0000   1.0000   1.0000   1.0000
     1.0000   1.0000   1.0000   1.0000   1.0000   1.0000   1.0000   1.0000
     1.0000   1.0000   1.0000   1.0000   1.0000   1.0000   1.0000   1.0000
     1.0000   1.0000   1.0000   1.0000   1.0000   1.0000   1.0000   1.0000
     1.0000   1.0000   1.0000   1.0000

          k = 0.5000-0.0962-0.0538 (  3558 PWs)   bands (ev):

    -9.7692  -9.5409  -9.4143  -8.8629   1.6404   1.7241   2.0967   2.3209
     2.4866   2.6309   2.6534   2.7958   2.8521   2.9622   3.1321   3.3793
     3.6115   3.7208   3.8081   3.8621   3.9366   4.0734   4.2373   4.3148
     4.5427   4.8220   4.9437   5.0285   5.3565   5.8685   5.9935   6.3043
     6.8273   7.0914   7.2317   7.6072

     occupation numbers 
     1.0000   1.0000   1.0000   1.0000   1.0000   1.0000   1.0000   1.0000
     1.0000   1.0000   1.0000   1.0000   1.0000   1.0000   1.0000   1.0000
     1.0000   1.0000   1.0000   1.0000   1.0000   1.0000   1.0000   1.0000
     1.0000   1.0000   1.0000   1.0000   1.0000   1.0000   1.0000   1.0000
     1.0000   1.0000   1.0000   1.0000

          k =-0.5000 0.0962-0.0538 (  3558 PWs)   bands (ev):

    -9.7690  -9.5416  -9.4138  -8.8629   1.6379   1.7236   2.1230   2.2943
     2.4878   2.6134   2.6547   2.7982   2.8518   2.9683   3.1810   3.3530
     3.5827   3.7536   3.7845   3.8382   3.9563   4.0942   4.2201   4.3113
     4.5247   4.8309   4.9485   5.0731   5.3810   5.7787   5.9840   6.3684
     6.9054   6.9664   7.1989   7.6717

     occupation numbers 
     1.0000   1.0000   1.0000   1.0000   1.0000   1.0000   1.0000   1.0000
     1.0000   1.0000   1.0000   1.0000   1.0000   1.0000   1.0000   1.0000
     1.0000   1.0000   1.0000   1.0000   1.0000   1.0000   1.0000   1.0000
     1.0000   1.0000   1.0000   1.0000   1.0000   1.0000   1.0000   1.0000
     1.0000   1.0000   1.0000   1.0000

          k = 0.3333 0.3849-0.0538 (  3558 PWs)   bands (ev):

    -9.8160  -9.5402  -9.4152  -8.8407   1.7444   1.8063   2.1365   2.1934
     2.2688   2.4417   2.5343   2.7028   2.8815   2.9199   3.3251   3.4170
     3.6209   3.7485   3.8260   3.9167   3.9767   4.1208   4.2286   4.3868
     4.4841   4.7044   4.8977   5.2016   5.4030   5.6884   6.0911   6.4476
     6.9389   7.2027   7.3538   7.5182

     occupation numbers 
     1.0000   1.0000   1.0000   1.0000   1.0000   1.0000   1.0000   1.0000
     1.0000   1.0000   1.0000   1.0000   1.0000   1.0000   1.0000   1.0000
     1.0000   1.0000   1.0000   1.0000   1.0000   1.0000   1.0000   1.0000
     1.0000   1.0000   1.0000   1.0000   1.0000   1.0000   1.0000   1.0000
     1.0000   1.0000   1.0000   1.0000

          k =-0.1667-0.4811 0.1075 (  3568 PWs)   bands (ev):

    -9.8032  -9.5226  -9.3941  -8.8406   1.6763   1.7766   2.0450   2.2806
     2.3630   2.5136   2.6960   2.7957   2.8893   2.9721   3.2473   3.4924
     3.6673   3.7562   3.8151   3.9069   3.9603   4.1258   4.2183   4.3617
     4.4571   4.6303   4.9011   5.1779   5.2719   5.7249   6.1294   6.4362
     6.6794   6.9843   7.2914   7.4422

     occupation numbers 
     1.0000   1.0000   1.0000   1.0000   1.0000   1.0000   1.0000   1.0000
     1.0000   1.0000   1.0000   1.0000   1.0000   1.0000   1.0000   1.0000
     1.0000   1.0000   1.0000   1.0000   1.0000   1.0000   1.0000   1.0000
     1.0000   1.0000   1.0000   1.0000   1.0000   1.0000   1.0000   1.0000
     1.0000   1.0000   1.0000   1.0000

          k =-0.1667 0.4811-0.1075 (  3568 PWs)   bands (ev):

    -9.7866  -9.5190  -9.3903  -8.8482   1.6735   1.7333   2.0290   2.2377
     2.4355   2.5777   2.7822   2.8635   3.0229   3.0993   3.3438   3.4602
     3.5822   3.7029   3.7413   3.8430   3.9281   4.0466   4.1756   4.2737
     4.4890   4.6000   4.9089   5.0694   5.3973   5.6871   5.9189   6.5203
     6.7010   7.0033   7.2332   7.4634

     occupation numbers 
     1.0000   1.0000   1.0000   1.0000   1.0000   1.0000   1.0000   1.0000
     1.0000   1.0000   1.0000   1.0000   1.0000   1.0000   1.0000   1.0000
     1.0000   1.0000   1.0000   1.0000   1.0000   1.0000   1.0000   1.0000
     1.0000   1.0000   1.0000   1.0000   1.0000   1.0000   1.0000   1.0000
     1.0000   1.0000   1.0000   1.0000

          k = 0.1667-0.4811-0.1075 (  3568 PWs)   bands (ev):

    -9.7866  -9.5191  -9.3902  -8.8482   1.6862   1.7173   2.0371   2.2422
     2.4464   2.5159   2.8336   2.8786   3.0159   3.1137   3.2637   3.4910
     3.6183   3.6860   3.7460   3.8242   3.9233   4.1003   4.1416   4.3157
     4.4512   4.5912   4.8915   5.1254   5.2826   5.7277   6.0655   6.3646
     6.7178   6.9964   7.2948   7.4394

     occupation numbers 
     1.0000   1.0000   1.0000   1.0000   1.0000   1.0000   1.0000   1.0000
     1.0000   1.0000   1.0000   1.0000   1.0000   1.0000   1.0000   1.0000
     1.0000   1.0000   1.0000   1.0000   1.0000   1.0000   1.0000   1.0000
     1.0000   1.0000   1.0000   1.0000   1.0000   1.0000   1.0000   1.0000
     1.0000   1.0000   1.0000   1.0000

          k =-0.3333 0.3849 0.1075 (  3568 PWs)   bands (ev):

    -9.7622  -9.5342  -9.4031  -8.8626   1.6484   1.7463   2.0563   2.2584
     2.5040   2.6024   2.7024   2.8977   2.9843   3.0864   3.2621   3.3736
     3.6271   3.6910   3.7378   3.8470   3.9350   4.0304   4.1595   4.3210
     4.4307   4.6826   4.9151   5.1055   5.3485   5.7151   5.9698   6.3749
     6.7160   7.0462   7.2559   7.6267

     occupation numbers 
     1.0000   1.0000   1.0000   1.0000   1.0000   1.0000   1.0000   1.0000
     1.0000   1.0000   1.0000   1.0000   1.0000   1.0000   1.0000   1.0000
     1.0000   1.0000   1.0000   1.0000   1.0000   1.0000   1.0000   1.0000
     1.0000   1.0000   1.0000   1.0000   1.0000   1.0000   1.0000   1.0000
     1.0000   1.0000   1.0000   1.0000

          k = 0.5000 0.0962 0.1075 (  3568 PWs)   bands (ev):

    -9.8036  -9.5510  -9.4181  -8.8483   1.7525   1.8216   2.1235   2.1637
     2.3518   2.4084   2.6155   2.7561   2.8040   2.9097   3.2121   3.2951
     3.6242   3.7453   3.8276   3.8892   3.9425   4.0828   4.2350   4.3583
     4.6080   4.7096   5.0353   5.2111   5.4627   5.8289   6.0218   6.6090
     6.6938   7.0530   7.3660   7.6551

     occupation numbers 
     1.0000   1.0000   1.0000   1.0000   1.0000   1.0000   1.0000   1.0000
     1.0000   1.0000   1.0000   1.0000   1.0000   1.0000   1.0000   1.0000
     1.0000   1.0000   1.0000   1.0000   1.0000   1.0000   1.0000   1.0000
     1.0000   1.0000   1.0000   1.0000   1.0000   1.0000   1.0000   1.0000
     1.0000   1.0000   1.0000   1.0000

          k =-0.5000-0.0962 0.1075 (  3568 PWs)   bands (ev):

    -9.8037  -9.5506  -9.4183  -8.8483   1.7419   1.8301   2.1396   2.1608
     2.3485   2.4382   2.5654   2.7156   2.8297   2.8994   3.2407   3.3342
     3.6262   3.7414   3.8307   3.8802   3.9183   4.1152   4.2074   4.3885
     4.5407   4.7457   5.0033   5.2480   5.4491   5.7752   6.0858   6.5292
     6.8101   7.0136   7.4616   7.5582

     occupation numbers 
     1.0000   1.0000   1.0000   1.0000   1.0000   1.0000   1.0000   1.0000
     1.0000   1.0000   1.0000   1.0000   1.0000   1.0000   1.0000   1.0000
     1.0000   1.0000   1.0000   1.0000   1.0000   1.0000   1.0000   1.0000
     1.0000   1.0000   1.0000   1.0000   1.0000   1.0000   1.0000   1.0000
     1.0000   1.0000   1.0000   1.0000

          k = 0.3333-0.3849 0.1075 (  3568 PWs)   bands (ev):

    -9.7622  -9.5342  -9.4030  -8.8626   1.6468   1.7495   2.0661   2.2363
     2.5001   2.5823   2.7118   2.9353   3.0138   3.0970   3.2042   3.3844
     3.6343   3.6959   3.7366   3.8295   3.9315   4.0574   4.1473   4.3044
     4.4353   4.6952   4.9009   5.1009   5.3043   5.7252   6.0412   6.3904
     6.6960   7.0948   7.1378   7.6729

     occupation numbers 
     1.0000   1.0000   1.0000   1.0000   1.0000   1.0000   1.0000   1.0000
     1.0000   1.0000   1.0000   1.0000   1.0000   1.0000   1.0000   1.0000
     1.0000   1.0000   1.0000   1.0000   1.0000   1.0000   1.0000   1.0000
     1.0000   1.0000   1.0000   1.0000   1.0000   1.0000   1.0000   1.0000
     1.0000   1.0000   1.0000   1.0000

          k =-0.3333-0.3849-0.1075 (  3568 PWs)   bands (ev):

    -9.8146  -9.5445  -9.4124  -8.8406   1.7734   1.8385   2.0961   2.1668
     2.2951   2.4341   2.5734   2.6552   2.8607   2.9442   3.2203   3.4100
     3.6711   3.7425   3.8204   3.9267   3.9777   4.1024   4.2402   4.3707
     4.5595   4.6425   4.9491   5.2090   5.4402   5.8295   6.0219   6.5262
     6.7246   7.0680   7.4265   7.6042

     occupation numbers 
     1.0000   1.0000   1.0000   1.0000   1.0000   1.0000   1.0000   1.0000
     1.0000   1.0000   1.0000   1.0000   1.0000   1.0000   1.0000   1.0000
     1.0000   1.0000   1.0000   1.0000   1.0000   1.0000   1.0000   1.0000
     1.0000   1.0000   1.0000   1.0000   1.0000   1.0000   1.0000   1.0000
     1.0000   1.0000   1.0000   1.0000

          k = 0.5000-0.0962-0.1075 (  3568 PWs)   bands (ev):

    -9.7678  -9.5444  -9.4125  -8.8627   1.6505   1.7603   2.0805   2.3110
     2.4913   2.5882   2.6361   2.7958   2.8745   2.9868   3.0848   3.3356
     3.6474   3.7109   3.8239   3.8852   3.8991   4.0840   4.2376   4.3527
     4.5098   4.7893   4.9860   5.1298   5.3198   5.7764   6.1179   6.3872
     6.6839   7.0334   7.2255   7.6568

     occupation numbers 
     1.0000   1.0000   1.0000   1.0000   1.0000   1.0000   1.0000   1.0000
     1.0000   1.0000   1.0000   1.0000   1.0000   1.0000   1.0000   1.0000
     1.0000   1.0000   1.0000   1.0000   1.0000   1.0000   1.0000   1.0000
     1.0000   1.0000   1.0000   1.0000   1.0000   1.0000   1.0000   1.0000
     1.0000   1.0000   1.0000   1.0000

          k =-0.5000 0.0962-0.1075 (  3568 PWs)   bands (ev):

    -9.7676  -9.5450  -9.4120  -8.8627   1.6484   1.7583   2.1092   2.2839
     2.4891   2.5744   2.6393   2.7917   2.8849   2.9749   3.1493   3.2987
     3.6218   3.7439   3.8072   3.8386   3.9389   4.1001   4.2263   4.3455
     4.4963   4.7985   4.9850   5.1709   5.3678   5.6865   6.0811   6.4911
     6.6823   6.9594   7.2037   7.7081

     occupation numbers 
     1.0000   1.0000   1.0000   1.0000   1.0000   1.0000   1.0000   1.0000
     1.0000   1.0000   1.0000   1.0000   1.0000   1.0000   1.0000   1.0000
     1.0000   1.0000   1.0000   1.0000   1.0000   1.0000   1.0000   1.0000
     1.0000   1.0000   1.0000   1.0000   1.0000   1.0000   1.0000   1.0000
     1.0000   1.0000   1.0000   1.0000

          k = 0.3333 0.3849-0.1075 (  3568 PWs)   bands (ev):

    -9.8148  -9.5440  -9.4128  -8.8406   1.7617   1.8444   2.1260   2.1645
     2.2814   2.4388   2.5329   2.6810   2.8454   2.9247   3.2781   3.4140
     3.6559   3.7713   3.8203   3.9134   3.9492   4.1445   4.2179   4.3804
     4.5026   4.6777   4.9029   5.2602   5.4261   5.8054   6.0212   6.5399
     6.7639   7.0840   7.4311   7.5594

     occupation numbers 
     1.0000   1.0000   1.0000   1.0000   1.0000   1.0000   1.0000   1.0000
     1.0000   1.0000   1.0000   1.0000   1.0000   1.0000   1.0000   1.0000
     1.0000   1.0000   1.0000   1.0000   1.0000   1.0000   1.0000   1.0000
     1.0000   1.0000   1.0000   1.0000   1.0000   1.0000   1.0000   1.0000
     1.0000   1.0000   1.0000   1.0000

          k =-0.1667 0.4811 0.1613 (  3554 PWs)   bands (ev):

    -9.7861  -9.5205  -9.3893  -8.8481   1.6877   1.7429   2.0217   2.2486
     2.4505   2.4979   2.8086   2.8684   3.0197   3.1078   3.2884   3.4719
     3.6046   3.7067   3.7424   3.8273   3.9170   4.0844   4.1535   4.3432
     4.4835   4.5446   4.9267   5.0816   5.4011   5.6390   6.0736   6.3989
     6.6827   6.9715   7.3072   7.4407

     occupation numbers 
     1.0000   1.0000   1.0000   1.0000   1.0000   1.0000   1.0000   1.0000
     1.0000   1.0000   1.0000   1.0000   1.0000   1.0000   1.0000   1.0000
     1.0000   1.0000   1.0000   1.0000   1.0000   1.0000   1.0000   1.0000
     1.0000   1.0000   1.0000   1.0000   1.0000   1.0000   1.0000   1.0000
     1.0000   1.0000   1.0000   1.0000

          k =-0.3333 0.3849-0.1613 (  3554 PWs)   bands (ev):

    -9.7615  -9.5357  -9.4023  -8.8625   1.6540   1.7672   2.0474   2.2555
     2.4925   2.5748   2.6991   2.9199   2.9913   3.0815   3.2456   3.3647
     3.6424   3.6890   3.7361   3.8429   3.9245   4.0570   4.1481   4.3567
     4.4083   4.6706   4.9256   5.1059   5.3699   5.6643   6.1831   6.2363
     6.6721   7.0595   7.2080   7.6655

     occupation numbers 
     1.0000   1.0000   1.0000   1.0000   1.0000   1.0000   1.0000   1.0000
     1.0000   1.0000   1.0000   1.0000   1.0000   1.0000   1.0000   1.0000
     1.0000   1.0000   1.0000   1.0000   1.0000   1.0000   1.0000   1.0000
     1.0000   1.0000   1.0000   1.0000   1.0000   1.0000   1.0000   1.0000
     1.0000   1.0000   1.0000   1.0000

          k = 0.5000 0.0962-0.1613 (  3554 PWs)   bands (ev):

    -9.8029  -9.5528  -9.4170  -8.8482   1.7572   1.8424   2.1273   2.1549
     2.3485   2.4269   2.5769   2.7246   2.8103   2.9086   3.2161   3.2979
     3.6566   3.7304   3.8293   3.8860   3.9204   4.1014   4.2224   4.3874
     4.5609   4.7233   5.0330   5.2451   5.4921   5.7484   6.2353   6.4185
     6.7398   6.9921   7.4371   7.6198

     occupation numbers 
     1.0000   1.0000   1.0000   1.0000   1.0000   1.0000   1.0000   1.0000
     1.0000   1.0000   1.0000   1.0000   1.0000   1.0000   1.0000   1.0000
     1.0000   1.0000   1.0000   1.0000   1.0000   1.0000   1.0000   1.0000
     1.0000   1.0000   1.0000   1.0000   1.0000   1.0000   1.0000   1.0000
     1.0000   1.0000   1.0000   1.0000

          k =-0.3333-0.3849 0.1613 (  3554 PWs)   bands (ev):

    -9.8140  -9.5461  -9.4115  -8.8406   1.7768   1.8643   2.0974   2.1567
     2.2939   2.4377   2.5493   2.6544   2.8386   2.9338   3.2337   3.4100
     3.6866   3.7521   3.8228   3.9209   3.9484   4.1334   4.2268   4.3712
     4.5462   4.6423   4.9261   5.2558   5.4653   5.7923   6.1900   6.3708
     6.7420   7.0305   7.4693   7.5792

     occupation numbers 
     1.0000   1.0000   1.0000   1.0000   1.0000   1.0000   1.0000   1.0000
     1.0000   1.0000   1.0000   1.0000   1.0000   1.0000   1.0000   1.0000
     1.0000   1.0000   1.0000   1.0000   1.0000   1.0000   1.0000   1.0000
     1.0000   1.0000   1.0000   1.0000   1.0000   1.0000   1.0000   1.0000
     1.0000   1.0000   1.0000   1.0000

          k = 0.5000-0.0962 0.1613 (  3554 PWs)   bands (ev):

    -9.7669  -9.5464  -9.4114  -8.8626   1.6550   1.7797   2.0830   2.2934
     2.4978   2.5525   2.6345   2.7928   2.8917   2.9888   3.0942   3.2986
     3.6670   3.7072   3.8223   3.8586   3.9164   4.0977   4.2306   4.3740
     4.4836   4.7813   5.0028   5.2179   5.3126   5.6769   6.2761   6.3702
     6.5947   6.9837   7.2215   7.6963

     occupation numbers 
     1.0000   1.0000   1.0000   1.0000   1.0000   1.0000   1.0000   1.0000
     1.0000   1.0000   1.0000   1.0000   1.0000   1.0000   1.0000   1.0000
     1.0000   1.0000   1.0000   1.0000   1.0000   1.0000   1.0000   1.0000
     1.0000   1.0000   1.0000   1.0000   1.0000   1.0000   1.0000   1.0000
     1.0000   1.0000   1.0000   1.0000

          k =-0.3333-0.5774 0.0538 (  3561 PWs)   bands (ev):

    -9.6752  -9.5050  -9.3472  -8.8045   1.9128   1.9534   2.2221   2.3587
     2.4187   2.5769   2.7223   2.8669   3.0286   3.1147   3.3331   3.4214
     3.6228   3.6421   3.7042   3.7869   4.0374   4.0863   4.2621   4.3335
     4.4412   4.5739   4.7558   4.8602   5.0071   5.1530   5.6645   6.2877
     6.4671   6.6598   7.2133   7.3836

     occupation numbers 
     1.0000   1.0000   1.0000   1.0000   1.0000   1.0000   1.0000   1.0000
     1.0000   1.0000   1.0000   1.0000   1.0000   1.0000   1.0000   1.0000
     1.0000   1.0000   1.0000   1.0000   1.0000   1.0000   1.0000   1.0000
     1.0000   1.0000   1.0000   1.0000   1.0000   1.0000   1.0000   1.0000
     1.0000   1.0000   1.0000   1.0000

          k =-0.3333-0.5774 0.1075 (  3570 PWs)   bands (ev):

    -9.6752  -9.5048  -9.3475  -8.8046   1.9354   1.9804   2.2504   2.3466
     2.4158   2.5393   2.7189   2.8338   3.0068   3.1097   3.2790   3.3872
     3.6128   3.6526   3.7361   3.8361   4.0603   4.1198   4.2610   4.3632
     4.4475   4.5907   4.7535   4.8308   4.9929   5.0004   5.8278   6.3034
     6.5304   6.7854   7.0600   7.2873

     occupation numbers 
     1.0000   1.0000   1.0000   1.0000   1.0000   1.0000   1.0000   1.0000
     1.0000   1.0000   1.0000   1.0000   1.0000   1.0000   1.0000   1.0000
     1.0000   1.0000   1.0000   1.0000   1.0000   1.0000   1.0000   1.0000
     1.0000   1.0000   1.0000   1.0000   1.0000   1.0000   1.0000   1.0000
     1.0000   1.0000   1.0000   1.0000

     highest occupied level (ev):     8.6330

!    total energy              =    -723.17655945 Ry
     estimated scf accuracy    <          6.5E-09 Ry

     The total energy is the sum of the following terms:
     one-electron contribution =    -289.65292654 Ry
     hartree contribution      =     230.31486983 Ry
     xc contribution           =    -219.56134658 Ry
     ewald contribution        =    -444.27715616 Ry

     convergence has been achieved in  18 iterations

     Forces acting on atoms (cartesian axes, Ry/au):

     atom    1 type  1   force =     0.04195168    0.01342987   -0.00702891
     atom    2 type  1   force =     0.02237216   -0.05619575   -0.03157750
     atom    3 type  2   force =     0.08816854   -0.04310217   -0.03202860
     atom    4 type  2   force =    -0.03853246   -0.01556671    0.04828706
     atom    5 type  1   force =     0.01863216    0.06392682    0.05485304
     atom    6 type  1   force =    -0.08521659    0.03954650   -0.00049985
     atom    7 type  2   force =    -0.03081112    0.05815191   -0.06794188
     atom    8 type  2   force =    -0.01656437   -0.06019047    0.03593664
     The non-local contrib.  to forces
     atom    1 type  1   force =     0.15229679    0.04004466    0.02581917
     atom    2 type  1   force =     0.10516309   -0.16735924   -0.08544356
     atom    3 type  2   force =    -0.17291898   -0.00376294   -0.17709781
     atom    4 type  2   force =     0.13945503    0.07670469    0.07705042
     atom    5 type  1   force =     0.04280213    0.19410253    0.09176997
     atom    6 type  1   force =    -0.20703640    0.11079449   -0.15952012
     atom    7 type  2   force =     0.04720035   -0.12264722   -0.02474116
     atom    8 type  2   force =     0.11116371    0.15721294    0.04584851
     The ionic contribution  to forces
     atom    1 type  1   force =     1.24459110    0.30126517   -2.04815743
     atom    2 type  1   force =     0.66958529   -1.38176585   -5.35466437
     atom    3 type  2   force =     2.02793753   -0.36903339    0.70766041
     atom    4 type  2   force =    -1.17946178   -0.64617395   -0.28103987
     atom    5 type  1   force =     0.32833816    1.54843870    6.11839642
     atom    6 type  1   force =    -1.71677357    0.70834255    0.48342239
     atom    7 type  2   force =    -0.47301184    1.42111425   -2.94109117
     atom    8 type  2   force =    -0.90120488   -1.58218749    3.31547363
     The local contribution  to forces
     atom    1 type  1   force =    -1.34089694   -0.32370958    2.01456536
     atom    2 type  1   force =    -0.74281948    1.47714565    5.39836802
     atom    3 type  2   force =    -1.76787052    0.32942404   -0.56430636
     atom    4 type  2   force =     1.00250289    0.55449378    0.25328662
     atom    5 type  1   force =    -0.34770564   -1.66106898   -6.14297473
     atom    6 type  1   force =     1.81793633   -0.76966857   -0.33521804
     atom    7 type  2   force =     0.39527504   -1.24106262    2.89719012
     atom    8 type  2   force =     0.77434913    1.36581814   -3.32453229
     The core correction contribution to forces
     atom    1 type  1   force =    -0.01404709   -0.00417195    0.00061482
     atom    2 type  1   force =    -0.00956957    0.01580569    0.01016302
     atom    3 type  2   force =     0.00102389    0.00027082    0.00173606
     atom    4 type  2   force =    -0.00102773   -0.00059078   -0.00109387
     atom    5 type  1   force =    -0.00480547   -0.01755975   -0.01227607
     atom    6 type  1   force =     0.02066694   -0.00992783    0.01087942
     atom    7 type  2   force =    -0.00027216    0.00074715    0.00071786
     atom    8 type  2   force =    -0.00087191   -0.00103526   -0.00082559
     The Hubbard contrib.    to forces
     atom    1 type  1   force =     0.00000000    0.00000000    0.00000000
     atom    2 type  1   force =     0.00000000    0.00000000    0.00000000
     atom    3 type  2   force =     0.00000000    0.00000000    0.00000000
     atom    4 type  2   force =     0.00000000    0.00000000    0.00000000
     atom    5 type  1   force =     0.00000000    0.00000000    0.00000000
     atom    6 type  1   force =     0.00000000    0.00000000    0.00000000
     atom    7 type  2   force =     0.00000000    0.00000000    0.00000000
     atom    8 type  2   force =     0.00000000    0.00000000    0.00000000
     The SCF correction term to forces
     atom    1 type  1   force =     0.00000880    0.00000197    0.00012726
     atom    2 type  1   force =     0.00001383   -0.00002161   -0.00000250
     atom    3 type  2   force =    -0.00000239   -0.00000030   -0.00002279
     atom    4 type  2   force =     0.00000011   -0.00000005    0.00008186
     atom    5 type  1   force =     0.00000396    0.00001471   -0.00006444
     atom    6 type  1   force =    -0.00000890    0.00000626   -0.00006541
     atom    7 type  2   force =    -0.00000151    0.00000074   -0.00001943
     atom    8 type  2   force =     0.00000057    0.00000159   -0.00002952

     Total force =     0.227521     Total SCF correction =     0.000185

     init_run     :      3.72s CPU      3.89s WALL (       1 calls)
     electrons    :    157.49s CPU    165.05s WALL (       1 calls)
     forces       :      0.94s CPU      0.96s WALL (       1 calls)

     Called by init_run:
     wfcinit      :      2.28s CPU      2.40s WALL (       1 calls)
     wfcinit:atom :      0.03s CPU      0.03s WALL (      28 calls)
     wfcinit:wfcr :      2.08s CPU      2.20s WALL (      28 calls)
     potinit      :      0.54s CPU      0.55s WALL (       1 calls)
     hinit0       :      0.83s CPU      0.85s WALL (       1 calls)

     Called by electrons:
     c_bands      :    142.98s CPU    149.59s WALL (      18 calls)
     sum_band     :     12.72s CPU     13.57s WALL (      18 calls)
     v_of_rho     :      0.90s CPU      0.96s WALL (      19 calls)
     v_h          :      0.05s CPU      0.06s WALL (      19 calls)
     v_xc         :      0.89s CPU      0.95s WALL (      20 calls)
     newd         :      0.75s CPU      0.78s WALL (      19 calls)
     mix_rho      :      0.12s CPU      0.14s WALL (      18 calls)

     Called by c_bands:
     init_us_2    :      0.97s CPU      0.99s WALL (    1064 calls)
     init_us_2:cp :      0.97s CPU      0.99s WALL (    1064 calls)
     cegterg      :    127.99s CPU    134.57s WALL (     504 calls)

     Called by sum_band:
     sum_band:wei :      0.00s CPU      0.00s WALL (      18 calls)
     sum_band:loo :     11.72s CPU     12.50s WALL (      18 calls)
     sum_band:buf :      0.08s CPU      0.09s WALL (     504 calls)
     sum_band:ini :      0.44s CPU      0.45s WALL (     504 calls)
     sum_band:cal :      1.24s CPU      1.28s WALL (     504 calls)
     sum_band:bec :      0.04s CPU      0.04s WALL (     504 calls)
     addusdens    :      0.82s CPU      0.86s WALL (      18 calls)
                                        0.00s GPU  (      18 calls)
     addusd:skk   :      0.01s CPU      0.01s WALL (      36 calls)
                                        0.00s GPU  (      36 calls)

     Called by *egterg:
     cdiaghg      :     12.52s CPU     12.55s WALL (    3326 calls)
     cegterg:over :      5.67s CPU      5.88s WALL (    2822 calls)
     cegterg:upda :      3.63s CPU      3.64s WALL (    2822 calls)
     cegterg:last :      8.51s CPU      8.53s WALL (    2009 calls)
     h_psi        :     91.17s CPU     97.55s WALL (    3354 calls)
     s_psi        :      5.98s CPU      6.00s WALL (    3354 calls)
     g_psi        :      0.55s CPU      0.56s WALL (    2822 calls)

     Called by h_psi:
     h_psi:calbec :      5.66s CPU      5.94s WALL (    3354 calls)
     vloc_psi     :     79.12s CPU     85.19s WALL (    3354 calls)
     add_vuspsi   :      6.09s CPU      6.12s WALL (    3354 calls)

     General routines
     calbec       :      7.16s CPU      7.48s WALL (    3970 calls)
     fft          :      0.76s CPU      0.83s WALL (     256 calls)
     ffts         :      0.14s CPU      0.15s WALL (      37 calls)
     fftw         :     78.79s CPU     85.02s WALL (  168890 calls)
     interpolate  :      0.16s CPU      0.17s WALL (      19 calls)

     Parallel routines

     PWSCF        :   2m42.48s CPU   2m50.24s WALL


   This run was terminated on:  16:39: 8  23Sep2025            

=------------------------------------------------------------------------------=
   JOB DONE.
=------------------------------------------------------------------------------=
Note: The following floating-point exceptions are signalling: IEEE_INVALID_FLAG
Note: The following floating-point exceptions are signalling: IEEE_INVALID_FLAG
Note: The following floating-point exceptions are signalling: IEEE_INVALID_FLAG
Note: The following floating-point exceptions are signalling: IEEE_INVALID_FLAG
